384 

Si    0.67887   0.67887   0.67888   0.000003780274591   0.000003779926253  -0.000004943602719
Si    3.39438   0.67887   3.39437  -0.000002076837516  -0.000005614799648   0.000007892155842
Si    0.67887   3.39437   3.39437  -0.000005614733446  -0.000002077296771   0.000007891972122
Si    3.39438   3.39437   0.67888   0.000002232526964   0.000002232248290  -0.000005445938497
Si    4.75212   2.03662   2.03662  -0.000000011377285   0.000000377703296  -0.000000871231814
Si    4.75212   4.75212   4.75213  -0.000002021443340  -0.000002022037657  -0.000003168503822
Si    2.03662   2.03662   4.75213  -0.000002167316657  -0.000002167811910  -0.000003637166647
Si    2.03662   4.75212   2.03662   0.000000378037754  -0.000000011730693  -0.000000871407940
Si    0.67887   0.67887   6.10987  -0.000004898777641  -0.000004899047766   0.000000333504047
Si    3.39438   0.67887   8.82537  -0.000002758974843  -0.000005114908081  -0.000009135237914
Si    0.67887   3.39437   8.82537  -0.000005114728025  -0.000002759423184  -0.000009135315753
Si    3.39438   3.39437   6.10987  -0.000004153007640  -0.000004153612941   0.000000193881820
Si    4.75212   2.03662   7.46762   0.000001267796971  -0.000000900186595   0.000001364056650
Si    4.75212   4.75212  10.18313  -0.000000895564795  -0.000000896083034   0.000001255043993
Si    2.03662   2.03662  10.18313   0.000000066995545   0.000000066529420   0.000000225511937
Si    2.03662   4.75212   7.46762  -0.000000899887569   0.000001267357971   0.000001364088572
Si    0.67887   0.67887  11.54087   0.000003757747097   0.000003757481663   0.000005236535346
Si    3.39438   0.67887  14.25638  -0.000000392605586   0.000007079016533  -0.000000029605221
Si    0.67887   3.39437  14.25638   0.000007079264915  -0.000000392851963  -0.000000029512087
Si    3.39438   3.39437  11.54087   0.000002718866290   0.000002718386484   0.000005988149650
Si    4.75212   2.03662  12.89862   0.000000209815545  -0.000000118283937  -0.000000884189941
Si    4.75212   4.75212  15.61413  -0.000001375723483  -0.000001376078973   0.000004813713258
Si    2.03662   2.03662  15.61413   0.000000043735410   0.000000043534290   0.000002438852097
Si    2.03662   4.75212  12.89862  -0.000000118003824   0.000000209581273  -0.000000884108937
Si    0.67887   6.10987   0.67888   0.000003189575805   0.000001620069177   0.000002412751037
Si    3.39438   6.10987   3.39437   0.000005636037624  -0.000005763817295   0.000003492358559
Si    0.67887   8.82537   3.39437   0.000002211727051   0.000001327436086  -0.000002616101278
Si    3.39438   8.82537   0.67888  -0.000001990755242  -0.000003965518173  -0.000004818411216
Si    4.75212   7.46762   2.03662   0.000002006457732   0.000002568523825   0.000000595714571
Si    4.75212  10.18313   4.75213  -0.000002105508006  -0.000001001246831  -0.000003115643556
Si    2.03662   7.46762   4.75213   0.000003415411873  -0.000000697055980  -0.000006810268491
Si    2.03662  10.18313   2.03662   0.000002104176883   0.000001262521387  -0.000000436807803
Si    0.67887   6.10987   6.10987  -0.000001361024206  -0.000001036743388  -0.000000510799289
Si    3.39438   6.10987   8.82537   0.000007204142189  -0.000005288694984  -0.000002219554889
Si    0.67887   8.82537   8.82537  -0.000000023253880   0.000001437814185   0.000002426287729
Si    3.39438   8.82537   6.10987   0.000000596908149   0.000004613405651  -0.000000323214297
Si    4.75212   7.46762   7.46762   0.000001037134184   0.000001966038252  -0.000002559687636
Si    4.75212  10.18313  10.18313   0.000001848584437   0.000002671508537   0.000000921052093
Si    2.03662   7.46762  10.18313  -0.000002055208340   0.000006387209606  -0.000000249877571
Si    2.03662  10.18313   7.46762  -0.000001910691627   0.000002696326990   0.000001633625095
Si    0.67887   6.10987  11.54087   0.000000087674767   0.000003407894851  -0.000000425755787
Si    3.39438   6.10987  14.25638  -0.000002940576825   0.000002001021520   0.000001110949036
Si    0.67887   8.82537  14.25638   0.000000138386973   0.000001469773756   0.000001037319747
Si    3.39438   8.82537  11.54087   0.000000147687626  -0.000003444830687   0.000003858890788
Si    4.75212   7.46762  12.89862   0.000001130773270  -0.000000432489535   0.000001687494844
Si    4.75212  10.18313  15.61413  -0.000002349697787  -0.000000184992643   0.000002208857487
Si    2.03662   7.46762  15.61413   0.000001688061528  -0.000001468050901   0.000006324320859
Si    2.03662  10.18313  12.89862  -0.000000043519042   0.000003473900352   0.000000471468992
Si    0.67887  11.54087   0.67888  -0.000006919025101   0.000006111998669  -0.000003361660947
Si    3.39438  11.54087   3.39437   0.000005332138711  -0.000002288897237  -0.000003078765275
Si    0.67887  14.25638   3.39437  -0.000002155457506   0.000000711656357   0.000005543667855
Si    3.39438  14.25638   0.67888  -0.000000330037877   0.000000518285225  -0.000002631889418
Si    4.75212  12.89862   2.03662  -0.000000234623207   0.000001157556964   0.000000300786158
Si    4.75212  15.61413   4.75213  -0.000001424562539   0.000000812676725  -0.000003373880674
Si    2.03662  12.89862   4.75213  -0.000005669231779  -0.000000563778751   0.000000868886515
Si    2.03662  15.61413   2.03662   0.000001509805605  -0.000003982556578  -0.000000589054728
Si    0.67887  11.54087   6.10987   0.000001991098486  -0.000003518130734   0.000000137439478
Si    3.39438  11.54087   8.82537   0.000005881724148  -0.000001779454690   0.000002226093046
Si    0.67887  14.25638   8.82537  -0.000003222387809   0.000001260929393  -0.000005794454323
Si    3.39438  14.25638   6.10987   0.000007351945501   0.000005928831367  -0.000000202168967
Si    4.75212  12.89862   7.46762  -0.000006277788698  -0.000002011753516  -0.000002876158911
Si    4.75212  15.61413  10.18313   0.000007655929279  -0.000001764496504   0.000000133473014
Si    2.03662  12.89862  10.18313  -0.000004024041401   0.000005474520661   0.000000748660361
Si    2.03662  15.61413   7.46762  -0.000002784771871  -0.000002365489802  -0.000000309498341
Si    0.67887  11.54087  11.54087  -0.000006353318918   0.000002713084650   0.000004752746581
Si    3.39438  11.54087  14.25638   0.000003808654956  -0.000003175542129  -0.000001515825093
Si    0.67887  14.25638  14.25638   0.000003955829160  -0.000004248519984   0.000000324362240
Si    3.39438  14.25638  11.54087  -0.000000236181372   0.000000430360014   0.000003145014973
Si    4.75212  12.89862  12.89862  -0.000004182972880  -0.000000590873933   0.000000849734253
Si    4.75212  15.61413  15.61413   0.000000379143989  -0.000001195575647   0.000005218636385
Si    2.03662  12.89862  15.61413  -0.000007775250784   0.000000262290775  -0.000000071819520
Si    2.03662  15.61413  12.89862  -0.000002713265639  -0.000002727764742  -0.000000527366106
Si    0.67887  16.97188   0.67888  -0.000000758229223   0.000002485783227  -0.000004554483499
Si    3.39438  16.97188   3.39437   0.000002559599108   0.000002276671575   0.000002444272178
Si    0.67887  19.68738   3.39437   0.000003155120681   0.000002868481606   0.000001081570395
Si    3.39438  19.68738   0.67888  -0.000007102179612  -0.000005992079255  -0.000001180949798
Si    4.75212  18.32963   2.03662  -0.000000875197691  -0.000000749760968  -0.000000968266269
Si    4.75212  21.04512   4.75213  -0.000001915186589   0.000000427163002  -0.000003552726333
Si    2.03662  18.32963   4.75213   0.000004586680558   0.000007183842215  -0.000003018330264
Si    2.03662  21.04512   2.03662   0.000002171759272   0.000000878535878   0.000000233840117
Si    0.67887  16.97188   6.10987  -0.000003479902412  -0.000010277256031   0.000000545005796
Si    3.39438  16.97188   8.82537   0.000002905057215   0.000002560039943  -0.000002081355119
Si    0.67887  19.68738   8.82537   0.000004852056169   0.000001222958717  -0.000001542160037
Si    3.39438  19.68738   6.10987   0.000002046529948  -0.000001075675385  -0.000000627855243
Si    4.75212  18.32963   7.46762  -0.000002560103851  -0.000002904942300   0.000002081495746
Si    4.75212  21.04512  10.18313   0.000010277326189   0.000003480260685  -0.000000544902714
Si    2.03662  18.32963  10.18313   0.000001075805731  -0.000002046539623   0.000000627932802
Si    2.03662  21.04512   7.46762  -0.000001222860204  -0.000004851927777   0.000001542167646
Si    0.67887  16.97188  11.54087  -0.000000426800068   0.000001915092725   0.000003552753120
Si    3.39438  16.97188  14.25638   0.000000749728108   0.000000875072336   0.000000968139020
Si    0.67887  19.68738  14.25638  -0.000000878308769  -0.000002171660185  -0.000000233878203
Si    3.39438  19.68738  11.54087  -0.000007183769485  -0.000004586407199   0.000003018487755
Si    4.75212  18.32963  12.89862  -0.000002276714076  -0.000002559528869  -0.000002444375973
Si    4.75212  21.04512  15.61413  -0.000002485966757   0.000000758326147   0.000004554205759
Si    2.03662  18.32963  15.61413   0.000005992039337   0.000007102221559   0.000001180816770
Si    2.03662  21.04512  12.89862  -0.000002868283296  -0.000003154978702  -0.000001081673507
Si    6.10987   0.67887   0.67888   0.000001619912755   0.000003189658235   0.000002412951194
Si    8.82537   0.67887   3.39437   0.000001327012854   0.000002211926161  -0.000002615778783
Si    6.10987   3.39437   3.39437  -0.000005763652312   0.000005635670001   0.000003492601664
Si    8.82537   3.39437   0.67888  -0.000003965525699  -0.000001990843610  -0.000004818324158
Si   10.18313   2.03662   2.03662   0.000001262313220   0.000002104434872  -0.000000436750889
Si   10.18313   4.75212   4.75213  -0.000001001325779  -0.000002105624480  -0.000003115646836
Si    7.46762   2.03662   4.75213  -0.000000697245843   0.000003415248478  -0.000006810057065
Si    7.46762   4.75212   2.03662   0.000002568603061   0.000002006294971   0.000000595817887
Si    6.10987   0.67887   6.10987  -0.000001036606956  -0.000001360858560  -0.000000510890592
Si    8.82537   0.67887   8.82537   0.000001437584197  -0.000000023350406   0.000002426133296
Si    6.10987   3.39437   8.82537  -0.000005288558308   0.000007203751919  -0.000002219587127
Si    8.82537   3.39437   6.10987   0.000004613098246   0.000000596719399  -0.000000323196805
Si   10.18313   2.03662   7.46762   0.000002696048312  -0.000001910783857   0.000001633502677
Si   10.18313   4.75212  10.18313   0.000002671234935   0.000001848477970   0.000000921062317
Si    7.46762   2.03662  10.18313   0.000006387107410  -0.000002055306302  -0.000000249948585
Si    7.46762   4.75212   7.46762   0.000001966145310   0.000001036743575  -0.000002559818422
Si    6.10987   0.67887  11.54087   0.000003407856068   0.000000087661954  -0.000000425855120
Si    8.82537   0.67887  14.25638   0.000001469375619   0.000000138638554   0.000001037260477
Si    6.10987   3.39437  14.25638   0.000002001133815  -0.000002940861732   0.000001111025243
Si    8.82537   3.39437  11.54087  -0.000003444963759   0.000000147722285   0.000003858809133
Si   10.18313   2.03662  12.89862   0.000003473343097  -0.000000043309602   0.000000471285243
Si   10.18313   4.75212  15.61413  -0.000000185033623  -0.000002349673209   0.000002208853515
Si    7.46762   2.03662  15.61413  -0.000001468224444   0.000001688084131   0.000006324213914
Si    7.46762   4.75212  12.89862  -0.000000432235412   0.000001130600586   0.000001687326921
Si    6.10987   6.10987   0.67888   0.000003857240528   0.000003856978142  -0.000000005835520
Si    8.82537   6.10987   3.39437   0.000008578567936   0.000001191292758  -0.000000040168901
Si    6.10987   8.82537   3.39437   0.000001191587426   0.000008578478241  -0.000000040207092
Si    8.82537   8.82537   0.67888   0.000004665305049   0.000004665231909  -0.000003516668879
Si   10.18313   7.46762   2.03662  -0.000007110871470  -0.000002473127910  -0.000000440816354
Si   10.18313  10.18313   4.75213  -0.000001483650629  -0.000001483689185   0.000001029564654
Si    7.46762   7.46762   4.75213  -0.000003672502954  -0.000003672752407   0.000006753030049
Si    7.46762  10.18313   2.03662  -0.000002472956851  -0.000007111017162  -0.000000440882631
Si    6.10987   6.10987   6.10987  -0.000004832445186  -0.000004832937942   0.000001363629690
Si    8.82537   6.10987   8.82537   0.000007650891866  -0.000000066366306   0.000000790656560
Si    6.10987   8.82537   8.82537  -0.000000066066731   0.000007650854020   0.000000790652009
Si    8.82537   8.82537   6.10987   0.000001977226912   0.000001977085321   0.000000890582513
Si   10.18313   7.46762   7.46762   0.000001813871143   0.000006325605007   0.000005756450900
Si   10.18313  10.18313  10.18313  -0.000001979651494  -0.000001979762355  -0.000001682418738
Si    7.46762   7.46762  10.18313  -0.000005643948447  -0.000005644164557   0.000000362138923
Si    7.46762  10.18313   7.46762   0.000006325868679   0.000001813802439   0.000005756575264
Si    6.10987   6.10987  11.54087   0.000002339442258   0.000002339070166  -0.000002180241655
Si    8.82537   6.10987  14.25638  -0.000005182351701   0.000001549224542  -0.000000901790977
Si    6.10987   8.82537  14.25638   0.000001549411648  -0.000005182411953  -0.000000901662370
Si    8.82537   8.82537  11.54087   0.000004016875060   0.000004016689289   0.000003474690225
Si   10.18313   7.46762  12.89862   0.000000633421119   0.000007340878561  -0.000004960605099
Si   10.18313  10.18313  15.61413  -0.000000710843673  -0.000000711013945  -0.000001295534772
Si    7.46762   7.46762  15.61413  -0.000003715575154  -0.000003715734127  -0.000006872503433
Si    7.46762  10.18313  12.89862   0.000007341084724   0.000000633347820  -0.000004960489709
Si    6.10987  11.54087   0.67888  -0.000005767229854   0.000005756898131  -0.000003143785776
Si    8.82537  11.54087   3.39437   0.000001981526016   0.000001509656123   0.000000920636016
Si    6.10987  14.25638   3.39437  -0.000002675909768  -0.000001432410298   0.000005881240314
Si    8.82537  14.25638   0.67888  -0.000000871250695  -0.000001692893195  -0.000002179446618
Si   10.18313  12.89862   2.03662   0.000000763886644  -0.000002179007644  -0.000000870415386
Si   10.18313  15.61413   4.75213  -0.000008467843976   0.000003922913161  -0.000003034516736
Si    7.46762  12.89862   4.75213   0.000001605827112   0.000000755962100  -0.000001765063478
Si    7.46762  15.61413   2.03662  -0.000005440016642  -0.000001761480598  -0.000000042083905
Si    6.10987  11.54087   6.10987   0.000002271461679  -0.000003799988002  -0.000001303072099
Si    8.82537  11.54087   8.82537   0.000001406924700   0.000002892188137  -0.000001136469887
Si    6.10987  14.25638   8.82537  -0.000002345565574  -0.000002605921808  -0.000006273315092
Si    8.82537  14.25638   6.10987   0.000001042052004   0.000002757405895  -0.000000665126136
Si   10.18313  12.89862   7.46762  -0.000002892069785  -0.000001406700756   0.000001136499606
Si   10.18313  15.61413  10.18313   0.000003800321448  -0.000002271593384   0.000001303047636
Si    7.46762  12.89862  10.18313  -0.000002757509715  -0.000001041889370   0.000000665297628
Si    7.46762  15.61413   7.46762   0.000002605914455   0.000002345408997   0.000006273417151
Si    6.10987  11.54087  11.54087  -0.000003923062531   0.000008468219036   0.000003034668155
Si    8.82537  11.54087  14.25638   0.000002178978347  -0.000000763647382   0.000000870476722
Si    6.10987  14.25638  14.25638   0.000001761245335   0.000005439852695   0.000000042098267
Si    8.82537  14.25638  11.54087  -0.000000755948341  -0.000001605956374   0.000001765128861
Si   10.18313  12.89862  12.89862  -0.000001509531886  -0.000001981325772  -0.000000920816954
Si   10.18313  15.61413  15.61413  -0.000005756595655   0.000005767230182   0.000003143651232
Si    7.46762  12.89862  15.61413   0.000001692609916   0.000000871197864   0.000002179520173
Si    7.46762  15.61413  12.89862   0.000001432355251   0.000002675887284  -0.000005881360205
Si    6.10987  16.97188   0.67888   0.000001195320507  -0.000000379278406  -0.000005218722563
Si    8.82537  16.97188   3.39437   0.000000590903575   0.000004183021888  -0.000000849726797
Si    6.10987  19.68738   3.39437   0.000002727770822   0.000002713524999   0.000000527311652
Si    8.82537  19.68738   0.67888  -0.000000262174497   0.000007775164787   0.000000071777937
Si   10.18313  18.32963   2.03662   0.000003175592396  -0.000003808623768   0.000001515772435
Si   10.18313  21.04512   4.75213  -0.000002713080359   0.000006353521588  -0.000004752468307
Si    7.46762  18.32963   4.75213  -0.000000430272125   0.000000236161879  -0.000003145061033
Si    7.46762  21.04512   2.03662   0.000004248351159  -0.000003955808618  -0.000000324185319
Si    6.10987  16.97188   6.10987   0.000001764378189  -0.000007656044464  -0.000000133389364
Si    8.82537  16.97188   8.82537   0.000002011885341   0.000006277836339   0.000002876107889
Si    6.10987  19.68738   8.82537   0.000002365423156   0.000002785045078   0.000000309742439
Si    8.82537  19.68738   6.10987  -0.000005474459663   0.000004024243581  -0.000000748445745
Si   10.18313  18.32963   7.46762   0.000001779507034  -0.000005881792931  -0.000002225906797
Si   10.18313  21.04512  10.18313   0.000003518070475  -0.000001990952628  -0.000000137701530
Si    7.46762  18.32963  10.18313  -0.000005928860743  -0.000007351773464   0.000000202342411
Si    7.46762  21.04512   7.46762  -0.000001260933121   0.000003222658312   0.000005794673118
Si    6.10987  16.97188  11.54087  -0.000000812719312   0.000001424623527   0.000003373912242
Si    8.82537  16.97188  14.25638  -0.000001157435660   0.000000234686483  -0.000000301002101
Si    6.10987  19.68738  14.25638   0.000003982328688  -0.000001509823131   0.000000588797248
Si    8.82537  19.68738  11.54087   0.000000563504221   0.000005669300233  -0.000000869004891
Si   10.18313  18.32963  12.89862   0.000002288860823  -0.000005332345852   0.000003078785655
Si   10.18313  21.04512  15.61413  -0.000006111810282   0.000006918841486   0.000003361662205
Si    7.46762  18.32963  15.61413  -0.000000518307953   0.000000330101736   0.000002631671250
Si    7.46762  21.04512  12.89862  -0.000000711858350   0.000002155582939  -0.000005543965600
Si   11.54087   0.67887   0.67888   0.000006111661680  -0.000006918757635  -0.000003361594997
Si   14.25638   0.67887   3.39437   0.000000711574265  -0.000002155294294   0.000005543864144
Si   11.54087   3.39437   3.39437  -0.000002289140346   0.000005332381107  -0.000003078715168
Si   14.25638   3.39437   0.67888   0.000000518080760  -0.000000329875855  -0.000002631816835
Si   15.61413   2.03662   2.03662  -0.000003982628477   0.000001510051678  -0.000000588892722
Si   15.61413   4.75212   4.75213   0.000000812440311  -0.000001424360014  -0.000003373854164
Si   12.89862   2.03662   4.75213  -0.000000563892938  -0.000005669081698   0.000000868985698
Si   12.89862   4.75212   2.03662   0.000001157264468  -0.000000234492473   0.000000300872015
Si   11.54087   0.67887   6.10987  -0.000003518496222   0.000001991320763   0.000000137656252
Si   14.25638   0.67887   8.82537   0.000001260682404  -0.000003222302834  -0.000005794594538
Si   11.54087   3.39437   8.82537  -0.000001779651155   0.000005881717414   0.000002226034188
Si   14.25638   3.39437   6.10987   0.000005928622684   0.000007352058015  -0.000000202164528
Si   15.61413   2.03662   7.46762  -0.000002365765902  -0.000002784700867  -0.000000309686122
Si   15.61413   4.75212  10.18313  -0.000001764642338   0.000007656226747   0.000000133401635
Si   12.89862   2.03662  10.18313   0.000005474187794  -0.000004023980463   0.000000748344396
Si   12.89862   4.75212   7.46762  -0.000002011939121  -0.000006277791594  -0.000002876234886
Si   11.54087   0.67887  11.54087   0.000002712645453  -0.000006353125423   0.000004752397288
Si   14.25638   0.67887  14.25638  -0.000004248562542   0.000003956035226   0.000000324431120
Si   11.54087   3.39437  14.25638  -0.000003175796065   0.000003808897121  -0.000001515701285
Si   14.25638   3.39437  11.54087   0.000000430156046  -0.000000236004010   0.000003144993304
Si   15.61413   2.03662  12.89862  -0.000002727800255  -0.000002713147926  -0.000000527306966
Si   15.61413   4.75212  15.61413  -0.000001195623540   0.000000379350499   0.000005218671342
Si   12.89862   2.03662  15.61413   0.000000262113709  -0.000007774883579  -0.000000071734274
Si   12.89862   4.75212  12.89862  -0.000000591039345  -0.000004182743442   0.000000849804017
Si   11.54087   6.10987   0.67888   0.000005756904333  -0.000005767300327  -0.000003143645173
Si   14.25638   6.10987   3.39437  -0.000001432538246  -0.000002675606804   0.000005881372206
Si   11.54087   8.82537   3.39437   0.000001509918566   0.000001981391704   0.000000920550249
Si   14.25638   8.82537   0.67888  -0.000001692719310  -0.000000871052315  -0.000002179421433
Si   15.61413   7.46762   2.03662  -0.000001761464397  -0.000005439558861  -0.000000042081939
Si   15.61413  10.18313   4.75213   0.000003923033306  -0.000008467824390  -0.000003034620483
Si   12.89862   7.46762   4.75213   0.000000756121007   0.000001605768291  -0.000001765224303
Si   12.89862  10.18313   2.03662  -0.000002178695578   0.000000763792921  -0.000000870565852
Si   11.54087   6.10987   6.10987  -0.000003800122825   0.000002271392370  -0.000001303087720
Si   14.25638   6.10987   8.82537  -0.000002605903847  -0.000002345264498  -0.000006273460064
Si   11.54087   8.82537   8.82537   0.000002892385745   0.000001406862363  -0.000001136451509
Si   14.25638   8.82537   6.10987   0.000002757717865   0.000001042064582  -0.000000665166575
Si   15.61413   7.46762   7.46762   0.000002345258769   0.000002606082905   0.000006273376448
Si   15.61413  10.18313  10.18313  -0.000002271512132   0.000003800153122   0.000001302992519
Si   12.89862   7.46762  10.18313  -0.000001041873050  -0.000002757382776   0.000000665267734
Si   12.89862  10.18313   7.46762  -0.000001406445046  -0.000002892127853   0.000001136611705
Si   11.54087   6.10987  11.54087   0.000008468052232  -0.000003922950612   0.000003034676161
Si   14.25638   6.10987  14.25638   0.000005439758853   0.000001761560464   0.000000042080947
Si   11.54087   8.82537  14.25638  -0.000000763412840   0.000002178973976   0.000000870499516
Si   14.25638   8.82537  11.54087  -0.000001605777389  -0.000000755939145   0.000001765112621
Si   15.61413   7.46762  12.89862   0.000002675727312   0.000001432642206  -0.000005881318071
Si   15.61413  10.18313  15.61413   0.000005767229664  -0.000005756580471   0.000003143761121
Si   12.89862   7.46762  15.61413   0.000000871356576   0.000001692854913   0.000002179529481
Si   12.89862  10.18313  12.89862  -0.000001981173111  -0.000001509728661  -0.000000920631221
Si   11.54087  11.54087   0.67888   0.000000711425737   0.000000711051244   0.000001295592090
Si   14.25638  11.54087   3.39437  -0.000007340978722  -0.000000633157394   0.000004960513105
Si   11.54087  14.25638   3.39437  -0.000000632915991  -0.000007341276101   0.000004960515612
Si   14.25638  14.25638   0.67888   0.000003715675140   0.000003715214202   0.000006872466799
Si   15.61413  12.89862   2.03662  -0.000001549606185   0.000005182242990   0.000000901670027
Si   15.61413  15.61413   4.75213  -0.000002339485941  -0.000002339714105   0.000002180294113
Si   12.89862  12.89862   4.75213  -0.000004016473732  -0.000004016733666  -0.000003474814441
Si   12.89862  15.61413   2.03662   0.000005182511544  -0.000001549765496   0.000000901766678
Si   11.54087  11.54087   6.10987   0.000001980026739   0.000001979859294   0.000001682298693
Si   14.25638  11.54087   8.82537  -0.000006325679571  -0.000001813859319  -0.000005756623985
Si   11.54087  14.25638   8.82537  -0.000001813626994  -0.000006325770456  -0.000005756460660
Si   14.25638  14.25638   6.10987   0.000005644131527   0.000005643816502  -0.000000362301765
Si   15.61413  12.89862   7.46762   0.000000066145839  -0.000007651073990  -0.000000790796004
Si   15.61413  15.61413  10.18313   0.000004832637967   0.000004832403696  -0.000001363514519
Si   12.89862  12.89862  10.18313  -0.000001977010963  -0.000001977049050  -0.000000890504032
Si   12.89862  15.61413   7.46762  -0.000007650879238   0.000000065889236  -0.000000790637333
Si   11.54087  11.54087  11.54087   0.000001483942725   0.000001483899915  -0.000001029665451
Si   14.25638  11.54087  14.25638   0.000002473164190   0.000007111118896   0.000000441066045
Si   11.54087  14.25638  14.25638   0.000007111254692   0.000002473003524   0.000000440708629
Si   14.25638  14.25638  11.54087   0.000003672567538   0.000003672482467  -0.000006753027278
Si   15.61413  12.89862  12.89862  -0.000001191484127  -0.000008578458337   0.000000040223823
Si   15.61413  15.61413  15.61413  -0.000003857190028  -0.000003857540558   0.000000005639757
Si   12.89862  12.89862  15.61413  -0.000004664780636  -0.000004665361183   0.000003516865973
Si   12.89862  15.61413  12.89862  -0.000008578383849  -0.000001191730983   0.000000040103178
Si   11.54087  16.97188   0.67888   0.000000185158748   0.000002349539282  -0.000002209013916
Si   14.25638  16.97188   3.39437   0.000000432393765  -0.000001131091715  -0.000001687322870
Si   11.54087  19.68738   3.39437  -0.000003473711531   0.000000043460517  -0.000000471455698
Si   14.25638  19.68738   0.67888   0.000001467980329  -0.000001688021418  -0.000006324278648
Si   15.61413  18.32963   2.03662  -0.000002000961060   0.000002940454010  -0.000001110996364
Si   15.61413  21.04512   4.75213  -0.000003407884131  -0.000000087571870   0.000000425978400
Si   12.89862  18.32963   4.75213   0.000003444919513  -0.000000147890163  -0.000003858871817
Si   12.89862  21.04512   2.03662  -0.000001469690578  -0.000000138416122  -0.000001037338033
Si   11.54087  16.97188   6.10987  -0.000002671367413  -0.000001848848341  -0.000000920967992
Si   14.25638  16.97188   8.82537  -0.000001966121257  -0.000001037278892   0.000002559831832
Si   11.54087  19.68738   8.82537  -0.000002696258736   0.000001910928838  -0.000001633529345
Si   14.25638  19.68738   6.10987  -0.000006387092625   0.000002055263203   0.000000250048131
Si   15.61413  18.32963   7.46762   0.000005288629003  -0.000007204162891   0.000002219520874
Si   15.61413  21.04512  10.18313   0.000001036546793   0.000001361107872   0.000000510891181
Si   12.89862  18.32963  10.18313  -0.000004613349343  -0.000000597003992   0.000000323132226
Si   12.89862  21.04512   7.46762  -0.000001437821474   0.000000023509259  -0.000002426011623
Si   11.54087  16.97188  11.54087   0.000001001454618   0.000002105259163   0.000003115595842
Si   14.25638  16.97188  14.25638  -0.000002568498587  -0.000002006817236  -0.000000595806084
Si   11.54087  19.68738  14.25638  -0.000001262522938  -0.000002104278000   0.000000436854046
Si   14.25638  19.68738  11.54087   0.000000697096205  -0.000003415271034   0.000006810155181
Si   15.61413  18.32963  12.89862   0.000005763860531  -0.000005636150551  -0.000003492491947
Si   15.61413  21.04512  15.61413  -0.000001620056840  -0.000003189473102  -0.000002412858052
Si   12.89862  18.32963  15.61413   0.000003965447213   0.000001990613332   0.000004818380824
Si   12.89862  21.04512  12.89862  -0.000001327267345  -0.000002211754519   0.000002615906305
Si   16.97188   0.67887   0.67888   0.000002485706482  -0.000000758243618  -0.000004554410878
Si   19.68738   0.67887   3.39437   0.000002868619715   0.000003154888988   0.000001081737312
Si   16.97188   3.39437   3.39437   0.000002276407763   0.000002559679869   0.000002444275970
Si   19.68738   3.39437   0.67888  -0.000005992044136  -0.000007102031604  -0.000001180892721
Si   21.04512   2.03662   2.03662   0.000000878807254   0.000002171690449   0.000000233901451
Si   21.04512   4.75212   4.75213   0.000000426810677  -0.000001915341901  -0.000003552638497
Si   18.32963   2.03662   4.75213   0.000007183705485   0.000004586584000  -0.000003018371981
Si   18.32963   4.75212   2.03662  -0.000000749868561  -0.000000874930819  -0.000000968246019
Si   16.97188   0.67887   6.10987  -0.000010277375896  -0.000003480169199   0.000000544770835
Si   19.68738   0.67887   8.82537   0.000001223210094   0.000004851799996  -0.000001542103693
Si   16.97188   3.39437   8.82537   0.000002559779074   0.000002905149104  -0.000002081428795
Si   19.68738   3.39437   6.10987  -0.000001075724237   0.000002046474241  -0.000000628018314
Si   21.04512   2.03662   7.46762  -0.000004851746456  -0.000001223183075   0.000001542177694
Si   21.04512   4.75212  10.18313   0.000003480156629   0.000010277160148  -0.000000544793141
Si   18.32963   2.03662  10.18313  -0.000002046539404   0.000001075662823   0.000000628093852
Si   18.32963   4.75212   7.46762  -0.000002905258647  -0.000002559904768   0.000002081368475
Si   16.97188   0.67887  11.54087   0.000001915283360  -0.000000426861829   0.000003552628482
Si   19.68738   0.67887  14.25638  -0.000002171494695  -0.000000878687256  -0.000000234019748
Si   16.97188   3.39437  14.25638   0.000000875120160   0.000000749912893   0.000000968188169
Si   19.68738   3.39437  11.54087  -0.000004586479921  -0.000007183878453   0.000003018440260
Si   21.04512   2.03662  12.89862  -0.000003154788800  -0.000002868616711  -0.000001081634458
Si   21.04512   4.75212  15.61413   0.000000758226311  -0.000002485910472   0.000004554334234
Si   18.32963   2.03662  15.61413   0.000007102102537   0.000005992200407   0.000001180720336
Si   18.32963   4.75212  12.89862  -0.000002559722792  -0.000002276525982  -0.000002444184840
Si   16.97188   6.10987   0.67888  -0.000000379266667   0.000001195829234  -0.000005218675934
Si   19.68738   6.10987   3.39437   0.000002713029855   0.000002727875745   0.000000527162602
Si   16.97188   8.82537   3.39437   0.000004182700991   0.000000591124393  -0.000000849802913
Si   19.68738   8.82537   0.67888   0.000007774767700  -0.000000261954793   0.000000071786733
Si   21.04512   7.46762   2.03662  -0.000003956113512   0.000004248692378  -0.000000324495016
Si   21.04512  10.18313   4.75213   0.000006353086767  -0.000002712562879  -0.000004752732778
Si   18.32963   7.46762   4.75213   0.000000235844736  -0.000000430003529  -0.000003145171761
Si   18.32963  10.18313   2.03662  -0.000003808877073   0.000003175787540   0.000001515708832
Si   16.97188   6.10987   6.10987  -0.000007656451930   0.000001764642097  -0.000000133468511
Si   19.68738   6.10987   8.82537   0.000002784681590   0.000002365622482   0.000000309659917
Si   16.97188   8.82537   8.82537   0.000006277478836   0.000002012092886   0.000002876180299
Si   19.68738   8.82537   6.10987   0.000004023664811  -0.000005474174152  -0.000000748669895
Si   21.04512   7.46762   7.46762   0.000003222268086  -0.000001260945265   0.000005794572619
Si   21.04512  10.18313  10.18313  -0.000001991230258   0.000003518558591  -0.000000137369627
Si   18.32963   7.46762  10.18313  -0.000007352195309  -0.000005928552046   0.000000202296326
Si   18.32963  10.18313   7.46762  -0.000005882132121   0.000001779850433  -0.000002226098243
Si   16.97188   6.10987  11.54087   0.000001424359847  -0.000000812417556   0.000003373985846
Si   19.68738   6.10987  14.25638  -0.000001510107079   0.000003982633679   0.000000588947677
Si   16.97188   8.82537  14.25638   0.000000234544354  -0.000001157263425  -0.000000300748775
Si   19.68738   8.82537  11.54087   0.000005668971294   0.000000563963946  -0.000000868824947
Si   21.04512   7.46762  12.89862   0.000002155390377  -0.000000711560096  -0.000005543716005
Si   21.04512  10.18313  15.61413   0.000006918591445  -0.000006111520067   0.000003361552553
Si   18.32963   7.46762  15.61413   0.000000329800258  -0.000000517976771   0.000002631783659
Si   18.32963  10.18313  12.89862  -0.000005332477766   0.000002289096643   0.000003078906662
Si   16.97188  11.54087   0.67888   0.000002349474483   0.000000185090171  -0.000002209004396
Si   19.68738  11.54087   3.39437   0.000000043251491  -0.000003473706393  -0.000000471491092
Si   16.97188  14.25638   3.39437  -0.000001131005492   0.000000432160695  -0.000001687394120
Si   19.68738  14.25638   0.67888  -0.000001687939407   0.000001467969685  -0.000006324468749
Si   21.04512  12.89862   2.03662  -0.000000138449033  -0.000001469625128  -0.000001037453215
Si   21.04512  15.61413   4.75213  -0.000000087578138  -0.000003408061346   0.000000425671383
Si   18.32963  12.89862   4.75213  -0.000000148000801   0.000003444710228  -0.000003858819039
Si   18.32963  15.61413   2.03662   0.000002940614381  -0.000002001116946  -0.000001111065936
Si   16.97188  11.54087   6.10987  -0.000001848781921  -0.000002671408360  -0.000000921042189
Si   19.68738  11.54087   8.82537   0.000001910486867  -0.000002695939357  -0.000001633479829
Si   16.97188  14.25638   8.82537  -0.000001037031579  -0.000001966147199   0.000002559757176
Si   19.68738  14.25638   6.10987   0.000002055102222  -0.000006387370841   0.000000250045980
Si   21.04512  12.89862   7.46762   0.000000023252353  -0.000001437587880  -0.000002426115535
Si   21.04512  15.61413  10.18313   0.000001361039234   0.000001036478815   0.000000511101030
Si   18.32963  12.89862  10.18313  -0.000000596933530  -0.000004613241866   0.000000323243051
Si   18.32963  15.61413   7.46762  -0.000007204213734   0.000005288318183   0.000002219673068
Si   16.97188  11.54087  11.54087   0.000002105494010   0.000001001446944   0.000003115736080
Si   19.68738  11.54087  14.25638  -0.000002104336460  -0.000001262366692   0.000000436933720
Si   16.97188  14.25638  14.25638  -0.000002006663757  -0.000002568665651  -0.000000595799127
Si   19.68738  14.25638  11.54087  -0.000003415282819   0.000000697124780   0.000006810256265
Si   21.04512  12.89862  12.89862  -0.000002211704638  -0.000001327104194   0.000002615960215
Si   21.04512  15.61413  15.61413  -0.000003189481235  -0.000001620135531  -0.000002412965316
Si   18.32963  12.89862  15.61413   0.000001990689011   0.000003965322698   0.000004818396238
Si   18.32963  15.61413  12.89862  -0.000005635866655   0.000005763703468  -0.000003492482952
Si   16.97188  16.97188   0.67888   0.000001375886458   0.000001375676787  -0.000004813741183
Si   19.68738  16.97188   3.39437   0.000000118078803  -0.000000209782713   0.000000884039824
Si   16.97188  19.68738   3.39437  -0.000000209494770   0.000000117946157   0.000000884188413
Si   19.68738  19.68738   0.67888  -0.000000043481086  -0.000000043705056  -0.000002438985331
Si   21.04512  18.32963   2.03662  -0.000007079032265   0.000000392616271   0.000000029368393
Si   21.04512  21.04512   4.75213  -0.000003757432624  -0.000003757574536  -0.000005236481156
Si   18.32963  18.32963   4.75213  -0.000002718645671  -0.000002718564608  -0.000005988389361
Si   18.32963  21.04512   2.03662   0.000000392721282  -0.000007079445563   0.000000029586672
Si   16.97188  16.97188   6.10987   0.000000895590450   0.000000895521131  -0.000001254903739
Si   19.68738  16.97188   8.82537   0.000000900060232  -0.000001267640186  -0.000001363842347
Si   16.97188  19.68738   8.82537  -0.000001267465264   0.000000899982717  -0.000001364012334
Si   19.68738  19.68738   6.10987  -0.000000066780375  -0.000000066721314  -0.000000225439353
Si   21.04512  18.32963   7.46762   0.000005115088129   0.000002759325671   0.000009135499796
Si   21.04512  21.04512  10.18313   0.000004899157341   0.000004899014249  -0.000000333447431
Si   18.32963  18.32963  10.18313   0.000004153381321   0.000004153152070  -0.000000193716917
Si   18.32963  21.04512   7.46762   0.000002759265397   0.000005114729457   0.000009135326551
Si   16.97188  16.97188  11.54087   0.000002021867304   0.000002021480511   0.000003168584028
Si   19.68738  16.97188  14.25638  -0.000000377827271   0.000000011360899   0.000000871190171
Si   16.97188  19.68738  14.25638   0.000000011705500  -0.000000378101435   0.000000871192214
Si   19.68738  19.68738  11.54087   0.000002167618296   0.000002167420668   0.000003637299621
Si   21.04512  18.32963  12.89862   0.000005614835076   0.000002076926198  -0.000007892039779
Si   21.04512  21.04512  15.61413  -0.000003779842892  -0.000003780166765   0.000004943484412
Si   18.32963  18.32963  15.61413  -0.000002232258130  -0.000002232556896   0.000005445761432
Si   18.32963  21.04512  12.89862   0.000002077262993   0.000005614710379  -0.000007892118834
