216 

Si    0.67888   0.67888   0.67888   0.000008999706900   0.000008999706915   0.000008981271601
Si    3.39437   0.67888   3.39437  -0.000008999707011   0.000008999706977  -0.000008981271685
Si    0.67888   3.39437   3.39437   0.000008999706895  -0.000008999706988  -0.000008981271619
Si    3.39437   3.39437   0.67888  -0.000008999707005  -0.000008999707042   0.000008981271643
Si    4.75213   2.03662   2.03662   0.000007115123135  -0.000000000000039  -0.000000000000013
Si    4.75213   4.75213   4.75213   0.000008153982313   0.000008153982392   0.000008157473792
Si    2.03662   2.03662   4.75213  -0.000000000000073   0.000000000000053   0.000007121901948
Si    2.03662   4.75213   2.03662  -0.000000000000078   0.000007115123080   0.000000000000056
Si    0.67888   0.67888   6.10987   0.000002866728710   0.000002866728851   0.000000874880803
Si    3.39437   0.67888   8.82538  -0.000008153982357   0.000008153982383   0.000008157473787
Si    0.67888   3.39437   8.82538   0.000008153982261  -0.000008153982314   0.000008157473706
Si    3.39437   3.39437   6.10987  -0.000002866728847  -0.000002866728774   0.000000874880818
Si    4.75213   2.03662   7.46762   0.000002884640438   0.000000879957704  -0.000002880198917
Si    4.75213   4.75213  10.18313   0.000002866728825   0.000002866728793  -0.000000874880816
Si    2.03662   2.03662  10.18313  -0.000000000000037  -0.000000000000005   0.000000000000027
Si    2.03662   4.75213   7.46762   0.000000879957597   0.000002884640451  -0.000002880198985
Si    0.67888   0.67888  11.54087   0.000008153982266   0.000008153982293  -0.000008157473683
Si    3.39437   0.67888  14.25638  -0.000002866728859   0.000002866728742  -0.000000874880812
Si    0.67888   3.39437  14.25638   0.000002866728731  -0.000002866728887  -0.000000874880825
Si    3.39437   3.39437  11.54087  -0.000008153982361  -0.000008153982421  -0.000008157473776
Si    4.75213   2.03662  12.89863   0.000002884640426  -0.000000879957734   0.000002880198941
Si    4.75213   4.75213  15.61412   0.000008999706990   0.000008999706947  -0.000008981271671
Si    2.03662   2.03662  15.61412  -0.000000000000073  -0.000000000000093  -0.000007121901952
Si    2.03662   4.75213  12.89863  -0.000000879957738   0.000002884640380   0.000002880198939
Si    0.67888   6.10987   0.67888   0.000002884640317   0.000000879957667   0.000002880198979
Si    3.39437   6.10987   3.39437  -0.000002884640437   0.000000879957668  -0.000002880198886
Si    0.67888   8.82538   3.39437   0.000008153982237   0.000008153982329  -0.000008157473665
Si    3.39437   8.82538   0.67888  -0.000008153982337   0.000008153982414   0.000008157473730
Si    4.75213   7.46762   2.03662   0.000002866728849  -0.000002866728810   0.000000874880810
Si    4.75213  10.18313   4.75213   0.000002884640451  -0.000000879957701   0.000002880199000
Si    2.03662   7.46762   4.75213   0.000000879957615  -0.000002884640454   0.000002880199064
Si    2.03662  10.18313   2.03662  -0.000000000000038   0.000000000000025   0.000000000000020
Si    0.67888   6.10987   6.10987   0.000007115122978  -0.000000000000003   0.000000000000043
Si    3.39437   6.10987   8.82538  -0.000002884640458  -0.000000879957689   0.000002880198936
Si    0.67888   8.82538   8.82538   0.000008999706903   0.000008999706959   0.000008981271628
Si    3.39437   8.82538   6.10987  -0.000002866728856   0.000002866728778  -0.000000874880750
Si    4.75213   7.46762   7.46762   0.000008153982340  -0.000008153982393  -0.000008157473730
Si    4.75213  10.18313  10.18313   0.000007115123122   0.000000000000020  -0.000000000000012
Si    2.03662   7.46762  10.18313  -0.000000000000059  -0.000007115123119  -0.000000000000078
Si    2.03662  10.18313   7.46762  -0.000000000000057  -0.000000000000053  -0.000007121901904
Si    0.67888   6.10987  11.54087   0.000002884640311  -0.000000879957704  -0.000002880199017
Si    3.39437   6.10987  14.25638  -0.000007115123146  -0.000000000000012  -0.000000000000042
Si    0.67888   8.82538  14.25638   0.000002866728730   0.000002866728872   0.000000874880747
Si    3.39437   8.82538  11.54087  -0.000008999706997   0.000008999707011  -0.000008981271696
Si    4.75213   7.46762  12.89863   0.000008999706992  -0.000008999706982   0.000008981271625
Si    4.75213  10.18313  15.61412   0.000002884640457   0.000000879957744  -0.000002880198984
Si    2.03662   7.46762  15.61412  -0.000000879957727  -0.000002884640415  -0.000002880198994
Si    2.03662  10.18313  12.89863  -0.000000000000059   0.000000000000090   0.000007121901902
Si    0.67888  11.54087   0.67888   0.000008153982237  -0.000008153982269   0.000008157473662
Si    3.39437  11.54087   3.39437  -0.000008153982346  -0.000008153982365  -0.000008157473757
Si    0.67888  14.25638   3.39437   0.000002884640287  -0.000000879957657  -0.000002880199017
Si    3.39437  14.25638   0.67888  -0.000002884640449  -0.000000879957676   0.000002880198884
Si    4.75213  12.89863   2.03662   0.000002866728857   0.000002866728837  -0.000000874880835
Si    4.75213  15.61412   4.75213   0.000008999706988  -0.000008999706976   0.000008981271662
Si    2.03662  12.89863   4.75213  -0.000000879957744   0.000002884640416   0.000002880198986
Si    2.03662  15.61412   2.03662  -0.000000000000072  -0.000007115123127  -0.000000000000081
Si    0.67888  11.54087   6.10987   0.000002866728703  -0.000002866728838  -0.000000874880753
Si    3.39437  11.54087   8.82538  -0.000008999707004  -0.000008999706991   0.000008981271697
Si    0.67888  14.25638   8.82538   0.000002884640298   0.000000879957686   0.000002880199030
Si    3.39437  14.25638   6.10987  -0.000007115123152   0.000000000000005   0.000000000000024
Si    4.75213  12.89863   7.46762   0.000008999706994   0.000008999706981  -0.000008981271621
Si    4.75213  15.61412  10.18313   0.000002866728832  -0.000002866728806   0.000000874880837
Si    2.03662  12.89863  10.18313  -0.000000000000079   0.000007115123129   0.000000000000081
Si    2.03662  15.61412   7.46762  -0.000000879957744  -0.000002884640407  -0.000002880198937
Si    0.67888  11.54087  11.54087   0.000008999706906  -0.000008999706916  -0.000008981271635
Si    3.39437  11.54087  14.25638  -0.000002866728848  -0.000002866728739   0.000000874880751
Si    0.67888  14.25638  14.25638   0.000007115122976   0.000000000000026  -0.000000000000024
Si    3.39437  14.25638  11.54087  -0.000002884640439   0.000000879957689  -0.000002880198908
Si    4.75213  12.89863  12.89863   0.000008153982335   0.000008153982423   0.000008157473754
Si    4.75213  15.61412  15.61412   0.000008153982346  -0.000008153982382  -0.000008157473779
Si    2.03662  12.89863  15.61412   0.000000879957613   0.000002884640494  -0.000002880199046
Si    2.03662  15.61412  12.89863   0.000000879957607  -0.000002884640463   0.000002880198996
Si    6.10987   0.67888   0.67888   0.000000879957735   0.000002884640373   0.000002880198941
Si    8.82538   0.67888   3.39437   0.000008153982355   0.000008153982366  -0.000008157473786
Si    6.10987   3.39437   3.39437   0.000000879957733  -0.000002884640443  -0.000002880198966
Si    8.82538   3.39437   0.67888   0.000008153982328  -0.000008153982440   0.000008157473754
Si   10.18313   2.03662   2.03662  -0.000000000000108  -0.000000000000040  -0.000000000000004
Si   10.18313   4.75213   4.75213  -0.000000879957683   0.000002884640435   0.000002880199015
Si    7.46762   2.03662   4.75213  -0.000002884640398   0.000000879957686   0.000002880198971
Si    7.46762   4.75213   2.03662  -0.000002866728797   0.000002866728801   0.000000874880814
Si    6.10987   0.67888   6.10987   0.000000000000027   0.000007115123142   0.000000000000029
Si    8.82538   0.67888   8.82538   0.000008999706975   0.000008999707033   0.000008981271747
Si    6.10987   3.39437   8.82538  -0.000000879957653  -0.000002884640431   0.000002880198994
Si    8.82538   3.39437   6.10987   0.000002866728825  -0.000002866728828  -0.000000874880734
Si   10.18313   2.03662   7.46762  -0.000000000000044   0.000000000000027  -0.000007121901854
Si   10.18313   4.75213  10.18313  -0.000000000000039   0.000007115123032  -0.000000000000058
Si    7.46762   2.03662  10.18313  -0.000007115123081  -0.000000000000014   0.000000000000023
Si    7.46762   4.75213   7.46762  -0.000008153982321   0.000008153982339  -0.000008157473685
Si    6.10987   0.67888  11.54087  -0.000000879957635   0.000002884640408  -0.000002880198980
Si    8.82538   0.67888  14.25638   0.000002866728807   0.000002866728772   0.000000874880742
Si    6.10987   3.39437  14.25638   0.000000000000034  -0.000007115123177  -0.000000000000043
Si    8.82538   3.39437  11.54087   0.000008999706954  -0.000008999707100  -0.000008981271738
Si   10.18313   2.03662  12.89863  -0.000000000000052  -0.000000000000090   0.000007121901860
Si   10.18313   4.75213  15.61412   0.000000879957643   0.000002884640377  -0.000002880198967
Si    7.46762   2.03662  15.61412  -0.000002884640412  -0.000000879957736  -0.000002880198975
Si    7.46762   4.75213  12.89863  -0.000008999707005   0.000008999706925   0.000008981271601
Si    6.10987   6.10987   0.67888   0.000000000000040   0.000000000000013   0.000007121901936
Si    8.82538   6.10987   3.39437   0.000002884640431  -0.000000879957652  -0.000002880198948
Si    6.10987   8.82538   3.39437  -0.000000879957627   0.000002884640434  -0.000002880198956
Si    8.82538   8.82538   0.67888   0.000008999706968   0.000008999707097   0.000008981271727
Si   10.18313   7.46762   2.03662  -0.000000000000032  -0.000007115123040   0.000000000000051
Si   10.18313  10.18313   4.75213  -0.000000000000048  -0.000000000000029   0.000007121901887
Si    7.46762   7.46762   4.75213  -0.000008153982321  -0.000008153982322   0.000008157473753
Si    7.46762  10.18313   2.03662  -0.000007115123046   0.000000000000027  -0.000000000000011
Si    6.10987   6.10987   6.10987   0.000000000000004   0.000000000000005   0.000000000000029
Si    8.82538   6.10987   8.82538   0.000002884640404   0.000000879957655   0.000002880198961
Si    6.10987   8.82538   8.82538   0.000000879957716   0.000002884640418   0.000002880198980
Si    8.82538   8.82538   6.10987   0.000002866728826   0.000002866728831   0.000000874880770
Si   10.18313   7.46762   7.46762  -0.000000879957673  -0.000002884640417  -0.000002880198990
Si   10.18313  10.18313  10.18313  -0.000000000000083   0.000000000000034  -0.000000000000013
Si    7.46762   7.46762  10.18313  -0.000002866728813  -0.000002866728807  -0.000000874880826
Si    7.46762  10.18313   7.46762  -0.000002884640378  -0.000000879957708  -0.000002880198954
Si    6.10987   6.10987  11.54087   0.000000000000008  -0.000000000000023  -0.000007121901971
Si    8.82538   6.10987  14.25638   0.000007115123097  -0.000000000000004  -0.000000000000016
Si    6.10987   8.82538  14.25638   0.000000000000030   0.000007115123174  -0.000000000000011
Si    8.82538   8.82538  11.54087   0.000008153982328   0.000008153982425  -0.000008157473780
Si   10.18313   7.46762  12.89863   0.000000879957643  -0.000002884640374   0.000002880198951
Si   10.18313  10.18313  15.61412  -0.000000000000061   0.000000000000096  -0.000007121901871
Si    7.46762   7.46762  15.61412  -0.000008999706982  -0.000008999706930  -0.000008981271622
Si    7.46762  10.18313  12.89863  -0.000002884640400   0.000000879957743   0.000002880198971
Si    6.10987  11.54087   0.67888  -0.000000879957601  -0.000002884640374   0.000002880198958
Si    8.82538  11.54087   3.39437   0.000008999706985  -0.000008999707038  -0.000008981271730
Si    6.10987  14.25638   3.39437   0.000000000000058  -0.000000000000007  -0.000007121901976
Si    8.82538  14.25638   0.67888   0.000002884640425   0.000000879957645   0.000002880198938
Si   10.18313  12.89863   2.03662  -0.000000000000036   0.000007115123080  -0.000000000000060
Si   10.18313  15.61412   4.75213   0.000000879957650  -0.000002884640400   0.000002880198961
Si    7.46762  12.89863   4.75213  -0.000008999706964   0.000008999706952   0.000008981271624
Si    7.46762  15.61412   2.03662  -0.000002866728777  -0.000002866728838  -0.000000874880833
Si    6.10987  11.54087   6.10987   0.000000000000043  -0.000007115123143  -0.000000000000008
Si    8.82538  11.54087   8.82538   0.000008153982334  -0.000008153982387   0.000008157473777
Si    6.10987  14.25638   8.82538   0.000000000000022   0.000000000000027   0.000007121901992
Si    8.82538  14.25638   6.10987   0.000007115123113  -0.000000000000018   0.000000000000000
Si   10.18313  12.89863   7.46762   0.000000879957657   0.000002884640401  -0.000002880198957
Si   10.18313  15.61412  10.18313  -0.000000000000033  -0.000007115123062   0.000000000000073
Si    7.46762  12.89863  10.18313  -0.000002866728798   0.000002866728839   0.000000874880841
Si    7.46762  15.61412   7.46762  -0.000008999706984  -0.000008999706959  -0.000008981271592
Si    6.10987  11.54087  11.54087   0.000000879957741  -0.000002884640389  -0.000002880198981
Si    8.82538  11.54087  14.25638   0.000002866728817  -0.000002866728770  -0.000000874880758
Si    6.10987  14.25638  14.25638   0.000000000000005   0.000000000000005  -0.000000000000018
Si    8.82538  14.25638  11.54087   0.000002884640422  -0.000000879957647  -0.000002880198956
Si   10.18313  12.89863  12.89863  -0.000000879957679   0.000002884640475   0.000002880198994
Si   10.18313  15.61412  15.61412  -0.000000879957681  -0.000002884640446  -0.000002880199005
Si    7.46762  12.89863  15.61412  -0.000008153982299   0.000008153982371  -0.000008157473726
Si    7.46762  15.61412  12.89863  -0.000008153982318  -0.000008153982350   0.000008157473723
Si   11.54087   0.67888   0.67888  -0.000008153982428   0.000008153982263   0.000008157473672
Si   14.25638   0.67888   3.39437  -0.000000879957791   0.000002884640369  -0.000002880198987
Si   11.54087   3.39437   3.39437  -0.000008153982423  -0.000008153982337  -0.000008157473672
Si   14.25638   3.39437   0.67888  -0.000000879957776  -0.000002884640458   0.000002880198963
Si   15.61412   2.03662   2.03662  -0.000007115123198  -0.000000000000018  -0.000000000000008
Si   15.61412   4.75213   4.75213  -0.000008999707118   0.000008999707052   0.000008981271776
Si   12.89863   2.03662   4.75213   0.000002884640293  -0.000000879957639   0.000002880199040
Si   12.89863   4.75213   2.03662   0.000002866728697   0.000002866728855  -0.000000874880702
Si   11.54087   0.67888   6.10987  -0.000002866728884   0.000002866728865  -0.000000874880752
Si   14.25638   0.67888   8.82538   0.000000879957550   0.000002884640408   0.000002880199017
Si   11.54087   3.39437   8.82538  -0.000008999707093  -0.000008999706995   0.000008981271669
Si   14.25638   3.39437   6.10987  -0.000000000000109  -0.000007115123014   0.000000000000042
Si   15.61412   2.03662   7.46762  -0.000002884640520  -0.000000879957631  -0.000002880198968
Si   15.61412   4.75213  10.18313  -0.000002866728936   0.000002866728828   0.000000874880715
Si   12.89863   2.03662  10.18313   0.000007115122990  -0.000000000000019   0.000000000000010
Si   12.89863   4.75213   7.46762   0.000008999706924   0.000008999707041  -0.000008981271700
Si   11.54087   0.67888  11.54087  -0.000008999707103   0.000008999706952  -0.000008981271656
Si   14.25638   0.67888  14.25638  -0.000000000000096   0.000007115122971  -0.000000000000037
Si   11.54087   3.39437  14.25638  -0.000002866728886  -0.000002866728920   0.000000874880734
Si   14.25638   3.39437  11.54087   0.000000879957559  -0.000002884640455  -0.000002880198996
Si   15.61412   2.03662  12.89863  -0.000002884640513   0.000000879957590   0.000002880198977
Si   15.61412   4.75213  15.61412  -0.000008153982457   0.000008153982343  -0.000008157473768
Si   12.89863   2.03662  15.61412   0.000002884640307   0.000000879957571  -0.000002880199034
Si   12.89863   4.75213  12.89863   0.000008153982269   0.000008153982320   0.000008157473679
Si   11.54087   6.10987   0.67888  -0.000002884640492  -0.000000879957657   0.000002880199019
Si   14.25638   6.10987   3.39437  -0.000000000000129   0.000000000000007  -0.000007121901792
Si   11.54087   8.82538   3.39437  -0.000008999707112   0.000008999707027  -0.000008981271634
Si   14.25638   8.82538   0.67888   0.000000879957520   0.000002884640444   0.000002880198985
Si   15.61412   7.46762   2.03662  -0.000002866728944  -0.000002866728844  -0.000000874880711
Si   15.61412  10.18313   4.75213  -0.000002884640534   0.000000879957650   0.000002880199024
Si   12.89863   7.46762   4.75213   0.000008999706890  -0.000008999707024   0.000008981271747
Si   12.89863  10.18313   2.03662   0.000007115122963   0.000000000000039   0.000000000000016
Si   11.54087   6.10987   6.10987  -0.000007115123132   0.000000000000004   0.000000000000019
Si   14.25638   6.10987   8.82538  -0.000000000000113  -0.000000000000028   0.000007121901824
Si   11.54087   8.82538   8.82538  -0.000008153982435   0.000008153982342   0.000008157473671
Si   14.25638   8.82538   6.10987  -0.000000000000130   0.000007115123013   0.000000000000008
Si   15.61412   7.46762   7.46762  -0.000008999707100  -0.000008999707071  -0.000008981271710
Si   15.61412  10.18313  10.18313  -0.000007115123194   0.000000000000032   0.000000000000008
Si   12.89863   7.46762  10.18313   0.000002866728719  -0.000002866728881   0.000000874880698
Si   12.89863  10.18313   7.46762   0.000002884640289   0.000000879957634  -0.000002880199021
Si   11.54087   6.10987  11.54087  -0.000002884640477   0.000000879957627  -0.000002880199050
Si   14.25638   6.10987  14.25638  -0.000000000000088  -0.000000000000022  -0.000000000000023
Si   11.54087   8.82538  14.25638  -0.000002866728902   0.000002866728912  -0.000000874880770
Si   14.25638   8.82538  11.54087  -0.000000879957761   0.000002884640421  -0.000002880198996
Si   15.61412   7.46762  12.89863  -0.000008153982449  -0.000008153982362   0.000008157473713
Si   15.61412  10.18313  15.61412  -0.000002884640542  -0.000000879957574  -0.000002880199011
Si   12.89863   7.46762  15.61412   0.000008153982267  -0.000008153982328  -0.000008157473724
Si   12.89863  10.18313  12.89863   0.000002884640303  -0.000000879957568   0.000002880199015
Si   11.54087  11.54087   0.67888  -0.000008999707108  -0.000008999706933   0.000008981271649
Si   14.25638  11.54087   3.39437   0.000000879957517  -0.000002884640396  -0.000002880198983
Si   11.54087  14.25638   3.39437  -0.000002884640471   0.000000879957643  -0.000002880199039
Si   14.25638  14.25638   0.67888  -0.000000000000137  -0.000000000000011   0.000007121901805
Si   15.61412  12.89863   2.03662  -0.000002866728957   0.000002866728878   0.000000874880719
Si   15.61412  15.61412   4.75213  -0.000008153982472  -0.000008153982377   0.000008157473746
Si   12.89863  12.89863   4.75213   0.000008153982258   0.000008153982351   0.000008157473709
Si   12.89863  15.61412   2.03662   0.000002866728702  -0.000002866728883   0.000000874880713
Si   11.54087  11.54087   6.10987  -0.000002866728885  -0.000002866728862   0.000000874880768
Si   14.25638  11.54087   8.82538  -0.000000879957765  -0.000002884640367   0.000002880198976
Si   11.54087  14.25638   8.82538  -0.000002884640474  -0.000000879957663   0.000002880199047
Si   14.25638  14.25638   6.10987  -0.000000000000102  -0.000000000000011   0.000000000000006
Si   15.61412  12.89863   7.46762  -0.000008153982476   0.000008153982371  -0.000008157473710
Si   15.61412  15.61412  10.18313  -0.000002866728941  -0.000002866728855  -0.000000874880696
Si   12.89863  12.89863  10.18313   0.000002866728710   0.000002866728894  -0.000000874880711
Si   12.89863  15.61412   7.46762   0.000008153982252  -0.000008153982351  -0.000008157473690
Si   11.54087  11.54087  11.54087  -0.000008153982423  -0.000008153982289  -0.000008157473690
Si   14.25638  11.54087  14.25638  -0.000000000000123  -0.000007115122956   0.000000000000002
Si   11.54087  14.25638  14.25638  -0.000007115123139   0.000000000000008  -0.000000000000000
Si   14.25638  14.25638  11.54087  -0.000000000000115   0.000000000000026  -0.000007121901818
Si   15.61412  12.89863  12.89863  -0.000008999707119   0.000008999707085   0.000008981271712
Si   15.61412  15.61412  15.61412  -0.000008999707116  -0.000008999707055  -0.000008981271750
Si   12.89863  12.89863  15.61412   0.000008999706896   0.000008999707079  -0.000008981271731
Si   12.89863  15.61412  12.89863   0.000008999706902  -0.000008999707064   0.000008981271706
