64 

C   -0.00000  -0.00000  -0.00000   0.000000000024430   0.000000000000166   0.000000000000068
C   -0.00000   1.78350   1.78350   0.000000000022520   0.000000000000756   0.000000000000024
C    1.78350  -0.00000   1.78350   0.000000000024043   0.000000000000341   0.000000000000417
C    1.78350   1.78350  -0.00000   0.000000000023232   0.000000000001245  -0.000000000000494
C    0.89175   0.89175   0.89175   0.000000000022907  -0.000000000000966  -0.000000000001199
C    0.89175   2.67525   2.67525   0.000000000022703   0.000000000000309  -0.000000000000770
C    2.67525   0.89175   2.67525   0.000000000022354  -0.000000000000734  -0.000000000000291
C    2.67525   2.67525   0.89175   0.000000000023287  -0.000000000000708   0.000000000000135
C   -0.00000  -0.00000   3.56700   0.000000000023028  -0.000000000000143   0.000000000000686
C   -0.00000   1.78350   5.35050   0.000000000023706  -0.000000000000800   0.000000000001271
C    1.78350  -0.00000   5.35050   0.000000000023184   0.000000000000258   0.000000000000056
C    1.78350   1.78350   3.56700   0.000000000024348  -0.000000000000307   0.000000000000172
C    0.89175   0.89175   4.45875   0.000000000023217  -0.000000000000479   0.000000000000265
C    0.89175   2.67525   6.24225   0.000000000023431   0.000000000000046   0.000000000000457
C    2.67525   0.89175   6.24225   0.000000000023589  -0.000000000000403   0.000000000000042
C    2.67525   2.67525   4.45875   0.000000000022937  -0.000000000000493  -0.000000000000198
C   -0.00000   3.56700  -0.00000   0.000000000023825  -0.000000000000608  -0.000000000001194
C   -0.00000   5.35050   1.78350   0.000000000023090   0.000000000000565   0.000000000000290
C    1.78350   3.56700   1.78350   0.000000000022593  -0.000000000000830   0.000000000000352
C    1.78350   5.35050  -0.00000   0.000000000023291   0.000000000000721  -0.000000000000758
C    0.89175   4.45875   0.89175   0.000000000023218  -0.000000000000499  -0.000000000000347
C    0.89175   6.24225   2.67525   0.000000000023589  -0.000000000000383   0.000000000000281
C    2.67525   4.45875   2.67525   0.000000000023436   0.000000000000119   0.000000000000690
C    2.67525   6.24225   0.89175   0.000000000023066  -0.000000000000097  -0.000000000000491
C   -0.00000   3.56700   3.56700   0.000000000022898  -0.000000000000336  -0.000000000000732
C   -0.00000   5.35050   5.35050   0.000000000023349   0.000000000000212   0.000000000000162
C    1.78350   3.56700   5.35050   0.000000000023407   0.000000000000121   0.000000000000134
C    1.78350   5.35050   3.56700   0.000000000024004  -0.000000000000055  -0.000000000000264
C    0.89175   4.45875   4.45875   0.000000000023018  -0.000000000000531  -0.000000000000495
C    0.89175   6.24225   6.24225   0.000000000022748   0.000000000000340  -0.000000000000282
C    2.67525   4.45875   6.24225   0.000000000024012   0.000000000000116  -0.000000000000598
C    2.67525   6.24225   4.45875   0.000000000024311  -0.000000000000191   0.000000000000105
C    3.56700  -0.00000  -0.00000   0.000000000023503   0.000000000000126  -0.000000000000508
C    3.56700   1.78350   1.78350   0.000000000022598   0.000000000000981  -0.000000000000798
C    5.35050  -0.00000   1.78350   0.000000000023307  -0.000000000000393   0.000000000000616
C    5.35050   1.78350  -0.00000   0.000000000023721  -0.000000000000476   0.000000000000007
C    4.45875   0.89175   0.89175   0.000000000023707   0.000000000000252  -0.000000000000907
C    4.45875   2.67525   2.67525   0.000000000022652   0.000000000000920   0.000000000000602
C    6.24225   0.89175   2.67525   0.000000000023629   0.000000000000872   0.000000000000610
C    6.24225   2.67525   0.89175   0.000000000024135  -0.000000000000542   0.000000000000072
C    3.56700  -0.00000   3.56700   0.000000000021894   0.000000000000426   0.000000000000591
C    3.56700   1.78350   5.35050   0.000000000022756  -0.000000000000568   0.000000000000926
C    5.35050  -0.00000   5.35050   0.000000000023910  -0.000000000000058  -0.000000000000136
C    5.35050   1.78350   3.56700   0.000000000023818   0.000000000000463  -0.000000000000345
C    4.45875   0.89175   4.45875   0.000000000022880  -0.000000000000432  -0.000000000000431
C    4.45875   2.67525   6.24225   0.000000000023234   0.000000000000543   0.000000000000570
C    6.24225   0.89175   6.24225   0.000000000023586  -0.000000000000237  -0.000000000000028
C    6.24225   2.67525   4.45875   0.000000000022782   0.000000000000029   0.000000000000074
C    3.56700   3.56700  -0.00000   0.000000000023636   0.000000000000178  -0.000000000000049
C    3.56700   5.35050   1.78350   0.000000000023150  -0.000000000000435  -0.000000000000208
C    5.35050   3.56700   1.78350   0.000000000023254   0.000000000000013   0.000000000000489
C    5.35050   5.35050  -0.00000   0.000000000022777  -0.000000000001226  -0.000000000000334
C    4.45875   4.45875   0.89175   0.000000000022912   0.000000000000416  -0.000000000000613
C    4.45875   6.24225   2.67525   0.000000000024091  -0.000000000000282  -0.000000000000119
C    6.24225   4.45875   2.67525   0.000000000023547   0.000000000000287  -0.000000000000290
C    6.24225   6.24225   0.89175   0.000000000023984  -0.000000000000149   0.000000000000686
C    3.56700   3.56700   3.56700   0.000000000024036   0.000000000000148  -0.000000000000587
C    3.56700   5.35050   5.35050   0.000000000024094   0.000000000000842   0.000000000000254
C    5.35050   3.56700   5.35050   0.000000000023511  -0.000000000000029   0.000000000000594
C    5.35050   5.35050   3.56700   0.000000000022682  -0.000000000000182  -0.000000000000421
C    4.45875   4.45875   4.45875   0.000000000023008   0.000000000000123  -0.000000000000171
C    4.45875   6.24225   6.24225   0.000000000022614  -0.000000000000999  -0.000000000000911
C    6.24225   4.45875   6.24225   0.000000000023300  -0.000000000000226   0.000000000000427
C    6.24225   6.24225   4.45875   0.000000000024253   0.000000000000278  -0.000000000000128
