216 

Si    0.67888   0.67888   0.67888   0.000006062332844   0.000006062371955   0.000006045532643
Si    3.39437   0.67888   3.39437  -0.000006062355072   0.000006062403275  -0.000006045396287
Si    0.67888   3.39437   3.39437   0.000006062423131  -0.000006062327142  -0.000006045457842
Si    3.39437   3.39437   0.67888  -0.000006062370581  -0.000006062447570   0.000006045470821
Si    4.75213   2.03662   2.03662   0.000008387522918   0.000000000028328  -0.000000000023228
Si    4.75213   4.75213   4.75213   0.000004937331749   0.000004937341859   0.000004941448771
Si    2.03662   2.03662   4.75213   0.000000000057512  -0.000000000038857   0.000008392728119
Si    2.03662   4.75213   2.03662  -0.000000000016337   0.000008387521678   0.000000000022527
Si    0.67888   0.67888   6.10987   0.000002760035580   0.000002759986688   0.000000195380749
Si    3.39437   0.67888   8.82538  -0.000004937261538   0.000004937340978   0.000004941568800
Si    0.67888   3.39437   8.82538   0.000004937324670  -0.000004937310407   0.000004941411066
Si    3.39437   3.39437   6.10987  -0.000002759980428  -0.000002759987533   0.000000195524792
Si    4.75213   2.03662   7.46762   0.000002774816034   0.000000200115890  -0.000002771120848
Si    4.75213   4.75213  10.18313   0.000002760123622   0.000002760073561  -0.000000195458513
Si    2.03662   2.03662  10.18313   0.000000000021680   0.000000000017407  -0.000000000040980
Si    2.03662   4.75213   7.46762   0.000000200153042   0.000002774863675  -0.000002771113616
Si    0.67888   0.67888  11.54087   0.000004937315593   0.000004937316749  -0.000004941551982
Si    3.39437   0.67888  14.25638  -0.000002760088762   0.000002759961716  -0.000000195510289
Si    0.67888   3.39437  14.25638   0.000002760015278  -0.000002760010992  -0.000000195406605
Si    3.39437   3.39437  11.54087  -0.000004937332904  -0.000004937387901  -0.000004941563253
Si    4.75213   2.03662  12.89863   0.000002774862818  -0.000000200047656   0.000002771118267
Si    4.75213   4.75213  15.61412   0.000006062400917   0.000006062409732  -0.000006045481988
Si    2.03662   2.03662  15.61412   0.000000000027223   0.000000000046884  -0.000008392755352
Si    2.03662   4.75213  12.89863  -0.000000200157393   0.000002774771565   0.000002771166553
Si    0.67888   6.10987   0.67888   0.000002774876007   0.000000200040314   0.000002771187172
Si    3.39437   6.10987   3.39437  -0.000002774873228   0.000000200041072  -0.000002771094365
Si    0.67888   8.82538   3.39437   0.000004937289820   0.000004937370415  -0.000004941474038
Si    3.39437   8.82538   0.67888  -0.000004937302280   0.000004937302489   0.000004941410585
Si    4.75213   7.46762   2.03662   0.000002760048090  -0.000002759992256   0.000000195472300
Si    4.75213  10.18313   4.75213   0.000002774899578  -0.000000200103929   0.000002771100717
Si    2.03662   7.46762   4.75213   0.000000200091510  -0.000002774762072   0.000002771147634
Si    2.03662  10.18313   2.03662   0.000000000009901   0.000000000062998  -0.000000000015279
Si    0.67888   6.10987   6.10987   0.000008387535259  -0.000000000007464  -0.000000000037052
Si    3.39437   6.10987   8.82538  -0.000002774838559  -0.000000200144490   0.000002771107006
Si    0.67888   8.82538   8.82538   0.000006062437047   0.000006062388654   0.000006045483276
Si    3.39437   8.82538   6.10987  -0.000002760023055   0.000002760032314  -0.000000195444989
Si    4.75213   7.46762   7.46762   0.000004937357079  -0.000004937263632  -0.000004941514721
Si    4.75213  10.18313  10.18313   0.000008387541612   0.000000000048208   0.000000000061970
Si    2.03662   7.46762  10.18313   0.000000000058738  -0.000008387550395   0.000000000002271
Si    2.03662  10.18313   7.46762  -0.000000000008074   0.000000000013379  -0.000008392694121
Si    0.67888   6.10987  11.54087   0.000002774839632  -0.000000200078007  -0.000002771190246
Si    3.39437   6.10987  14.25638  -0.000008387532557  -0.000000000031993  -0.000000000034090
Si    0.67888   8.82538  14.25638   0.000002760065464   0.000002760096880   0.000000195473641
Si    3.39437   8.82538  11.54087  -0.000006062326344   0.000006062386951  -0.000006045488003
Si    4.75213   7.46762  12.89863   0.000006062431178  -0.000006062389316   0.000006045494347
Si    4.75213  10.18313  15.61412   0.000002774853007   0.000000200111582  -0.000002771175366
Si    2.03662   7.46762  15.61412  -0.000000200053253  -0.000002774760511  -0.000002771067908
Si    2.03662  10.18313  12.89863   0.000000000075077   0.000000000012825   0.000008392754239
Si    0.67888  11.54087   0.67888   0.000004937295539  -0.000004937304012   0.000004941520233
Si    3.39437  11.54087   3.39437  -0.000004937337661  -0.000004937315849  -0.000004941547487
Si    0.67888  14.25638   3.39437   0.000002774792897  -0.000000200065744  -0.000002771091131
Si    3.39437  14.25638   0.67888  -0.000002774872246  -0.000000200048484   0.000002771164217
Si    4.75213  12.89863   2.03662   0.000002760112788   0.000002760042000  -0.000000195514358
Si    4.75213  15.61412   4.75213   0.000006062315391  -0.000006062366673   0.000006045541054
Si    2.03662  12.89863   4.75213  -0.000000200110290   0.000002774807977   0.000002771178920
Si    2.03662  15.61412   2.03662  -0.000000000038667  -0.000008387616871  -0.000000000028346
Si    0.67888  11.54087   6.10987   0.000002760006763  -0.000002759988931  -0.000000195507355
Si    3.39437  11.54087   8.82538  -0.000006062330866  -0.000006062373926   0.000006045549105
Si    0.67888  14.25638   8.82538   0.000002774874780   0.000000200063583   0.000002771118224
Si    3.39437  14.25638   6.10987  -0.000008387505364   0.000000000041330  -0.000000000003040
Si    4.75213  12.89863   7.46762   0.000006062398084   0.000006062374602  -0.000006045503870
Si    4.75213  15.61412  10.18313   0.000002760033466  -0.000002760004424   0.000000195564935
Si    2.03662  12.89863  10.18313   0.000000000016895   0.000008387540799   0.000000000028813
Si    2.03662  15.61412   7.46762  -0.000000200018503  -0.000002774821996  -0.000002771065623
Si    0.67888  11.54087  11.54087   0.000006062453496  -0.000006062368970  -0.000006045488191
Si    3.39437  11.54087  14.25638  -0.000002760041296  -0.000002759950925   0.000000195445686
Si    0.67888  14.25638  14.25638   0.000008387520296   0.000000000046384  -0.000000000045591
Si    3.39437  14.25638  11.54087  -0.000002774840210   0.000000200042451  -0.000002771128481
Si    4.75213  12.89863  12.89863   0.000004937410739   0.000004937325811   0.000004941447116
Si    4.75213  15.61412  15.61412   0.000004937293406  -0.000004937291807  -0.000004941573459
Si    2.03662  12.89863  15.61412   0.000000200102663   0.000002774769563  -0.000002771110500
Si    2.03662  15.61412  12.89863   0.000000200116062  -0.000002774775129   0.000002771109589
Si    6.10987   0.67888   0.67888   0.000000200158932   0.000002774781057   0.000002771122932
Si    8.82538   0.67888   3.39437   0.000004937356693   0.000004937355722  -0.000004941522202
Si    6.10987   3.39437   3.39437   0.000000200111652  -0.000002774831260  -0.000002771105492
Si    8.82538   3.39437   0.67888   0.000004937330514  -0.000004937277970   0.000004941492454
Si   10.18313   2.03662   2.03662   0.000000000060796  -0.000000000024525   0.000000000017193
Si   10.18313   4.75213   4.75213  -0.000000200126755   0.000002774808689   0.000002771159212
Si    7.46762   2.03662   4.75213  -0.000002774831689   0.000000200034925   0.000002771060438
Si    7.46762   4.75213   2.03662  -0.000002759971028   0.000002760009442   0.000000195447559
Si    6.10987   0.67888   6.10987   0.000000000059516   0.000008387593793  -0.000000000038969
Si    8.82538   0.67888   8.82538   0.000006062367993   0.000006062453609   0.000006045494414
Si    6.10987   3.39437   8.82538  -0.000000200091959  -0.000002774823452   0.000002771170183
Si    8.82538   3.39437   6.10987   0.000002760087620  -0.000002760012657  -0.000000195391899
Si   10.18313   2.03662   7.46762  -0.000000000032874  -0.000000000014563  -0.000008392810911
Si   10.18313   4.75213  10.18313   0.000000000003245   0.000008387546418   0.000000000074702
Si    7.46762   2.03662  10.18313  -0.000008387518261   0.000000000021127   0.000000000024984
Si    7.46762   4.75213   7.46762  -0.000004937366675   0.000004937262325  -0.000004941518221
Si    6.10987   0.67888  11.54087  -0.000000200146059   0.000002774828001  -0.000002771147988
Si    8.82538   0.67888  14.25638   0.000002760073534   0.000002760003037   0.000000195441408
Si    6.10987   3.39437  14.25638   0.000000000069593  -0.000008387428253  -0.000000000027873
Si    8.82538   3.39437  11.54087   0.000006062429937  -0.000006062374258  -0.000006045526088
Si   10.18313   2.03662  12.89863   0.000000000011627  -0.000000000041675   0.000008392762208
Si   10.18313   4.75213  15.61412   0.000000200170005   0.000002774833394  -0.000002771098739
Si    7.46762   2.03662  15.61412  -0.000002774783884  -0.000000200113052  -0.000002771118021
Si    7.46762   4.75213  12.89863  -0.000006062352267   0.000006062410942   0.000006045494112
Si    6.10987   6.10987   0.67888   0.000000000049611   0.000000000075250   0.000008392698335
Si    8.82538   6.10987   3.39437   0.000002774857898  -0.000000200132063  -0.000002771077714
Si    6.10987   8.82538   3.39437  -0.000000200092535   0.000002774808446  -0.000002771116326
Si    8.82538   8.82538   0.67888   0.000006062386377   0.000006062386142   0.000006045496868
Si   10.18313   7.46762   2.03662  -0.000000000022574  -0.000008387427251   0.000000000001640
Si   10.18313  10.18313   4.75213   0.000000000081885  -0.000000000013984   0.000008392654079
Si    7.46762   7.46762   4.75213  -0.000004937254647  -0.000004937305788   0.000004941598732
Si    7.46762  10.18313   2.03662  -0.000008387470180   0.000000000038928  -0.000000000000309
Si    6.10987   6.10987   6.10987   0.000000000067361  -0.000000000055031   0.000000000033091
Si    8.82538   6.10987   8.82538   0.000002774865937   0.000000200230722   0.000002771195869
Si    6.10987   8.82538   8.82538   0.000000200123465   0.000002774951041   0.000002771137050
Si    8.82538   8.82538   6.10987   0.000002759981206   0.000002760030501   0.000000195498229
Si   10.18313   7.46762   7.46762  -0.000000200037778  -0.000002774855195  -0.000002771131725
Si   10.18313  10.18313  10.18313   0.000000000084005  -0.000000000011347   0.000000000018852
Si    7.46762   7.46762  10.18313  -0.000002759998853  -0.000002760058325  -0.000000195432435
Si    7.46762  10.18313   7.46762  -0.000002774817074  -0.000000200113990  -0.000002771212405
Si    6.10987   6.10987  11.54087   0.000000000038023   0.000000000001348  -0.000008392729178
Si    8.82538   6.10987  14.25638   0.000008387545856  -0.000000000041412  -0.000000000043115
Si    6.10987   8.82538  14.25638   0.000000000052907   0.000008387527232  -0.000000000018760
Si    8.82538   8.82538  11.54087   0.000004937303960   0.000004937295013  -0.000004941444541
Si   10.18313   7.46762  12.89863   0.000000200123468  -0.000002774877679   0.000002771067298
Si   10.18313  10.18313  15.61412   0.000000000022998  -0.000000000007547  -0.000008392698321
Si    7.46762   7.46762  15.61412  -0.000006062387411  -0.000006062373880  -0.000006045488662
Si    7.46762  10.18313  12.89863  -0.000002774850397   0.000000200116353   0.000002771159310
Si    6.10987  11.54087   0.67888  -0.000000200103316  -0.000002774782671   0.000002771096261
Si    8.82538  11.54087   3.39437   0.000006062442001  -0.000006062398534  -0.000006045487047
Si    6.10987  14.25638   3.39437   0.000000000083229   0.000000000010519  -0.000008392741419
Si    8.82538  14.25638   0.67888   0.000002774792848   0.000000200067860   0.000002771122993
Si   10.18313  12.89863   2.03662   0.000000000046817   0.000008387540749   0.000000000035655
Si   10.18313  15.61412   4.75213   0.000000200155239  -0.000002774861283   0.000002771086958
Si    7.46762  12.89863   4.75213  -0.000006062322770   0.000006062407149   0.000006045525563
Si    7.46762  15.61412   2.03662  -0.000002759983493  -0.000002760079087  -0.000000195452689
Si    6.10987  11.54087   6.10987   0.000000000011906  -0.000008387517376  -0.000000000009316
Si    8.82538  11.54087   8.82538   0.000004937288059  -0.000004937280569   0.000004941488253
Si    6.10987  14.25638   8.82538  -0.000000000006354   0.000000000040422   0.000008392752008
Si    8.82538  14.25638   6.10987   0.000008387576814   0.000000000034660  -0.000000000032844
Si   10.18313  12.89863   7.46762   0.000000200051046   0.000002774773049  -0.000002771102813
Si   10.18313  15.61412  10.18313  -0.000000000020740  -0.000008387541958  -0.000000000004912
Si    7.46762  12.89863  10.18313  -0.000002760044847   0.000002760000357   0.000000195481159
Si    7.46762  15.61412   7.46762  -0.000006062404178  -0.000006062462847  -0.000006045492389
Si    6.10987  11.54087  11.54087   0.000000200069939  -0.000002774780717  -0.000002771140129
Si    8.82538  11.54087  14.25638   0.000002760028852  -0.000002760006214  -0.000000195471696
Si    6.10987  14.25638  14.25638   0.000000000060707   0.000000000019460   0.000000000039913
Si    8.82538  14.25638  11.54087   0.000002774867091  -0.000000200086635  -0.000002771171206
Si   10.18313  12.89863  12.89863  -0.000000200076532   0.000002774864911   0.000002771073953
Si   10.18313  15.61412  15.61412  -0.000000200040793  -0.000002774792207  -0.000002771183906
Si    7.46762  12.89863  15.61412  -0.000004937303091   0.000004937368813  -0.000004941520817
Si    7.46762  15.61412  12.89863  -0.000004937275193  -0.000004937333987   0.000004941555360
Si   11.54087   0.67888   0.67888  -0.000004937356483   0.000004937303926   0.000004941573355
Si   14.25638   0.67888   3.39437  -0.000000200092860   0.000002774821326  -0.000002771068673
Si   11.54087   3.39437   3.39437  -0.000004937350684  -0.000004937352721  -0.000004941589600
Si   14.25638   3.39437   0.67888  -0.000000200108523  -0.000002774801974   0.000002771144798
Si   15.61412   2.03662   2.03662  -0.000008387461971  -0.000000000017733   0.000000000000274
Si   15.61412   4.75213   4.75213  -0.000006062363433   0.000006062429147   0.000006045480623
Si   12.89863   2.03662   4.75213   0.000002774838708  -0.000000200072733   0.000002771107825
Si   12.89863   4.75213   2.03662   0.000002759988191   0.000002760016310  -0.000000195480183
Si   11.54087   0.67888   6.10987  -0.000002760028669   0.000002760007201  -0.000000195360100
Si   14.25638   0.67888   8.82538   0.000000200087440   0.000002774810093   0.000002771101051
Si   11.54087   3.39437   8.82538  -0.000006062364147  -0.000006062435336   0.000006045480095
Si   14.25638   3.39437   6.10987   0.000000000096334  -0.000008387550277   0.000000000014691
Si   15.61412   2.03662   7.46762  -0.000002774784474  -0.000000200059902  -0.000002771092468
Si   15.61412   4.75213  10.18313  -0.000002759964101   0.000002760065529   0.000000195499327
Si   12.89863   2.03662  10.18313   0.000008387581816   0.000000000047868  -0.000000000014671
Si   12.89863   4.75213   7.46762   0.000006062456388   0.000006062401538  -0.000006045509707
Si   11.54087   0.67888  11.54087  -0.000006062320693   0.000006062429721  -0.000006045546958
Si   14.25638   0.67888  14.25638  -0.000000000025101   0.000008387581883  -0.000000000043162
Si   11.54087   3.39437  14.25638  -0.000002759974159  -0.000002760001023   0.000000195505374
Si   14.25638   3.39437  11.54087   0.000000200105670  -0.000002774889827  -0.000002771052907
Si   15.61412   2.03662  12.89863  -0.000002774850050   0.000000200077576   0.000002771094547
Si   15.61412   4.75213  15.61412  -0.000004937295792   0.000004937329121  -0.000004941510811
Si   12.89863   2.03662  15.61412   0.000002774876884   0.000000200050763  -0.000002771161330
Si   12.89863   4.75213  12.89863   0.000004937293996   0.000004937355069   0.000004941544619
Si   11.54087   6.10987   0.67888  -0.000002774683389  -0.000000200048693   0.000002771108418
Si   14.25638   6.10987   3.39437   0.000000000026937  -0.000000000016775  -0.000008392733420
Si   11.54087   8.82538   3.39437  -0.000006062406704   0.000006062366797  -0.000006045548407
Si   14.25638   8.82538   0.67888   0.000000200148606   0.000002774735157   0.000002771122959
Si   15.61412   7.46762   2.03662  -0.000002759978687  -0.000002759922225  -0.000000195501179
Si   15.61412  10.18313   4.75213  -0.000002774767627   0.000000200132591   0.000002771128608
Si   12.89863   7.46762   4.75213   0.000006062488115  -0.000006062505515   0.000006045421387
Si   12.89863  10.18313   2.03662   0.000008387598903   0.000000000011921   0.000000000031411
Si   11.54087   6.10987   6.10987  -0.000008387487307  -0.000000000001356   0.000000000040277
Si   14.25638   6.10987   8.82538   0.000000000107863   0.000000000062701   0.000008392735990
Si   11.54087   8.82538   8.82538  -0.000004937362102   0.000004937285988   0.000004941516177
Si   14.25638   8.82538   6.10987   0.000000000090338   0.000008387496133   0.000000000025288
Si   15.61412   7.46762   7.46762  -0.000006062322423  -0.000006062345492  -0.000006045475769
Si   15.61412  10.18313  10.18313  -0.000008387455170  -0.000000000025219   0.000000000025319
Si   12.89863   7.46762  10.18313   0.000002760057417  -0.000002759933133   0.000000195454920
Si   12.89863  10.18313   7.46762   0.000002774923535   0.000000200115488  -0.000002771155386
Si   11.54087   6.10987  11.54087  -0.000002774793055   0.000000200164172  -0.000002770963350
Si   14.25638   6.10987  14.25638  -0.000000000034105   0.000000000029449  -0.000000000044941
Si   11.54087   8.82538  14.25638  -0.000002759975740   0.000002759975265  -0.000000195483183
Si   14.25638   8.82538  11.54087  -0.000000200066696   0.000002774874341  -0.000002771160274
Si   15.61412   7.46762  12.89863  -0.000004937274161  -0.000004937368091   0.000004941471587
Si   15.61412  10.18313  15.61412  -0.000002774740097  -0.000000200166740  -0.000002771074292
Si   12.89863   7.46762  15.61412   0.000004937294642  -0.000004937282420  -0.000004941538958
Si   12.89863  10.18313  12.89863   0.000002774901799  -0.000000200080929   0.000002771089372
Si   11.54087  11.54087   0.67888  -0.000006062422983  -0.000006062422627   0.000006045495634
Si   14.25638  11.54087   3.39437   0.000000200151278  -0.000002774853722  -0.000002771117725
Si   11.54087  14.25638   3.39437  -0.000002774823199   0.000000200147444  -0.000002771118771
Si   14.25638  14.25638   0.67888  -0.000000000000532  -0.000000000008962   0.000008392779015
Si   15.61412  12.89863   2.03662  -0.000002759969830   0.000002760002454   0.000000195417781
Si   15.61412  15.61412   4.75213  -0.000004937251964  -0.000004937328364   0.000004941454891
Si   12.89863  12.89863   4.75213   0.000004937389425   0.000004937303284   0.000004941482748
Si   12.89863  15.61412   2.03662   0.000002760010185  -0.000002760094897   0.000000195464813
Si   11.54087  11.54087   6.10987  -0.000002759971536  -0.000002760019736   0.000000195472695
Si   14.25638  11.54087   8.82538  -0.000000200034942  -0.000002774838692   0.000002771136856
Si   11.54087  14.25638   8.82538  -0.000002774745067  -0.000000200048548   0.000002771144990
Si   14.25638  14.25638   6.10987   0.000000000112259  -0.000000000042551   0.000000000010061
Si   15.61412  12.89863   7.46762  -0.000004937304660   0.000004937264646  -0.000004941476070
Si   15.61412  15.61412  10.18313  -0.000002760060120  -0.000002760047995  -0.000000195394305
Si   12.89863  12.89863  10.18313   0.000002760033412   0.000002760086992  -0.000000195463796
Si   12.89863  15.61412   7.46762   0.000004937259322  -0.000004937321733  -0.000004941514817
Si   11.54087  11.54087  11.54087  -0.000004937217202  -0.000004937335122  -0.000004941480735
Si   14.25638  11.54087  14.25638   0.000000000050284  -0.000008387492102  -0.000000000059653
Si   11.54087  14.25638  14.25638  -0.000008387435879   0.000000000013382   0.000000000048421
Si   14.25638  14.25638  11.54087  -0.000000000024093   0.000000000027503  -0.000008392768918
Si   15.61412  12.89863  12.89863  -0.000006062385576   0.000006062409298   0.000006045516512
Si   15.61412  15.61412  15.61412  -0.000006062347273  -0.000006062440774  -0.000006045465573
Si   12.89863  12.89863  15.61412   0.000006062424401   0.000006062400463  -0.000006045453380
Si   12.89863  15.61412  12.89863   0.000006062428031  -0.000006062360918   0.000006045542844
