216 

Si    0.72888   0.67888   0.67888   0.013631496643086   0.000002001554987   0.000002001676267
Si    3.39437   0.67888   3.39437  -0.000195061742348   0.000124669189906  -0.000201389108954
Si    0.67888   3.39437   3.39437   0.000433612183120  -0.000118058776110  -0.000118388041000
Si    3.39437   3.39437   0.67888  -0.000195097785293  -0.000201501848400   0.000125079861618
Si    4.75213   2.03662   2.03662   0.000008523672148   0.000027577407673   0.000027698255390
Si    4.75213   4.75213   4.75213   0.000015186635073   0.000008178968908   0.000008176152282
Si    2.03662   2.03662   4.75213   0.000034200759820  -0.000037171909712   0.000036344780114
Si    2.03662   4.75213   2.03662   0.000034099875521   0.000036432966883  -0.000037251074670
Si    0.67888   0.67888   6.10987  -0.000020661574763   0.000002850133559   0.000000635227326
Si    3.39437   0.67888   8.82538  -0.000019862343901   0.000008157666765   0.000008160550769
Si    0.67888   3.39437   8.82538  -0.000005500573199  -0.000008086555377   0.000010822702036
Si    3.39437   3.39437   6.10987  -0.000016807740728   0.000020978933421  -0.000003356753833
Si    4.75213   2.03662   7.46762  -0.000000011626575  -0.000007644125357  -0.000000929610654
Si    4.75213   4.75213  10.18313   0.000003068974953  -0.000019402570161  -0.000004682758122
Si    2.03662   2.03662  10.18313   0.000016297300696   0.000000112348207   0.000002760315084
Si    2.03662   4.75213   7.46762   0.000010338788991  -0.000005955352537   0.000007312699941
Si    0.67888   0.67888  11.54087  -0.000015374172656   0.000008201961472  -0.000007925125590
Si    3.39437   0.67888  14.25638  -0.000189138035662  -0.000112695216688   0.000191720135846
Si    0.67888   3.39437  14.25638   0.000432167030880   0.000113039974419  -0.000117147002907
Si    3.39437   3.39437  11.54087  -0.000022190522036   0.000016430343223   0.000003317725283
Si    4.75213   2.03662  12.89863  -0.000016981584509   0.000054661002451   0.000024694351754
Si    4.75213   4.75213  15.61412  -0.000010850751758  -0.000012849035895  -0.000064389308729
Si    2.03662   2.03662  15.61412  -0.003409349444145  -0.002468382042805   0.002461240135263
Si    2.03662   4.75213  12.89863  -0.000177947579050   0.000057679788676  -0.000051969759096
Si    0.67888   6.10987   0.67888  -0.000020499689803   0.000000646005855   0.000002873384228
Si    3.39437   6.10987   3.39437  -0.000016839272293  -0.000003365008874   0.000020961416594
Si    0.67888   8.82538   3.39437  -0.000005649341134   0.000010767382277  -0.000008085302817
Si    3.39437   8.82538   0.67888  -0.000019774232727   0.000008156330213   0.000008161582175
Si    4.75213   7.46762   2.03662  -0.000000000222005  -0.000000915253802  -0.000007649083200
Si    4.75213  10.18313   4.75213   0.000003189945240  -0.000004690578895  -0.000019394805010
Si    2.03662   7.46762   4.75213   0.000010344403685   0.000007287128784  -0.000005920151483
Si    2.03662  10.18313   2.03662   0.000016273551979   0.000002743618037   0.000000286950071
Si    0.67888   6.10987   6.10987   0.000110647807847  -0.000020539332454  -0.000020570975717
Si    3.39437   6.10987   8.82538  -0.000005692641339   0.000014356994381   0.000004389993009
Si    0.67888   8.82538   8.82538   0.000105425877678   0.000008974851184   0.000008956316658
Si    3.39437   8.82538   6.10987  -0.000005686138486   0.000004376978376   0.000014361556944
Si    4.75213   7.46762   7.46762   0.000008932312523  -0.000012515319707  -0.000012515846489
Si    4.75213  10.18313  10.18313   0.000007892378832   0.000004358796876   0.000004355157362
Si    2.03662   7.46762  10.18313  -0.000061827921042  -0.000005674428646  -0.000001441680883
Si    2.03662  10.18313   7.46762  -0.000061828059608  -0.000001446422961  -0.000005685451833
Si    0.67888   6.10987  11.54087   0.000107982865640   0.000019456519108  -0.000023252877739
Si    3.39437   6.10987  14.25638  -0.000021125728344  -0.000011462221577  -0.000024502778873
Si    0.67888   8.82538  14.25638  -0.000010931520584   0.000000262838263   0.000000794392534
Si    3.39437   8.82538  11.54087  -0.000011787469577   0.000007469620432  -0.000024187997320
Si    4.75213   7.46762  12.89863   0.000009270941811  -0.000005160299899   0.000031237615730
Si    4.75213  10.18313  15.61412   0.000000018184392  -0.000001082330684   0.000005630655448
Si    2.03662   7.46762  15.61412   0.000015398960904  -0.000005635165078  -0.000003172440478
Si    2.03662  10.18313  12.89863   0.000009468194185  -0.000010176086394   0.000015932189218
Si    0.67888  11.54087   0.67888  -0.000015240879870  -0.000007926274333   0.000008177845568
Si    3.39437  11.54087   3.39437  -0.000022172888966   0.000003308798597   0.000016336561050
Si    0.67888  14.25638   3.39437   0.000432187822733  -0.000116811133547   0.000113369537753
Si    3.39437  14.25638   0.67888  -0.000189182139205   0.000191809732693  -0.000113111185285
Si    4.75213  12.89863   2.03662  -0.000016954889881   0.000024693374589   0.000054545134584
Si    4.75213  15.61412   4.75213  -0.000010895948106  -0.000064529280098  -0.000012855376622
Si    2.03662  12.89863   4.75213  -0.000177947592577  -0.000051908959743   0.000057730678710
Si    2.03662  15.61412   2.03662  -0.003409346989045   0.002461151862275  -0.002468478042024
Si    0.67888  11.54087   6.10987   0.000107965190349  -0.000023203097102   0.000019499002092
Si    3.39437  11.54087   8.82538  -0.000011776872337  -0.000024207355874   0.000007451117172
Si    0.67888  14.25638   8.82538  -0.000010765614474   0.000000805009659   0.000000224522748
Si    3.39437  14.25638   6.10987  -0.000021140161252  -0.000024595464033  -0.000011475155181
Si    4.75213  12.89863   7.46762   0.000009167698450   0.000031250359602  -0.000005144066457
Si    4.75213  15.61412  10.18313  -0.000000026970761   0.000005643886081  -0.000001086433646
Si    2.03662  12.89863  10.18313   0.000009462760363   0.000015965203093  -0.000010197347710
Si    2.03662  15.61412   7.46762   0.000015421965201  -0.000003002449221  -0.000005647609159
Si    0.67888  11.54087  11.54087   0.000112503744704   0.000011568068544   0.000011618285076
Si    3.39437  11.54087  14.25638  -0.000016812998060   0.000001363510061  -0.000022977107929
Si    0.67888  14.25638  14.25638   0.000431698252996   0.000108991290869   0.000109337614427
Si    3.39437  14.25638  11.54087  -0.000016816634507  -0.000022974109957   0.000001336499723
Si    4.75213  12.89863  12.89863   0.000015187548277   0.000008134084685   0.000008144548082
Si    4.75213  15.61412  15.61412   0.000009488385697  -0.000035695622939  -0.000035820978853
Si    2.03662  12.89863  15.61412   0.000034991264455  -0.000026407088006   0.000034369538132
Si    2.03662  15.61412  12.89863   0.000035090538932   0.000034286061487  -0.000026315344866
Si    6.10987   0.67888   0.67888  -0.000004694972660   0.000002878095215   0.000002874542519
Si    8.82538   0.67888   3.39437   0.000006440516263   0.000005524200958  -0.000008023212429
Si    6.10987   3.39437   3.39437   0.000002863808005  -0.000014376205453  -0.000014377720876
Si    8.82538   3.39437   0.67888   0.000006456106012  -0.000008018319014   0.000005508673815
Si   10.18313   2.03662   2.03662  -0.000001362710321   0.000002676988186   0.000002703738791
Si   10.18313   4.75213   4.75213   0.000000771200777  -0.000000876735509  -0.000000915834292
Si    7.46762   2.03662   4.75213   0.000000589764771   0.000011289479659   0.000004667915928
Si    7.46762   4.75213   2.03662   0.000000623463677   0.000004669765423   0.000011291374092
Si    6.10987   0.67888   6.10987  -0.000004377856553   0.000028316367028  -0.000014481480361
Si    8.82538   0.67888   8.82538   0.000006835924444   0.000008978112022   0.000008956339737
Si    6.10987   3.39437   8.82538  -0.000000579901105   0.000012231863421   0.000001087969992
Si    8.82538   3.39437   6.10987   0.000005868309717  -0.000004469881660   0.000000851746377
Si   10.18313   2.03662   7.46762  -0.000003953518170  -0.000000891021428  -0.000006381321748
Si   10.18313   4.75213  10.18313   0.000005001706995   0.000011501672210  -0.000007282923247
Si    7.46762   2.03662  10.18313  -0.000011378372852   0.000001939670422   0.000001106254006
Si    7.46762   4.75213   7.46762  -0.000003126771452   0.000004002429813  -0.000015437239843
Si    6.10987   0.67888  11.54087  -0.000005252228097  -0.000018303287950   0.000011595045275
Si    8.82538   0.67888  14.25638   0.000001155961422   0.000005506075557   0.000000732045513
Si    6.10987   3.39437  14.25638   0.000002095387281  -0.000011610851126   0.000004471878363
Si    8.82538   3.39437  11.54087   0.000012129828122  -0.000007492457621  -0.000007129411703
Si   10.18313   2.03662  12.89863   0.000003411420475  -0.000010151628999   0.000009089147162
Si   10.18313   4.75213  15.61412   0.000004302337311   0.000000909854146   0.000007273640096
Si    7.46762   2.03662  15.61412  -0.000003987859520  -0.000003805574595   0.000000066969999
Si    7.46762   4.75213  12.89863  -0.000007363714069   0.000012882415235   0.000005013924528
Si    6.10987   6.10987   0.67888  -0.000004493142828  -0.000014494708397   0.000028280687632
Si    8.82538   6.10987   3.39437   0.000005886226619   0.000000845179202  -0.000004477072387
Si    6.10987   8.82538   3.39437  -0.000000588708117   0.000001093396788   0.000012220955811
Si    8.82538   8.82538   0.67888   0.000006789780221   0.000008974819094   0.000008959519857
Si   10.18313   7.46762   2.03662  -0.000003943012670  -0.000006385482310  -0.000000908674673
Si   10.18313  10.18313   4.75213   0.000004996103456  -0.000007271260371   0.000011526005598
Si    7.46762   7.46762   4.75213  -0.000003131508937  -0.000015420555788   0.000003988545935
Si    7.46762  10.18313   2.03662  -0.000011365275434   0.000001096579586   0.000001957035612
Si    6.10987   6.10987   6.10987  -0.000003938199588   0.000003375859496   0.000003375381217
Si    8.82538   6.10987   8.82538   0.000001957544720   0.000000836535567   0.000002885990710
Si    6.10987   8.82538   8.82538  -0.000000922261280   0.000002889311158   0.000002885024928
Si    8.82538   8.82538   6.10987   0.000001947224809   0.000002859936681   0.000000831174668
Si   10.18313   7.46762   7.46762  -0.000001925900018  -0.000002007986531  -0.000002026000054
Si   10.18313  10.18313  10.18313  -0.000001050850827  -0.000000881434784  -0.000000859179000
Si    7.46762   7.46762  10.18313  -0.000003881987901  -0.000003824700411   0.000000060256601
Si    7.46762  10.18313   7.46762  -0.000003899201539   0.000000076939995  -0.000003815271635
Si    6.10987   6.10987  11.54087  -0.000003806953712   0.000003471989339  -0.000010586364657
Si    8.82538   6.10987  14.25638   0.000010271156688  -0.000001826274465  -0.000001476488209
Si    6.10987   8.82538  14.25638   0.000000287648776   0.000008916632713  -0.000015107497927
Si    8.82538   8.82538  11.54087   0.000007231913855   0.000008170098581  -0.000008122817457
Si   10.18313   7.46762  12.89863   0.000005870575736   0.000004382040956  -0.000001514718846
Si   10.18313  10.18313  15.61412  -0.000003942913024  -0.000000733685918  -0.000006221333459
Si    7.46762   7.46762  15.61412  -0.000013224831549  -0.000010072445859  -0.000010915255494
Si    7.46762  10.18313  12.89863   0.000002136169295   0.000008137283098   0.000007059978867
Si    6.10987  11.54087   0.67888  -0.000005367009795   0.000011604127205  -0.000018266155861
Si    8.82538  11.54087   3.39437   0.000012128639626  -0.000007148983763  -0.000007478957232
Si    6.10987  14.25638   3.39437   0.000002095572102   0.000004492735648  -0.000011596311231
Si    8.82538  14.25638   0.67888   0.000001188756448   0.000000736905552   0.000005538799152
Si   10.18313  12.89863   2.03662   0.000003427559629   0.000009099617805  -0.000010160677682
Si   10.18313  15.61412   4.75213   0.000004286285046   0.000007260310093   0.000000922366309
Si    7.46762  12.89863   4.75213  -0.000007363813275   0.000005065241279   0.000012896794397
Si    7.46762  15.61412   2.03662  -0.000003970364690   0.000000054866804  -0.000003824905731
Si    6.10987  11.54087   6.10987  -0.000003806855271  -0.000010592790898   0.000003459182620
Si    8.82538  11.54087   8.82538   0.000007224844912  -0.000008118479881   0.000008161040706
Si    6.10987  14.25638   8.82538   0.000000296434961  -0.000015122542096   0.000008924242217
Si    8.82538  14.25638   6.10987   0.000010272231741  -0.000001481395334  -0.000001827486634
Si   10.18313  12.89863   7.46762   0.000005876261547  -0.000001492604480   0.000004398058569
Si   10.18313  15.61412  10.18313  -0.000003953350619  -0.000006232432087  -0.000000744248554
Si    7.46762  12.89863  10.18313   0.000002158101734   0.000007028996320   0.000008144267497
Si    7.46762  15.61412   7.46762  -0.000013238048419  -0.000010916202178  -0.000010063763981
Si    6.10987  11.54087  11.54087  -0.000003064406002  -0.000006265093848  -0.000006260355094
Si    8.82538  11.54087  14.25638   0.000005867267851  -0.000004592731173   0.000000719729739
Si    6.10987  14.25638  14.25638   0.000001997237429   0.000011479731766   0.000011485535956
Si    8.82538  14.25638  11.54087   0.000005883839087   0.000000719895870  -0.000004606570593
Si   10.18313  12.89863  12.89863   0.000000773546688   0.000006660445351   0.000006691079600
Si   10.18313  15.61412  15.61412  -0.000002236013070  -0.000005565506518  -0.000005587892697
Si    7.46762  12.89863  15.61412  -0.000004661107247   0.000006359802414  -0.000018584099616
Si    7.46762  15.61412  12.89863  -0.000004677856142  -0.000018572623603   0.000006378820314
Si   11.54087   0.67888   0.67888  -0.000013432556852   0.000008148486327   0.000008152468870
Si   14.25638   0.67888   3.39437  -0.000179293254385   0.000112577183714   0.000182474441739
Si   11.54087   3.39437   3.39437  -0.000006634221628  -0.000003531354682  -0.000003555120044
Si   14.25638   3.39437   0.67888  -0.000179326435112   0.000182545436085   0.000112983816845
Si   15.61412   2.03662   2.03662  -0.003262979702360   0.002166831257639   0.002166943672672
Si   15.61412   4.75213   4.75213  -0.000180889504237  -0.000045691082651  -0.000045774765376
Si   12.89863   2.03662   4.75213  -0.000014354162173  -0.000055149594412   0.000022769871856
Si   12.89863   4.75213   2.03662  -0.000014313707851   0.000022761582054  -0.000055026483915
Si   11.54087   0.67888   6.10987  -0.000006654255049   0.000022727601082   0.000013094770457
Si   14.25638   0.67888   8.82538  -0.000011123681759   0.000002890964094   0.000002884677715
Si   11.54087   3.39437   8.82538  -0.000008754162842  -0.000024322220745   0.000007223139340
Si   14.25638   3.39437   6.10987  -0.000014138576440  -0.000031369907480   0.000011734327774
Si   15.61412   2.03662   7.46762   0.000013583603861  -0.000001250056895  -0.000000004867819
Si   15.61412   4.75213  10.18313   0.000006427113087   0.000011801957547   0.000011225276368
Si   12.89863   2.03662  10.18313   0.000004478701424   0.000009193142300   0.000001800657774
Si   12.89863   4.75213   7.46762   0.000009179926831   0.000031443512069  -0.000012888679816
Si   11.54087   0.67888  11.54087  -0.000012753762406  -0.000010875654904  -0.000022916195535
Si   14.25638   0.67888  14.25638  -0.000178476263595  -0.000102458653164  -0.000185401893562
Si   11.54087   3.39437  14.25638  -0.000000999956179   0.000008811111705  -0.000010820348617
Si   14.25638   3.39437  11.54087  -0.000013369519014  -0.000027768650958  -0.000007712380649
Si   15.61412   2.03662  12.89863   0.000029304112914   0.000040271960268   0.000029994498893
Si   15.61412   4.75213  15.61412   0.000023879716278  -0.000019099855102  -0.000047610606885
Si   12.89863   2.03662  15.61412   0.000005123556345  -0.000027794048505   0.000025945388422
Si   12.89863   4.75213  12.89863   0.000015178138016   0.000008313624718   0.000008007055539
Si   11.54087   6.10987   0.67888  -0.000006776122356   0.000013101467386   0.000022699278360
Si   14.25638   6.10987   3.39437  -0.000014122692104   0.000011720186655  -0.000031296808519
Si   11.54087   8.82538   3.39437  -0.000008763515497   0.000007242099345  -0.000024291385490
Si   14.25638   8.82538   0.67888  -0.000011039977761   0.000002889077583   0.000002886653673
Si   15.61412   7.46762   2.03662   0.000013590347477  -0.000000009255099  -0.000001438063524
Si   15.61412  10.18313   4.75213   0.000006409632810   0.000011208016279   0.000011783579460
Si   12.89863   7.46762   4.75213   0.000009279510474  -0.000012910230062   0.000031432719459
Si   12.89863  10.18313   2.03662   0.000004503905064   0.000001802472514   0.000009187929887
Si   11.54087   6.10987   6.10987  -0.000010932395448  -0.000003430321977  -0.000003419072046
Si   14.25638   6.10987   8.82538  -0.000002608717343  -0.000015200756053   0.000008670189123
Si   11.54087   8.82538   8.82538  -0.000009845995949   0.000008157117183   0.000008161146913
Si   14.25638   8.82538   6.10987  -0.000002619341973   0.000008663975941  -0.000015200032063
Si   15.61412   7.46762   7.46762  -0.000070101058833  -0.000010403583523  -0.000010379715637
Si   15.61412  10.18313  10.18313  -0.000068237494791   0.000001425703594   0.000001420311600
Si   12.89863   7.46762  10.18313   0.000003466936773   0.000001351502961  -0.000003351759894
Si   12.89863  10.18313   7.46762   0.000003484148030  -0.000003350761157   0.000001333879072
Si   11.54087   6.10987  11.54087  -0.000006663239581  -0.000002632510289   0.000000620813418
Si   14.25638   6.10987  14.25638  -0.000014260279638   0.000004841034559   0.000024889282262
Si   11.54087   8.82538  14.25638  -0.000002661863794   0.000004605130262   0.000014464991019
Si   14.25638   8.82538  11.54087  -0.000003494442874   0.000001345240863   0.000012312024486
Si   15.61412   7.46762  12.89863   0.000001142593763  -0.000018491504519  -0.000000735516282
Si   15.61412  10.18313  15.61412   0.000013573169951  -0.000003739352301  -0.000002322193354
Si   12.89863   7.46762  15.61412   0.000005539852345  -0.000009958045373  -0.000017350321989
Si   12.89863  10.18313  12.89863   0.000003203061412   0.000003064525895  -0.000019590632561
Si   11.54087  11.54087   0.67888  -0.000012857985748  -0.000022947016749  -0.000010852819017
Si   14.25638  11.54087   3.39437  -0.000013383494771  -0.000007731592314  -0.000027768760731
Si   11.54087  14.25638   3.39437  -0.000001017261215  -0.000010807324609   0.000008805489140
Si   14.25638  14.25638   0.67888  -0.000178502042103  -0.000185477943762  -0.000102862969635
Si   15.61412  12.89863   2.03662   0.000029154691173   0.000030078377762   0.000040347473404
Si   15.61412  15.61412   4.75213   0.000024045626131  -0.000047531407817  -0.000018999234622
Si   12.89863  12.89863   4.75213   0.000015177807444   0.000007999580537   0.000008314615236
Si   12.89863  15.61412   2.03662   0.000005106996268   0.000025846375187  -0.000027912034520
Si   11.54087  11.54087   6.10987  -0.000006645954017   0.000000634716263  -0.000002637045563
Si   14.25638  11.54087   8.82538  -0.000003483818927   0.000012308426913   0.000001341281670
Si   11.54087  14.25638   8.82538  -0.000002669822466   0.000014471726906   0.000004618509655
Si   14.25638  14.25638   6.10987  -0.000014247942748   0.000024884279647   0.000004826250875
Si   15.61412  12.89863   7.46762   0.000001142904954  -0.000000770650404  -0.000018518433295
Si   15.61412  15.61412  10.18313   0.000013602231172  -0.000002502772708  -0.000003751230597
Si   12.89863  12.89863  10.18313   0.000003086983981  -0.000019595293613   0.000003067278030
Si   12.89863  15.61412   7.46762   0.000005514144158  -0.000017351488227  -0.000009960443427
Si   11.54087  11.54087  11.54087  -0.000011969360764  -0.000004725887027  -0.000004741254829
Si   14.25638  11.54087  14.25638  -0.000014129891525  -0.000018837068111   0.000024172047010
Si   11.54087  14.25638  14.25638  -0.000005603566657  -0.000004634210155  -0.000004614426076
Si   14.25638  14.25638  11.54087  -0.000014143708540   0.000024253171106  -0.000018857820488
Si   15.61412  12.89863  12.89863  -0.000180894664130   0.000063663817422   0.000063711046556
Si   15.61412  15.61412  15.61412  -0.003264895458022  -0.002175708262171  -0.002175807878315
Si   12.89863  12.89863  15.61412  -0.000008187581367  -0.000010903735203   0.000045157190929
Si   12.89863  15.61412  12.89863  -0.000008244904646   0.000045255773594  -0.000010917192800
