216 

Si    0.72888   0.67888   0.67888   0.013554451769565   0.000001990652905   0.000001990772183
Si    3.39437   0.67888   3.39437  -0.000199988981834   0.000120263464105  -0.000193513011370
Si    0.67888   3.39437   3.39437   0.000422773507509  -0.000114168540297  -0.000114502606436
Si    3.39437   3.39437   0.67888  -0.000200041521898  -0.000193657885111   0.000120663333896
Si    4.75213   2.03662   2.03662   0.000010576537908   0.000025270584938   0.000025402005287
Si    4.75213   4.75213   4.75213   0.000016297026102   0.000007132985684   0.000007123592028
Si    2.03662   2.03662   4.75213   0.000033542896727  -0.000036256950131   0.000033870790427
Si    2.03662   4.75213   2.03662   0.000033457683360   0.000033950179730  -0.000036346129232
Si    0.67888   0.67888   6.10987  -0.000019083985182   0.000002861939618   0.000000654411368
Si    3.39437   0.67888   8.82538  -0.000020011012085   0.000008154455578   0.000008156473929
Si    0.67888   3.39437   8.82538  -0.000003687955593  -0.000008030987177   0.000011482734597
Si    3.39437   3.39437   6.10987  -0.000019399983117   0.000022373552857  -0.000003057802395
Si    4.75213   2.03662   7.46762   0.000001035395967  -0.000009020288893  -0.000000594158040
Si    4.75213   4.75213  10.18313   0.000002568167558  -0.000017223996510  -0.000003758261228
Si    2.03662   2.03662  10.18313   0.000015283813881   0.000001235888048   0.000002271951361
Si    2.03662   4.75213   7.46762   0.000012657080059  -0.000007455138622   0.000008759059022
Si    0.67888   0.67888  11.54087  -0.000013794218595   0.000008180519319  -0.000007935556056
Si    3.39437   0.67888  14.25638  -0.000194038224398  -0.000108273316058   0.000183817403365
Si    0.67888   3.39437  14.25638   0.000422018084751   0.000108391869330  -0.000112503321932
Si    3.39437   3.39437  11.54087  -0.000024784672319   0.000017871569425   0.000003896853388
Si    4.75213   2.03662  12.89863  -0.000016026311717   0.000051357101372   0.000024938088243
Si    4.75213   4.75213  15.61412  -0.000009864536272  -0.000013065706611  -0.000061117104804
Si    2.03662   2.03662  15.61412  -0.003371499249724  -0.002473715219312   0.002466596836924
Si    2.03662   4.75213  12.89863  -0.000177682179428   0.000054530214536  -0.000048808646024
Si    0.67888   6.10987   0.67888  -0.000018923238216   0.000000663855295   0.000002869315370
Si    3.39437   6.10987   3.39437  -0.000019464184888  -0.000003057164843   0.000022348851984
Si    0.67888   8.82538   3.39437  -0.000003743744372   0.000011455993671  -0.000008029891800
Si    3.39437   8.82538   0.67888  -0.000019971761167   0.000008152963502   0.000008157706105
Si    4.75213   7.46762   2.03662   0.000001049525795  -0.000000597245265  -0.000009039661209
Si    4.75213  10.18313   4.75213   0.000002692482162  -0.000003774376671  -0.000017203623186
Si    2.03662   7.46762   4.75213   0.000012645058173   0.000008754341159  -0.000007405362326
Si    2.03662  10.18313   2.03662   0.000015293155273   0.000002251112323   0.000001448687953
Si    0.67888   6.10987   6.10987   0.000108632976831  -0.000020934211740  -0.000020952725984
Si    3.39437   6.10987   8.82538  -0.000007160326059   0.000014920097137   0.000006025815840
Si    0.67888   8.82538   8.82538   0.000118916477838   0.000008999708047   0.000008981294213
Si    3.39437   8.82538   6.10987  -0.000007152319346   0.000006016494582   0.000014925014611
Si    4.75213   7.46762   7.46762   0.000009623998339  -0.000012779656539  -0.000012788578227
Si    4.75213  10.18313  10.18313   0.000008585671998   0.000004626580566   0.000004632019738
Si    2.03662   7.46762  10.18313  -0.000063031181063  -0.000005492234870  -0.000001646417636
Si    2.03662  10.18313   7.46762  -0.000063031287237  -0.000001625889323  -0.000005478367960
Si    0.67888   6.10987  11.54087   0.000106104278860   0.000019950772995  -0.000023733139012
Si    3.39437   6.10987  14.25638  -0.000023728042025  -0.000012045954594  -0.000025916110279
Si    0.67888   8.82538  14.25638  -0.000009028787302  -0.000000435009463   0.000000748178585
Si    3.39437   8.82538  11.54087  -0.000013283862303   0.000005850053685  -0.000024781961945
Si    4.75213   7.46762  12.89863   0.000008804212093  -0.000006105870986   0.000029066691108
Si    4.75213  10.18313  15.61412   0.000001067916069  -0.000001390081866   0.000007032943865
Si    2.03662   7.46762  15.61412   0.000014414254530  -0.000005135964378  -0.000004327978971
Si    2.03662  10.18313  12.89863   0.000011764844955  -0.000011637981693   0.000017408391531
Si    0.67888  11.54087   0.67888  -0.000013663068630  -0.000007936301385   0.000008172230226
Si    3.39437  11.54087   3.39437  -0.000024775193869   0.000003895940923   0.000017752856614
Si    0.67888  14.25638   3.39437   0.000422039671631  -0.000112161652755   0.000108726281293
Si    3.39437  14.25638   0.67888  -0.000194099167138   0.000183939712106  -0.000108677920331
Si    4.75213  12.89863   2.03662  -0.000016000498257   0.000024930489045   0.000051245068190
Si    4.75213  15.61412   4.75213  -0.000009909288010  -0.000061252537948  -0.000013078162200
Si    2.03662  12.89863   4.75213  -0.000177682285398  -0.000048770853918   0.000054557727563
Si    2.03662  15.61412   2.03662  -0.003371496775684   0.002466480752726  -0.002473839287585
Si    0.67888  11.54087   6.10987   0.000106085903547  -0.000023696959124   0.000019978732184
Si    3.39437  11.54087   8.82538  -0.000013274051186  -0.000024800516781   0.000005835747580
Si    0.67888  14.25638   8.82538  -0.000008955378293   0.000000757539781  -0.000000444809431
Si    3.39437  14.25638   6.10987  -0.000023734296450  -0.000026034411273  -0.000012050236628
Si    4.75213  12.89863   7.46762   0.000008698185384   0.000029091697570  -0.000006098562940
Si    4.75213  15.61412  10.18313   0.000001018734849   0.000007031752869  -0.000001411636003
Si    2.03662  12.89863  10.18313   0.000011776909365   0.000017455853714  -0.000011638292334
Si    2.03662  15.61412   7.46762   0.000014404580410  -0.000004120284967  -0.000005152444885
Si    0.67888  11.54087  11.54087   0.000110516351924   0.000011937876516   0.000011974787089
Si    3.39437  11.54087  14.25638  -0.000019436171037   0.000001065952217  -0.000024353509656
Si    0.67888  14.25638  14.25638   0.000420829963892   0.000105075498308   0.000105426454171
Si    3.39437  14.25638  11.54087  -0.000019408572069  -0.000024357522433   0.000001047957504
Si    4.75213  12.89863  12.89863   0.000016298083100   0.000009173184005   0.000009189113866
Si    4.75213  15.61412  15.61412   0.000011542959971  -0.000033388138968  -0.000033523299369
Si    2.03662  12.89863  15.61412   0.000034356435133  -0.000023936411165   0.000033472184937
Si    2.03662  15.61412  12.89863   0.000034439558048   0.000033378673943  -0.000023853255485
Si    6.10987   0.67888   0.67888  -0.000005157087620   0.000002872319548   0.000002868706204
Si    8.82538   0.67888   3.39437   0.000005832124335   0.000004821139018  -0.000008019491094
Si    6.10987   3.39437   3.39437   0.000002265757059  -0.000015117119529  -0.000015111092148
Si    8.82538   3.39437   0.67888   0.000005856680415  -0.000008015542568   0.000004835374343
Si   10.18313   2.03662   2.03662   0.000000019176413   0.000002241473266   0.000002255155108
Si   10.18313   4.75213   4.75213  -0.000001029782441   0.000000063872900   0.000000049875823
Si    7.46762   2.03662   4.75213   0.000000525097016   0.000012658053860   0.000004997590699
Si    7.46762   4.75213   2.03662   0.000000536033003   0.000004987337493   0.000012660324316
Si    6.10987   0.67888   6.10987  -0.000000624010964   0.000028678612091  -0.000012286207559
Si    8.82538   0.67888   8.82538   0.000010650550653   0.000009002691582   0.000008981079860
Si    6.10987   3.39437   8.82538   0.000000209835417   0.000012739758365   0.000001216338975
Si    8.82538   3.39437   6.10987   0.000004793692372  -0.000006097612715   0.000000745014450
Si   10.18313   2.03662   7.46762  -0.000004937290796  -0.000001184970581  -0.000007871375904
Si   10.18313   4.75213  10.18313   0.000002553540886   0.000011795741182  -0.000005330365523
Si    7.46762   2.03662  10.18313  -0.000012410436158   0.000002253212385  -0.000000344384355
Si    7.46762   4.75213   7.46762  -0.000005571084725   0.000003651179980  -0.000013451622266
Si    6.10987   0.67888  11.54087  -0.000001503129666  -0.000018673616319   0.000009404504075
Si    8.82538   0.67888  14.25638   0.000000544647794   0.000006199946395   0.000000736597634
Si    6.10987   3.39437  14.25638   0.000001635402920  -0.000011259753777   0.000004137511651
Si    8.82538   3.39437  11.54087   0.000011107057967  -0.000005886789708  -0.000007356468830
Si   10.18313   2.03662  12.89863   0.000003291761945  -0.000011538198201   0.000009481110236
Si   10.18313   4.75213  15.61412   0.000004164349272   0.000000522310660   0.000008664465244
Si    7.46762   2.03662  15.61412  -0.000002635279500  -0.000003255118595  -0.000000493661991
Si    7.46762   4.75213  12.89863  -0.000009079672222   0.000011937576753   0.000006034124906
Si    6.10987   6.10987   0.67888  -0.000000740953934  -0.000012297148396   0.000028678412436
Si    8.82538   6.10987   3.39437   0.000004812333560   0.000000747210078  -0.000006103602167
Si    6.10987   8.82538   3.39437   0.000000200684194   0.000001219938977   0.000012735357384
Si    8.82538   8.82538   0.67888   0.000010605395625   0.000008999505763   0.000008984191181
Si   10.18313   7.46762   2.03662  -0.000004931022517  -0.000007882429515  -0.000001189828600
Si   10.18313  10.18313   4.75213   0.000002560337368  -0.000005332428671   0.000011807706296
Si    7.46762   7.46762   4.75213  -0.000005563728658  -0.000013449296875   0.000003649678293
Si    7.46762  10.18313   2.03662  -0.000012400813041  -0.000000361593026   0.000002259528301
Si    6.10987   6.10987   6.10987  -0.000002067994668   0.000003407739815   0.000003410967128
Si    8.82538   6.10987   8.82538   0.000001049381295   0.000000859948066   0.000002873099431
Si    6.10987   8.82538   8.82538  -0.000000932158332   0.000002884051687   0.000002879605303
Si    8.82538   8.82538   6.10987   0.000001029523503   0.000002850207717   0.000000854741998
Si   10.18313   7.46762   7.46762  -0.000000953458656  -0.000002694446291  -0.000002705804631
Si   10.18313  10.18313  10.18313  -0.000000073660669  -0.000000189618629  -0.000000173894828
Si    7.46762   7.46762  10.18313  -0.000002919437784  -0.000003040000278  -0.000000717180763
Si    7.46762  10.18313   7.46762  -0.000002937293289  -0.000000706246693  -0.000003037409240
Si    6.10987   6.10987  11.54087  -0.000001925123847   0.000003525044686  -0.000010632927246
Si    8.82538   6.10987  14.25638   0.000009220139447  -0.000001632983162  -0.000003105717961
Si    6.10987   8.82538  14.25638   0.000001081008899   0.000008781190351  -0.000015616717322
Si    8.82538   8.82538  11.54087   0.000006316646726   0.000008170545623  -0.000008137615223
Si   10.18313   7.46762  12.89863   0.000003439600623   0.000002448186367  -0.000001805665711
Si   10.18313  10.18313  15.61412  -0.000004930800464   0.000000767016554  -0.000005937028103
Si    7.46762   7.46762  15.61412  -0.000014288992637  -0.000008639593190  -0.000011244376124
Si    7.46762  10.18313  12.89863  -0.000000294127814   0.000006174020569   0.000007389092003
Si    6.10987  11.54087   0.67888  -0.000001619872185   0.000009411152163  -0.000018671916091
Si    8.82538  11.54087   3.39437   0.000011106316337  -0.000007367499773  -0.000005875377073
Si    6.10987  14.25638   3.39437   0.000001635585622   0.000004144641683  -0.000011259271843
Si    8.82538  14.25638   0.67888   0.000000587036710   0.000000741233199   0.000006202733936
Si   10.18313  12.89863   2.03662   0.000003285609943   0.000009478741862  -0.000011547018260
Si   10.18313  15.61412   4.75213   0.000004170695141   0.000008651189756   0.000000522237266
Si    7.46762  12.89863   4.75213  -0.000009079761068   0.000006060754110   0.000011927351379
Si    7.46762  15.61412   2.03662  -0.000002617239351  -0.000000493946489  -0.000003263700220
Si    6.10987  11.54087   6.10987  -0.000001925019280  -0.000010640454599   0.000003510875505
Si    8.82538  11.54087   8.82538   0.000006318580988  -0.000008134247047   0.000008164605674
Si    6.10987  14.25638   8.82538   0.000001090136378  -0.000015625446103   0.000008787132760
Si    8.82538  14.25638   6.10987   0.000009220860075  -0.000003112705161  -0.000001625581512
Si   10.18313  12.89863   7.46762   0.000003432804666  -0.000001796037405   0.000002450595512
Si   10.18313  15.61412  10.18313  -0.000004936929851  -0.000005934971221   0.000000749229982
Si    7.46762  12.89863  10.18313  -0.000000283488040   0.000007370619311   0.000006167745172
Si    7.46762  15.61412   7.46762  -0.000014298661293  -0.000011256355964  -0.000008638384788
Si    6.10987  11.54087  11.54087  -0.000001188503866  -0.000006292215993  -0.000006290993366
Si    8.82538  11.54087  14.25638   0.000004792793568  -0.000004492976153   0.000002346476463
Si    6.10987  14.25638  14.25638   0.000001394830738   0.000012226586530   0.000012224989623
Si    8.82538  14.25638  11.54087   0.000004809973563   0.000002348827777  -0.000004499164684
Si   10.18313  12.89863  12.89863  -0.000001026955601   0.000005709909822   0.000005715065570
Si   10.18313  15.61412  15.61412  -0.000000859616820  -0.000005125551307  -0.000005134664269
Si    7.46762  12.89863  15.61412  -0.000004750737502   0.000006033217304  -0.000019943331061
Si    7.46762  15.61412  12.89863  -0.000004743906161  -0.000019932538769   0.000006039901069
Si   11.54087   0.67888   0.67888  -0.000013900281744   0.000008144065024   0.000008147525053
Si   14.25638   0.67888   3.39437  -0.000183759390583   0.000108387388647   0.000174873113855
Si   11.54087   3.39437   3.39437  -0.000007172642545  -0.000003904568656  -0.000003914228855
Si   14.25638   3.39437   0.67888  -0.000183806004296   0.000174971677963   0.000108788666887
Si   15.61412   2.03662   2.03662  -0.003224257842960   0.002172625394224   0.002172765827617
Si   15.61412   4.75213   4.75213  -0.000181685948953  -0.000042203706390  -0.000042262792766
Si   12.89863   2.03662   4.75213  -0.000013469631901  -0.000051768765818   0.000022761891510
Si   12.89863   4.75213   2.03662  -0.000013431726908   0.000022748557778  -0.000051650950495
Si   11.54087   0.67888   6.10987  -0.000002778894140   0.000023139832023   0.000010924765839
Si   14.25638   0.67888   8.82538  -0.000011243253765   0.000002885474314   0.000002879376546
Si   11.54087   3.39437   8.82538  -0.000008046522621  -0.000024950908160   0.000007407166448
Si   14.25638   3.39437   6.10987  -0.000016566871661  -0.000032763890529   0.000012370046515
Si   15.61412   2.03662   7.46762   0.000012501432396  -0.000002318089819  -0.000000522802000
Si   15.61412   4.75213  10.18313   0.000008547414957   0.000013133242566   0.000012534579402
Si   12.89863   2.03662  10.18313   0.000005488470307   0.000010584109619   0.000002198595024
Si   12.89863   4.75213   7.46762   0.000008739739736   0.000029203776864  -0.000011878221357
Si   11.54087   0.67888  11.54087  -0.000008909744051  -0.000011268277887  -0.000020776843001
Si   14.25638   0.67888  14.25638  -0.000182934913789  -0.000098280283074  -0.000177790347452
Si   11.54087   3.39437  14.25638  -0.000001404953384   0.000009313678546  -0.000011303863847
Si   14.25638   3.39437  11.54087  -0.000015780108351  -0.000029179645343  -0.000007308922668
Si   15.61412   2.03662  12.89863   0.000028277776692   0.000039293077530   0.000027481536105
Si   15.61412   4.75213  15.61412   0.000022871052485  -0.000016588414176  -0.000046632946665
Si   12.89863   2.03662  15.61412   0.000007077410958  -0.000025094951597   0.000023270201364
Si   12.89863   4.75213  12.89863   0.000016291450154   0.000009340269393   0.000006964534018
Si   11.54087   6.10987   0.67888  -0.000002904701580   0.000010931534660   0.000023146754229
Si   14.25638   6.10987   3.39437  -0.000016556600019   0.000012364316699  -0.000032668382716
Si   11.54087   8.82538   3.39437  -0.000008056406859   0.000007425048324  -0.000024926459211
Si   14.25638   8.82538   0.67888  -0.000011207438257   0.000002883820071   0.000002881074989
Si   15.61412   7.46762   2.03662   0.000012544273015  -0.000000531791377  -0.000002544321075
Si   15.61412  10.18313   4.75213   0.000008516031461   0.000012538868544   0.000013098977391
Si   12.89863   7.46762   4.75213   0.000008843210301  -0.000011908818751   0.000029180496271
Si   12.89863  10.18313   2.03662   0.000005518669472   0.000002181021776   0.000010593489102
Si   11.54087   6.10987   6.10987  -0.000009119928540  -0.000003441492943  -0.000003426838779
Si   14.25638   6.10987   8.82538  -0.000004092715391  -0.000015752334520   0.000010299074376
Si   11.54087   8.82538   8.82538  -0.000009908976741   0.000008153523799   0.000008157024080
Si   14.25638   8.82538   6.10987  -0.000004100742703   0.000010296799361  -0.000015753547968
Si   15.61412   7.46762   7.46762  -0.000071653104932  -0.000010788432800  -0.000010791702061
Si   15.61412  10.18313  10.18313  -0.000069762074437   0.000001785483177   0.000001807123838
Si   12.89863   7.46762  10.18313   0.000004182949615   0.000001695878142  -0.000003694750487
Si   12.89863  10.18313   7.46762   0.000004200849675  -0.000003684114101   0.000001687939128
Si   11.54087   6.10987  11.54087  -0.000004805352437  -0.000002647112286   0.000000648784280
Si   14.25638   6.10987  14.25638  -0.000016704388447   0.000004432571357   0.000026300870733
Si   11.54087   8.82538  14.25638  -0.000001923031927   0.000004441102692   0.000015069220620
Si   14.25638   8.82538  11.54087  -0.000004980530244  -0.000000295953625   0.000012871571380
Si   15.61412   7.46762  12.89863   0.000003246346405  -0.000019812740641  -0.000002061244620
Si   15.61412  10.18313  15.61412   0.000012527592936  -0.000003217184887  -0.000001215478949
Si   12.89863   7.46762  15.61412   0.000006554512511  -0.000010332612630  -0.000018751986484
Si   12.89863  10.18313  12.89863   0.000002735561257   0.000002033020548  -0.000017317336728
Si   11.54087  11.54087   0.67888  -0.000009017459390  -0.000020807147846  -0.000011280140688
Si   14.25638  11.54087   3.39437  -0.000015823173863  -0.000007318140785  -0.000029174503068
Si   11.54087  14.25638   3.39437  -0.000001422917563  -0.000011298585026   0.000009300362862
Si   14.25638  14.25638   0.67888  -0.000182973940828  -0.000177894192853  -0.000098679273221
Si   15.61412  12.89863   2.03662   0.000028149249938   0.000027556782922   0.000039378776699
Si   15.61412  15.61412   4.75213   0.000023016787902  -0.000046544591750  -0.000016496542884
Si   12.89863  12.89863   4.75213   0.000016291047794   0.000006965698078   0.000009348742966
Si   12.89863  15.61412   2.03662   0.000007060228128   0.000023162029241  -0.000025222138412
Si   11.54087  11.54087   6.10987  -0.000004787430275   0.000000659424593  -0.000002654997025
Si   14.25638  11.54087   8.82538  -0.000004972401158   0.000012865927121  -0.000000295889858
Si   11.54087  14.25638   8.82538  -0.000001931074181   0.000015070253201   0.000004454010712
Si   14.25638  14.25638   6.10987  -0.000016663191001   0.000026300801833   0.000004428054195
Si   15.61412  12.89863   7.46762   0.000003259931865  -0.000002112250074  -0.000019816987828
Si   15.61412  15.61412  10.18313   0.000012521961947  -0.000001433199405  -0.000003234536613
Si   12.89863  12.89863  10.18313   0.000002614799429  -0.000017335047421   0.000002026083723
Si   12.89863  15.61412   7.46762   0.000006523835143  -0.000018739177764  -0.000010353797041
Si   11.54087  11.54087  11.54087  -0.000010156747820  -0.000004713141462  -0.000004731331828
Si   14.25638  11.54087  14.25638  -0.000016564158357  -0.000019477793756   0.000025547753024
Si   11.54087  14.25638  14.25638  -0.000006141491863  -0.000004256907151  -0.000004250594522
Si   14.25638  14.25638  11.54087  -0.000016572207069   0.000025651698997  -0.000019490552528
Si   15.61412  12.89863  12.89863  -0.000181690229484   0.000060223452498   0.000060246224259
Si   15.61412  15.61412  15.61412  -0.003226192779382  -0.002181521694886  -0.002181649365491
Si   12.89863  12.89863  15.61412  -0.000007271347129  -0.000010868025436   0.000041758104695
Si   12.89863  15.61412  12.89863  -0.000007327174422   0.000041851978099  -0.000010886044088
