216 

Si    0.72888   0.67888   0.67888   0.013554452267477   0.000001990626673   0.000001990755683
Si    3.39437   0.67888   3.39437  -0.000199990096541   0.000120264720123  -0.000193514398695
Si    0.67888   3.39437   3.39437   0.000422774778843  -0.000114170475982  -0.000114504562234
Si    3.39437   3.39437   0.67888  -0.000200042584818  -0.000193659292943   0.000120664633528
Si    4.75213   2.03662   2.03662   0.000010573415795   0.000025269079787   0.000025400447263
Si    4.75213   4.75213   4.75213   0.000016293689156   0.000007131068444   0.000007121696162
Si    2.03662   2.03662   4.75213   0.000033542288832  -0.000036257027862   0.000033866706105
Si    2.03662   4.75213   2.03662   0.000033457028153   0.000033946126922  -0.000036346240196
Si    0.67888   0.67888   6.10987  -0.000019085106810   0.000002861015191   0.000000653051455
Si    3.39437   0.67888   8.82538  -0.000020012188763   0.000008154431819   0.000008156460423
Si    0.67888   3.39437   8.82538  -0.000003688261228  -0.000008033156713   0.000011483742821
Si    3.39437   3.39437   6.10987  -0.000019401070665   0.000022372303099  -0.000003060494276
Si    4.75213   2.03662   7.46762   0.000001034452446  -0.000009021103438  -0.000000596534241
Si    4.75213   4.75213  10.18313   0.000002565730722  -0.000017228331534  -0.000003758672470
Si    2.03662   2.03662  10.18313   0.000015281540447   0.000001235450250   0.000002273353565
Si    2.03662   4.75213   7.46762   0.000012656313894  -0.000007457305578   0.000008757453005
Si    0.67888   0.67888  11.54087  -0.000013795346480   0.000008181420311  -0.000007934156029
Si    3.39437   0.67888  14.25638  -0.000194039320551  -0.000108274606284   0.000183818812938
Si    0.67888   3.39437  14.25638   0.000422019489514   0.000108390705261  -0.000112502165672
Si    3.39437   3.39437  11.54087  -0.000024786474671   0.000017866120230   0.000003898421466
Si    4.75213   2.03662  12.89863  -0.000016027706639   0.000051354628785   0.000024940553216
Si    4.75213   4.75213  15.61412  -0.000009865956410  -0.000013068161414  -0.000061114622879
Si    2.03662   2.03662  15.61412  -0.003371499488204  -0.002473717095703   0.002466598662407
Si    2.03662   4.75213  12.89863  -0.000177685211742   0.000054526690467  -0.000048805075834
Si    0.67888   6.10987   0.67888  -0.000018924350828   0.000000662441566   0.000002868415103
Si    3.39437   6.10987   3.39437  -0.000019465291090  -0.000003059865132   0.000022347584003
Si    0.67888   8.82538   3.39437  -0.000003744037816   0.000011457012626  -0.000008032067185
Si    3.39437   8.82538   0.67888  -0.000019972891009   0.000008152953095   0.000008157711918
Si    4.75213   7.46762   2.03662   0.000001048563242  -0.000000599617908  -0.000009040473270
Si    4.75213  10.18313   4.75213   0.000002690085472  -0.000003774823666  -0.000017207920504
Si    2.03662   7.46762   4.75213   0.000012644264827   0.000008752758614  -0.000007407532932
Si    2.03662  10.18313   2.03662   0.000015290862157   0.000002252508035   0.000001448270904
Si    0.67888   6.10987   6.10987   0.000108631674121  -0.000020937827251  -0.000020956316375
Si    3.39437   6.10987   8.82538  -0.000007164042450   0.000014916578763   0.000006023779077
Si    0.67888   8.82538   8.82538   0.000118913905113   0.000008999738291   0.000008981273153
Si    3.39437   8.82538   6.10987  -0.000007156032478   0.000006014487374   0.000014921554775
Si    4.75213   7.46762   7.46762   0.000009618959361  -0.000012782470123  -0.000012791404773
Si    4.75213  10.18313  10.18313   0.000008580633956   0.000004629411643   0.000004634850087
Si    2.03662   7.46762  10.18313  -0.000063035317440  -0.000005493960000  -0.000001644675072
Si    2.03662  10.18313   7.46762  -0.000063035428935  -0.000001624224735  -0.000005480085799
Si    0.67888   6.10987  11.54087   0.000106103041956   0.000019950382720  -0.000023732712930
Si    3.39437   6.10987  14.25638  -0.000023729874743  -0.000012047517092  -0.000025910648085
Si    0.67888   8.82538  14.25638  -0.000009029065921  -0.000000436010862   0.000000750375154
Si    3.39437   8.82538  11.54087  -0.000013287608158   0.000005852083032  -0.000024778490444
Si    4.75213   7.46762  12.89863   0.000008801817935  -0.000006105438165   0.000029071000407
Si    4.75213  10.18313  15.61412   0.000001066950317  -0.000001387705710   0.000007033759747
Si    2.03662   7.46762  15.61412   0.000014411954963  -0.000005137375301  -0.000004327606949
Si    2.03662  10.18313  12.89863   0.000011764066210  -0.000011636376512   0.000017410567060
Si    0.67888  11.54087   0.67888  -0.000013664209019  -0.000007934897368   0.000008173112725
Si    3.39437  11.54087   3.39437  -0.000024777032161   0.000003897564652   0.000017747392455
Si    0.67888  14.25638   3.39437   0.000422041049427  -0.000112160551408   0.000108725149240
Si    3.39437  14.25638   0.67888  -0.000194100265996   0.000183941149717  -0.000108679235315
Si    4.75213  12.89863   2.03662  -0.000016001868813   0.000024932976715   0.000051242629584
Si    4.75213  15.61412   4.75213  -0.000009910680718  -0.000061250072584  -0.000013080625828
Si    2.03662  12.89863   4.75213  -0.000177685295874  -0.000048767286143   0.000054554170009
Si    2.03662  15.61412   2.03662  -0.003371496985717   0.002466482634251  -0.002473841147373
Si    0.67888  11.54087   6.10987   0.000106084611228  -0.000023696548041   0.000019978314453
Si    3.39437  11.54087   8.82538  -0.000013277776608  -0.000024797016503   0.000005837797568
Si    0.67888  14.25638   8.82538  -0.000008955647132   0.000000759714553  -0.000000445825648
Si    3.39437  14.25638   6.10987  -0.000023736112981  -0.000026028978308  -0.000012051827197
Si    4.75213  12.89863   7.46762   0.000008695746794   0.000029096026309  -0.000006098136307
Si    4.75213  15.61412  10.18313   0.000001017810351   0.000007032550448  -0.000001409241656
Si    2.03662  12.89863  10.18313   0.000011776129121   0.000017458046275  -0.000011636686588
Si    2.03662  15.61412   7.46762   0.000014402305510  -0.000004119845836  -0.000005153855038
Si    0.67888  11.54087  11.54087   0.000110515022416   0.000011941480347   0.000011978372305
Si    3.39437  11.54087  14.25638  -0.000019437283289   0.000001068655445  -0.000024352249025
Si    0.67888  14.25638  14.25638   0.000420831249680   0.000105077438244   0.000105428378227
Si    3.39437  14.25638  11.54087  -0.000019409685914  -0.000024356271429   0.000001050633101
Si    4.75213  12.89863  12.89863   0.000016294762434   0.000009175075758   0.000009191035526
Si    4.75213  15.61412  15.61412   0.000011539811437  -0.000033386615380  -0.000033521732311
Si    2.03662  12.89863  15.61412   0.000034355809954  -0.000023932336853   0.000033472295658
Si    2.03662  15.61412  12.89863   0.000034438900375   0.000033378761990  -0.000023849186232
Si    6.10987   0.67888   0.67888  -0.000005158910705   0.000002872301080   0.000002868733437
Si    8.82538   0.67888   3.39437   0.000005832435629   0.000004819371945  -0.000008021882116
Si    6.10987   3.39437   3.39437   0.000002262184481  -0.000015119001187  -0.000015112963659
Si    8.82538   3.39437   0.67888   0.000005856998787  -0.000008017968072   0.000004833577214
Si   10.18313   2.03662   2.03662   0.000000019671694   0.000002239756758   0.000002253438900
Si   10.18313   4.75213   4.75213  -0.000001024357959   0.000000059049179   0.000000045045204
Si    7.46762   2.03662   4.75213   0.000000523117431   0.000012655365440   0.000004996535085
Si    7.46762   4.75213   2.03662   0.000000534072295   0.000004986277677   0.000012657642850
Si    6.10987   0.67888   6.10987  -0.000000627706367   0.000028679793042  -0.000012289378862
Si    8.82538   0.67888   8.82538   0.000010652294617   0.000009002675592   0.000008981073288
Si    6.10987   3.39437   8.82538   0.000000207263112   0.000012736764158   0.000001214390317
Si    8.82538   3.39437   6.10987   0.000004795226254  -0.000006103990924   0.000000743358067
Si   10.18313   2.03662   7.46762  -0.000004936046751  -0.000001186386899  -0.000007873269821
Si   10.18313   4.75213  10.18313   0.000002552775675   0.000011796088187  -0.000005326781240
Si    7.46762   2.03662  10.18313  -0.000012411764268   0.000002251235912  -0.000000343567081
Si    7.46762   4.75213   7.46762  -0.000005574695871   0.000003643781657  -0.000013450933829
Si    6.10987   0.67888  11.54087  -0.000001506811580  -0.000018674770307   0.000009407685685
Si    8.82538   0.67888  14.25638   0.000000544960984   0.000006201739339   0.000000739014256
Si    6.10987   3.39437  14.25638   0.000001632326295  -0.000011263998611   0.000004141740476
Si    8.82538   3.39437  11.54087   0.000011108706417  -0.000005886194906  -0.000007353081162
Si   10.18313   2.03662  12.89863   0.000003291926416  -0.000011538447473   0.000009485386267
Si   10.18313   4.75213  15.61412   0.000004164496491   0.000000518033452   0.000008664743513
Si    7.46762   2.03662  15.61412  -0.000002636463787  -0.000003256150692  -0.000000492630027
Si    7.46762   4.75213  12.89863  -0.000009076954679   0.000011936121835   0.000006035540575
Si    6.10987   6.10987   0.67888  -0.000000744645185  -0.000012300323094   0.000028679601636
Si    8.82538   6.10987   3.39437   0.000004813869581   0.000000745546417  -0.000006109984641
Si    6.10987   8.82538   3.39437   0.000000198105552   0.000001217965653   0.000012732361601
Si    8.82538   8.82538   0.67888   0.000010607135222   0.000008999515777   0.000008984175460
Si   10.18313   7.46762   2.03662  -0.000004929774840  -0.000007884358161  -0.000001191249750
Si   10.18313  10.18313   4.75213   0.000002559559612  -0.000005328815977   0.000011808017699
Si    7.46762   7.46762   4.75213  -0.000005567278256  -0.000013448573410   0.000003642261156
Si    7.46762  10.18313   2.03662  -0.000012402154051  -0.000000360751063   0.000002257525461
Si    6.10987   6.10987   6.10987  -0.000002075816775   0.000003403414969   0.000003406660290
Si    8.82538   6.10987   8.82538   0.000001051400058   0.000000856615345   0.000002880562111
Si    6.10987   8.82538   8.82538  -0.000000936069623   0.000002884044126   0.000002879594690
Si    8.82538   8.82538   6.10987   0.000001031573641   0.000002857623396   0.000000851401060
Si   10.18313   7.46762   7.46762  -0.000000947541806  -0.000002693014491  -0.000002704382365
Si   10.18313  10.18313  10.18313  -0.000000067793859  -0.000000191031690  -0.000000175299473
Si    7.46762   7.46762  10.18313  -0.000002917272123  -0.000003045148571  -0.000000712048617
Si    7.46762  10.18313   7.46762  -0.000002935148123  -0.000000701082197  -0.000003042556742
Si    6.10987   6.10987  11.54087  -0.000001922757530   0.000003523300660  -0.000010631152674
Si    8.82538   6.10987  14.25638   0.000009221805771  -0.000001636348562  -0.000003106320115
Si    6.10987   8.82538  14.25638   0.000001078449333   0.000008783144502  -0.000015613741424
Si    8.82538   8.82538  11.54087   0.000006318691377   0.000008163089191  -0.000008134280338
Si   10.18313   7.46762  12.89863   0.000003438818964   0.000002444583251  -0.000001806015667
Si   10.18313  10.18313  15.61412  -0.000004929579996   0.000000768922720  -0.000005935608657
Si    7.46762   7.46762  15.61412  -0.000014290320633  -0.000008640451489  -0.000011242365443
Si    7.46762  10.18313  12.89863  -0.000000297706488   0.000006173329269   0.000007396475912
Si    6.10987  11.54087   0.67888  -0.000001623547921   0.000009414343189  -0.000018673091419
Si    8.82538  11.54087   3.39437   0.000011107980241  -0.000007364115895  -0.000005874779665
Si    6.10987  14.25638   3.39437   0.000001632445970   0.000004148857985  -0.000011263533511
Si    8.82538  14.25638   0.67888   0.000000587353150   0.000000743626070   0.000006204512002
Si   10.18313  12.89863   2.03662   0.000003285758233   0.000009482997216  -0.000011547263860
Si   10.18313  15.61412   4.75213   0.000004170810235   0.000008651402906   0.000000517960085
Si    7.46762  12.89863   4.75213  -0.000009077028074   0.000006062140449   0.000011925912373
Si    7.46762  15.61412   2.03662  -0.000002618413379  -0.000000492891026  -0.000003264753014
Si    6.10987  11.54087   6.10987  -0.000001922648253  -0.000010638716784   0.000003509109040
Si    8.82538  11.54087   8.82538   0.000006320625073  -0.000008130917235   0.000008157184511
Si    6.10987  14.25638   8.82538   0.000001087578855  -0.000015622451973   0.000008789158127
Si    8.82538  14.25638   6.10987   0.000009222529559  -0.000003113270520  -0.000001628970762
Si   10.18313  12.89863   7.46762   0.000003432009413  -0.000001796371841   0.000002446963041
Si   10.18313  15.61412  10.18313  -0.000004935726102  -0.000005933585007   0.000000751142852
Si    7.46762  12.89863  10.18313  -0.000000287106015   0.000007378020949   0.000006167038091
Si    7.46762  15.61412   7.46762  -0.000014299977619  -0.000011254343417  -0.000008639210287
Si    6.10987  11.54087  11.54087  -0.000001196332205  -0.000006287902742  -0.000006286690303
Si    8.82538  11.54087  14.25638   0.000004794328964  -0.000004491337538   0.000002352852516
Si    6.10987  14.25638  14.25638   0.000001391245824   0.000012228472465   0.000012226861249
Si    8.82538  14.25638  11.54087   0.000004811501878   0.000002355204181  -0.000004497540906
Si   10.18313  12.89863  12.89863  -0.000001021527474   0.000005714717014   0.000005719914668
Si   10.18313  15.61412  15.61412  -0.000000859156907  -0.000005123816851  -0.000005132958937
Si    7.46762  12.89863  15.61412  -0.000004752705533   0.000006034252757  -0.000019940611167
Si    7.46762  15.61412  12.89863  -0.000004745872530  -0.000019929855860   0.000006040979048
Si   11.54087   0.67888   0.67888  -0.000013899605337   0.000008144056727   0.000008147496191
Si   14.25638   0.67888   3.39437  -0.000183757513231   0.000108388815016   0.000174871156575
Si   11.54087   3.39437   3.39437  -0.000007172412087  -0.000003904788904  -0.000003914439741
Si   14.25638   3.39437   0.67888  -0.000183804087906   0.000174969706290   0.000108790120301
Si   15.61412   2.03662   2.03662  -0.003224256436973   0.002172625299272   0.002172765742373
Si   15.61412   4.75213   4.75213  -0.000181686143234  -0.000042204525692  -0.000042263580554
Si   12.89863   2.03662   4.75213  -0.000013466903934  -0.000051769073769   0.000022759902364
Si   12.89863   4.75213   2.03662  -0.000013429037516   0.000022746575608  -0.000051651232142
Si   11.54087   0.67888   6.10987  -0.000002778609937   0.000023141164365   0.000010923629903
Si   14.25638   0.67888   8.82538  -0.000011239952773   0.000002885468610   0.000002879394145
Si   11.54087   3.39437   8.82538  -0.000008044373798  -0.000024953627188   0.000007405274940
Si   14.25638   3.39437   6.10987  -0.000016564432421  -0.000032762727342   0.000012368045565
Si   15.61412   2.03662   7.46762   0.000012501761979  -0.000002320239399  -0.000000523274055
Si   15.61412   4.75213  10.18313   0.000008549617495   0.000013130464550   0.000012535113228
Si   12.89863   2.03662  10.18313   0.000005492646664   0.000010582018251   0.000002198515480
Si   12.89863   4.75213   7.46762   0.000008743347131   0.000029202046299  -0.000011881526871
Si   11.54087   0.67888  11.54087  -0.000008909471646  -0.000011269549213  -0.000020775704978
Si   14.25638   0.67888  14.25638  -0.000182933043205  -0.000098281699538  -0.000177788391123
Si   11.54087   3.39437  14.25638  -0.000001405139374   0.000009310854170  -0.000011301037243
Si   14.25638   3.39437  11.54087  -0.000015776642531  -0.000029183056018  -0.000007307912504
Si   15.61412   2.03662  12.89863   0.000028279169616   0.000039291160798   0.000027480886634
Si   15.61412   4.75213  15.61412   0.000022872449529  -0.000016587778248  -0.000046631006476
Si   12.89863   2.03662  15.61412   0.000007077456944  -0.000025095691813   0.000023270879075
Si   12.89863   4.75213  12.89863   0.000016292952379   0.000009337096303   0.000006967687039
Si   11.54087   6.10987   0.67888  -0.000002904433655   0.000010930402075   0.000023148061970
Si   14.25638   6.10987   3.39437  -0.000016554165891   0.000012362309274  -0.000032667243624
Si   11.54087   8.82538   3.39437  -0.000008054222888   0.000007423189489  -0.000024929185725
Si   14.25638   8.82538   0.67888  -0.000011204142548   0.000002883825965   0.000002881103435
Si   15.61412   7.46762   2.03662   0.000012544559281  -0.000000532227026  -0.000002546522089
Si   15.61412  10.18313   4.75213   0.000008518250533   0.000012539381883   0.000013096213035
Si   12.89863   7.46762   4.75213   0.000008846824070  -0.000011912112819   0.000029178746513
Si   12.89863  10.18313   2.03662   0.000005522837515   0.000002180915081   0.000010591436150
Si   11.54087   6.10987   6.10987  -0.000009112342962  -0.000003444986774  -0.000003430347446
Si   14.25638   6.10987   8.82538  -0.000004090604616  -0.000015753550608   0.000010297215029
Si   11.54087   8.82538   8.82538  -0.000009906095871   0.000008153521633   0.000008157005783
Si   14.25638   8.82538   6.10987  -0.000004098646117   0.000010294936364  -0.000015754777205
Si   15.61412   7.46762   7.46762  -0.000071653781701  -0.000010789327058  -0.000010792596289
Si   15.61412  10.18313  10.18313  -0.000069762753495   0.000001786386747   0.000001808014194
Si   12.89863   7.46762  10.18313   0.000004184922829   0.000001695926148  -0.000003694820719
Si   12.89863  10.18313   7.46762   0.000004202840695  -0.000003684181356   0.000001687972647
Si   11.54087   6.10987  11.54087  -0.000004807732922  -0.000002648287949   0.000000649998044
Si   14.25638   6.10987  14.25638  -0.000016700915192   0.000004431557798   0.000026304236256
Si   11.54087   8.82538  14.25638  -0.000001920865449   0.000004442991101   0.000015071952929
Si   14.25638   8.82538  11.54087  -0.000004978446788  -0.000000294058360   0.000012872794093
Si   15.61412   7.46762  12.89863   0.000003248573072  -0.000019813285274  -0.000002058497093
Si   15.61412  10.18313  15.61412   0.000012527919393  -0.000003216728646  -0.000001213323905
Si   12.89863   7.46762  15.61412   0.000006558666662  -0.000010332506809  -0.000018749895530
Si   12.89863  10.18313  12.89863   0.000002739222139   0.000002036308953  -0.000017315604847
Si   11.54087  11.54087   0.67888  -0.000009017177149  -0.000020806023131  -0.000011281451588
Si   14.25638  11.54087   3.39437  -0.000015819736183  -0.000007317121827  -0.000029177918250
Si   11.54087  14.25638   3.39437  -0.000001423115667  -0.000011295730029   0.000009297547973
Si   14.25638  14.25638   0.67888  -0.000182972036040  -0.000177892256214  -0.000098680675962
Si   15.61412  12.89863   2.03662   0.000028150647227   0.000027556156990   0.000039376852731
Si   15.61412  15.61412   4.75213   0.000023018185367  -0.000046542675372  -0.000016495898579
Si   12.89863  12.89863   4.75213   0.000016292566235   0.000006968849904   0.000009345576332
Si   12.89863  15.61412   2.03662   0.000007060301267   0.000023162744068  -0.000025222836162
Si   11.54087  11.54087   6.10987  -0.000004789794082   0.000000660603317  -0.000002656166450
Si   14.25638  11.54087   8.82538  -0.000004970333463   0.000012867174507  -0.000000293964587
Si   11.54087  14.25638   8.82538  -0.000001928922480   0.000015072994693   0.000004455881838
Si   14.25638  14.25638   6.10987  -0.000016659747717   0.000026304232962   0.000004427037017
Si   15.61412  12.89863   7.46762   0.000003262152701  -0.000002109458517  -0.000019817516609
Si   15.61412  15.61412  10.18313   0.000012522267190  -0.000001431022551  -0.000003234080804
Si   12.89863  12.89863  10.18313   0.000002618430660  -0.000017333338153   0.000002029356243
Si   12.89863  15.61412   7.46762   0.000006528004941  -0.000018737093788  -0.000010353695407
Si   11.54087  11.54087  11.54087  -0.000010149162519  -0.000004709641010  -0.000004727839468
Si   14.25638  11.54087  14.25638  -0.000016561746027  -0.000019475828577   0.000025546621971
Si   11.54087  14.25638  14.25638  -0.000006141262801  -0.000004256670714  -0.000004250394160
Si   14.25638  14.25638  11.54087  -0.000016569756664   0.000025650524412  -0.000019488559600
Si   15.61412  12.89863  12.89863  -0.000181690400875   0.000060224274143   0.000060247018044
Si   15.61412  15.61412  15.61412  -0.003226191342498  -0.002181521585628  -0.002181649274490
Si   12.89863  12.89863  15.61412  -0.000007268611327  -0.000010866029859   0.000041758402243
Si   12.89863  15.61412  12.89863  -0.000007324443700   0.000041852281980  -0.000010884042402
