512 

Si    0.67887   0.67888   0.67887   0.000000287878173   0.000000287799001   0.000000281676591
Si    3.39437   0.67888   3.39437  -0.000000301266761   0.000008739347334  -0.000000300154524
Si    0.67887   3.39438   3.39437   0.000008739327540  -0.000000301278454  -0.000000300185419
Si    3.39437   3.39438   0.67887  -0.000000304081624  -0.000000304041524   0.000008743821926
Si    4.75212   2.03662   2.03662   0.000006174407499  -0.000004995991481  -0.000004988056085
Si    4.75212   4.75212   4.75212  -0.000001386646640  -0.000001386640570  -0.000001396094462
Si    2.03662   2.03662   4.75212  -0.000005003837332  -0.000005003790387   0.000006163765029
Si    2.03662   4.75212   2.03662  -0.000004995976165   0.000006174462475  -0.000004988041193
Si    0.67887   0.67888   6.10987  -0.000003885406982  -0.000003885465046   0.000006583518187
Si    3.39437   0.67888   8.82537  -0.000000014700448   0.000003014285060  -0.000002137477515
Si    0.67887   3.39438   8.82537   0.000003014245056  -0.000000014638820  -0.000002137462856
Si    3.39437   3.39438   6.10987   0.000000077403395   0.000000077419107   0.000004295563763
Si    4.75212   2.03662   7.46762   0.000001799758275   0.000008992295340  -0.000003068079526
Si    4.75212   4.75212  10.18313  -0.000002301521798  -0.000002301488637   0.000007467441405
Si    2.03662   2.03662  10.18313  -0.000001858949134  -0.000001858939403   0.000005185770079
Si    2.03662   4.75212   7.46762   0.000008992277213   0.000001799809587  -0.000003068079946
Si    0.67887   0.67888  11.54087   0.000001773511024   0.000001773573057   0.000004589264296
Si    3.39437   0.67888  14.25638   0.000001378977248   0.000004542230525   0.000000848673049
Si    0.67887   3.39438  14.25638   0.000004542268970   0.000001379025069   0.000000848731030
Si    3.39437   3.39438  11.54087   0.000004014491048   0.000004014491718  -0.000005766528915
Si    4.75212   2.03662  12.89862  -0.000003103259380  -0.000003493688162   0.000002216992901
Si    4.75212   4.75212  15.61412  -0.000000438548625  -0.000000438552706   0.000000624135814
Si    2.03662   2.03662  15.61412   0.000002688212238   0.000002688305105  -0.000006644926595
Si    2.03662   4.75212  12.89862  -0.000003493750051  -0.000003103263224   0.000002217005418
Si    0.67887   0.67888  16.97187  -0.000000480324777  -0.000000480244950   0.000001530406936
Si    3.39437   0.67888  19.68737  -0.000004818940386  -0.000001247291205  -0.000001210019052
Si    0.67887   3.39438  19.68737  -0.000001247341689  -0.000004818875001  -0.000001210104020
Si    3.39437   3.39438  16.97187   0.000000597313084   0.000000597340853  -0.000003536470119
Si    4.75212   2.03662  18.32963   0.000000696152032   0.000004149223842   0.000000658593634
Si    4.75212   4.75212  21.04512   0.000002606986002   0.000002607006978  -0.000003464441810
Si    2.03662   2.03662  21.04512  -0.000001560471763  -0.000001560498320  -0.000000008217649
Si    2.03662   4.75212  18.32963   0.000004149201499   0.000000696153254   0.000000658572461
Si    0.67887   6.10987   0.67887  -0.000003879311537   0.000006574825215  -0.000003883699387
Si    3.39437   6.10987   3.39437   0.000000069640512   0.000004299444912   0.000000070339792
Si    0.67887   8.82537   3.39437   0.000003010551032  -0.000002139975412  -0.000000005234857
Si    3.39437   8.82537   0.67887  -0.000000006566715  -0.000002134188377   0.000003014888670
Si    4.75212   7.46762   2.03662   0.000001801183756  -0.000003074989015   0.000008988051586
Si    4.75212  10.18313   4.75212  -0.000002299214940   0.000007474094805  -0.000002298754520
Si    2.03662   7.46762   4.75212   0.000008983348644  -0.000003080471485   0.000001799181283
Si    2.03662  10.18313   2.03662  -0.000001870201217   0.000005192098725  -0.000001868896255
Si    0.67887   6.10987   6.10987   0.000001069302609   0.000001180341463   0.000001176318490
Si    3.39437   6.10987   8.82537   0.000005750446917   0.000002243641997   0.000004212355704
Si    0.67887   8.82537   8.82537   0.000000526279616   0.000000590956770   0.000000596733665
Si    3.39437   8.82537   6.10987   0.000005744679397   0.000004214051125   0.000002246773983
Si    4.75212   7.46762   7.46762   0.000000162062440   0.000001757185506   0.000001753484217
Si    4.75212  10.18313  10.18313  -0.000002452223798  -0.000003028961199  -0.000003017679144
Si    2.03662   7.46762  10.18313   0.000002000126623   0.000004857538376  -0.000002432778493
Si    2.03662  10.18313   7.46762   0.000002006377320  -0.000002428411118   0.000004851947310
Si    0.67887   6.10987  11.54087   0.000004688412968  -0.000001695843844  -0.000002388527757
Si    3.39437   6.10987  14.25638  -0.000004054285304   0.000002169663490   0.000005257564518
Si    0.67887   8.82537  14.25638  -0.000001687810680  -0.000000894447940   0.000003040922096
Si    3.39437   8.82537  11.54087  -0.000001175262696  -0.000001146147994  -0.000007856340956
Si    4.75212   7.46762  12.89862   0.000001291475099   0.000006436264127   0.000003267936523
Si    4.75212  10.18313  15.61412  -0.000003341615518   0.000000876732785  -0.000003805632301
Si    2.03662   7.46762  15.61412  -0.000002804840637  -0.000000097401422  -0.000001228383379
Si    2.03662  10.18313  12.89862  -0.000002199325422  -0.000003101139948   0.000000562211697
Si    0.67887   6.10987  16.97187   0.000003741851489   0.000000294777847  -0.000000110567349
Si    3.39437   6.10987  19.68737   0.000000604127244  -0.000004495321374   0.000005005131180
Si    0.67887   8.82537  19.68737  -0.000002825894152   0.000003287505594   0.000000455048442
Si    3.39437   8.82537  16.97187   0.000000634357042  -0.000001562591511   0.000001075676905
Si    4.75212   7.46762  18.32963  -0.000000088575475  -0.000003257377729  -0.000001623801834
Si    4.75212  10.18313  21.04512   0.000005518876322   0.000005002138835  -0.000005117725514
Si    2.03662   7.46762  21.04512  -0.000006184427961  -0.000005164172671   0.000002242663965
Si    2.03662  10.18313  18.32963   0.000002237117795   0.000003226521019  -0.000000141092126
Si    0.67887  11.54087   0.67887   0.000001766761012   0.000004589171138   0.000001764312765
Si    3.39437  11.54087   3.39437   0.000004011806855  -0.000005765377498   0.000004015028625
Si    0.67887  14.25638   3.39437   0.000004540146880   0.000000848689622   0.000001378242712
Si    3.39437  14.25638   0.67887   0.000001379303617   0.000000847353202   0.000004539754918
Si    4.75212  12.89862   2.03662  -0.000003103476559   0.000002211632984  -0.000003492479323
Si    4.75212  15.61412   4.75212  -0.000000438153762   0.000000635160364  -0.000000429868010
Si    2.03662  12.89862   4.75212  -0.000003482982689   0.000002208037985  -0.000003097735320
Si    2.03662  15.61412   2.03662   0.000002693736698  -0.000006638768594   0.000002684238073
Si    0.67887  11.54087   6.10987   0.000004696345023  -0.000002386591329  -0.000001708057199
Si    3.39437  11.54087   8.82537  -0.000001177394852  -0.000007858461031  -0.000001145533177
Si    0.67887  14.25638   8.82537  -0.000001687196402   0.000003037743154  -0.000000897455577
Si    3.39437  14.25638   6.10987  -0.000004054176958   0.000005258281411   0.000002174625745
Si    4.75212  12.89862   7.46762   0.000001291124844   0.000003259506287   0.000006433770001
Si    4.75212  15.61412  10.18313  -0.000003331972963  -0.000003820391359   0.000000879607653
Si    2.03662  12.89862  10.18313  -0.000002212161321   0.000000577538591  -0.000003092275577
Si    2.03662  15.61412   7.46762  -0.000002803842976  -0.000001223568922  -0.000000101111756
Si    0.67887  11.54087  11.54087   0.000004552473338  -0.000003631306469  -0.000003632510144
Si    3.39437  11.54087  14.25638  -0.000004757302153   0.000006692447249  -0.000002435035799
Si    0.67887  14.25638  14.25638   0.000000519509652   0.000001641190302   0.000001644418113
Si    3.39437  14.25638  11.54087  -0.000004762703596  -0.000002431962349   0.000006693384067
Si    4.75212  12.89862  12.89862   0.000000018097495  -0.000001761154773  -0.000001764751105
Si    4.75212  15.61412  15.61412   0.000000292603367  -0.000001615098577  -0.000001616607174
Si    2.03662  12.89862  15.61412   0.000007187409504   0.000000515898667  -0.000000602624826
Si    2.03662  15.61412  12.89862   0.000007179689981  -0.000000609439859   0.000000516022772
Si    0.67887  11.54087  16.97187   0.000005125132647  -0.000004997709479  -0.000005524913681
Si    3.39437  11.54087  19.68737   0.000000133780030  -0.000003226441800  -0.000002242195746
Si    0.67887  14.25638  19.68737  -0.000002253201479   0.000005173707657   0.000006187636588
Si    3.39437  14.25638  16.97187   0.000001622625253   0.000003255862891   0.000000092983488
Si    4.75212  12.89862  18.32963  -0.000001073955554   0.000001568260733  -0.000000646379556
Si    4.75212  15.61412  21.04512   0.000000109973753  -0.000000299970053  -0.000003730997089
Si    2.03662  12.89862  21.04512  -0.000000453054799  -0.000003288529506   0.000002835778645
Si    2.03662  15.61412  18.32963  -0.000005010395555   0.000004495489005  -0.000000615385024
Si    0.67887  16.97187   0.67887  -0.000000465007192   0.000001535563133  -0.000000466686013
Si    3.39437  16.97187   3.39437   0.000000594215826  -0.000003535361383   0.000000600020422
Si    0.67887  19.68737   3.39437  -0.000001253042493  -0.000001213722973  -0.000004828729712
Si    3.39437  19.68737   0.67887  -0.000004824548841  -0.000001213700913  -0.000001249879784
Si    4.75212  18.32963   2.03662   0.000000710476576   0.000000649652178   0.000004144268436
Si    4.75212  21.04512   4.75212   0.000002615321454  -0.000003452260808   0.000002605035714
Si    2.03662  18.32963   4.75212   0.000004143321142   0.000000651469916   0.000000701803400
Si    2.03662  21.04512   2.03662  -0.000001574995099  -0.000000004030717  -0.000001562209567
Si    0.67887  16.97187   6.10987   0.000003735102362  -0.000000107924146   0.000000302259679
Si    3.39437  16.97187   8.82537   0.000000636163565   0.000001076956876  -0.000001558167470
Si    0.67887  19.68737   8.82537  -0.000002832008061   0.000000453340282   0.000003282241258
Si    3.39437  19.68737   6.10987   0.000000614803335   0.000005002593080  -0.000004499667332
Si    4.75212  18.32963   7.46762  -0.000000099214648  -0.000001630982055  -0.000003258253818
Si    4.75212  21.04512  10.18313   0.000005522480431  -0.000005124138709   0.000004994630554
Si    2.03662  18.32963  10.18313   0.000002236851468  -0.000000130345960   0.000003228418219
Si    2.03662  21.04512   7.46762  -0.000006180301376   0.000002239125828  -0.000005167276011
Si    0.67887  16.97187  11.54087   0.000005124145256  -0.000005522459767  -0.000004994653187
Si    3.39437  16.97187  14.25638   0.000001630973910   0.000000099183979   0.000003258241412
Si    0.67887  19.68737  14.25638  -0.000002239121710   0.000006180294303   0.000005167231030
Si    3.39437  19.68737  11.54087   0.000000130328868  -0.000002236893454  -0.000003228365574
Si    4.75212  18.32963  12.89862  -0.000001076987460  -0.000000636188987   0.000001558160640
Si    4.75212  21.04512  15.61412   0.000000107982487  -0.000003735177512  -0.000000302257350
Si    2.03662  18.32963  15.61412  -0.000005002517065  -0.000000614782923   0.000004499637403
Si    2.03662  21.04512  12.89862  -0.000000453347547   0.000002831990268  -0.000003282183699
Si    0.67887  16.97187  16.97187   0.000003452239216  -0.000002615351801  -0.000002605069743
Si    3.39437  16.97187  19.68737  -0.000000649661671  -0.000000710457886  -0.000004144272407
Si    0.67887  19.68737  19.68737   0.000000004061628   0.000001575037088   0.000001562224016
Si    3.39437  19.68737  16.97187  -0.000000651515610  -0.000004143354528  -0.000000701849983
Si    4.75212  18.32963  18.32963   0.000003535354924  -0.000000594197701  -0.000000599978986
Si    4.75212  21.04512  21.04512  -0.000001535527331   0.000000465052898   0.000000466685703
Si    2.03662  18.32963  21.04512   0.000001213715851   0.000004824518688   0.000001249890178
Si    2.03662  21.04512  18.32963   0.000001213755752   0.000001252982428   0.000004828737785
Si    6.10988   0.67888   0.67887   0.000006574794427  -0.000003879295109  -0.000003883727119
Si    8.82537   0.67888   3.39437  -0.000002139974194   0.000003010533023  -0.000000005262763
Si    6.10988   3.39438   3.39437   0.000004299401333   0.000000069656178   0.000000070399626
Si    8.82537   3.39438   0.67887  -0.000002134136916  -0.000000006620499   0.000003014853013
Si   10.18313   2.03662   2.03662   0.000005192193290  -0.000001870130286  -0.000001868905539
Si   10.18313   4.75212   4.75212   0.000007474119414  -0.000002299114008  -0.000002298792559
Si    7.46762   2.03662   4.75212  -0.000003080476528   0.000008983381556   0.000001799164012
Si    7.46762   4.75212   2.03662  -0.000003075020752   0.000001801259342   0.000008988056147
Si    6.10988   0.67888   6.10987   0.000001180315116   0.000001069311124   0.000001176323218
Si    8.82537   0.67888   8.82537   0.000000591025466   0.000000526224194   0.000000596688706
Si    6.10988   3.39438   8.82537   0.000002243618225   0.000005750518993   0.000004212346756
Si    8.82537   3.39438   6.10987   0.000004214058570   0.000005744655195   0.000002246762682
Si   10.18313   2.03662   7.46762  -0.000002428468740   0.000002006329321   0.000004851990751
Si   10.18313   4.75212  10.18313  -0.000003028927839  -0.000002452211391  -0.000003017662576
Si    7.46762   2.03662  10.18313   0.000004857562936   0.000002000155201  -0.000002432694417
Si    7.46762   4.75212   7.46762   0.000001757110871   0.000000162046093   0.000001753517277
Si    6.10988   0.67888  11.54087  -0.000001695835403   0.000004688450871  -0.000002388499834
Si    8.82537   0.67888  14.25638  -0.000000894453686  -0.000001687809128   0.000003040887799
Si    6.10988   3.39438  14.25638   0.000002169666336  -0.000004054297588   0.000005257586722
Si    8.82537   3.39438  11.54087  -0.000001146122351  -0.000001175230812  -0.000007856376018
Si   10.18313   2.03662  12.89862  -0.000003101152267  -0.000002199282444   0.000000562183959
Si   10.18313   4.75212  15.61412   0.000000876695928  -0.000003341582542  -0.000003805668527
Si    7.46762   2.03662  15.61412  -0.000000097426338  -0.000002804757224  -0.000001228421122
Si    7.46762   4.75212  12.89862   0.000006436232741   0.000001291466035   0.000003268020491
Si    6.10988   0.67888  16.97187   0.000000294817368   0.000003741831649  -0.000000110561616
Si    8.82537   0.67888  19.68737   0.000003287526296  -0.000002825816045   0.000000455114325
Si    6.10988   3.39438  19.68737  -0.000004495399979   0.000000604146744   0.000005005159837
Si    8.82537   3.39438  16.97187  -0.000001562622348   0.000000634390256   0.000001075660278
Si   10.18313   2.03662  18.32963   0.000003226556651   0.000002237084755  -0.000000141085129
Si   10.18313   4.75212  21.04512   0.000005002134075   0.000005518865820  -0.000005117724042
Si    7.46762   2.03662  21.04512  -0.000005164152291  -0.000006184489068   0.000002242641623
Si    7.46762   4.75212  18.32963  -0.000003257339253  -0.000000088530739  -0.000001623809695
Si    6.10988   6.10987   0.67887   0.000001169480899   0.000001169516672   0.000001074568670
Si    8.82537   6.10987   3.39437   0.000004219986683   0.000002241909727   0.000005740276272
Si    6.10988   8.82537   3.39437   0.000002241912881   0.000004219953788   0.000005740248519
Si    8.82537   8.82537   0.67887   0.000000602657588   0.000000602622627   0.000000532464000
Si   10.18313   7.46762   2.03662  -0.000002429872275   0.000004861997630   0.000001999065781
Si   10.18313  10.18313   4.75212  -0.000003026518269  -0.000003026486780  -0.000002459878727
Si    7.46762   7.46762   4.75212   0.000001746494913   0.000001746578790   0.000000164906786
Si    7.46762  10.18313   2.03662   0.000004861978517  -0.000002429884950   0.000001999136206
Si    6.10988   6.10987   6.10987   0.000002961653684   0.000002961684852   0.000002963174897
Si    8.82537   6.10987   8.82537  -0.000001790055773   0.000000807236235  -0.000001791701350
Si    6.10988   8.82537   8.82537   0.000000807263564  -0.000001790068597  -0.000001791761116
Si    8.82537   8.82537   6.10987  -0.000001788196433  -0.000001788146348   0.000000811732838
Si   10.18313   7.46762   7.46762  -0.000003344911421  -0.000000063412018  -0.000000061617190
Si   10.18313  10.18313  10.18313  -0.000003658654191  -0.000003658680075  -0.000003660444549
Si    7.46762   7.46762  10.18313  -0.000000058122400  -0.000000058068959  -0.000003348143704
Si    7.46762  10.18313   7.46762  -0.000000063461243  -0.000003344929075  -0.000000061702547
Si    6.10988   6.10987  11.54087   0.000004695772997   0.000004695782243   0.000000405186249
Si    8.82537   6.10987  14.25638   0.000000190241400   0.000000467328234   0.000003277456146
Si    6.10988   8.82537  14.25638   0.000000467333342   0.000000190251531   0.000003277428677
Si    8.82537   8.82537  11.54087   0.000003012131422   0.000003012107359   0.000000923264902
Si   10.18313   7.46762  12.89862  -0.000000336830890   0.000003662054098   0.000004568909512
Si   10.18313  10.18313  15.61412  -0.000000862914201  -0.000000862969095  -0.000000235350547
Si    7.46762   7.46762  15.61412   0.000000548495638   0.000000548475350   0.000003155452453
Si    7.46762  10.18313  12.89862   0.000003662074980  -0.000000336880609   0.000004568923418
Si    6.10988   6.10987  16.97187   0.000001635104877   0.000001635110312  -0.000000292080379
Si    8.82537   6.10987  19.68737  -0.000000532801990   0.000000615527493  -0.000007185331486
Si    6.10988   8.82537  19.68737   0.000000615514048  -0.000000532770978  -0.000007185326408
Si    8.82537   8.82537  16.97187   0.000001746489107   0.000001746483850  -0.000000010032673
Si   10.18313   7.46762  18.32963  -0.000006698061898   0.000002429944365   0.000004760989720
Si   10.18313  10.18313  21.04512   0.000003632644215   0.000003632600560  -0.000004560096820
Si    7.46762   7.46762  21.04512  -0.000001640684730  -0.000001640725581  -0.000000510763661
Si    7.46762  10.18313  18.32963   0.000002429957477  -0.000006698019058   0.000004761014905
Si    6.10988  11.54087   0.67887  -0.000001709915966  -0.000002389949405   0.000004698434948
Si    8.82537  11.54087   3.39437  -0.000001147709053  -0.000007860744839  -0.000001184226987
Si    6.10988  14.25638   3.39437   0.000002171973792   0.000005259431082  -0.000004056062122
Si    8.82537  14.25638   0.67887  -0.000000889733903   0.000003042384716  -0.000001688414341
Si   10.18313  12.89862   2.03662  -0.000003105582147   0.000000567540713  -0.000002198382737
Si   10.18313  15.61412   4.75212   0.000000863790347  -0.000003813752763  -0.000003340327571
Si    7.46762  12.89862   4.75212   0.000006448267029   0.000003272727250   0.000001295084515
Si    7.46762  15.61412   2.03662  -0.000000091297154  -0.000001233223562  -0.000002805176446
Si    6.10988  11.54087   6.10987   0.000004703856777   0.000000398664198   0.000004706217986
Si    8.82537  11.54087   8.82537   0.000003008903344   0.000000917719658   0.000003003299085
Si    6.10988  14.25638   8.82537   0.000000475833569   0.000003284325311   0.000000182767644
Si    8.82537  14.25638   6.10987   0.000000185682791   0.000003277808642   0.000000470866172
Si   10.18313  12.89862   7.46762  -0.000000332026759   0.000004567011157   0.000003665323094
Si   10.18313  15.61412  10.18313  -0.000000862004713  -0.000000231418836  -0.000000869810421
Si    7.46762  12.89862  10.18313   0.000003652665162   0.000004574871279  -0.000000335391522
Si    7.46762  15.61412   7.46762   0.000000547857934   0.000003162491496   0.000000548901196
Si    6.10988  11.54087  11.54087   0.000000231429131   0.000000861962990   0.000000869808047
Si    8.82537  11.54087  14.25638  -0.000004567040250   0.000000332061762  -0.000003665338965
Si    6.10988  14.25638  14.25638  -0.000003162516461  -0.000000547830021  -0.000000548898084
Si    8.82537  14.25638  11.54087  -0.000004574889524  -0.000003652711141   0.000000335404469
Si   10.18313  12.89862  12.89862  -0.000000917712360  -0.000003008929721  -0.000003003297930
Si   10.18313  15.61412  15.61412  -0.000000398642686  -0.000004703861802  -0.000004706247673
Si    7.46762  12.89862  15.61412  -0.000003277798711  -0.000000185722650  -0.000000470887432
Si    7.46762  15.61412  12.89862  -0.000003284359447  -0.000000475836476  -0.000000182722416
Si    6.10988  11.54087  16.97187   0.000003813738119  -0.000000863809945   0.000003340371913
Si    8.82537  11.54087  19.68737  -0.000000567607316   0.000003105526618   0.000002198446932
Si    6.10988  14.25638  19.68737   0.000001233187237   0.000000091254569   0.000002805221640
Si    8.82537  14.25638  16.97187  -0.000003272651745  -0.000006448256594  -0.000001295043054
Si   10.18313  12.89862  18.32963   0.000007860720379   0.000001147762063   0.000001184207813
Si   10.18313  15.61412  21.04512   0.000002389965324   0.000001709875218  -0.000004698362891
Si    7.46762  12.89862  21.04512  -0.000003042372368   0.000000889718315   0.000001688454263
Si    7.46762  15.61412  18.32963  -0.000005259415830  -0.000002171933501   0.000004056018423
Si    6.10988  16.97187   0.67887   0.000000299984183  -0.000000109965083   0.000003730989184
Si    8.82537  16.97187   3.39437  -0.000001568307038   0.000001073935400   0.000000646382980
Si    6.10988  19.68737   3.39437  -0.000004495496018   0.000005010470955   0.000000615381891
Si    8.82537  19.68737   0.67887   0.000003288472681   0.000000453041581  -0.000002835721261
Si   10.18313  18.32963   2.03662   0.000003226420446  -0.000000133765331   0.000002242250006
Si   10.18313  21.04512   4.75212   0.000004997696973  -0.000005125134876   0.000005524921187
Si    7.46762  18.32963   4.75212  -0.000003255852757  -0.000001622599852  -0.000000092944774
Si    7.46762  21.04512   2.03662  -0.000005173677734   0.000002253190228  -0.000006187589909
Si    6.10988  16.97187   6.10987   0.000001615110294  -0.000000292587282   0.000001616552939
Si    8.82537  16.97187   8.82537   0.000001761152386  -0.000000018094593   0.000001764754769
Si    6.10988  19.68737   8.82537   0.000000609435541  -0.000007179663667  -0.000000516030180
Si    8.82537  19.68737   6.10987  -0.000000515899528  -0.000007187430312   0.000000602585817
Si   10.18313  18.32963   7.46762  -0.000006692433990   0.000004757287827   0.000002435017686
Si   10.18313  21.04512  10.18313   0.000003631325680  -0.000004552415738   0.000003632480048
Si    7.46762  18.32963  10.18313   0.000002432011716   0.000004762708616  -0.000006693411854
Si    7.46762  21.04512   7.46762  -0.000001641168550  -0.000000519476201  -0.000001644442465
Si    6.10988  16.97187  11.54087   0.000003820366457   0.000003331982118  -0.000000879605489
Si    8.82537  16.97187  14.25638  -0.000003259564705  -0.000001291089112  -0.000006433762940
Si    6.10988  19.68737  14.25638   0.000001223532481   0.000002803909872   0.000000101166968
Si    8.82537  19.68737  11.54087  -0.000000577561577   0.000002212122075   0.000003092304769
Si   10.18313  18.32963  12.89862   0.000007858380122   0.000001177329259   0.000001145583084
Si   10.18313  21.04512  15.61412   0.000002386477286  -0.000004696322929   0.000001708039839
Si    7.46762  18.32963  15.61412  -0.000005258258339   0.000004054160710  -0.000002174676150
Si    7.46762  21.04512  12.89862  -0.000003037755468   0.000001687197771   0.000000897466800
Si    6.10988  16.97187  16.97187  -0.000000635105122   0.000000438227943   0.000000429905783
Si    8.82537  16.97187  19.68737  -0.000002211638718   0.000003103524055   0.000003492445748
Si    6.10988  19.68737  19.68737   0.000006638768162  -0.000002693802737  -0.000002684261328
Si    8.82537  19.68737  16.97187  -0.000002208039182   0.000003482927370   0.000003097726885
Si   10.18313  18.32963  18.32963   0.000005765319088  -0.000004011784061  -0.000004015057188
Si   10.18313  21.04512  21.04512  -0.000004589128667  -0.000001766712099  -0.000001764305409
Si    7.46762  18.32963  21.04512  -0.000000847386479  -0.000001379266590  -0.000004539748217
Si    7.46762  21.04512  18.32963  -0.000000848693570  -0.000004540194211  -0.000001378257498
Si   11.54087   0.67888   0.67887   0.000004589088717   0.000001766767180   0.000001764347124
Si   14.25638   0.67888   3.39437   0.000000848614307   0.000004540215088   0.000001378248836
Si   11.54087   3.39438   3.39437  -0.000005765409243   0.000004011743209   0.000004015035810
Si   14.25638   3.39438   0.67887   0.000000847362533   0.000001379276963   0.000004539745918
Si   15.61412   2.03662   2.03662  -0.000006638796370   0.000002693766121   0.000002684225708
Si   15.61412   4.75212   4.75212   0.000000635115703  -0.000000438158081  -0.000000429863500
Si   12.89862   2.03662   4.75212   0.000002208054928  -0.000003482971360  -0.000003097737947
Si   12.89862   4.75212   2.03662   0.000002211671867  -0.000003103469561  -0.000003492509240
Si   11.54087   0.67888   6.10987  -0.000002386525092   0.000004696247189  -0.000001708092625
Si   14.25638   0.67888   8.82537   0.000003037776308  -0.000001687198835  -0.000000897457146
Si   11.54087   3.39438   8.82537  -0.000007858387987  -0.000001177346193  -0.000001145472896
Si   14.25638   3.39438   6.10987   0.000005258240178  -0.000004054169316   0.000002174620087
Si   15.61412   2.03662   7.46762  -0.000001223545611  -0.000002803855899  -0.000000101083778
Si   15.61412   4.75212  10.18313  -0.000003820427500  -0.000003331969693   0.000000879564430
Si   12.89862   2.03662  10.18313   0.000000577534228  -0.000002212117919  -0.000003092312848
Si   12.89862   4.75212   7.46762   0.000003259570000   0.000001291081474   0.000006433746613
Si   11.54087   0.67888  11.54087  -0.000003631325921   0.000004552452231  -0.000003632535020
Si   14.25638   0.67888  14.25638   0.000001641157898   0.000000519462424   0.000001644392701
Si   11.54087   3.39438  14.25638   0.000006692433693  -0.000004757221833  -0.000002435079976
Si   14.25638   3.39438  11.54087  -0.000002431993216  -0.000004762699135   0.000006693367773
Si   15.61412   2.03662  12.89862  -0.000000609407826   0.000007179677823   0.000000515998908
Si   15.61412   4.75212  15.61412  -0.000001615059982   0.000000292613140  -0.000001616531028
Si   12.89862   2.03662  15.61412   0.000000515897865   0.000007187475695  -0.000000602597422
Si   12.89862   4.75212  12.89862  -0.000001761218193   0.000000018103080  -0.000001764815927
Si   11.54087   0.67888  16.97187  -0.000004997746998   0.000005125148054  -0.000005524934772
Si   14.25638   0.67888  19.68737   0.000005173685528  -0.000002253201219   0.000006187679378
Si   11.54087   3.39438  19.68737  -0.000003226383697   0.000000133759642  -0.000002242177654
Si   14.25638   3.39438  16.97187   0.000003255846594   0.000001622637272   0.000000092991715
Si   15.61412   2.03662  18.32963   0.000004495521821  -0.000005010419824  -0.000000615382936
Si   15.61412   4.75212  21.04512  -0.000000299983427   0.000000109976939  -0.000003730965327
Si   12.89862   2.03662  21.04512  -0.000003288514283  -0.000000453028273   0.000002835776118
Si   12.89862   4.75212  18.32963   0.000001568290857  -0.000001073940724  -0.000000646406968
Si   11.54087   6.10987   0.67887  -0.000002389904290  -0.000001709878005   0.000004698453571
Si   14.25638   6.10987   3.39437   0.000005259425658   0.000002171926118  -0.000004056070121
Si   11.54087   8.82537   3.39437  -0.000007860707085  -0.000001147723363  -0.000001184238383
Si   14.25638   8.82537   0.67887   0.000003042391735  -0.000000889738046  -0.000001688448039
Si   15.61412   7.46762   2.03662  -0.000001233219223  -0.000000091381593  -0.000002805229095
Si   15.61412  10.18313   4.75212  -0.000003813699919   0.000000863740770  -0.000003340340381
Si   12.89862   7.46762   4.75212   0.000003272709299   0.000006448256193   0.000001295003083
Si   12.89862  10.18313   2.03662   0.000000567526652  -0.000003105533674  -0.000002198431404
Si   11.54087   6.10987   6.10987   0.000000398657487   0.000004703826691   0.000004706158193
Si   14.25638   6.10987   8.82537   0.000003284341397   0.000000475840869   0.000000182794102
Si   11.54087   8.82537   8.82537   0.000000917733584   0.000003008906834   0.000003003314125
Si   14.25638   8.82537   6.10987   0.000003277844074   0.000000185736967   0.000000470901248
Si   15.61412   7.46762   7.46762   0.000003162557817   0.000000547873389   0.000000548881437
Si   15.61412  10.18313  10.18313  -0.000000231454409  -0.000000861960866  -0.000000869829279
Si   12.89862   7.46762  10.18313   0.000004574910091   0.000003652691477  -0.000000335380641
Si   12.89862  10.18313   7.46762   0.000004567065286  -0.000000332065780   0.000003665346132
Si   11.54087   6.10987  11.54087   0.000000861969950   0.000000231466027   0.000000869825507
Si   14.25638   6.10987  14.25638  -0.000000547846009  -0.000003162460382  -0.000000548930935
Si   11.54087   8.82537  14.25638   0.000000331973364  -0.000004567022334  -0.000003665325821
Si   14.25638   8.82537  11.54087  -0.000003652677847  -0.000004574921776   0.000000335404680
Si   15.61412   7.46762  12.89862  -0.000000475856642  -0.000003284366409  -0.000000182779497
Si   15.61412  10.18313  15.61412  -0.000004703871202  -0.000000398646812  -0.000004706221063
Si   12.89862   7.46762  15.61412  -0.000000185710553  -0.000003277776096  -0.000000470888816
Si   12.89862  10.18313  12.89862  -0.000003008914789  -0.000000917713573  -0.000003003386106
Si   11.54087   6.10987  16.97187  -0.000000863805325   0.000003813693569   0.000003340400992
Si   14.25638   6.10987  19.68737   0.000000091279016   0.000001233243658   0.000002805242816
Si   11.54087   8.82537  19.68737   0.000003105515673  -0.000000567547833   0.000002198479894
Si   14.25638   8.82537  16.97187  -0.000006448236811  -0.000003272667511  -0.000001295078402
Si   15.61412   7.46762  18.32963  -0.000002171904866  -0.000005259421023   0.000004056121186
Si   15.61412  10.18313  21.04512   0.000001709858936   0.000002389934012  -0.000004698423663
Si   12.89862   7.46762  21.04512   0.000000889760223  -0.000003042399766   0.000001688474189
Si   12.89862  10.18313  18.32963   0.000001147747004   0.000007860738132   0.000001184219466
Si   11.54087  11.54087   0.67887  -0.000003632628157  -0.000003632725783   0.000004560124355
Si   14.25638  11.54087   3.39437  -0.000002429983063   0.000006698013292  -0.000004760937474
Si   11.54087  14.25638   3.39437   0.000006697995106  -0.000002430003152  -0.000004761025133
Si   14.25638  14.25638   0.67887   0.000001640675498   0.000001640710317   0.000000510720363
Si   15.61412  12.89862   2.03662  -0.000000615511919   0.000000532750913   0.000007185298439
Si   15.61412  15.61412   4.75212  -0.000001635068749  -0.000001635071408   0.000000292059765
Si   12.89862  12.89862   4.75212  -0.000001746554242  -0.000001746544947   0.000000010074277
Si   12.89862  15.61412   2.03662   0.000000532767583  -0.000000615541572   0.000007185260557
Si   11.54087  11.54087   6.10987   0.000000862940256   0.000000862976127   0.000000235357000
Si   14.25638  11.54087   8.82537  -0.000003662105848   0.000000336796108  -0.000004568914655
Si   11.54087  14.25638   8.82537   0.000000336811897  -0.000003662134931  -0.000004568936746
Si   14.25638  14.25638   6.10987  -0.000000548492706  -0.000000548478869  -0.000003155399614
Si   15.61412  12.89862   7.46762  -0.000000467328014  -0.000000190266287  -0.000003277461921
Si   15.61412  15.61412  10.18313  -0.000004695715666  -0.000004695757221  -0.000000405238043
Si   12.89862  12.89862  10.18313  -0.000003012114007  -0.000003012076889  -0.000000923268649
Si   12.89862  15.61412   7.46762  -0.000000190212343  -0.000000467327421  -0.000003277440750
Si   11.54087  11.54087  11.54087   0.000003658648130   0.000003658642295   0.000003660517906
Si   14.25638  11.54087  14.25638   0.000000063444754   0.000003344865394   0.000000061663378
Si   11.54087  14.25638  14.25638   0.000003344896965   0.000000063476893   0.000000061703674
Si   14.25638  14.25638  11.54087   0.000000058054129   0.000000058046768   0.000003348123535
Si   15.61412  12.89862  12.89862  -0.000000807292837   0.000001789976246   0.000001791710630
Si   15.61412  15.61412  15.61412  -0.000002961745914  -0.000002961725403  -0.000002963086291
Si   12.89862  12.89862  15.61412   0.000001788107362   0.000001788127068  -0.000000811744969
Si   12.89862  15.61412  12.89862   0.000001790040348  -0.000000807277830   0.000001791762368
Si   11.54087  11.54087  16.97187   0.000003026491716   0.000003026486721   0.000002459765681
Si   14.25638  11.54087  19.68737  -0.000004862018547   0.000002429842738  -0.000001999076445
Si   11.54087  14.25638  19.68737   0.000002429894329  -0.000004861987354  -0.000001999154648
Si   14.25638  14.25638  16.97187  -0.000001746470527  -0.000001746502303  -0.000000164930116
Si   15.61412  12.89862  18.32963  -0.000002241895301  -0.000004219976511  -0.000005740309231
Si   15.61412  15.61412  21.04512  -0.000001169509187  -0.000001169514162  -0.000001074660308
Si   12.89862  12.89862  21.04512  -0.000000602610544  -0.000000602641710  -0.000000532463814
Si   12.89862  15.61412  18.32963  -0.000004219961550  -0.000002241857207  -0.000005740317896
Si   11.54087  16.97187   0.67887  -0.000005002164904  -0.000005518899613   0.000005117726725
Si   14.25638  16.97187   3.39437   0.000003257409185   0.000000088568296   0.000001623821543
Si   11.54087  19.68737   3.39437  -0.000003226602540  -0.000002237122556   0.000000141107611
Si   14.25638  19.68737   0.67887   0.000005164146639   0.000006184434790  -0.000002242728784
Si   15.61412  18.32963   2.03662   0.000004495361897  -0.000000604148315  -0.000005005144162
Si   15.61412  21.04512   4.75212  -0.000000294773419  -0.000003741865957   0.000000110654014
Si   12.89862  18.32963   4.75212   0.000001562594118  -0.000000634312457  -0.000001075702963
Si   12.89862  21.04512   2.03662  -0.000003287514467   0.000002825899433  -0.000000455122554
Si   11.54087  16.97187   6.10987  -0.000000876785311   0.000003341597496   0.000003805681834
Si   14.25638  16.97187   8.82537  -0.000006436212887  -0.000001291449034  -0.000003268015471
Si   11.54087  19.68737   8.82537   0.000003101146089   0.000002199316128  -0.000000562261804
Si   14.25638  19.68737   6.10987   0.000000097465031   0.000002804785746   0.000001228416891
Si   15.61412  18.32963   7.46762  -0.000002169632060   0.000004054323228  -0.000005257568089
Si   15.61412  21.04512  10.18313   0.000001695903712  -0.000004688425894   0.000002388479542
Si   12.89862  18.32963  10.18313   0.000001146114304   0.000001175274131   0.000007856300742
Si   12.89862  21.04512   7.46762   0.000000894450139   0.000001687824095  -0.000003040877459
Si   11.54087  16.97187  11.54087   0.000003028925385   0.000002452152285   0.000003017642766
Si   14.25638  16.97187  14.25638  -0.000001757236475  -0.000000162096131  -0.000001753444930
Si   11.54087  19.68737  14.25638   0.000002428425726  -0.000002006330161  -0.000004851923834
Si   14.25638  19.68737  11.54087  -0.000004857495665  -0.000002000052564   0.000002432689410
Si   15.61412  18.32963  12.89862  -0.000002243551882  -0.000005750461010  -0.000004212373787
Si   15.61412  21.04512  15.61412  -0.000001180308510  -0.000001069291964  -0.000001176232963
Si   12.89862  18.32963  15.61412  -0.000004214071462  -0.000005744712357  -0.000002246778801
Si   12.89862  21.04512  12.89862  -0.000000591009410  -0.000000526201762  -0.000000596701641
Si   11.54087  16.97187  16.97187  -0.000007474108541   0.000002299123671   0.000002298785812
Si   14.25638  16.97187  19.68737   0.000003075039783  -0.000001801250436  -0.000008988051268
Si   11.54087  19.68737  19.68737  -0.000005192115093   0.000001870163419   0.000001868948579
Si   14.25638  19.68737  16.97187   0.000003080461951  -0.000008983404010  -0.000001799121795
Si   15.61412  18.32963  18.32963  -0.000004299422453  -0.000000069637914  -0.000000070286024
Si   15.61412  21.04512  21.04512  -0.000006574790022   0.000003879276117   0.000003883723908
Si   12.89862  18.32963  21.04512   0.000002134205415   0.000000006651814  -0.000003014858634
Si   12.89862  21.04512  18.32963   0.000002139977774  -0.000003010589162   0.000000005254398
Si   16.97187   0.67888   0.67887   0.000001535516992  -0.000000465019475  -0.000000466696946
Si   19.68737   0.67888   3.39437  -0.000001213690162  -0.000001253022638  -0.000004828746208
Si   16.97187   3.39438   3.39437  -0.000003535316198   0.000000594243636   0.000000600013374
Si   19.68737   3.39438   0.67887  -0.000001213714031  -0.000004824496095  -0.000001249862502
Si   21.04512   2.03662   2.03662  -0.000000004028918  -0.000001574959230  -0.000001562172140
Si   21.04512   4.75212   4.75212  -0.000003452242538   0.000002615344062   0.000002605048501
Si   18.32963   2.03662   4.75212   0.000000651477368   0.000004143360482   0.000000701833184
Si   18.32963   4.75212   2.03662   0.000000649650108   0.000000710488340   0.000004144265441
Si   16.97187   0.67888   6.10987  -0.000000107942508   0.000003735110232   0.000000302290939
Si   19.68737   0.67888   8.82537   0.000000453346610  -0.000002831995515   0.000003282292042
Si   16.97187   3.39438   8.82537   0.000001076978663   0.000000636157841  -0.000001558140684
Si   19.68737   3.39438   6.10987   0.000005002544937   0.000000614848730  -0.000004499680277
Si   21.04512   2.03662   7.46762   0.000002239096489  -0.000006180286341  -0.000005167282112
Si   21.04512   4.75212  10.18313  -0.000005124107799   0.000005522516231   0.000004994679371
Si   18.32963   2.03662  10.18313  -0.000000130313861   0.000002236845978   0.000003228396790
Si   18.32963   4.75212   7.46762  -0.000001630925662  -0.000000099221075  -0.000003258296828
Si   16.97187   0.67888  11.54087  -0.000005522432593   0.000005124118514  -0.000004994665907
Si   19.68737   0.67888  14.25638   0.000006180290437  -0.000002239118504   0.000005167242287
Si   16.97187   3.39438  14.25638   0.000000099293016   0.000001631011822   0.000003258273818
Si   19.68737   3.39438  11.54087  -0.000002236888541   0.000000130317366  -0.000003228359489
Si   21.04512   2.03662  12.89862   0.000002831958428  -0.000000453351399  -0.000003282210310
Si   21.04512   4.75212  15.61412  -0.000003735181077   0.000000107923825  -0.000000302237842
Si   18.32963   2.03662  15.61412  -0.000000614733895  -0.000005002554952   0.000004499687160
Si   18.32963   4.75212  12.89862  -0.000000636186145  -0.000001076999632   0.000001558179489
Si   16.97187   0.67888  16.97187  -0.000002615275043   0.000003452282664  -0.000002605100014
Si   19.68737   0.67888  19.68737   0.000001574992036   0.000000004021952   0.000001562161977
Si   16.97187   3.39438  19.68737  -0.000000710522797  -0.000000649676946  -0.000004144246186
Si   19.68737   3.39438  16.97187  -0.000004143348757  -0.000000651444024  -0.000000701849070
Si   21.04512   2.03662  18.32963   0.000001252998270   0.000001213761430   0.000004828659457
Si   21.04512   4.75212  21.04512   0.000000465071504  -0.000001535551855   0.000000466697583
Si   18.32963   2.03662  21.04512   0.000004824505809   0.000001213695931   0.000001249849677
Si   18.32963   4.75212  18.32963  -0.000000594152953   0.000003535386264  -0.000000600050446
Si   16.97187   6.10987   0.67887  -0.000000110042692   0.000000300024280   0.000003730999591
Si   19.68737   6.10987   3.39437   0.000005010422918  -0.000004495461149   0.000000615397674
Si   16.97187   8.82537   3.39437   0.000001073988275  -0.000001568321858   0.000000646424706
Si   19.68737   8.82537   0.67887   0.000000453046482   0.000003288467611  -0.000002835764549
Si   21.04512   7.46762   2.03662   0.000002253165780  -0.000005173687199  -0.000006187649330
Si   21.04512  10.18313   4.75212  -0.000005125152898   0.000004997692179   0.000005524879187
Si   18.32963   7.46762   4.75212  -0.000001622628556  -0.000003255814237  -0.000000092966313
Si   18.32963  10.18313   2.03662  -0.000000133785537   0.000003226454951   0.000002242234205
Si   16.97187   6.10987   6.10987  -0.000000292601844   0.000001615120166   0.000001616516008
Si   19.68737   6.10987   8.82537  -0.000007179682311   0.000000609445984  -0.000000516030208
Si   16.97187   8.82537   8.82537  -0.000000018106339   0.000001761087015   0.000001764790846
Si   19.68737   8.82537   6.10987  -0.000007187431688  -0.000000515964234   0.000000602603043
Si   21.04512   7.46762   7.46762  -0.000000519436661  -0.000001641164843  -0.000001644449977
Si   21.04512  10.18313  10.18313  -0.000004552426135   0.000003631327244   0.000003632520338
Si   18.32963   7.46762  10.18313   0.000004762708034   0.000002432005767  -0.000006693394099
Si   18.32963  10.18313   7.46762   0.000004757322236  -0.000006692405160   0.000002435027843
Si   16.97187   6.10987  11.54087   0.000003331976628   0.000003820403259  -0.000000879589134
Si   19.68737   6.10987  14.25638   0.000002803930168   0.000001223533822   0.000000101120940
Si   16.97187   8.82537  14.25638  -0.000001291108580  -0.000003259593272  -0.000006433752370
Si   19.68737   8.82537  11.54087   0.000002212123096  -0.000000577604269   0.000003092285531
Si   21.04512   7.46762  12.89862   0.000001687188971  -0.000003037774334   0.000000897504762
Si   21.04512  10.18313  15.61412  -0.000004696292649   0.000002386495767   0.000001708016313
Si   18.32963   7.46762  15.61412   0.000004054148249  -0.000005258266016  -0.000002174626635
Si   18.32963  10.18313  12.89862   0.000001177382248   0.000007858403812   0.000001145599486
Si   16.97187   6.10987  16.97187   0.000000438254144  -0.000000635106482   0.000000429869754
Si   19.68737   6.10987  19.68737  -0.000002693711836   0.000006638789479  -0.000002684301725
Si   16.97187   8.82537  19.68737   0.000003103497995  -0.000002211681925   0.000003492438616
Si   19.68737   8.82537  16.97187   0.000003482991070  -0.000002208092587   0.000003097740292
Si   21.04512   7.46762  18.32963  -0.000004540194975  -0.000000848680378  -0.000001378251509
Si   21.04512  10.18313  21.04512  -0.000001766732819  -0.000004589172969  -0.000001764324966
Si   18.32963   7.46762  21.04512  -0.000001379288743  -0.000000847347664  -0.000004539692549
Si   18.32963  10.18313  18.32963  -0.000004011708726   0.000005765369193  -0.000004015008101
Si   16.97187  11.54087   0.67887  -0.000005518845188  -0.000005002117622   0.000005117705865
Si   19.68737  11.54087   3.39437  -0.000002237077348  -0.000003226637304   0.000000141106665
Si   16.97187  14.25638   3.39437   0.000000088566832   0.000003257362110   0.000001623870396
Si   19.68737  14.25638   0.67887   0.000006184443223   0.000005164191552  -0.000002242701040
Si   21.04512  12.89862   2.03662   0.000002825924597  -0.000003287477840  -0.000000455125024
Si   21.04512  15.61412   4.75212  -0.000003741869681  -0.000000294790985   0.000000110558987
Si   18.32963  12.89862   4.75212  -0.000000634370251   0.000001562615872  -0.000001075618895
Si   18.32963  15.61412   2.03662  -0.000000604066324   0.000004495332656  -0.000005005180865
Si   16.97187  11.54087   6.10987   0.000003341596207  -0.000000876739974   0.000003805687220
Si   19.68737  11.54087   8.82537   0.000002199307001   0.000003101152024  -0.000000562203787
Si   16.97187  14.25638   8.82537  -0.000001291454512  -0.000006436231668  -0.000003268036281
Si   19.68737  14.25638   6.10987   0.000002804818941   0.000000097432336   0.000001228392765
Si   21.04512  12.89862   7.46762   0.000001687772271   0.000000894488160  -0.000003040864036
Si   21.04512  15.61412  10.18313  -0.000004688443378   0.000001695856569   0.000002388492598
Si   18.32963  12.89862  10.18313   0.000001175297840   0.000001146112334   0.000007856319024
Si   18.32963  15.61412   7.46762   0.000004054293375  -0.000002169652196  -0.000005257535180
Si   16.97187  11.54087  11.54087   0.000002452181216   0.000003028928905   0.000003017678253
Si   19.68737  11.54087  14.25638  -0.000002006339740   0.000002428317884  -0.000004851955588
Si   16.97187  14.25638  14.25638  -0.000000162039054  -0.000001757209458  -0.000001753469553
Si   19.68737  14.25638  11.54087  -0.000002000117958  -0.000004857521811   0.000002432678069
Si   21.04512  12.89862  12.89862  -0.000000526222155  -0.000000591018113  -0.000000596676182
Si   21.04512  15.61412  15.61412  -0.000001069261406  -0.000001180384250  -0.000001176274220
Si   18.32963  12.89862  15.61412  -0.000005744644913  -0.000004214120228  -0.000002246774824
Si   18.32963  15.61412  12.89862  -0.000005750456925  -0.000002243589645  -0.000004212391365
Si   16.97187  11.54087  16.97187   0.000002299145391  -0.000007474078999   0.000002298760548
Si   19.68737  11.54087  19.68737   0.000001870128814  -0.000005192113469   0.000001868910815
Si   16.97187  14.25638  19.68737  -0.000001801237690   0.000003075062015  -0.000008988044615
Si   19.68737  14.25638  16.97187  -0.000008983392052   0.000003080447607  -0.000001799158278
Si   21.04512  12.89862  18.32963  -0.000003010558052   0.000002139983663   0.000000005297455
Si   21.04512  15.61412  21.04512   0.000003879241787  -0.000006574867696   0.000003883743126
Si   18.32963  12.89862  21.04512   0.000000006653763   0.000002134207285  -0.000003014867014
Si   18.32963  15.61412  18.32963  -0.000000069605646  -0.000004299459665  -0.000000070287766
Si   16.97187  16.97187   0.67887  -0.000002606974120  -0.000002607000523   0.000003464453397
Si   19.68737  16.97187   3.39437  -0.000004149154419  -0.000000696150792  -0.000000658568128
Si   16.97187  19.68737   3.39437  -0.000000696115836  -0.000004149236665  -0.000000658582359
Si   19.68737  19.68737   0.67887   0.000001560455183   0.000001560440770   0.000000008244611
Si   21.04512  18.32963   2.03662   0.000001247326673   0.000004818941422   0.000001210088962
Si   21.04512  21.04512   4.75212   0.000000480292957   0.000000480287636  -0.000001530479270
Si   18.32963  18.32963   4.75212  -0.000000597345267  -0.000000597341534   0.000003536503034
Si   18.32963  21.04512   2.03662   0.000004818932016   0.000001247291378   0.000001210014947
Si   16.97187  16.97187   6.10987   0.000000438583622   0.000000438588795  -0.000000624109720
Si   19.68737  16.97187   8.82537   0.000003493758118   0.000003103268500  -0.000002217003397
Si   16.97187  19.68737   8.82537   0.000003103274348   0.000003493760237  -0.000002217043779
Si   19.68737  19.68737   6.10987  -0.000002688285228  -0.000002688301709   0.000006644922996
Si   21.04512  18.32963   7.46762  -0.000004542275858  -0.000001379043870  -0.000000848718977
Si   21.04512  21.04512  10.18313  -0.000001773602028  -0.000001773603501  -0.000004589244347
Si   18.32963  18.32963  10.18313  -0.000004014430738  -0.000004014448903   0.000005766502626
Si   18.32963  21.04512   7.46762  -0.000001379023353  -0.000004542296924  -0.000000848724618
Si   16.97187  16.97187  11.54087   0.000002301553707   0.000002301508347  -0.000007467483795
Si   19.68737  16.97187  14.25638  -0.000008992315259  -0.000001799717123   0.000003068004324
Si   16.97187  19.68737  14.25638  -0.000001799711504  -0.000008992304407   0.000003068089818
Si   19.68737  19.68737  11.54087   0.000001858958181   0.000001858946407  -0.000005185775994
Si   21.04512  18.32963  12.89862  -0.000003014231624   0.000000014674747   0.000002137432663
Si   21.04512  21.04512  15.61412   0.000003885437106   0.000003885489864  -0.000006583539225
Si   18.32963  18.32963  15.61412  -0.000000077369551  -0.000000077368891  -0.000004295579416
Si   18.32963  21.04512  12.89862   0.000000014730952  -0.000003014238431   0.000002137458627
Si   16.97187  16.97187  16.97187   0.000001386569948   0.000001386563057   0.000001396153988
Si   19.68737  16.97187  19.68737   0.000004995962675  -0.000006174471547   0.000004988101692
Si   16.97187  19.68737  19.68737  -0.000006174479962   0.000004996010905   0.000004988091748
Si   19.68737  19.68737  16.97187   0.000005003852800   0.000005003836502  -0.000006163769690
Si   21.04512  18.32963  18.32963  -0.000008739351266   0.000000301286989   0.000000300152338
Si   21.04512  21.04512  21.04512  -0.000000287762158  -0.000000287841339  -0.000000281675622
Si   18.32963  18.32963  21.04512   0.000000304056024   0.000000304069908  -0.000008743750699
Si   18.32963  21.04512  18.32963   0.000000301270821  -0.000008739281268   0.000000300143521
