CRYSTAL
PRIMVEC
  16.293000   0.000000   0.000000
   0.000000  16.293000   0.000000
   0.000000   0.000000  16.293000
PRIMCOORD
 216 1
Si     6.789E-01     6.789E-01     6.789E-01     3.587E-11     2.527E-10     5.765E-11
Si     3.394E+00     6.789E-01     3.394E+00     1.454E-10     1.311E-10    -1.411E-10
Si     6.789E-01     3.394E+00     3.394E+00    -9.452E-12     2.244E-10    -1.797E-10
Si     3.394E+00     3.394E+00     6.789E-01    -1.383E-11    -5.512E-11     3.149E-10
Si     4.752E+00     2.037E+00     2.037E+00    -4.220E-11    -5.535E-11    -1.980E-10
Si     4.752E+00     4.752E+00     4.752E+00     2.196E-10     1.361E-10    -4.564E-10
Si     2.037E+00     2.037E+00     4.752E+00     7.375E-12    -2.095E-10     4.127E-11
Si     2.037E+00     4.752E+00     2.037E+00     1.476E-10     1.068E-10     5.854E-10
Si     6.789E-01     6.789E-01     6.110E+00    -5.559E-11     3.409E-10     2.299E-10
Si     3.394E+00     6.789E-01     8.825E+00     2.893E-10    -1.156E-10    -5.087E-10
Si     6.789E-01     3.394E+00     8.825E+00    -3.288E-11    -1.935E-10     9.487E-10
Si     3.394E+00     3.394E+00     6.110E+00    -1.786E-10    -4.633E-11    -1.839E-11
Si     4.752E+00     2.037E+00     7.468E+00    -9.097E-11    -2.539E-10    -2.683E-11
Si     4.752E+00     4.752E+00     1.018E+01    -1.229E-10    -1.507E-10     8.506E-10
Si     2.037E+00     2.037E+00     1.018E+01    -2.881E-11    -3.200E-11     3.369E-10
Si     2.037E+00     4.752E+00     7.468E+00    -1.721E-10     4.281E-11     8.813E-10
Si     6.789E-01     6.789E-01     1.154E+01    -7.131E-12     6.552E-12     4.780E-11
Si     3.394E+00     6.789E-01     1.426E+01    -7.619E-11     3.294E-11     5.423E-10
Si     6.789E-01     3.394E+00     1.426E+01     3.026E-10     2.287E-10    -4.237E-10
Si     3.394E+00     3.394E+00     1.154E+01    -7.242E-11     1.375E-10     1.755E-10
Si     4.752E+00     2.037E+00     1.290E+01     1.741E-10    -3.376E-11    -1.529E-10
Si     4.752E+00     4.752E+00     1.561E+01     2.980E-11     9.680E-11    -3.198E-10
Si     2.037E+00     2.037E+00     1.561E+01    -9.235E-11    -8.685E-11    -2.128E-10
Si     2.037E+00     4.752E+00     1.290E+01    -3.213E-10     2.227E-10    -1.840E-10
Si     6.789E-01     6.110E+00     6.789E-01     2.138E-10     1.815E-11    -1.818E-10
Si     3.394E+00     6.110E+00     3.394E+00     1.425E-10    -6.793E-12     4.299E-10
Si     6.789E-01     8.825E+00     3.394E+00     1.008E-10     2.428E-10     5.124E-10
Si     3.394E+00     8.825E+00     6.789E-01     3.044E-10    -3.994E-10     3.465E-10
Si     4.752E+00     7.468E+00     2.037E+00    -2.041E-10     9.677E-11     7.376E-10
Si     4.752E+00     1.018E+01     4.752E+00    -6.002E-11    -6.355E-11     5.304E-10
Si     2.037E+00     7.468E+00     4.752E+00    -1.506E-10     1.925E-10    -1.375E-10
Si     2.037E+00     1.018E+01     2.037E+00    -4.342E-11     8.125E-12     3.524E-11
Si     6.789E-01     6.110E+00     6.110E+00     1.043E-10    -1.260E-10    -3.643E-11
Si     3.394E+00     6.110E+00     8.825E+00    -9.490E-11     2.310E-11    -6.030E-10
Si     6.789E-01     8.825E+00     8.825E+00    -1.696E-10    -3.843E-11    -1.998E-10
Si     3.394E+00     8.825E+00     6.110E+00     1.157E-10    -9.678E-11    -3.562E-10
Si     4.752E+00     7.468E+00     7.468E+00     3.826E-10     7.894E-12     6.346E-11
Si     4.752E+00     1.018E+01     1.018E+01     9.415E-11    -3.912E-10     1.024E-09
Si     2.037E+00     7.468E+00     1.018E+01     7.966E-11     6.267E-11    -6.255E-10
Si     2.037E+00     1.018E+01     7.468E+00    -1.053E-10    -9.198E-12     1.147E-10
Si     6.789E-01     6.110E+00     1.154E+01     1.182E-10    -9.060E-11    -4.139E-10
Si     3.394E+00     6.110E+00     1.426E+01     5.529E-11    -1.373E-10    -6.468E-10
Si     6.789E-01     8.825E+00     1.426E+01    -2.004E-11     6.731E-11    -2.152E-10
Si     3.394E+00     8.825E+00     1.154E+01    -4.422E-11     8.461E-11    -8.146E-10
Si     4.752E+00     7.468E+00     1.290E+01     1.912E-11     3.103E-11     1.666E-10
Si     4.752E+00     1.018E+01     1.561E+01    -8.523E-11     1.767E-10    -1.598E-10
Si     2.037E+00     7.468E+00     1.561E+01    -1.119E-10     1.486E-10    -5.166E-11
Si     2.037E+00     1.018E+01     1.290E+01     1.065E-10    -1.550E-10    -1.904E-11
Si     6.789E-01     1.154E+01     6.789E-01    -2.413E-10     1.096E-10     4.913E-10
Si     3.394E+00     1.154E+01     3.394E+00    -9.341E-11    -1.896E-10     4.770E-10
Si     6.789E-01     1.426E+01     3.394E+00    -1.223E-10     3.326E-10     1.523E-10
Si     3.394E+00     1.426E+01     6.789E-01     2.192E-10    -1.942E-10     7.055E-11
Si     4.752E+00     1.290E+01     2.037E+00     2.611E-11     6.292E-11    -2.502E-10
Si     4.752E+00     1.561E+01     4.752E+00     6.108E-11    -2.271E-10    -9.594E-10
Si     2.037E+00     1.290E+01     4.752E+00     1.736E-10    -3.599E-10     4.794E-10
Si     2.037E+00     1.561E+01     2.037E+00    -2.426E-10    -4.189E-10    -2.322E-10
Si     6.789E-01     1.154E+01     6.110E+00     3.600E-10     2.119E-10    -1.666E-10
Si     3.394E+00     1.154E+01     8.825E+00     5.164E-11     1.268E-10    -8.427E-10
Si     6.789E-01     1.426E+01     8.825E+00    -1.409E-10     2.033E-10     8.337E-10
Si     3.394E+00     1.426E+01     6.110E+00     2.572E-10     3.113E-10    -1.813E-10
Si     4.752E+00     1.290E+01     7.468E+00    -5.520E-12     3.752E-11    -5.551E-11
Si     4.752E+00     1.561E+01     1.018E+01    -3.345E-10    -2.348E-10    -2.759E-10
Si     2.037E+00     1.290E+01     1.018E+01     6.579E-12    -1.448E-10     2.637E-11
Si     2.037E+00     1.561E+01     7.468E+00     1.036E-10    -1.455E-10    -2.887E-10
Si     6.789E-01     1.154E+01     1.154E+01    -7.725E-13     2.590E-10    -1.329E-10
Si     3.394E+00     1.154E+01     1.426E+01     9.051E-11    -1.021E-10    -4.623E-10
Si     6.789E-01     1.426E+01     1.426E+01     3.670E-11     1.443E-10    -1.097E-10
Si     3.394E+00     1.426E+01     1.154E+01    -1.718E-10     1.946E-10    -7.587E-11
Si     4.752E+00     1.290E+01     1.290E+01     1.228E-10    -2.042E-10     1.120E-09
Si     4.752E+00     1.561E+01     1.561E+01    -2.787E-10     1.700E-10     3.763E-10
Si     2.037E+00     1.290E+01     1.561E+01     1.633E-10     9.069E-11     1.837E-10
Si     2.037E+00     1.561E+01     1.290E+01     2.664E-10     1.503E-10    -6.039E-10
Si     6.110E+00     6.789E-01     6.789E-01     1.141E-10    -3.665E-10    -1.442E-10
Si     8.825E+00     6.789E-01     3.394E+00     2.827E-10    -7.881E-11    -6.276E-10
Si     6.110E+00     3.394E+00     3.394E+00    -9.917E-11     3.344E-10     2.826E-10
Si     8.825E+00     3.394E+00     6.789E-01     1.375E-10     3.650E-12     7.512E-10
Si     1.018E+01     2.037E+00     2.037E+00    -4.871E-11     1.103E-11    -7.985E-10
Si     1.018E+01     4.752E+00     4.752E+00    -1.098E-10    -1.558E-10     5.383E-11
Si     7.468E+00     2.037E+00     4.752E+00    -1.161E-10    -4.008E-11    -3.701E-10
Si     7.468E+00     4.752E+00     2.037E+00    -3.441E-11     5.787E-11     2.317E-10
Si     6.110E+00     6.789E-01     6.110E+00    -2.332E-10    -1.286E-10     3.901E-10
Si     8.825E+00     6.789E-01     8.825E+00    -1.695E-10     5.994E-11     4.612E-10
Si     6.110E+00     3.394E+00     8.825E+00     8.545E-11     9.252E-11     5.542E-10
Si     8.825E+00     3.394E+00     6.110E+00    -1.855E-10     1.436E-10     2.062E-10
Si     1.018E+01     2.037E+00     7.468E+00     9.000E-11     1.168E-10     1.980E-10
Si     1.018E+01     4.752E+00     1.018E+01    -8.486E-11     2.893E-10    -1.416E-10
Si     7.468E+00     2.037E+00     1.018E+01    -5.379E-11     5.809E-11    -7.536E-10
Si     7.468E+00     4.752E+00     7.468E+00    -2.769E-11    -4.111E-11    -3.468E-10
Si     6.110E+00     6.789E-01     1.154E+01    -2.551E-11     7.016E-11    -1.385E-10
Si     8.825E+00     6.789E-01     1.426E+01    -6.659E-11    -2.489E-10     5.413E-10
Si     6.110E+00     3.394E+00     1.426E+01    -1.261E-10     1.753E-10     2.442E-11
Si     8.825E+00     3.394E+00     1.154E+01     1.825E-10    -3.766E-10    -7.712E-11
Si     1.018E+01     2.037E+00     1.290E+01     7.093E-11     1.113E-10    -4.201E-10
Si     1.018E+01     4.752E+00     1.561E+01    -8.250E-11    -1.032E-10    -5.770E-10
Si     7.468E+00     2.037E+00     1.561E+01    -6.279E-11    -4.913E-11    -5.357E-11
Si     7.468E+00     4.752E+00     1.290E+01    -1.356E-10    -2.625E-11    -1.571E-10
Si     6.110E+00     6.110E+00     6.789E-01    -4.829E-11    -3.050E-11     6.649E-10
Si     8.825E+00     6.110E+00     3.394E+00     3.014E-10     2.537E-11     1.687E-10
Si     6.110E+00     8.825E+00     3.394E+00     8.888E-12    -6.635E-11    -1.203E-10
Si     8.825E+00     8.825E+00     6.789E-01     1.184E-10     5.137E-11     2.374E-10
Si     1.018E+01     7.468E+00     2.037E+00    -2.261E-10    -2.293E-11     5.384E-10
Si     1.018E+01     1.018E+01     4.752E+00     1.490E-12    -3.526E-10    -7.925E-10
Si     7.468E+00     7.468E+00     4.752E+00    -1.091E-10     1.078E-11    -4.895E-10
Si     7.468E+00     1.018E+01     2.037E+00    -1.408E-10    -6.718E-11    -3.130E-10
Si     6.110E+00     6.110E+00     6.110E+00     4.375E-11    -2.122E-10    -1.741E-10
Si     8.825E+00     6.110E+00     8.825E+00    -8.411E-11    -4.498E-12     6.519E-10
Si     6.110E+00     8.825E+00     8.825E+00    -1.192E-10     2.874E-10    -2.282E-10
Si     8.825E+00     8.825E+00     6.110E+00    -2.532E-10     1.830E-10     3.385E-10
Si     1.018E+01     7.468E+00     7.468E+00     4.386E-10    -1.339E-10    -6.147E-10
Si     1.018E+01     1.018E+01     1.018E+01    -1.475E-10    -4.568E-11     2.835E-10
Si     7.468E+00     7.468E+00     1.018E+01    -1.247E-10     6.372E-11     5.330E-10
Si     7.468E+00     1.018E+01     7.468E+00     9.852E-11    -6.555E-11    -1.346E-10
Si     6.110E+00     6.110E+00     1.154E+01    -2.163E-11    -1.317E-10    -4.917E-10
Si     8.825E+00     6.110E+00     1.426E+01    -2.850E-10     2.354E-10     2.368E-10
Si     6.110E+00     8.825E+00     1.426E+01     3.049E-12    -1.382E-10    -1.880E-10
Si     8.825E+00     8.825E+00     1.154E+01     3.388E-10    -2.497E-11    -7.310E-10
Si     1.018E+01     7.468E+00     1.290E+01     2.444E-10     1.778E-10    -2.484E-10
Si     1.018E+01     1.018E+01     1.561E+01    -1.264E-10    -1.236E-10     7.627E-10
Si     7.468E+00     7.468E+00     1.561E+01    -1.539E-11    -2.134E-10    -4.288E-10
Si     7.468E+00     1.018E+01     1.290E+01    -1.810E-10    -8.117E-11     6.418E-10
Si     6.110E+00     1.154E+01     6.789E-01     2.202E-10     1.110E-10     1.741E-10
Si     8.825E+00     1.154E+01     3.394E+00     7.741E-11     1.594E-10     2.644E-10
Si     6.110E+00     1.426E+01     3.394E+00     2.438E-10    -2.756E-11     4.013E-10
Si     8.825E+00     1.426E+01     6.789E-01    -4.532E-11     3.593E-11    -1.019E-09
Si     1.018E+01     1.290E+01     2.037E+00    -2.320E-10    -3.023E-12     4.019E-10
Si     1.018E+01     1.561E+01     4.752E+00     5.005E-11    -1.153E-10    -4.906E-10
Si     7.468E+00     1.290E+01     4.752E+00    -2.762E-10    -6.487E-11    -1.163E-09
Si     7.468E+00     1.561E+01     2.037E+00    -8.975E-11     4.383E-10     4.146E-10
Si     6.110E+00     1.154E+01     6.110E+00     2.105E-10    -3.734E-11     1.131E-09
Si     8.825E+00     1.154E+01     8.825E+00     1.782E-10    -1.371E-10     2.528E-10
Si     6.110E+00     1.426E+01     8.825E+00     2.599E-10    -1.748E-10     9.727E-10
Si     8.825E+00     1.426E+01     6.110E+00     1.480E-10    -6.999E-11     4.742E-10
Si     1.018E+01     1.290E+01     7.468E+00    -2.945E-10     8.364E-11    -2.228E-10
Si     1.018E+01     1.561E+01     1.018E+01     6.093E-11    -2.210E-10     9.906E-11
Si     7.468E+00     1.290E+01     1.018E+01    -1.128E-10    -7.321E-11    -2.221E-10
Si     7.468E+00     1.561E+01     7.468E+00    -4.002E-11     1.224E-10    -4.599E-10
Si     6.110E+00     1.154E+01     1.154E+01    -3.141E-11     2.814E-10    -5.993E-10
Si     8.825E+00     1.154E+01     1.426E+01    -6.650E-12    -4.791E-11     6.077E-10
Si     6.110E+00     1.426E+01     1.426E+01     4.882E-11     8.165E-13    -4.336E-10
Si     8.825E+00     1.426E+01     1.154E+01    -9.931E-11     2.181E-10     7.178E-10
Si     1.018E+01     1.290E+01     1.290E+01    -6.197E-12    -1.330E-10    -1.350E-10
Si     1.018E+01     1.561E+01     1.561E+01     2.463E-10     3.558E-10    -1.183E-10
Si     7.468E+00     1.290E+01     1.561E+01    -1.793E-11     1.087E-12    -3.394E-10
Si     7.468E+00     1.561E+01     1.290E+01     5.858E-11    -6.499E-11    -3.257E-10
Si     1.154E+01     6.789E-01     6.789E-01    -2.451E-10    -1.399E-10    -1.668E-11
Si     1.426E+01     6.789E-01     3.394E+00    -1.158E-10     4.154E-11     1.228E-10
Si     1.154E+01     3.394E+00     3.394E+00     2.992E-10     4.560E-12    -6.024E-10
Si     1.426E+01     3.394E+00     6.789E-01     1.740E-10     4.788E-11     4.301E-10
Si     1.561E+01     2.037E+00     2.037E+00     5.015E-11    -1.520E-11     3.579E-10
Si     1.561E+01     4.752E+00     4.752E+00    -4.898E-11    -6.644E-11     7.093E-10
Si     1.290E+01     2.037E+00     4.752E+00     3.961E-11    -6.535E-11    -4.964E-10
Si     1.290E+01     4.752E+00     2.037E+00    -1.892E-10     2.321E-10    -1.741E-10
Si     1.154E+01     6.789E-01     6.110E+00    -1.375E-11     9.575E-11     1.183E-10
Si     1.426E+01     6.789E-01     8.825E+00    -2.371E-10     1.056E-10     3.803E-10
Si     1.154E+01     3.394E+00     8.825E+00    -7.538E-13    -1.449E-10    -1.429E-10
Si     1.426E+01     3.394E+00     6.110E+00    -2.630E-10     7.183E-11     7.444E-11
Si     1.561E+01     2.037E+00     7.468E+00     2.300E-10     1.741E-10    -1.122E-09
Si     1.561E+01     4.752E+00     1.018E+01    -2.339E-10     2.495E-11     3.270E-10
Si     1.290E+01     2.037E+00     1.018E+01     2.211E-10     9.528E-11    -1.013E-09
Si     1.290E+01     4.752E+00     7.468E+00     9.693E-11    -2.873E-10     2.919E-10
Si     1.154E+01     6.789E-01     1.154E+01    -1.730E-10    -1.026E-10     6.423E-10
Si     1.426E+01     6.789E-01     1.426E+01     1.279E-12    -1.160E-10    -7.456E-10
Si     1.154E+01     3.394E+00     1.426E+01    -1.346E-10     3.173E-11     6.170E-10
Si     1.426E+01     3.394E+00     1.154E+01     2.270E-10     3.294E-12     3.991E-10
Si     1.561E+01     2.037E+00     1.290E+01    -1.983E-10    -1.201E-10     5.683E-10
Si     1.561E+01     4.752E+00     1.561E+01    -4.974E-11    -2.059E-10     1.419E-10
Si     1.290E+01     2.037E+00     1.561E+01     1.097E-11    -1.240E-10     6.733E-10
Si     1.290E+01     4.752E+00     1.290E+01    -5.954E-11     1.872E-11     1.506E-10
Si     1.154E+01     6.110E+00     6.789E-01     7.641E-11     1.077E-10     5.658E-11
Si     1.426E+01     6.110E+00     3.394E+00     3.153E-10     1.030E-10     3.500E-10
Si     1.154E+01     8.825E+00     3.394E+00     1.939E-10     1.846E-10    -1.076E-10
Si     1.426E+01     8.825E+00     6.789E-01    -6.095E-11     1.933E-11     8.894E-10
Si     1.561E+01     7.468E+00     2.037E+00    -1.265E-10    -8.989E-11    -5.452E-10
Si     1.561E+01     1.018E+01     4.752E+00    -1.347E-10    -1.292E-10     5.710E-10
Si     1.290E+01     7.468E+00     4.752E+00    -2.446E-11    -6.048E-11    -1.176E-09
Si     1.290E+01     1.018E+01     2.037E+00    -1.044E-10     7.454E-12    -3.462E-10
Si     1.154E+01     6.110E+00     6.110E+00    -1.364E-10     4.180E-10     1.890E-11
Si     1.426E+01     6.110E+00     8.825E+00     3.061E-10    -1.794E-10    -1.706E-11
Si     1.154E+01     8.825E+00     8.825E+00     2.062E-12     2.434E-10    -5.057E-10
Si     1.426E+01     8.825E+00     6.110E+00     1.774E-10    -1.776E-10    -5.170E-10
Si     1.561E+01     7.468E+00     7.468E+00    -3.463E-10     3.957E-11     3.753E-10
Si     1.561E+01     1.018E+01     1.018E+01     6.077E-11     2.895E-11    -1.319E-10
Si     1.290E+01     7.468E+00     1.018E+01     1.301E-10     4.391E-11    -5.184E-10
Si     1.290E+01     1.018E+01     7.468E+00     2.412E-10     5.773E-11    -1.528E-10
Si     1.154E+01     6.110E+00     1.154E+01    -3.865E-11     9.702E-11    -2.613E-10
Si     1.426E+01     6.110E+00     1.426E+01    -1.882E-10    -3.360E-10    -2.907E-10
Si     1.154E+01     8.825E+00     1.426E+01    -2.382E-10     1.416E-10     3.635E-11
Si     1.426E+01     8.825E+00     1.154E+01    -1.647E-10    -2.782E-11     6.036E-10
Si     1.561E+01     7.468E+00     1.290E+01     5.858E-11     1.376E-10    -9.634E-10
Si     1.561E+01     1.018E+01     1.561E+01    -3.881E-11     1.739E-10    -9.766E-10
Si     1.290E+01     7.468E+00     1.561E+01     1.109E-10    -2.275E-10     2.175E-10
Si     1.290E+01     1.018E+01     1.290E+01     2.534E-10     7.576E-11     6.056E-11
Si     1.154E+01     1.154E+01     6.789E-01    -4.793E-11    -1.133E-11    -2.473E-10
Si     1.426E+01     1.154E+01     3.394E+00    -1.149E-10    -7.476E-11     2.612E-10
Si     1.154E+01     1.426E+01     3.394E+00    -7.535E-11    -1.362E-10    -2.924E-10
Si     1.426E+01     1.426E+01     6.789E-01    -4.263E-11    -3.387E-11    -9.424E-11
Si     1.561E+01     1.290E+01     2.037E+00     7.644E-11     1.028E-10     7.278E-10
Si     1.561E+01     1.561E+01     4.752E+00     4.922E-11    -2.786E-10    -2.158E-10
Si     1.290E+01     1.290E+01     4.752E+00     1.357E-10    -9.232E-11    -3.604E-10
Si     1.290E+01     1.561E+01     2.037E+00     1.410E-10     1.169E-10    -4.645E-10
Si     1.154E+01     1.154E+01     6.110E+00    -5.230E-11     3.255E-11     3.121E-11
Si     1.426E+01     1.154E+01     8.825E+00    -3.456E-10     1.729E-10     4.267E-10
Si     1.154E+01     1.426E+01     8.825E+00     2.508E-11    -3.004E-11     2.050E-10
Si     1.426E+01     1.426E+01     6.110E+00     5.238E-11     6.763E-11     4.947E-10
Si     1.561E+01     1.290E+01     7.468E+00    -8.080E-11    -2.975E-10    -3.963E-10
Si     1.561E+01     1.561E+01     1.018E+01    -2.312E-11    -2.294E-10    -5.887E-10
Si     1.290E+01     1.290E+01     1.018E+01     3.045E-10    -7.385E-11    -3.124E-10
Si     1.290E+01     1.561E+01     7.468E+00    -4.395E-11     1.936E-10    -5.408E-10
Si     1.154E+01     1.154E+01     1.154E+01    -3.320E-11     5.604E-11     6.492E-11
Si     1.426E+01     1.154E+01     1.426E+01     1.896E-11     1.120E-10     9.330E-10
Si     1.154E+01     1.426E+01     1.426E+01    -3.709E-11     2.323E-10    -3.351E-11
Si     1.426E+01     1.426E+01     1.154E+01    -2.429E-10    -4.224E-11     1.404E-09
Si     1.561E+01     1.290E+01     1.290E+01    -2.866E-10    -6.368E-11    -2.423E-10
Si     1.561E+01     1.561E+01     1.561E+01     2.000E-10    -9.798E-12     6.593E-11
Si     1.290E+01     1.290E+01     1.561E+01     3.712E-11    -3.115E-10     4.224E-10
Si     1.290E+01     1.561E+01     1.290E+01     1.809E-11    -3.716E-11    -4.472E-10
