216 

Si    0.67888   0.67888   0.67888   0.000008974277717   0.000008974318822   0.000008955850271
Si    3.39437   0.67888   3.39437  -0.000008974325960   0.000008974321661  -0.000008955818191
Si    0.67888   3.39437   3.39437   0.000008974330906  -0.000008974345260  -0.000008955889693
Si    3.39437   3.39437   0.67888  -0.000008974351856  -0.000008974334854   0.000008955876202
Si    4.75213   2.03662   2.03662   0.000007118419620  -0.000000000022708  -0.000000000048125
Si    4.75213   4.75213   4.75213   0.000008157240720   0.000008157366191   0.000008161402212
Si    2.03662   2.03662   4.75213   0.000000000055152  -0.000000000015214   0.000007124947076
Si    2.03662   4.75213   2.03662   0.000000000058590   0.000007118428703  -0.000000000076718
Si    0.67888   0.67888   6.10987   0.000002872650467   0.000002872629146   0.000000869886990
Si    3.39437   0.67888   8.82538  -0.000008157404679   0.000008157299453   0.000008161495371
Si    0.67888   3.39437   8.82538   0.000008157365033  -0.000008157285689   0.000008161402857
Si    3.39437   3.39437   6.10987  -0.000002872671122  -0.000002872574012   0.000000869870575
Si    4.75213   2.03662   7.46762   0.000002889860366   0.000000875519033  -0.000002885599629
Si    4.75213   4.75213  10.18313   0.000002872671616   0.000002872661702  -0.000000869855105
Si    2.03662   2.03662  10.18313  -0.000000000020431  -0.000000000045278  -0.000000000023053
Si    2.03662   4.75213   7.46762   0.000000875470978   0.000002889875496  -0.000002885600408
Si    0.67888   0.67888  11.54087   0.000008157349403   0.000008157257921  -0.000008161511980
Si    3.39437   0.67888  14.25638  -0.000002872612232   0.000002872578994  -0.000000869909997
Si    0.67888   3.39437  14.25638   0.000002872610241  -0.000002872614513  -0.000000869867960
Si    3.39437   3.39437  11.54087  -0.000008157294247  -0.000008157330556  -0.000008161417899
Si    4.75213   2.03662  12.89863   0.000002889765251  -0.000000875494521   0.000002885504877
Si    4.75213   4.75213  15.61412   0.000008974310571   0.000008974348509  -0.000008955789977
Si    2.03662   2.03662  15.61412  -0.000000000049889   0.000000000042860  -0.000007124854958
Si    2.03662   4.75213  12.89863  -0.000000875501241   0.000002889868077   0.000002885623716
Si    0.67888   6.10987   0.67888   0.000002889871641   0.000000875513252   0.000002885574290
Si    3.39437   6.10987   3.39437  -0.000002889804060   0.000000875467348  -0.000002885584772
Si    0.67888   8.82538   3.39437   0.000008157389913   0.000008157291822  -0.000008161380166
Si    3.39437   8.82538   0.67888  -0.000008157329847   0.000008157336882   0.000008161474123
Si    4.75213   7.46762   2.03662   0.000002872638025  -0.000002872629880   0.000000869884166
Si    4.75213  10.18313   4.75213   0.000002889762122  -0.000000875440029   0.000002885611905
Si    2.03662   7.46762   4.75213   0.000000875465225  -0.000002889820301   0.000002885597143
Si    2.03662  10.18313   2.03662   0.000000000015283  -0.000000000008698   0.000000000036254
Si    0.67888   6.10987   6.10987   0.000007118442277   0.000000000017372   0.000000000021101
Si    3.39437   6.10987   8.82538  -0.000002889800542  -0.000000875468921   0.000002885532408
Si    0.67888   8.82538   8.82538   0.000008974309214   0.000008974282150   0.000008955851978
Si    3.39437   8.82538   6.10987  -0.000002872624721   0.000002872644366  -0.000000869929573
Si    4.75213   7.46762   7.46762   0.000008157268778  -0.000008157382116  -0.000008161418129
Si    4.75213  10.18313  10.18313   0.000007118408805  -0.000000000005631  -0.000000000071731
Si    2.03662   7.46762  10.18313   0.000000000018473  -0.000007118409844  -0.000000000022030
Si    2.03662  10.18313   7.46762   0.000000000046499  -0.000000000012719  -0.000007124902630
Si    0.67888   6.10987  11.54087   0.000002889814482  -0.000000875418619  -0.000002885572164
Si    3.39437   6.10987  14.25638  -0.000007118452761  -0.000000000031452  -0.000000000023385
Si    0.67888   8.82538  14.25638   0.000002872648958   0.000002872562907   0.000000869946041
Si    3.39437   8.82538  11.54087  -0.000008974336470   0.000008974296633  -0.000008955829100
Si    4.75213   7.46762  12.89863   0.000008974351446  -0.000008974342630   0.000008955807915
Si    4.75213  10.18313  15.61412   0.000002889833107   0.000000875474520  -0.000002885516066
Si    2.03662   7.46762  15.61412  -0.000000875504303  -0.000002889840913  -0.000002885583195
Si    2.03662  10.18313  12.89863   0.000000000023613  -0.000000000006002   0.000007124856372
Si    0.67888  11.54087   0.67888   0.000008157332642  -0.000008157303119   0.000008161426137
Si    3.39437  11.54087   3.39437  -0.000008157304642  -0.000008157392167  -0.000008161390245
Si    0.67888  14.25638   3.39437   0.000002889847191  -0.000000875462313  -0.000002885616443
Si    3.39437  14.25638   0.67888  -0.000002889845865  -0.000000875467609   0.000002885510592
Si    4.75213  12.89863   2.03662   0.000002872600876   0.000002872585448  -0.000000869882656
Si    4.75213  15.61412   4.75213   0.000008974360468  -0.000008974344404   0.000008955797651
Si    2.03662  12.89863   4.75213  -0.000000875507847   0.000002889907242   0.000002885620195
Si    2.03662  15.61412   2.03662  -0.000000000014761  -0.000007118430202   0.000000000002113
Si    0.67888  11.54087   6.10987   0.000002872629436  -0.000002872586283  -0.000000869919961
Si    3.39437  11.54087   8.82538  -0.000008974298625  -0.000008974294941   0.000008955869570
Si    0.67888  14.25638   8.82538   0.000002889901260   0.000000875461757   0.000002885582407
Si    3.39437  14.25638   6.10987  -0.000007118479367  -0.000000000008769  -0.000000000024312
Si    4.75213  12.89863   7.46762   0.000008974313062   0.000008974293672  -0.000008955846469
Si    4.75213  15.61412  10.18313   0.000002872534599  -0.000002872568678   0.000000869900479
Si    2.03662  12.89863  10.18313   0.000000000057561   0.000007118487641  -0.000000000040963
Si    2.03662  15.61412   7.46762  -0.000000875469586  -0.000002889894319  -0.000002885547946
Si    0.67888  11.54087  11.54087   0.000008974329670  -0.000008974330076  -0.000008955778729
Si    3.39437  11.54087  14.25638  -0.000002872626853  -0.000002872544071   0.000000869842526
Si    0.67888  14.25638  14.25638   0.000007118383447   0.000000000064515  -0.000000000001592
Si    3.39437  14.25638  11.54087  -0.000002889849786   0.000000875469900  -0.000002885577296
Si    4.75213  12.89863  12.89863   0.000008157356413   0.000008157353070   0.000008161478913
Si    4.75213  15.61412  15.61412   0.000008157335250  -0.000008157377811  -0.000008161414721
Si    2.03662  12.89863  15.61412   0.000000875549203   0.000002889879381  -0.000002885567342
Si    2.03662  15.61412  12.89863   0.000000875550602  -0.000002889826121   0.000002885522563
Si    6.10987   0.67888   0.67888   0.000000875527121   0.000002889776755   0.000002885541059
Si    8.82538   0.67888   3.39437   0.000008157305995   0.000008157242008  -0.000008161435934
Si    6.10987   3.39437   3.39437   0.000000875513603  -0.000002889841977  -0.000002885574434
Si    8.82538   3.39437   0.67888   0.000008157321561  -0.000008157309953   0.000008161454122
Si   10.18313   2.03662   2.03662   0.000000000030001  -0.000000000037626  -0.000000000006278
Si   10.18313   4.75213   4.75213  -0.000000875458006   0.000002889816607   0.000002885589508
Si    7.46762   2.03662   4.75213  -0.000002889832649   0.000000875535144   0.000002885574363
Si    7.46762   4.75213   2.03662  -0.000002872604810   0.000002872648384   0.000000869911181
Si    6.10987   0.67888   6.10987  -0.000000000034611   0.000007118407559  -0.000000000003831
Si    8.82538   0.67888   8.82538   0.000008974357962   0.000008974330741   0.000008955832872
Si    6.10987   3.39437   8.82538  -0.000000875511938  -0.000002889875785   0.000002885521989
Si    8.82538   3.39437   6.10987   0.000002872630597  -0.000002872610775  -0.000000869936303
Si   10.18313   2.03662   7.46762   0.000000000033413  -0.000000000008586  -0.000007124851181
Si   10.18313   4.75213  10.18313   0.000000000019570   0.000007118447425   0.000000000004522
Si    7.46762   2.03662  10.18313  -0.000007118427755   0.000000000032926   0.000000000025083
Si    7.46762   4.75213   7.46762  -0.000008157351708   0.000008157349365  -0.000008161410081
Si    6.10987   0.67888  11.54087  -0.000000875463248   0.000002889812909  -0.000002885527028
Si    8.82538   0.67888  14.25638   0.000002872573549   0.000002872544662   0.000000869893280
Si    6.10987   3.39437  14.25638   0.000000000017061  -0.000007118437096  -0.000000000001164
Si    8.82538   3.39437  11.54087   0.000008974268611  -0.000008974302633  -0.000008955819895
Si   10.18313   2.03662  12.89863   0.000000000011586  -0.000000000012690   0.000007124889474
Si   10.18313   4.75213  15.61412   0.000000875476244   0.000002889881731  -0.000002885610359
Si    7.46762   2.03662  15.61412  -0.000002889820724  -0.000000875569801  -0.000002885566984
Si    7.46762   4.75213  12.89863  -0.000008974330670   0.000008974333154   0.000008955822969
Si    6.10987   6.10987   0.67888  -0.000000000006059   0.000000000019660   0.000007124907584
Si    8.82538   6.10987   3.39437   0.000002889845126  -0.000000875460429  -0.000002885578101
Si    6.10987   8.82538   3.39437  -0.000000875535422   0.000002889818018  -0.000002885539651
Si    8.82538   8.82538   0.67888   0.000008974391928   0.000008974330662   0.000008955839056
Si   10.18313   7.46762   2.03662  -0.000000000003193  -0.000007118423426  -0.000000000013819
Si   10.18313  10.18313   4.75213   0.000000000031450   0.000000000017292   0.000007124865355
Si    7.46762   7.46762   4.75213  -0.000008157306354  -0.000008157349814   0.000008161457205
Si    7.46762  10.18313   2.03662  -0.000007118368813  -0.000000000007627  -0.000000000030771
Si    6.10987   6.10987   6.10987   0.000000000068943   0.000000000028084   0.000000000019384
Si    8.82538   6.10987   8.82538   0.000002889808615   0.000000875448158   0.000002885609995
Si    6.10987   8.82538   8.82538   0.000000875527244   0.000002889839986   0.000002885563773
Si    8.82538   8.82538   6.10987   0.000002872623623   0.000002872588667   0.000000869898423
Si   10.18313   7.46762   7.46762  -0.000000875490498  -0.000002889839654  -0.000002885603084
Si   10.18313  10.18313  10.18313   0.000000000042310   0.000000000002666   0.000000000033090
Si    7.46762   7.46762  10.18313  -0.000002872605262  -0.000002872652034  -0.000000869912578
Si    7.46762  10.18313   7.46762  -0.000002889845054  -0.000000875498977  -0.000002885562973
Si    6.10987   6.10987  11.54087   0.000000000025084  -0.000000000029175  -0.000007124928069
Si    8.82538   6.10987  14.25638   0.000007118473195  -0.000000000035269  -0.000000000042621
Si    6.10987   8.82538  14.25638   0.000000000062075   0.000007118395706  -0.000000000026150
Si    8.82538   8.82538  11.54087   0.000008157352376   0.000008157310466  -0.000008161437212
Si   10.18313   7.46762  12.89863   0.000000875481708  -0.000002889864071   0.000002885652452
Si   10.18313  10.18313  15.61412   0.000000000017147  -0.000000000017681  -0.000007124839801
Si    7.46762   7.46762  15.61412  -0.000008974425962  -0.000008974320098  -0.000008955829203
Si    7.46762  10.18313  12.89863  -0.000002889838383   0.000000875459992   0.000002885584683
Si    6.10987  11.54087   0.67888  -0.000000875478978  -0.000002889876705   0.000002885629355
Si    8.82538  11.54087   3.39437   0.000008974340736  -0.000008974284160  -0.000008955865461
Si    6.10987  14.25638   3.39437   0.000000000020178   0.000000000005976  -0.000007124834634
Si    8.82538  14.25638   0.67888   0.000002889787502   0.000000875515736   0.000002885574466
Si   10.18313  12.89863   2.03662   0.000000000038126   0.000007118425480   0.000000000020278
Si   10.18313  15.61412   4.75213   0.000000875464230  -0.000002889897117   0.000002885544681
Si    7.46762  12.89863   4.75213  -0.000008974313424   0.000008974347839   0.000008955836818
Si    7.46762  15.61412   2.03662  -0.000002872624082  -0.000002872591152  -0.000000869825567
Si    6.10987  11.54087   6.10987  -0.000000000066227  -0.000007118418236   0.000000000005210
Si    8.82538  11.54087   8.82538   0.000008157321985  -0.000008157291322   0.000008161444120
Si    6.10987  14.25638   8.82538   0.000000000015273  -0.000000000036852   0.000007124831527
Si    8.82538  14.25638   6.10987   0.000007118440687  -0.000000000022683  -0.000000000025147
Si   10.18313  12.89863   7.46762   0.000000875466398   0.000002889928159  -0.000002885571507
Si   10.18313  15.61412  10.18313   0.000000000060887  -0.000007118467680  -0.000000000026078
Si    7.46762  12.89863  10.18313  -0.000002872613489   0.000002872589505   0.000000869856501
Si    7.46762  15.61412   7.46762  -0.000008974298902  -0.000008974390665  -0.000008955849569
Si    6.10987  11.54087  11.54087   0.000000875521467  -0.000002889802675  -0.000002885555827
Si    8.82538  11.54087  14.25638   0.000002872644961  -0.000002872609656  -0.000000869878509
Si    6.10987  14.25638  14.25638   0.000000000019291   0.000000000004438  -0.000000000022964
Si    8.82538  14.25638  11.54087   0.000002889921854  -0.000000875431061  -0.000002885569201
Si   10.18313  12.89863  12.89863  -0.000000875445331   0.000002889836388   0.000002885553596
Si   10.18313  15.61412  15.61412  -0.000000875504983  -0.000002889765482  -0.000002885611103
Si    7.46762  12.89863  15.61412  -0.000008157301497   0.000008157360602  -0.000008161434896
Si    7.46762  15.61412  12.89863  -0.000008157387787  -0.000008157297348   0.000008161443006
Si   11.54087   0.67888   0.67888  -0.000008157341788   0.000008157291997   0.000008161434213
Si   14.25638   0.67888   3.39437  -0.000000875448680   0.000002889831323  -0.000002885561951
Si   11.54087   3.39437   3.39437  -0.000008157364894  -0.000008157365224  -0.000008161430524
Si   14.25638   3.39437   0.67888  -0.000000875422755  -0.000002889806901   0.000002885545302
Si   15.61412   2.03662   2.03662  -0.000007118412693  -0.000000000022281   0.000000000010886
Si   15.61412   4.75213   4.75213  -0.000008974375089   0.000008974394334   0.000008955816866
Si   12.89863   2.03662   4.75213   0.000002889798222  -0.000000875557505   0.000002885562090
Si   12.89863   4.75213   2.03662   0.000002872563842   0.000002872673629  -0.000000869895694
Si   11.54087   0.67888   6.10987  -0.000002872651150   0.000002872575910  -0.000000869842988
Si   14.25638   0.67888   8.82538   0.000000875517035   0.000002889837342   0.000002885608337
Si   11.54087   3.39437   8.82538  -0.000008974354511  -0.000008974320442   0.000008955841950
Si   14.25638   3.39437   6.10987   0.000000000026422  -0.000007118377312  -0.000000000013003
Si   15.61412   2.03662   7.46762  -0.000002889846378  -0.000000875562770  -0.000002885548977
Si   15.61412   4.75213  10.18313  -0.000002872593280   0.000002872608498   0.000000869887641
Si   12.89863   2.03662  10.18313   0.000007118449891  -0.000000000035343   0.000000000069777
Si   12.89863   4.75213   7.46762   0.000008974343793   0.000008974329881  -0.000008955804394
Si   11.54087   0.67888  11.54087  -0.000008974326225   0.000008974319449  -0.000008955822236
Si   14.25638   0.67888  14.25638  -0.000000000010676   0.000007118380949   0.000000000040802
Si   11.54087   3.39437  14.25638  -0.000002872635534  -0.000002872621652   0.000000869854657
Si   14.25638   3.39437  11.54087   0.000000875515585  -0.000002889845680  -0.000002885549856
Si   15.61412   2.03662  12.89863  -0.000002889852374   0.000000875508512   0.000002885535651
Si   15.61412   4.75213  15.61412  -0.000008157340260   0.000008157371670  -0.000008161451990
Si   12.89863   2.03662  15.61412   0.000002889837352   0.000000875477772  -0.000002885609135
Si   12.89863   4.75213  12.89863   0.000008157272799   0.000008157343554   0.000008161452329
Si   11.54087   6.10987   0.67888  -0.000002889843020  -0.000000875445236   0.000002885629948
Si   14.25638   6.10987   3.39437  -0.000000000024364   0.000000000028378  -0.000007124869406
Si   11.54087   8.82538   3.39437  -0.000008974382308   0.000008974342600  -0.000008955860168
Si   14.25638   8.82538   0.67888   0.000000875483062   0.000002889845419   0.000002885564878
Si   15.61412   7.46762   2.03662  -0.000002872612887  -0.000002872578417  -0.000000869908039
Si   15.61412  10.18313   4.75213  -0.000002889848288   0.000000875477917   0.000002885552042
Si   12.89863   7.46762   4.75213   0.000008974357821  -0.000008974395761   0.000008955865698
Si   12.89863  10.18313   2.03662   0.000007118425117  -0.000000000072015  -0.000000000005703
Si   11.54087   6.10987   6.10987  -0.000007118388600   0.000000000003905   0.000000000000475
Si   14.25638   6.10987   8.82538   0.000000000047045   0.000000000018640   0.000007124854264
Si   11.54087   8.82538   8.82538  -0.000008157383058   0.000008157288448   0.000008161453308
Si   14.25638   8.82538   6.10987  -0.000000000021333   0.000007118358025  -0.000000000039886
Si   15.61412   7.46762   7.46762  -0.000008974372246  -0.000008974313254  -0.000008955809902
Si   15.61412  10.18313  10.18313  -0.000007118368842  -0.000000000024441  -0.000000000009215
Si   12.89863   7.46762  10.18313   0.000002872630398  -0.000002872531273   0.000000869852534
Si   12.89863  10.18313   7.46762   0.000002889866557   0.000000875466078  -0.000002885548928
Si   11.54087   6.10987  11.54087  -0.000002889901175   0.000000875475598  -0.000002885557779
Si   14.25638   6.10987  14.25638   0.000000000002357  -0.000000000064708  -0.000000000012580
Si   11.54087   8.82538  14.25638  -0.000002872661151   0.000002872597002  -0.000000869878686
Si   14.25638   8.82538  11.54087  -0.000000875466665   0.000002889784878  -0.000002885622096
Si   15.61412   7.46762  12.89863  -0.000008157298245  -0.000008157378795   0.000008161413126
Si   15.61412  10.18313  15.61412  -0.000002889845129  -0.000000875491384  -0.000002885590713
Si   12.89863   7.46762  15.61412   0.000008157269182  -0.000008157304329  -0.000008161374788
Si   12.89863  10.18313  12.89863   0.000002889880298  -0.000000875466225   0.000002885540993
Si   11.54087  11.54087   0.67888  -0.000008974352199  -0.000008974379871   0.000008955821473
Si   14.25638  11.54087   3.39437   0.000000875500629  -0.000002889838897  -0.000002885606439
Si   11.54087  14.25638   3.39437  -0.000002889976297   0.000000875485687  -0.000002885556471
Si   14.25638  14.25638   0.67888   0.000000000021653  -0.000000000000983   0.000007124896564
Si   15.61412  12.89863   2.03662  -0.000002872610811   0.000002872616858   0.000000869894453
Si   15.61412  15.61412   4.75213  -0.000008157310593  -0.000008157327164   0.000008161389719
Si   12.89863  12.89863   4.75213   0.000008157337009   0.000008157314859   0.000008161404215
Si   12.89863  15.61412   2.03662   0.000002872641186  -0.000002872677765   0.000000869819962
Si   11.54087  11.54087   6.10987  -0.000002872663553  -0.000002872635110   0.000000869840976
Si   14.25638  11.54087   8.82538  -0.000000875486157  -0.000002889847725   0.000002885574634
Si   11.54087  14.25638   8.82538  -0.000002889902929  -0.000000875395080   0.000002885575674
Si   14.25638  14.25638   6.10987   0.000000000020273   0.000000000053359  -0.000000000010650
Si   15.61412  12.89863   7.46762  -0.000008157269557   0.000008157381003  -0.000008161400156
Si   15.61412  15.61412  10.18313  -0.000002872566152  -0.000002872591245  -0.000000869869825
Si   12.89863  12.89863  10.18313   0.000002872588138   0.000002872633083  -0.000000869788665
Si   12.89863  15.61412   7.46762   0.000008157304040  -0.000008157304093  -0.000008161448580
Si   11.54087  11.54087  11.54087  -0.000008157348251  -0.000008157312588  -0.000008161414253
Si   14.25638  11.54087  14.25638  -0.000000000000315  -0.000007118416432  -0.000000000030247
Si   11.54087  14.25638  14.25638  -0.000007118417247   0.000000000011461   0.000000000001193
Si   14.25638  14.25638  11.54087   0.000000000000850   0.000000000014520  -0.000007124901091
Si   15.61412  12.89863  12.89863  -0.000008974355211   0.000008974368313   0.000008955802747
Si   15.61412  15.61412  15.61412  -0.000008974353418  -0.000008974351403  -0.000008955852322
Si   12.89863  12.89863  15.61412   0.000008974368683   0.000008974384560  -0.000008955855280
Si   12.89863  15.61412  12.89863   0.000008974313453  -0.000008974366758   0.000008955821152
