216 

Si    0.67888   0.67888   0.67888   0.000009230650293   0.000009230650277   0.000009212822687
Si    3.39437   0.67888   3.39437  -0.000009230650289   0.000009230650487  -0.000009212822924
Si    0.67888   3.39437   3.39437   0.000009230650301  -0.000009230650254  -0.000009212822704
Si    3.39437   3.39437   0.67888  -0.000009230650235  -0.000009230650461   0.000009212822848
Si    4.75213   2.03662   2.03662   0.000007339841269   0.000000000000042  -0.000000000000069
Si    4.75213   4.75213   4.75213   0.000008381558237   0.000008381558268   0.000008385471905
Si    2.03662   2.03662   4.75213  -0.000000000000035   0.000000000000320   0.000007347272503
Si    2.03662   4.75213   2.03662  -0.000000000000019   0.000007339841068   0.000000000000265
Si    0.67888   0.67888   6.10987   0.000003092513308   0.000003092513574   0.000000875645232
Si    3.39437   0.67888   8.82538  -0.000008381558194   0.000008381558285   0.000008385471915
Si    0.67888   3.39437   8.82538   0.000008381558183  -0.000008381557902   0.000008385471606
Si    3.39437   3.39437   6.10987  -0.000003092513362  -0.000003092513101   0.000000875645303
Si    4.75213   2.03662   7.46762   0.000003110689386   0.000000880662936  -0.000003106557893
Si    4.75213   4.75213  10.18313   0.000003092513474   0.000003092513548  -0.000000875645519
Si    2.03662   2.03662  10.18313   0.000000000000093   0.000000000000047   0.000000000000023
Si    2.03662   4.75213   7.46762   0.000000880662647   0.000003110689589  -0.000003106557982
Si    0.67888   0.67888  11.54087   0.000008381558194   0.000008381557988  -0.000008385471572
Si    3.39437   0.67888  14.25638  -0.000003092513335   0.000003092513200  -0.000000875645291
Si    0.67888   3.39437  14.25638   0.000003092513384  -0.000003092513599  -0.000000875645217
Si    3.39437   3.39437  11.54087  -0.000008381558168  -0.000008381558215  -0.000008385471856
Si    4.75213   2.03662  12.89863   0.000003110689414  -0.000000880662801   0.000003106557946
Si    4.75213   4.75213  15.61412   0.000009230650392   0.000009230650112  -0.000009212822686
Si    2.03662   2.03662  15.61412   0.000000000000011  -0.000000000000245  -0.000007347272538
Si    2.03662   4.75213  12.89863  -0.000000880662586   0.000003110689283   0.000003106557739
Si    0.67888   6.10987   0.67888   0.000003110689300   0.000000880662475   0.000003106557988
Si    3.39437   6.10987   3.39437  -0.000003110689266   0.000000880662547  -0.000003106557538
Si    0.67888   8.82538   3.39437   0.000008381558098   0.000008381557964  -0.000008385471489
Si    3.39437   8.82538   0.67888  -0.000008381558173   0.000008381558195   0.000008385471866
Si    4.75213   7.46762   2.03662   0.000003092513485  -0.000003092513557   0.000000875645576
Si    4.75213  10.18313   4.75213   0.000003110689389  -0.000000880662913   0.000003106558011
Si    2.03662   7.46762   4.75213   0.000000880662623  -0.000003110689503   0.000003106558118
Si    2.03662  10.18313   2.03662   0.000000000000009  -0.000000000000024   0.000000000000071
Si    0.67888   6.10987   6.10987   0.000007339841142   0.000000000000069   0.000000000000051
Si    3.39437   6.10987   8.82538  -0.000003110689300  -0.000000880662531   0.000003106557596
Si    0.67888   8.82538   8.82538   0.000009230650314   0.000009230650270   0.000009212822669
Si    3.39437   8.82538   6.10987  -0.000003092513403   0.000003092513106  -0.000000875645196
Si    4.75213   7.46762   7.46762   0.000008381558180  -0.000008381558225  -0.000008385471814
Si    4.75213  10.18313  10.18313   0.000007339841175  -0.000000000000069  -0.000000000000035
Si    2.03662   7.46762  10.18313   0.000000000000003  -0.000007339841075  -0.000000000000299
Si    2.03662  10.18313   7.46762  -0.000000000000090  -0.000000000000322  -0.000007347272463
Si    0.67888   6.10987  11.54087   0.000003110689352  -0.000000880662493  -0.000003106558046
Si    3.39437   6.10987  14.25638  -0.000007339841185  -0.000000000000049  -0.000000000000094
Si    0.67888   8.82538  14.25638   0.000003092513378   0.000003092513547   0.000000875645132
Si    3.39437   8.82538  11.54087  -0.000009230650297   0.000009230650385  -0.000009212822973
Si    4.75213   7.46762  12.89863   0.000009230650366  -0.000009230650230   0.000009212822553
Si    4.75213  10.18313  15.61412   0.000003110689384   0.000000880662809  -0.000003106557991
Si    2.03662   7.46762  15.61412  -0.000000880662633  -0.000003110689329  -0.000003106557821
Si    2.03662  10.18313  12.89863  -0.000000000000027   0.000000000000212   0.000007347272391
Si    0.67888  11.54087   0.67888   0.000008381558087  -0.000008381557957   0.000008385471611
Si    3.39437  11.54087   3.39437  -0.000008381558233  -0.000008381558287  -0.000008385471820
Si    0.67888  14.25638   3.39437   0.000003110689198  -0.000000880662532  -0.000003106557959
Si    3.39437  14.25638   0.67888  -0.000003110689301  -0.000000880662528   0.000003106557526
Si    4.75213  12.89863   2.03662   0.000003092513518   0.000003092513521  -0.000000875645543
Si    4.75213  15.61412   4.75213   0.000009230650385  -0.000009230650127   0.000009212822619
Si    2.03662  12.89863   4.75213  -0.000000880662747   0.000003110689217   0.000003106557835
Si    2.03662  15.61412   2.03662  -0.000000000000041  -0.000007339841034  -0.000000000000302
Si    0.67888  11.54087   6.10987   0.000003092513279  -0.000003092513626  -0.000000875645158
Si    3.39437  11.54087   8.82538  -0.000009230650324  -0.000009230650499   0.000009212822898
Si    0.67888  14.25638   8.82538   0.000003110689261   0.000000880662471   0.000003106557973
Si    3.39437  14.25638   6.10987  -0.000007339841275  -0.000000000000035   0.000000000000042
Si    4.75213  12.89863   7.46762   0.000009230650351   0.000009230650104  -0.000009212822584
Si    4.75213  15.61412  10.18313   0.000003092513433  -0.000003092513475   0.000000875645593
Si    2.03662  12.89863  10.18313  -0.000000000000054   0.000007339841011   0.000000000000229
Si    2.03662  15.61412   7.46762  -0.000000880662711  -0.000003110689293  -0.000003106557739
Si    0.67888  11.54087  11.54087   0.000009230650333  -0.000009230650296  -0.000009212822783
Si    3.39437  11.54087  14.25638  -0.000003092513375  -0.000003092513158   0.000000875645201
Si    0.67888  14.25638  14.25638   0.000007339841135   0.000000000000033  -0.000000000000015
Si    3.39437  14.25638  11.54087  -0.000003110689292   0.000000880662594  -0.000003106557562
Si    4.75213  12.89863  12.89863   0.000008381558203   0.000008381558246   0.000008385471817
Si    4.75213  15.61412  15.61412   0.000008381558245  -0.000008381558122  -0.000008385471912
Si    2.03662  12.89863  15.61412   0.000000880662626   0.000003110689559  -0.000003106558085
Si    2.03662  15.61412  12.89863   0.000000880662657  -0.000003110689474   0.000003106558014
Si    6.10987   0.67888   0.67888   0.000000880662882   0.000003110689344   0.000003106557739
Si    8.82538   0.67888   3.39437   0.000008381558370   0.000008381558377  -0.000008385472059
Si    6.10987   3.39437   3.39437   0.000000880662867  -0.000003110689269  -0.000003106557834
Si    8.82538   3.39437   0.67888   0.000008381558309  -0.000008381558381   0.000008385471985
Si   10.18313   2.03662   2.03662   0.000000000000045   0.000000000000000  -0.000000000000016
Si   10.18313   4.75213   4.75213  -0.000000880662599   0.000003110689362   0.000003106557783
Si    7.46762   2.03662   4.75213  -0.000003110689213   0.000000880662981   0.000003106557628
Si    7.46762   4.75213   2.03662  -0.000003092513285   0.000003092513223   0.000000875645602
Si    6.10987   0.67888   6.10987   0.000000000000108   0.000007339841446  -0.000000000000161
Si    8.82538   0.67888   8.82538   0.000009230650369   0.000009230650395   0.000009212822870
Si    6.10987   3.39437   8.82538  -0.000000880662622  -0.000003110689073   0.000003106557667
Si    8.82538   3.39437   6.10987   0.000003092513507  -0.000003092513125  -0.000000875645484
Si   10.18313   2.03662   7.46762   0.000000000000124   0.000000000000221  -0.000007347272723
Si   10.18313   4.75213  10.18313   0.000000000000086   0.000007339841319  -0.000000000000187
Si    7.46762   2.03662  10.18313  -0.000007339841087   0.000000000000053   0.000000000000052
Si    7.46762   4.75213   7.46762  -0.000008381558097   0.000008381558425  -0.000008385471990
Si    6.10987   0.67888  11.54087  -0.000000880662596   0.000003110689193  -0.000003106557552
Si    8.82538   0.67888  14.25638   0.000003092513461   0.000003092513216   0.000000875645486
Si    6.10987   3.39437  14.25638   0.000000000000075  -0.000007339841398   0.000000000000151
Si    8.82538   3.39437  11.54087   0.000009230650316  -0.000009230650381  -0.000009212822807
Si   10.18313   2.03662  12.89863   0.000000000000061  -0.000000000000165   0.000007347272759
Si   10.18313   4.75213  15.61412   0.000000880662762   0.000003110689111  -0.000003106557623
Si    7.46762   2.03662  15.61412  -0.000003110689251  -0.000000880662916  -0.000003106557673
Si    7.46762   4.75213  12.89863  -0.000009230650254   0.000009230650214   0.000009212822684
Si    6.10987   6.10987   0.67888   0.000000000000125  -0.000000000000247   0.000007347272786
Si    8.82538   6.10987   3.39437   0.000003110689475  -0.000000880662777  -0.000003106557586
Si    6.10987   8.82538   3.39437  -0.000000880662549   0.000003110689060  -0.000003106557539
Si    8.82538   8.82538   0.67888   0.000009230650410   0.000009230650358   0.000009212822921
Si   10.18313   7.46762   2.03662   0.000000000000135  -0.000007339841317   0.000000000000218
Si   10.18313  10.18313   4.75213   0.000000000000178  -0.000000000000207   0.000007347272707
Si    7.46762   7.46762   4.75213  -0.000008381558067  -0.000008381558379   0.000008385472033
Si    7.46762  10.18313   2.03662  -0.000007339840964  -0.000000000000033   0.000000000000052
Si    6.10987   6.10987   6.10987   0.000000000000113   0.000000000000002   0.000000000000024
Si    8.82538   6.10987   8.82538   0.000003110689386   0.000000880662774   0.000003106557594
Si    6.10987   8.82538   8.82538   0.000000880662774   0.000003110689218   0.000003106557794
Si    8.82538   8.82538   6.10987   0.000003092513554   0.000003092513149   0.000000875645449
Si   10.18313   7.46762   7.46762  -0.000000880662558  -0.000003110689296  -0.000003106557866
Si   10.18313  10.18313  10.18313   0.000000000000068  -0.000000000000017  -0.000000000000061
Si    7.46762   7.46762  10.18313  -0.000003092513349  -0.000003092513268  -0.000000875645641
Si    7.46762  10.18313   7.46762  -0.000003110689221  -0.000000880662979  -0.000003106557659
Si    6.10987   6.10987  11.54087   0.000000000000017   0.000000000000146  -0.000007347272817
Si    8.82538   6.10987  14.25638   0.000007339841213  -0.000000000000066   0.000000000000005
Si    6.10987   8.82538  14.25638   0.000000000000066   0.000007339841337  -0.000000000000227
Si    8.82538   8.82538  11.54087   0.000008381558267   0.000008381558310  -0.000008385472030
Si   10.18313   7.46762  12.89863   0.000000880662771  -0.000003110689191   0.000003106557618
Si   10.18313  10.18313  15.61412   0.000000000000119   0.000000000000185  -0.000007347272655
Si    7.46762   7.46762  15.61412  -0.000009230650201  -0.000009230650322  -0.000009212822706
Si    7.46762  10.18313  12.89863  -0.000003110689253   0.000000880662890   0.000003106557619
Si    6.10987  11.54087   0.67888  -0.000000880662539  -0.000003110689097   0.000003106557613
Si    8.82538  11.54087   3.39437   0.000009230650468  -0.000009230650414  -0.000009212822826
Si    6.10987  14.25638   3.39437   0.000000000000150   0.000000000000189  -0.000007347272814
Si    8.82538  14.25638   0.67888   0.000003110689452   0.000000880662822   0.000003106557603
Si   10.18313  12.89863   2.03662   0.000000000000176   0.000007339841301  -0.000000000000148
Si   10.18313  15.61412   4.75213   0.000000880662855  -0.000003110689151   0.000003106557609
Si    7.46762  12.89863   4.75213  -0.000009230650127   0.000009230650211   0.000009212822705
Si    7.46762  15.61412   2.03662  -0.000003092513216  -0.000003092513170  -0.000000875645654
Si    6.10987  11.54087   6.10987   0.000000000000094  -0.000007339841465   0.000000000000190
Si    8.82538  11.54087   8.82538   0.000008381558331  -0.000008381558405   0.000008385471954
Si    6.10987  14.25638   8.82538   0.000000000000072  -0.000000000000174   0.000007347272833
Si    8.82538  14.25638   6.10987   0.000007339841339  -0.000000000000053  -0.000000000000053
Si   10.18313  12.89863   7.46762   0.000000880662841   0.000003110689107  -0.000003106557700
Si   10.18313  15.61412  10.18313   0.000000000000109  -0.000007339841271   0.000000000000190
Si    7.46762  12.89863  10.18313  -0.000003092513300   0.000003092513214   0.000000875645640
Si    7.46762  15.61412   7.46762  -0.000009230650201  -0.000009230650224  -0.000009212822678
Si    6.10987  11.54087  11.54087   0.000000880662810  -0.000003110689326  -0.000003106557818
Si    8.82538  11.54087  14.25638   0.000003092513511  -0.000003092513139  -0.000000875645452
Si    6.10987  14.25638  14.25638   0.000000000000131   0.000000000000084  -0.000000000000006
Si    8.82538  14.25638  11.54087   0.000003110689427  -0.000000880662735  -0.000003106557583
Si   10.18313  12.89863  12.89863  -0.000000880662618   0.000003110689363   0.000003106557845
Si   10.18313  15.61412  15.61412  -0.000000880662589  -0.000003110689298  -0.000003106557786
Si    7.46762  12.89863  15.61412  -0.000008381558047   0.000008381558418  -0.000008385472018
Si    7.46762  15.61412  12.89863  -0.000008381558110  -0.000008381558315   0.000008385472038
Si   11.54087   0.67888   0.67888  -0.000008381558077   0.000008381558173   0.000008385471810
Si   14.25638   0.67888   3.39437  -0.000000880662683   0.000003110689434  -0.000003106557952
Si   11.54087   3.39437   3.39437  -0.000008381558085  -0.000008381558149  -0.000008385471817
Si   14.25638   3.39437   0.67888  -0.000000880662671  -0.000003110689491   0.000003106557963
Si   15.61412   2.03662   2.03662  -0.000007339841272   0.000000000000001  -0.000000000000022
Si   15.61412   4.75213   4.75213  -0.000009230650395   0.000009230650415   0.000009212822878
Si   12.89863   2.03662   4.75213   0.000003110689328  -0.000000880662413   0.000003106557659
Si   12.89863   4.75213   2.03662   0.000003092513366   0.000003092513238  -0.000000875645071
Si   11.54087   0.67888   6.10987  -0.000003092513269   0.000003092513575  -0.000000875645594
Si   14.25638   0.67888   8.82538   0.000000880662693   0.000003110689340   0.000003106557831
Si   11.54087   3.39437   8.82538  -0.000009230650289  -0.000009230650080   0.000009212822564
Si   14.25638   3.39437   6.10987   0.000000000000046  -0.000007339840876  -0.000000000000101
Si   15.61412   2.03662   7.46762  -0.000003110689298  -0.000000880662466  -0.000003106557980
Si   15.61412   4.75213  10.18313  -0.000003092513311   0.000003092513583   0.000000875645148
Si   12.89863   2.03662  10.18313   0.000007339841256   0.000000000000024  -0.000000000000015
Si   12.89863   4.75213   7.46762   0.000009230650388   0.000009230650585  -0.000009212823023
Si   11.54087   0.67888  11.54087  -0.000009230650312   0.000009230650126  -0.000009212822540
Si   14.25638   0.67888  14.25638   0.000000000000077   0.000007339840911   0.000000000000125
Si   11.54087   3.39437  14.25638  -0.000003092513347  -0.000003092513632   0.000000875645587
Si   14.25638   3.39437  11.54087   0.000000880662697  -0.000003110689353  -0.000003106557862
Si   15.61412   2.03662  12.89863  -0.000003110689261   0.000000880662490   0.000003106558004
Si   15.61412   4.75213  15.61412  -0.000008381558147   0.000008381558040  -0.000008385471710
Si   12.89863   2.03662  15.61412   0.000003110689320   0.000000880662398  -0.000003106557643
Si   12.89863   4.75213  12.89863   0.000008381558294   0.000008381558149   0.000008385471771
Si   11.54087   6.10987   0.67888  -0.000003110689264  -0.000000880662866   0.000003106558086
Si   14.25638   6.10987   3.39437   0.000000000000023  -0.000000000000056  -0.000007347272285
Si   11.54087   8.82538   3.39437  -0.000009230650271   0.000009230650139  -0.000009212822498
Si   14.25638   8.82538   0.67888   0.000000880662638   0.000003110689339   0.000003106557920
Si   15.61412   7.46762   2.03662  -0.000003092513421  -0.000003092513514  -0.000000875645091
Si   15.61412  10.18313   4.75213  -0.000003110689365   0.000000880662473   0.000003106558070
Si   12.89863   7.46762   4.75213   0.000009230650388  -0.000009230650501   0.000009212823035
Si   12.89863  10.18313   2.03662   0.000007339841227   0.000000000000017   0.000000000000099
Si   11.54087   6.10987   6.10987  -0.000007339841017   0.000000000000049  -0.000000000000037
Si   14.25638   6.10987   8.82538   0.000000000000089   0.000000000000142   0.000007347272277
Si   11.54087   8.82538   8.82538  -0.000008381558044   0.000008381558164   0.000008385471736
Si   14.25638   8.82538   6.10987   0.000000000000070   0.000007339840966   0.000000000000091
Si   15.61412   7.46762   7.46762  -0.000009230650352  -0.000009230650322  -0.000009212822836
Si   15.61412  10.18313  10.18313  -0.000007339841204  -0.000000000000023  -0.000000000000063
Si   12.89863   7.46762  10.18313   0.000003092513449  -0.000003092513228   0.000000875645031
Si   12.89863  10.18313   7.46762   0.000003110689401   0.000000880662396  -0.000003106557753
Si   11.54087   6.10987  11.54087  -0.000003110689282   0.000000880662831  -0.000003106558057
Si   14.25638   6.10987  14.25638   0.000000000000052  -0.000000000000044  -0.000000000000006
Si   11.54087   8.82538  14.25638  -0.000003092513324   0.000003092513577  -0.000000875645518
Si   14.25638   8.82538  11.54087  -0.000000880662575   0.000003110689459  -0.000003106558034
Si   15.61412   7.46762  12.89863  -0.000008381558112  -0.000008381558067   0.000008385471625
Si   15.61412  10.18313  15.61412  -0.000003110689321  -0.000000880662458  -0.000003106557966
Si   12.89863   7.46762  15.61412   0.000008381558264  -0.000008381558155  -0.000008385471733
Si   12.89863  10.18313  12.89863   0.000003110689389  -0.000000880662415   0.000003106557650
Si   11.54087  11.54087   0.67888  -0.000009230650270  -0.000009230650098   0.000009212822653
Si   14.25638  11.54087   3.39437   0.000000880662611  -0.000003110689370  -0.000003106557770
Si   11.54087  14.25638   3.39437  -0.000003110689221   0.000000880662816  -0.000003106558026
Si   14.25638  14.25638   0.67888   0.000000000000001   0.000000000000121   0.000007347272360
Si   15.61412  12.89863   2.03662  -0.000003092513438   0.000003092513543   0.000000875645230
Si   15.61412  15.61412   4.75213  -0.000008381558217  -0.000008381558115   0.000008385471699
Si   12.89863  12.89863   4.75213   0.000008381558314   0.000008381558090   0.000008385471781
Si   12.89863  15.61412   2.03662   0.000003092513389  -0.000003092513261   0.000000875645119
Si   11.54087  11.54087   6.10987  -0.000003092513229  -0.000003092513631   0.000000875645501
Si   14.25638  11.54087   8.82538  -0.000000880662583  -0.000003110689490   0.000003106557857
Si   11.54087  14.25638   8.82538  -0.000003110689184  -0.000000880662892   0.000003106557967
Si   14.25638  14.25638   6.10987   0.000000000000028  -0.000000000000073  -0.000000000000013
Si   15.61412  12.89863   7.46762  -0.000008381558179   0.000008381557977  -0.000008385471722
Si   15.61412  15.61412  10.18313  -0.000003092513358  -0.000003092513567  -0.000000875645184
Si   12.89863  12.89863  10.18313   0.000003092513456   0.000003092513233  -0.000000875645183
Si   12.89863  15.61412   7.46762   0.000008381558295  -0.000008381558187  -0.000008385471823
Si   11.54087  11.54087  11.54087  -0.000008381558043  -0.000008381558193  -0.000008385471833
Si   14.25638  11.54087  14.25638   0.000000000000063  -0.000007339840928  -0.000000000000097
Si   11.54087  14.25638  14.25638  -0.000007339841042   0.000000000000050   0.000000000000049
Si   14.25638  14.25638  11.54087   0.000000000000082  -0.000000000000095  -0.000007347272346
Si   15.61412  12.89863  12.89863  -0.000009230650347   0.000009230650375   0.000009212822794
Si   15.61412  15.61412  15.61412  -0.000009230650388  -0.000009230650334  -0.000009212822830
Si   12.89863  12.89863  15.61412   0.000009230650379   0.000009230650581  -0.000009212822924
Si   12.89863  15.61412  12.89863   0.000009230650387  -0.000009230650530   0.000009212823023
