300 

Si    0.00000  -0.00000  -0.00000   0.000009793095454  -0.000008917580941  -0.000008917230682
Si    1.35775   1.35775   1.35775  -0.000000527991870   0.000010205658385   0.000010189637381
Si    2.71550   2.71550   0.00000   0.000009793095450  -0.000008917580957  -0.000008917230666
Si    4.07325   4.07325   1.35775  -0.000000527991876   0.000010205658373   0.000010189637384
Si    5.43100   5.43100   0.00000   0.000009793095450  -0.000008917580959  -0.000008917230682
Si    6.78875   6.78875   1.35775  -0.000000527991879   0.000010205658379   0.000010189637394
Si    8.14650   8.14650   0.00000   0.000009793095436  -0.000008917580938  -0.000008917230663
Si    9.50425   9.50425   1.35775  -0.000000527991861   0.000010205658353   0.000010189637385
Si   10.86200  10.86200   0.00000   0.000009793095445  -0.000008917580939  -0.000008917230686
Si   12.21975  12.21975   1.35775  -0.000000527991884   0.000010205658365   0.000010189637375
Si    2.71550   0.00000   2.71550   0.000009793095436  -0.000008917580948  -0.000008917230667
Si    4.07325   1.35775   4.07325  -0.000000527991868   0.000010205658383   0.000010189637375
Si    5.43100   2.71550   2.71550   0.000009793095458  -0.000008917580942  -0.000008917230687
Si    6.78875   4.07325   4.07325  -0.000000527991863   0.000010205658364   0.000010189637393
Si    8.14650   5.43100   2.71550   0.000009793095439  -0.000008917580939  -0.000008917230684
Si    9.50425   6.78875   4.07325  -0.000000527991862   0.000010205658360   0.000010189637380
Si   10.86200   8.14650   2.71550   0.000009793095433  -0.000008917580935  -0.000008917230676
Si   12.21975   9.50425   4.07325  -0.000000527991862   0.000010205658372   0.000010189637396
Si   13.57750  10.86200   2.71550   0.000009793095427  -0.000008917580942  -0.000008917230666
Si   14.93525  12.21975   4.07325  -0.000000527991858   0.000010205658374   0.000010189637386
Si    5.43100  -0.00000   5.43100   0.000009793095446  -0.000008917580949  -0.000008917230683
Si    6.78875   1.35775   6.78875  -0.000000527991861   0.000010205658367   0.000010189637381
Si    8.14650   2.71550   5.43100   0.000009793095447  -0.000008917580949  -0.000008917230671
Si    9.50425   4.07325   6.78875  -0.000000527991871   0.000010205658377   0.000010189637387
Si   10.86200   5.43100   5.43100   0.000009793095441  -0.000008917580942  -0.000008917230679
Si   12.21975   6.78875   6.78875  -0.000000527991877   0.000010205658371   0.000010189637378
Si   13.57750   8.14650   5.43100   0.000009793095445  -0.000008917580951  -0.000008917230674
Si   14.93525   9.50425   6.78875  -0.000000527991877   0.000010205658361   0.000010189637377
Si   16.29300  10.86200   5.43100   0.000009793095437  -0.000008917580937  -0.000008917230675
Si   17.65075  12.21975   6.78875  -0.000000527991879   0.000010205658377   0.000010189637386
Si    8.14650   0.00000   8.14650   0.000009793095432  -0.000008917580945  -0.000008917230678
Si    9.50425   1.35775   9.50425  -0.000000527991872   0.000010205658360   0.000010189637375
Si   10.86200   2.71550   8.14650   0.000009793095441  -0.000008917580949  -0.000008917230676
Si   12.21975   4.07325   9.50425  -0.000000527991862   0.000010205658360   0.000010189637396
Si   13.57750   5.43100   8.14650   0.000009793095433  -0.000008917580943  -0.000008917230677
Si   14.93525   6.78875   9.50425  -0.000000527991863   0.000010205658382   0.000010189637395
Si   16.29300   8.14650   8.14650   0.000009793095442  -0.000008917580952  -0.000008917230676
Si   17.65075   9.50425   9.50425  -0.000000527991850   0.000010205658367   0.000010189637383
Si   19.00850  10.86200   8.14650   0.000009793095446  -0.000008917580941  -0.000008917230666
Si   20.36625  12.21975   9.50425  -0.000000527991889   0.000010205658376   0.000010189637384
Si   10.86200   0.00000  10.86200   0.000009793095437  -0.000008917580941  -0.000008917230680
Si   12.21975   1.35775  12.21975  -0.000000527991864   0.000010205658359   0.000010189637378
Si   13.57750   2.71550  10.86200   0.000009793095433  -0.000008917580950  -0.000008917230684
Si   14.93525   4.07325  12.21975  -0.000000527991861   0.000010205658368   0.000010189637379
Si   16.29300   5.43100  10.86200   0.000009793095436  -0.000008917580949  -0.000008917230668
Si   17.65075   6.78875  12.21975  -0.000000527991876   0.000010205658365   0.000010189637384
Si   19.00850   8.14650  10.86200   0.000009793095437  -0.000008917580932  -0.000008917230674
Si   20.36625   9.50425  12.21975  -0.000000527991884   0.000010205658359   0.000010189637388
Si   21.72400  10.86200  10.86200   0.000009793095444  -0.000008917580945  -0.000008917230664
Si   23.08175  12.21975  12.21975  -0.000000527991871   0.000010205658371   0.000010189637388
Si    0.00000   2.71550   2.71550   0.000005999095400   0.000006973850791   0.000006961926398
Si    1.35775   4.07325   4.07325   0.000005039422990   0.000003880757280   0.000003890863187
Si    2.71550   5.43100   2.71550   0.000005999095399   0.000006973850789   0.000006961926422
Si    4.07325   6.78875   4.07325   0.000005039422985   0.000003880757269   0.000003890863181
Si    5.43100   8.14650   2.71550   0.000005999095403   0.000006973850768   0.000006961926419
Si    6.78875   9.50425   4.07325   0.000005039422986   0.000003880757260   0.000003890863186
Si    8.14650  10.86200   2.71550   0.000005999095389   0.000006973850794   0.000006961926427
Si    9.50425  12.21975   4.07325   0.000005039422981   0.000003880757278   0.000003890863172
Si   10.86200  13.57750   2.71550   0.000005999095405   0.000006973850785   0.000006961926423
Si   12.21975  14.93525   4.07325   0.000005039422974   0.000003880757280   0.000003890863193
Si    2.71550   2.71550   5.43100   0.000005999095408   0.000006973850784   0.000006961926417
Si    4.07325   4.07325   6.78875   0.000005039422974   0.000003880757264   0.000003890863180
Si    5.43100   5.43100   5.43100   0.000005999095405   0.000006973850790   0.000006961926405
Si    6.78875   6.78875   6.78875   0.000005039422971   0.000003880757297   0.000003890863188
Si    8.14650   8.14650   5.43100   0.000005999095393   0.000006973850797   0.000006961926404
Si    9.50425   9.50425   6.78875   0.000005039422981   0.000003880757272   0.000003890863195
Si   10.86200  10.86200   5.43100   0.000005999095396   0.000006973850776   0.000006961926402
Si   12.21975  12.21975   6.78875   0.000005039422974   0.000003880757279   0.000003890863197
Si   13.57750  13.57750   5.43100   0.000005999095393   0.000006973850781   0.000006961926402
Si   14.93525  14.93525   6.78875   0.000005039422986   0.000003880757274   0.000003890863192
Si    5.43100   2.71550   8.14650   0.000005999095389   0.000006973850806   0.000006961926405
Si    6.78875   4.07325   9.50425   0.000005039422968   0.000003880757276   0.000003890863176
Si    8.14650   5.43100   8.14650   0.000005999095420   0.000006973850790   0.000006961926406
Si    9.50425   6.78875   9.50425   0.000005039422968   0.000003880757273   0.000003890863195
Si   10.86200   8.14650   8.14650   0.000005999095392   0.000006973850786   0.000006961926414
Si   12.21975   9.50425   9.50425   0.000005039422972   0.000003880757281   0.000003890863191
Si   13.57750  10.86200   8.14650   0.000005999095386   0.000006973850792   0.000006961926411
Si   14.93525  12.21975   9.50425   0.000005039422974   0.000003880757266   0.000003890863195
Si   16.29300  13.57750   8.14650   0.000005999095406   0.000006973850800   0.000006961926417
Si   17.65075  14.93525   9.50425   0.000005039422960   0.000003880757262   0.000003890863164
Si    8.14650   2.71550  10.86200   0.000005999095412   0.000006973850805   0.000006961926408
Si    9.50425   4.07325  12.21975   0.000005039422986   0.000003880757265   0.000003890863195
Si   10.86200   5.43100  10.86200   0.000005999095385   0.000006973850807   0.000006961926405
Si   12.21975   6.78875  12.21975   0.000005039422964   0.000003880757268   0.000003890863191
Si   13.57750   8.14650  10.86200   0.000005999095408   0.000006973850785   0.000006961926393
Si   14.93525   9.50425  12.21975   0.000005039422982   0.000003880757272   0.000003890863174
Si   16.29300  10.86200  10.86200   0.000005999095372   0.000006973850798   0.000006961926408
Si   17.65075  12.21975  12.21975   0.000005039422989   0.000003880757262   0.000003890863184
Si   19.00850  13.57750  10.86200   0.000005999095410   0.000006973850781   0.000006961926413
Si   20.36625  14.93525  12.21975   0.000005039422968   0.000003880757252   0.000003890863187
Si   10.86200   2.71550  13.57750   0.000005999095381   0.000006973850789   0.000006961926402
Si   12.21975   4.07325  14.93525   0.000005039422981   0.000003880757274   0.000003890863192
Si   13.57750   5.43100  13.57750   0.000005999095396   0.000006973850792   0.000006961926409
Si   14.93525   6.78875  14.93525   0.000005039422971   0.000003880757284   0.000003890863170
Si   16.29300   8.14650  13.57750   0.000005999095403   0.000006973850798   0.000006961926418
Si   17.65075   9.50425  14.93525   0.000005039422989   0.000003880757279   0.000003890863180
Si   19.00850  10.86200  13.57750   0.000005999095392   0.000006973850793   0.000006961926411
Si   20.36625  12.21975  14.93525   0.000005039422973   0.000003880757299   0.000003890863171
Si   21.72400  13.57750  13.57750   0.000005999095393   0.000006973850792   0.000006961926418
Si   23.08175  14.93525  14.93525   0.000005039422957   0.000003880757268   0.000003890863181
Si    0.00000   5.43100   5.43100   0.000013393865194  -0.000004194278909  -0.000004182064349
Si    1.35775   6.78875   6.78875  -0.000003524352974   0.000006348891894   0.000006354157418
Si    2.71550   8.14650   5.43100   0.000013393865193  -0.000004194278918  -0.000004182064333
Si    4.07325   9.50425   6.78875  -0.000003524352977   0.000006348891921   0.000006354157436
Si    5.43100  10.86200   5.43100   0.000013393865187  -0.000004194278912  -0.000004182064345
Si    6.78875  12.21975   6.78875  -0.000003524352975   0.000006348891908   0.000006354157444
Si    8.14650  13.57750   5.43100   0.000013393865192  -0.000004194278913  -0.000004182064344
Si    9.50425  14.93525   6.78875  -0.000003524352986   0.000006348891900   0.000006354157432
Si   10.86200  16.29300   5.43100   0.000013393865191  -0.000004194278896  -0.000004182064357
Si   12.21975  17.65075   6.78875  -0.000003524352987   0.000006348891909   0.000006354157421
Si    2.71550   5.43100   8.14650   0.000013393865178  -0.000004194278905  -0.000004182064341
Si    4.07325   6.78875   9.50425  -0.000003524352965   0.000006348891895   0.000006354157438
Si    5.43100   8.14650   8.14650   0.000013393865186  -0.000004194278914  -0.000004182064342
Si    6.78875   9.50425   9.50425  -0.000003524352980   0.000006348891899   0.000006354157430
Si    8.14650  10.86200   8.14650   0.000013393865181  -0.000004194278917  -0.000004182064342
Si    9.50425  12.21975   9.50425  -0.000003524352975   0.000006348891894   0.000006354157431
Si   10.86200  13.57750   8.14650   0.000013393865192  -0.000004194278912  -0.000004182064352
Si   12.21975  14.93525   9.50425  -0.000003524352987   0.000006348891903   0.000006354157435
Si   13.57750  16.29300   8.14650   0.000013393865171  -0.000004194278905  -0.000004182064333
Si   14.93525  17.65075   9.50425  -0.000003524352980   0.000006348891884   0.000006354157439
Si    5.43100   5.43100  10.86200   0.000013393865170  -0.000004194278921  -0.000004182064346
Si    6.78875   6.78875  12.21975  -0.000003524352982   0.000006348891893   0.000006354157436
Si    8.14650   8.14650  10.86200   0.000013393865190  -0.000004194278903  -0.000004182064364
Si    9.50425   9.50425  12.21975  -0.000003524352982   0.000006348891885   0.000006354157450
Si   10.86200  10.86200  10.86200   0.000013393865193  -0.000004194278905  -0.000004182064346
Si   12.21975  12.21975  12.21975  -0.000003524352979   0.000006348891901   0.000006354157423
Si   13.57750  13.57750  10.86200   0.000013393865184  -0.000004194278905  -0.000004182064344
Si   14.93525  14.93525  12.21975  -0.000003524352984   0.000006348891886   0.000006354157442
Si   16.29300  16.29300  10.86200   0.000013393865184  -0.000004194278888  -0.000004182064348
Si   17.65075  17.65075  12.21975  -0.000003524352990   0.000006348891889   0.000006354157426
Si    8.14650   5.43100  13.57750   0.000013393865189  -0.000004194278901  -0.000004182064361
Si    9.50425   6.78875  14.93525  -0.000003524352987   0.000006348891906   0.000006354157433
Si   10.86200   8.14650  13.57750   0.000013393865176  -0.000004194278908  -0.000004182064351
Si   12.21975   9.50425  14.93525  -0.000003524352993   0.000006348891886   0.000006354157439
Si   13.57750  10.86200  13.57750   0.000013393865184  -0.000004194278883  -0.000004182064357
Si   14.93525  12.21975  14.93525  -0.000003524352972   0.000006348891888   0.000006354157418
Si   16.29300  13.57750  13.57750   0.000013393865170  -0.000004194278906  -0.000004182064329
Si   17.65075  14.93525  14.93525  -0.000003524352973   0.000006348891895   0.000006354157435
Si   19.00850  16.29300  13.57750   0.000013393865188  -0.000004194278903  -0.000004182064340
Si   20.36625  17.65075  14.93525  -0.000003524352986   0.000006348891905   0.000006354157450
Si   10.86200   5.43100  16.29300   0.000013393865187  -0.000004194278907  -0.000004182064355
Si   12.21975   6.78875  17.65075  -0.000003524352984   0.000006348891889   0.000006354157423
Si   13.57750   8.14650  16.29300   0.000013393865177  -0.000004194278904  -0.000004182064338
Si   14.93525   9.50425  17.65075  -0.000003524352979   0.000006348891914   0.000006354157433
Si   16.29300  10.86200  16.29300   0.000013393865182  -0.000004194278899  -0.000004182064345
Si   17.65075  12.21975  17.65075  -0.000003524352985   0.000006348891887   0.000006354157444
Si   19.00850  13.57750  16.29300   0.000013393865181  -0.000004194278894  -0.000004182064348
Si   20.36625  14.93525  17.65075  -0.000003524352979   0.000006348891886   0.000006354157411
Si   21.72400  16.29300  16.29300   0.000013393865200  -0.000004194278904  -0.000004182064338
Si   23.08175  17.65075  17.65075  -0.000003524352998   0.000006348891893   0.000006354157438
Si    0.00000   8.14650   8.14650   0.000009793095421  -0.000008917580953  -0.000008917230684
Si    1.35775   9.50425   9.50425  -0.000000527991873   0.000010205658372   0.000010189637396
Si    2.71550  10.86200   8.14650   0.000009793095458  -0.000008917580956  -0.000008917230679
Si    4.07325  12.21975   9.50425  -0.000000527991875   0.000010205658364   0.000010189637392
Si    5.43100  13.57750   8.14650   0.000009793095451  -0.000008917580944  -0.000008917230674
Si    6.78875  14.93525   9.50425  -0.000000527991881   0.000010205658358   0.000010189637383
Si    8.14650  16.29300   8.14650   0.000009793095445  -0.000008917580947  -0.000008917230665
Si    9.50425  17.65075   9.50425  -0.000000527991870   0.000010205658354   0.000010189637374
Si   10.86200  19.00850   8.14650   0.000009793095432  -0.000008917580935  -0.000008917230684
Si   12.21975  20.36625   9.50425  -0.000000527991844   0.000010205658385   0.000010189637405
Si    2.71550   8.14650  10.86200   0.000009793095428  -0.000008917580954  -0.000008917230671
Si    4.07325   9.50425  12.21975  -0.000000527991870   0.000010205658366   0.000010189637374
Si    5.43100  10.86200  10.86200   0.000009793095433  -0.000008917580940  -0.000008917230683
Si    6.78875  12.21975  12.21975  -0.000000527991894   0.000010205658370   0.000010189637390
Si    8.14650  13.57750  10.86200   0.000009793095447  -0.000008917580937  -0.000008917230683
Si    9.50425  14.93525  12.21975  -0.000000527991874   0.000010205658365   0.000010189637378
Si   10.86200  16.29300  10.86200   0.000009793095435  -0.000008917580944  -0.000008917230669
Si   12.21975  17.65075  12.21975  -0.000000527991879   0.000010205658356   0.000010189637379
Si   13.57750  19.00850  10.86200   0.000009793095433  -0.000008917580934  -0.000008917230687
Si   14.93525  20.36625  12.21975  -0.000000527991866   0.000010205658384   0.000010189637380
Si    5.43100   8.14650  13.57750   0.000009793095427  -0.000008917580941  -0.000008917230669
Si    6.78875   9.50425  14.93525  -0.000000527991864   0.000010205658363   0.000010189637370
Si    8.14650  10.86200  13.57750   0.000009793095448  -0.000008917580953  -0.000008917230670
Si    9.50425  12.21975  14.93525  -0.000000527991862   0.000010205658376   0.000010189637378
Si   10.86200  13.57750  13.57750   0.000009793095443  -0.000008917580950  -0.000008917230669
Si   12.21975  14.93525  14.93525  -0.000000527991873   0.000010205658383   0.000010189637372
Si   13.57750  16.29300  13.57750   0.000009793095436  -0.000008917580948  -0.000008917230678
Si   14.93525  17.65075  14.93525  -0.000000527991874   0.000010205658372   0.000010189637387
Si   16.29300  19.00850  13.57750   0.000009793095451  -0.000008917580951  -0.000008917230688
Si   17.65075  20.36625  14.93525  -0.000000527991878   0.000010205658382   0.000010189637387
Si    8.14650   8.14650  16.29300   0.000009793095436  -0.000008917580950  -0.000008917230677
Si    9.50425   9.50425  17.65075  -0.000000527991860   0.000010205658376   0.000010189637377
Si   10.86200  10.86200  16.29300   0.000009793095420  -0.000008917580947  -0.000008917230681
Si   12.21975  12.21975  17.65075  -0.000000527991867   0.000010205658357   0.000010189637377
Si   13.57750  13.57750  16.29300   0.000009793095429  -0.000008917580939  -0.000008917230673
Si   14.93525  14.93525  17.65075  -0.000000527991864   0.000010205658358   0.000010189637393
Si   16.29300  16.29300  16.29300   0.000009793095446  -0.000008917580950  -0.000008917230692
Si   17.65075  17.65075  17.65075  -0.000000527991879   0.000010205658362   0.000010189637384
Si   19.00850  19.00850  16.29300   0.000009793095437  -0.000008917580953  -0.000008917230683
Si   20.36625  20.36625  17.65075  -0.000000527991865   0.000010205658384   0.000010189637370
Si   10.86200   8.14650  19.00850   0.000009793095427  -0.000008917580934  -0.000008917230673
Si   12.21975   9.50425  20.36625  -0.000000527991868   0.000010205658380   0.000010189637391
Si   13.57750  10.86200  19.00850   0.000009793095419  -0.000008917580947  -0.000008917230683
Si   14.93525  12.21975  20.36625  -0.000000527991866   0.000010205658390   0.000010189637386
Si   16.29300  13.57750  19.00850   0.000009793095441  -0.000008917580948  -0.000008917230685
Si   17.65075  14.93525  20.36625  -0.000000527991879   0.000010205658379   0.000010189637372
Si   19.00850  16.29300  19.00850   0.000009793095433  -0.000008917580943  -0.000008917230661
Si   20.36625  17.65075  20.36625  -0.000000527991881   0.000010205658364   0.000010189637383
Si   21.72400  19.00850  19.00850   0.000009793095448  -0.000008917580951  -0.000008917230690
Si   23.08175  20.36625  20.36625  -0.000000527991863   0.000010205658347   0.000010189637389
Si    0.00000  10.86200  10.86200   0.000005999095408   0.000006973850794   0.000006961926399
Si    1.35775  12.21975  12.21975   0.000005039422990   0.000003880757286   0.000003890863188
Si    2.71550  13.57750  10.86200   0.000005999095377   0.000006973850783   0.000006961926420
Si    4.07325  14.93525  12.21975   0.000005039422994   0.000003880757258   0.000003890863186
Si    5.43100  16.29300  10.86200   0.000005999095402   0.000006973850798   0.000006961926426
Si    6.78875  17.65075  12.21975   0.000005039422973   0.000003880757263   0.000003890863177
Si    8.14650  19.00850  10.86200   0.000005999095402   0.000006973850802   0.000006961926412
Si    9.50425  20.36625  12.21975   0.000005039422982   0.000003880757266   0.000003890863190
Si   10.86200  21.72400  10.86200   0.000005999095394   0.000006973850779   0.000006961926398
Si   12.21975  23.08175  12.21975   0.000005039422993   0.000003880757266   0.000003890863199
Si    2.71550  10.86200  13.57750   0.000005999095412   0.000006973850796   0.000006961926402
Si    4.07325  12.21975  14.93525   0.000005039422977   0.000003880757271   0.000003890863174
Si    5.43100  13.57750  13.57750   0.000005999095385   0.000006973850802   0.000006961926397
Si    6.78875  14.93525  14.93525   0.000005039422975   0.000003880757276   0.000003890863188
Si    8.14650  16.29300  13.57750   0.000005999095403   0.000006973850788   0.000006961926412
Si    9.50425  17.65075  14.93525   0.000005039422972   0.000003880757270   0.000003890863183
Si   10.86200  19.00850  13.57750   0.000005999095404   0.000006973850809   0.000006961926414
Si   12.21975  20.36625  14.93525   0.000005039422978   0.000003880757267   0.000003890863183
Si   13.57750  21.72400  13.57750   0.000005999095397   0.000006973850779   0.000006961926428
Si   14.93525  23.08175  14.93525   0.000005039422977   0.000003880757279   0.000003890863190
Si    5.43100  10.86200  16.29300   0.000005999095407   0.000006973850783   0.000006961926411
Si    6.78875  12.21975  17.65075   0.000005039422973   0.000003880757273   0.000003890863198
Si    8.14650  13.57750  16.29300   0.000005999095406   0.000006973850786   0.000006961926417
Si    9.50425  14.93525  17.65075   0.000005039422965   0.000003880757274   0.000003890863197
Si   10.86200  16.29300  16.29300   0.000005999095401   0.000006973850797   0.000006961926409
Si   12.21975  17.65075  17.65075   0.000005039422965   0.000003880757270   0.000003890863200
Si   13.57750  19.00850  16.29300   0.000005999095396   0.000006973850794   0.000006961926399
Si   14.93525  20.36625  17.65075   0.000005039422971   0.000003880757272   0.000003890863196
Si   16.29300  21.72400  16.29300   0.000005999095408   0.000006973850794   0.000006961926395
Si   17.65075  23.08175  17.65075   0.000005039422974   0.000003880757269   0.000003890863206
Si    8.14650  10.86200  19.00850   0.000005999095378   0.000006973850788   0.000006961926416
Si    9.50425  12.21975  20.36625   0.000005039422989   0.000003880757259   0.000003890863180
Si   10.86200  13.57750  19.00850   0.000005999095387   0.000006973850784   0.000006961926408
Si   12.21975  14.93525  20.36625   0.000005039422992   0.000003880757260   0.000003890863184
Si   13.57750  16.29300  19.00850   0.000005999095382   0.000006973850804   0.000006961926417
Si   14.93525  17.65075  20.36625   0.000005039422973   0.000003880757268   0.000003890863182
Si   16.29300  19.00850  19.00850   0.000005999095399   0.000006973850801   0.000006961926399
Si   17.65075  20.36625  20.36625   0.000005039422988   0.000003880757261   0.000003890863181
Si   19.00850  21.72400  19.00850   0.000005999095397   0.000006973850796   0.000006961926425
Si   20.36625  23.08175  20.36625   0.000005039422981   0.000003880757271   0.000003890863168
Si   10.86200  10.86200  21.72400   0.000005999095406   0.000006973850808   0.000006961926413
Si   12.21975  12.21975  23.08175   0.000005039422964   0.000003880757264   0.000003890863195
Si   13.57750  13.57750  21.72400   0.000005999095408   0.000006973850797   0.000006961926402
Si   14.93525  14.93525  23.08175   0.000005039422976   0.000003880757267   0.000003890863185
Si   16.29300  16.29300  21.72400   0.000005999095406   0.000006973850791   0.000006961926406
Si   17.65075  17.65075  23.08175   0.000005039422975   0.000003880757279   0.000003890863199
Si   19.00850  19.00850  21.72400   0.000005999095395   0.000006973850809   0.000006961926404
Si   20.36625  20.36625  23.08175   0.000005039422966   0.000003880757281   0.000003890863191
Si   21.72400  21.72400  21.72400   0.000005999095402   0.000006973850786   0.000006961926400
Si   23.08175  23.08175  23.08175   0.000005039422973   0.000003880757286   0.000003890863190
Si    0.00000  13.57750  13.57750   0.000013393865175  -0.000004194278919  -0.000004182064336
Si    1.35775  14.93525  14.93525  -0.000003524352977   0.000006348891908   0.000006354157435
Si    2.71550  16.29300  13.57750   0.000013393865177  -0.000004194278909  -0.000004182064343
Si    4.07325  17.65075  14.93525  -0.000003524352977   0.000006348891909   0.000006354157439
Si    5.43100  19.00850  13.57750   0.000013393865178  -0.000004194278897  -0.000004182064347
Si    6.78875  20.36625  14.93525  -0.000003524352980   0.000006348891885   0.000006354157443
Si    8.14650  21.72400  13.57750   0.000013393865178  -0.000004194278886  -0.000004182064359
Si    9.50425  23.08175  14.93525  -0.000003524352972   0.000006348891891   0.000006354157435
Si   10.86200  24.43950  13.57750   0.000013393865191  -0.000004194278882  -0.000004182064344
Si   12.21975  25.79725  14.93525  -0.000003524352968   0.000006348891900   0.000006354157428
Si    2.71550  13.57750  16.29300   0.000013393865200  -0.000004194278896  -0.000004182064359
Si    4.07325  14.93525  17.65075  -0.000003524352983   0.000006348891918   0.000006354157433
Si    5.43100  16.29300  16.29300   0.000013393865176  -0.000004194278910  -0.000004182064347
Si    6.78875  17.65075  17.65075  -0.000003524352999   0.000006348891898   0.000006354157446
Si    8.14650  19.00850  16.29300   0.000013393865169  -0.000004194278902  -0.000004182064345
Si    9.50425  20.36625  17.65075  -0.000003524352995   0.000006348891885   0.000006354157427
Si   10.86200  21.72400  16.29300   0.000013393865179  -0.000004194278896  -0.000004182064363
Si   12.21975  23.08175  17.65075  -0.000003524352985   0.000006348891899   0.000006354157451
Si   13.57750  24.43950  16.29300   0.000013393865175  -0.000004194278898  -0.000004182064350
Si   14.93525  25.79725  17.65075  -0.000003524352966   0.000006348891889   0.000006354157437
Si    5.43100  13.57750  19.00850   0.000013393865181  -0.000004194278918  -0.000004182064340
Si    6.78875  14.93525  20.36625  -0.000003524352990   0.000006348891891   0.000006354157448
Si    8.14650  16.29300  19.00850   0.000013393865183  -0.000004194278896  -0.000004182064355
Si    9.50425  17.65075  20.36625  -0.000003524352975   0.000006348891886   0.000006354157440
Si   10.86200  19.00850  19.00850   0.000013393865182  -0.000004194278902  -0.000004182064338
Si   12.21975  20.36625  20.36625  -0.000003524352968   0.000006348891893   0.000006354157436
Si   13.57750  21.72400  19.00850   0.000013393865174  -0.000004194278915  -0.000004182064342
Si   14.93525  23.08175  20.36625  -0.000003524352989   0.000006348891909   0.000006354157432
Si   16.29300  24.43950  19.00850   0.000013393865188  -0.000004194278913  -0.000004182064360
Si   17.65075  25.79725  20.36625  -0.000003524352989   0.000006348891907   0.000006354157422
Si    8.14650  13.57750  21.72400   0.000013393865167  -0.000004194278901  -0.000004182064344
Si    9.50425  14.93525  23.08175  -0.000003524352987   0.000006348891898   0.000006354157450
Si   10.86200  16.29300  21.72400   0.000013393865177  -0.000004194278901  -0.000004182064352
Si   12.21975  17.65075  23.08175  -0.000003524352964   0.000006348891894   0.000006354157422
Si   13.57750  19.00850  21.72400   0.000013393865153  -0.000004194278898  -0.000004182064341
Si   14.93525  20.36625  23.08175  -0.000003524352978   0.000006348891888   0.000006354157437
Si   16.29300  21.72400  21.72400   0.000013393865182  -0.000004194278904  -0.000004182064342
Si   17.65075  23.08175  23.08175  -0.000003524352990   0.000006348891905   0.000006354157426
Si   19.00850  24.43950  21.72400   0.000013393865179  -0.000004194278909  -0.000004182064339
Si   20.36625  25.79725  23.08175  -0.000003524352976   0.000006348891887   0.000006354157432
Si   10.86200  13.57750  24.43950   0.000013393865199  -0.000004194278908  -0.000004182064363
Si   12.21975  14.93525  25.79725  -0.000003524352969   0.000006348891898   0.000006354157425
Si   13.57750  16.29300  24.43950   0.000013393865179  -0.000004194278906  -0.000004182064339
Si   14.93525  17.65075  25.79725  -0.000003524352984   0.000006348891902   0.000006354157429
Si   16.29300  19.00850  24.43950   0.000013393865196  -0.000004194278899  -0.000004182064361
Si   17.65075  20.36625  25.79725  -0.000003524352980   0.000006348891888   0.000006354157436
Si   19.00850  21.72400  24.43950   0.000013393865175  -0.000004194278909  -0.000004182064356
Si   20.36625  23.08175  25.79725  -0.000003524352975   0.000006348891893   0.000006354157439
Si   21.72400  24.43950  24.43950   0.000013393865175  -0.000004194278926  -0.000004182064334
Si   23.08175  25.79725  25.79725  -0.000003524352978   0.000006348891884   0.000006354157432
