512 

Si    0.67887   0.67888   0.67887   0.000000287795920   0.000000287818136   0.000000281615110
Si    3.39437   0.67888   3.39437  -0.000000301314025   0.000008739371146  -0.000000300220577
Si    0.67887   3.39438   3.39437   0.000008739269745  -0.000000301268659  -0.000000300187244
Si    3.39437   3.39438   0.67887  -0.000000304048814  -0.000000304026163   0.000008743769302
Si    4.75212   2.03662   2.03662   0.000006174459562  -0.000004996000197  -0.000004988104796
Si    4.75212   4.75212   4.75212  -0.000001386626221  -0.000001386549456  -0.000001396113222
Si    2.03662   2.03662   4.75212  -0.000005003837998  -0.000005003844647   0.000006163725971
Si    2.03662   4.75212   2.03662  -0.000004995957413   0.000006174454128  -0.000004988104683
Si    0.67887   0.67888   6.10987  -0.000003885461752  -0.000003885414418   0.000006583517626
Si    3.39437   0.67888   8.82537  -0.000000014699850   0.000003014234100  -0.000002137408367
Si    0.67887   3.39438   8.82537   0.000003014236156  -0.000000014658311  -0.000002137435684
Si    3.39437   3.39438   6.10987   0.000000077394318   0.000000077410944   0.000004295574824
Si    4.75212   2.03662   7.46762   0.000001799703563   0.000008992315207  -0.000003068071776
Si    4.75212   4.75212  10.18313  -0.000002301499996  -0.000002301514623   0.000007467518896
Si    2.03662   2.03662  10.18313  -0.000001858948587  -0.000001858897974   0.000005185783277
Si    2.03662   4.75212   7.46762   0.000008992237353   0.000001799763093  -0.000003067997541
Si    0.67887   0.67888  11.54087   0.000001773578021   0.000001773563509   0.000004589236736
Si    3.39437   0.67888  14.25638   0.000001378983294   0.000004542294346   0.000000848746927
Si    0.67887   3.39438  14.25638   0.000004542271602   0.000001379046442   0.000000848732176
Si    3.39437   3.39438  11.54087   0.000004014462751   0.000004014495981  -0.000005766537005
Si    4.75212   2.03662  12.89862  -0.000003103265078  -0.000003493702042   0.000002217040574
Si    4.75212   4.75212  15.61412  -0.000000438540533  -0.000000438578729   0.000000624161196
Si    2.03662   2.03662  15.61412   0.000002688282906   0.000002688267893  -0.000006644906922
Si    2.03662   4.75212  12.89862  -0.000003493744853  -0.000003103227316   0.000002217022297
Si    0.67887   0.67888  16.97187  -0.000000480321669  -0.000000480276996   0.000001530421904
Si    3.39437   0.67888  19.68737  -0.000004818973056  -0.000001247281007  -0.000001210048414
Si    0.67887   3.39438  19.68737  -0.000001247324454  -0.000004818928357  -0.000001210038232
Si    3.39437   3.39438  16.97187   0.000000597350736   0.000000597294344  -0.000003536453774
Si    4.75212   2.03662  18.32963   0.000000696154709   0.000004149238813   0.000000658586136
Si    4.75212   4.75212  21.04512   0.000002607046984   0.000002607024657  -0.000003464479349
Si    2.03662   2.03662  21.04512  -0.000001560505166  -0.000001560457534  -0.000000008239239
Si    2.03662   4.75212  18.32963   0.000004149197618   0.000000696130727   0.000000658619914
Si    0.67887   6.10987   0.67887  -0.000003879308788   0.000006574824780  -0.000003883746983
Si    3.39437   6.10987   3.39437   0.000000069614435   0.000004299463210   0.000000070304501
Si    0.67887   8.82537   3.39437   0.000003010539089  -0.000002139954927  -0.000000005251910
Si    3.39437   8.82537   0.67887  -0.000000006624838  -0.000002134202401   0.000003014817712
Si    4.75212   7.46762   2.03662   0.000001801222826  -0.000003075043984   0.000008987972036
Si    4.75212  10.18313   4.75212  -0.000002299155517   0.000007474086228  -0.000002298837160
Si    2.03662   7.46762   4.75212   0.000008983344625  -0.000003080436520   0.000001799126977
Si    2.03662  10.18313   2.03662  -0.000001870189370   0.000005192141363  -0.000001868940393
Si    0.67887   6.10987   6.10987   0.000001069276100   0.000001180414827   0.000001176271840
Si    3.39437   6.10987   8.82537   0.000005750407400   0.000002243625117   0.000004212404607
Si    0.67887   8.82537   8.82537   0.000000526224489   0.000000590939255   0.000000596716266
Si    3.39437   8.82537   6.10987   0.000005744650174   0.000004214067786   0.000002246743851
Si    4.75212   7.46762   7.46762   0.000000162035349   0.000001757198647   0.000001753467841
Si    4.75212  10.18313  10.18313  -0.000002452204542  -0.000003028928079  -0.000003017701310
Si    2.03662   7.46762  10.18313   0.000002000163465   0.000004857476694  -0.000002432695471
Si    2.03662  10.18313   7.46762   0.000002006363014  -0.000002428427533   0.000004851902743
Si    0.67887   6.10987  11.54087   0.000004688433568  -0.000001695888992  -0.000002388501553
Si    3.39437   6.10987  14.25638  -0.000004054300219   0.000002169662504   0.000005257520609
Si    0.67887   8.82537  14.25638  -0.000001687805025  -0.000000894431755   0.000003040894424
Si    3.39437   8.82537  11.54087  -0.000001175251304  -0.000001146166320  -0.000007856351199
Si    4.75212   7.46762  12.89862   0.000001291398047   0.000006436214561   0.000003268007516
Si    4.75212  10.18313  15.61412  -0.000003341644237   0.000000876736519  -0.000003805697388
Si    2.03662   7.46762  15.61412  -0.000002804807899  -0.000000097384038  -0.000001228446970
Si    2.03662  10.18313  12.89862  -0.000002199361958  -0.000003101161524   0.000000562211004
Si    0.67887   6.10987  16.97187   0.000003741738575   0.000000294799818  -0.000000110561557
Si    3.39437   6.10987  19.68737   0.000000604169937  -0.000004495373307   0.000005005163187
Si    0.67887   8.82537  19.68737  -0.000002825909021   0.000003287485489   0.000000455083884
Si    3.39437   8.82537  16.97187   0.000000634342796  -0.000001562568595   0.000001075748035
Si    4.75212   7.46762  18.32963  -0.000000088524561  -0.000003257405878  -0.000001623768189
Si    4.75212  10.18313  21.04512   0.000005518897797   0.000005002091515  -0.000005117709431
Si    2.03662   7.46762  21.04512  -0.000006184460449  -0.000005164118969   0.000002242743009
Si    2.03662  10.18313  18.32963   0.000002237132287   0.000003226554290  -0.000000141078092
Si    0.67887  11.54087   0.67887   0.000001766771590   0.000004589099276   0.000001764340263
Si    3.39437  11.54087   3.39437   0.000004011758355  -0.000005765369891   0.000004014991749
Si    0.67887  14.25638   3.39437   0.000004540241184   0.000000848623141   0.000001378239019
Si    3.39437  14.25638   0.67887   0.000001379272248   0.000000847318738   0.000004539775342
Si    4.75212  12.89862   2.03662  -0.000003103537847   0.000002211624174  -0.000003492433476
Si    4.75212  15.61412   4.75212  -0.000000438187796   0.000000635035000  -0.000000429869689
Si    2.03662  12.89862   4.75212  -0.000003482961360   0.000002208065209  -0.000003097765280
Si    2.03662  15.61412   2.03662   0.000002693777990  -0.000006638867605   0.000002684295183
Si    0.67887  11.54087   6.10987   0.000004696302850  -0.000002386566453  -0.000001708059122
Si    3.39437  11.54087   8.82537  -0.000001177333037  -0.000007858427134  -0.000001145563310
Si    0.67887  14.25638   8.82537  -0.000001687257039   0.000003037774914  -0.000000897486921
Si    3.39437  14.25638   6.10987  -0.000004054147287   0.000005258175394   0.000002174626008
Si    4.75212  12.89862   7.46762   0.000001291074682   0.000003259550624   0.000006433670777
Si    4.75212  15.61412  10.18313  -0.000003331924779  -0.000003820387150   0.000000879573639
Si    2.03662  12.89862  10.18313  -0.000002212130289   0.000000577529366  -0.000003092244504
Si    2.03662  15.61412   7.46762  -0.000002803906181  -0.000001223602866  -0.000000101180000
Si    0.67887  11.54087  11.54087   0.000004552455663  -0.000003631290552  -0.000003632482745
Si    3.39437  11.54087  14.25638  -0.000004757259892   0.000006692405339  -0.000002435064396
Si    0.67887  14.25638  14.25638   0.000000519449357   0.000001641130918   0.000001644450376
Si    3.39437  14.25638  11.54087  -0.000004762703303  -0.000002432044921   0.000006693433012
Si    4.75212  12.89862  12.89862   0.000000018071029  -0.000001761175757  -0.000001764823886
Si    4.75212  15.61412  15.61412   0.000000292603730  -0.000001615074860  -0.000001616535692
Si    2.03662  12.89862  15.61412   0.000007187377488   0.000000515926441  -0.000000602605407
Si    2.03662  15.61412  12.89862   0.000007179686602  -0.000000609444742   0.000000516063872
Si    0.67887  11.54087  16.97187   0.000005125103625  -0.000004997688437  -0.000005524912918
Si    3.39437  11.54087  19.68737   0.000000133755972  -0.000003226524810  -0.000002242164117
Si    0.67887  14.25638  19.68737  -0.000002253211197   0.000005173662323   0.000006187665027
Si    3.39437  14.25638  16.97187   0.000001622562872   0.000003255816546   0.000000092997717
Si    4.75212  12.89862  18.32963  -0.000001073933319   0.000001568271600  -0.000000646427832
Si    4.75212  15.61412  21.04512   0.000000109972749  -0.000000300026987  -0.000003730947676
Si    2.03662  12.89862  21.04512  -0.000000453078728  -0.000003288474988   0.000002835758783
Si    2.03662  15.61412  18.32963  -0.000005010456006   0.000004495529089  -0.000000615407600
Si    0.67887  16.97187   0.67887  -0.000000465038798   0.000001535581296  -0.000000466745544
Si    3.39437  16.97187   3.39437   0.000000594174731  -0.000003535362806   0.000000600000772
Si    0.67887  19.68737   3.39437  -0.000001253027960  -0.000001213717834  -0.000004828773449
Si    3.39437  19.68737   0.67887  -0.000004824557416  -0.000001213659302  -0.000001249878787
Si    4.75212  18.32963   2.03662   0.000000710457431   0.000000649705790   0.000004144298718
Si    4.75212  21.04512   4.75212   0.000002615325726  -0.000003452262245   0.000002605004762
Si    2.03662  18.32963   4.75212   0.000004143352097   0.000000651405996   0.000000701821013
Si    2.03662  21.04512   2.03662  -0.000001574935664  -0.000000004045922  -0.000001562206165
Si    0.67887  16.97187   6.10987   0.000003735111766  -0.000000107973834   0.000000302241578
Si    3.39437  16.97187   8.82537   0.000000636203142   0.000001076984215  -0.000001558108952
Si    0.67887  19.68737   8.82537  -0.000002832040870   0.000000453380700   0.000003282231044
Si    3.39437  19.68737   6.10987   0.000000614789659   0.000005002542401  -0.000004499719661
Si    4.75212  18.32963   7.46762  -0.000000099219999  -0.000001630961319  -0.000003258267414
Si    4.75212  21.04512  10.18313   0.000005522396102  -0.000005124119039   0.000004994672226
Si    2.03662  18.32963  10.18313   0.000002236877239  -0.000000130287326   0.000003228355167
Si    2.03662  21.04512   7.46762  -0.000006180315824   0.000002239120657  -0.000005167242915
Si    0.67887  16.97187  11.54087   0.000005124064326  -0.000005522494372  -0.000004994630195
Si    3.39437  16.97187  14.25638   0.000001630961192   0.000000099246509   0.000003258291950
Si    0.67887  19.68737  14.25638  -0.000002239059501   0.000006180296180   0.000005167290179
Si    3.39437  19.68737  11.54087   0.000000130305431  -0.000002236829900  -0.000003228327242
Si    4.75212  18.32963  12.89862  -0.000001076945855  -0.000000636163582   0.000001558233995
Si    4.75212  21.04512  15.61412   0.000000107965086  -0.000003735132303  -0.000000302248047
Si    2.03662  18.32963  15.61412  -0.000005002535438  -0.000000614793168   0.000004499657098
Si    2.03662  21.04512  12.89862  -0.000000453319830   0.000002831962293  -0.000003282194733
Si    0.67887  16.97187  16.97187   0.000003452211960  -0.000002615298023  -0.000002605038240
Si    3.39437  16.97187  19.68737  -0.000000649713059  -0.000000710491762  -0.000004144326883
Si    0.67887  19.68737  19.68737   0.000000003999134   0.000001575042352   0.000001562203678
Si    3.39437  19.68737  16.97187  -0.000000651464939  -0.000004143274434  -0.000000701907767
Si    4.75212  18.32963  18.32963   0.000003535350496  -0.000000594151738  -0.000000600034015
Si    4.75212  21.04512  21.04512  -0.000001535595182   0.000000465054602   0.000000466651819
Si    2.03662  18.32963  21.04512   0.000001213667277   0.000004824504010   0.000001249857219
Si    2.03662  21.04512  18.32963   0.000001213754171   0.000001253012045   0.000004828756485
Si    6.10988   0.67888   0.67887   0.000006574832546  -0.000003879206424  -0.000003883705433
Si    8.82537   0.67888   3.39437  -0.000002139936405   0.000003010597822  -0.000000005275304
Si    6.10988   3.39438   3.39437   0.000004299473646   0.000000069578378   0.000000070191546
Si    8.82537   3.39438   0.67887  -0.000002134211700  -0.000000006547147   0.000003014868858
Si   10.18313   2.03662   2.03662   0.000005192121241  -0.000001870141238  -0.000001868877973
Si   10.18313   4.75212   4.75212   0.000007474143175  -0.000002299148673  -0.000002298853396
Si    7.46762   2.03662   4.75212  -0.000003080443217   0.000008983361473   0.000001799055789
Si    7.46762   4.75212   2.03662  -0.000003075036942   0.000001801216059   0.000008988008644
Si    6.10988   0.67888   6.10987   0.000001180351568   0.000001069263609   0.000001176237130
Si    8.82537   0.67888   8.82537   0.000000591045147   0.000000526230209   0.000000596660491
Si    6.10988   3.39438   8.82537   0.000002243573457   0.000005750535626   0.000004212410674
Si    8.82537   3.39438   6.10987   0.000004214150730   0.000005744692833   0.000002246763598
Si   10.18313   2.03662   7.46762  -0.000002428372266   0.000002006349430   0.000004851872521
Si   10.18313   4.75212  10.18313  -0.000003028905975  -0.000002452189154  -0.000003017640744
Si    7.46762   2.03662  10.18313   0.000004857470389   0.000002000161535  -0.000002432681200
Si    7.46762   4.75212   7.46762   0.000001757214770   0.000000162068772   0.000001753505595
Si    6.10988   0.67888  11.54087  -0.000001695867097   0.000004688465175  -0.000002388436788
Si    8.82537   0.67888  14.25638  -0.000000894451709  -0.000001687828264   0.000003040905738
Si    6.10988   3.39438  14.25638   0.000002169655012  -0.000004054263526   0.000005257552159
Si    8.82537   3.39438  11.54087  -0.000001146130680  -0.000001175198209  -0.000007856315426
Si   10.18313   2.03662  12.89862  -0.000003101113378  -0.000002199354250   0.000000562265806
Si   10.18313   4.75212  15.61412   0.000000876736517  -0.000003341559332  -0.000003805736551
Si    7.46762   2.03662  15.61412  -0.000000097413061  -0.000002804805417  -0.000001228371490
Si    7.46762   4.75212  12.89862   0.000006436172371   0.000001291458142   0.000003267980331
Si    6.10988   0.67888  16.97187   0.000000294759448   0.000003741852513  -0.000000110603221
Si    8.82537   0.67888  19.68737   0.000003287509243  -0.000002825832569   0.000000455105683
Si    6.10988   3.39438  19.68737  -0.000004495375690   0.000000604189104   0.000005005145014
Si    8.82537   3.39438  16.97187  -0.000001562606948   0.000000634315471   0.000001075728368
Si   10.18313   2.03662  18.32963   0.000003226601492   0.000002237127938  -0.000000141080134
Si   10.18313   4.75212  21.04512   0.000005002125009   0.000005518930388  -0.000005117708519
Si    7.46762   2.03662  21.04512  -0.000005164202545  -0.000006184432674   0.000002242748313
Si    7.46762   4.75212  18.32963  -0.000003257395684  -0.000000088558254  -0.000001623814692
Si    6.10988   6.10987   0.67887   0.000001169498219   0.000001169527432   0.000001074609836
Si    8.82537   6.10987   3.39437   0.000004220010540   0.000002241909141   0.000005740261389
Si    6.10988   8.82537   3.39437   0.000002241856670   0.000004219987493   0.000005740290623
Si    8.82537   8.82537   0.67887   0.000000602599728   0.000000602646004   0.000000532424189
Si   10.18313   7.46762   2.03662  -0.000002429859077   0.000004861976315   0.000001999115867
Si   10.18313  10.18313   4.75212  -0.000003026518869  -0.000003026561860  -0.000002459833021
Si    7.46762   7.46762   4.75212   0.000001746534415   0.000001746530500   0.000000164859167
Si    7.46762  10.18313   2.03662   0.000004862024136  -0.000002429874333   0.000001999031074
Si    6.10988   6.10987   6.10987   0.000002961704409   0.000002961766515   0.000002963092859
Si    8.82537   6.10987   8.82537  -0.000001790110114   0.000000807305023  -0.000001791738852
Si    6.10988   8.82537   8.82537   0.000000807286984  -0.000001790035939  -0.000001791728476
Si    8.82537   8.82537   6.10987  -0.000001788116104  -0.000001788137283   0.000000811736489
Si   10.18313   7.46762   7.46762  -0.000003344848133  -0.000000063439909  -0.000000061677867
Si   10.18313  10.18313  10.18313  -0.000003658670425  -0.000003658667320  -0.000003660472748
Si    7.46762   7.46762  10.18313  -0.000000058061799  -0.000000058089254  -0.000003348159555
Si    7.46762  10.18313   7.46762  -0.000000063488520  -0.000003344913654  -0.000000061692761
Si    6.10988   6.10987  11.54087   0.000004695759826   0.000004695778676   0.000000405197959
Si    8.82537   6.10987  14.25638   0.000000190260512   0.000000467361536   0.000003277519343
Si    6.10988   8.82537  14.25638   0.000000467314469   0.000000190251952   0.000003277424257
Si    8.82537   8.82537  11.54087   0.000003012118466   0.000003012119539   0.000000923279944
Si   10.18313   7.46762  12.89862  -0.000000336825642   0.000003662081462   0.000004568925493
Si   10.18313  10.18313  15.61412  -0.000000862950965  -0.000000862965636  -0.000000235301706
Si    7.46762   7.46762  15.61412   0.000000548501343   0.000000548455688   0.000003155478118
Si    7.46762  10.18313  12.89862   0.000003662041654  -0.000000336886896   0.000004568957270
Si    6.10988   6.10987  16.97187   0.000001635136121   0.000001635092941  -0.000000292008786
Si    8.82537   6.10987  19.68737  -0.000000532810042   0.000000615570722  -0.000007185306029
Si    6.10988   8.82537  19.68737   0.000000615544651  -0.000000532782445  -0.000007185269657
Si    8.82537   8.82537  16.97187   0.000001746536775   0.000001746522085  -0.000000010024276
Si   10.18313   7.46762  18.32963  -0.000006698063355   0.000002429986311   0.000004761044617
Si   10.18313  10.18313  21.04512   0.000003632649485   0.000003632633487  -0.000004560158230
Si    7.46762   7.46762  21.04512  -0.000001640707019  -0.000001640728058  -0.000000510758379
Si    7.46762  10.18313  18.32963   0.000002429949463  -0.000006698065183   0.000004760999632
Si    6.10988  11.54087   0.67887  -0.000001709853298  -0.000002389979512   0.000004698389295
Si    8.82537  11.54087   3.39437  -0.000001147718408  -0.000007860727502  -0.000001184261188
Si    6.10988  14.25638   3.39437   0.000002171915100   0.000005259423520  -0.000004056064565
Si    8.82537  14.25638   0.67887  -0.000000889723441   0.000003042354855  -0.000001688443142
Si   10.18313  12.89862   2.03662  -0.000003105538869   0.000000567547458  -0.000002198438855
Si   10.18313  15.61412   4.75212   0.000000863741260  -0.000003813764160  -0.000003340384089
Si    7.46762  12.89862   4.75212   0.000006448253110   0.000003272704399   0.000001295120187
Si    7.46762  15.61412   2.03662  -0.000000091290244  -0.000001233269375  -0.000002805195040
Si    6.10988  11.54087   6.10987   0.000004703832885   0.000000398694979   0.000004706195470
Si    8.82537  11.54087   8.82537   0.000003008948777   0.000000917714121   0.000003003324285
Si    6.10988  14.25638   8.82537   0.000000475881139   0.000003284328617   0.000000182725356
Si    8.82537  14.25638   6.10987   0.000000185692574   0.000003277793201   0.000000470831791
Si   10.18313  12.89862   7.46762  -0.000000332029561   0.000004566990634   0.000003665346518
Si   10.18313  15.61412  10.18313  -0.000000861970942  -0.000000231449645  -0.000000869756719
Si    7.46762  12.89862  10.18313   0.000003652695918   0.000004574915198  -0.000000335352627
Si    7.46762  15.61412   7.46762   0.000000547825876   0.000003162479883   0.000000548917022
Si    6.10988  11.54087  11.54087   0.000000231438300   0.000000861963149   0.000000869835905
Si    8.82537  11.54087  14.25638  -0.000004566995913   0.000000332032502  -0.000003665318891
Si    6.10988  14.25638  14.25638  -0.000003162469319  -0.000000547830401  -0.000000548928199
Si    8.82537  14.25638  11.54087  -0.000004574919709  -0.000003652714955   0.000000335373953
Si   10.18313  12.89862  12.89862  -0.000000917688601  -0.000003008924486  -0.000003003287864
Si   10.18313  15.61412  15.61412  -0.000000398671168  -0.000004703874803  -0.000004706209678
Si    7.46762  12.89862  15.61412  -0.000003277814100  -0.000000185677843  -0.000000470902152
Si    7.46762  15.61412  12.89862  -0.000003284348911  -0.000000475845481  -0.000000182778221
Si    6.10988  11.54087  16.97187   0.000003813725789  -0.000000863813311   0.000003340435739
Si    8.82537  11.54087  19.68737  -0.000000567483814   0.000003105495487   0.000002198447798
Si    6.10988  14.25638  19.68737   0.000001233202871   0.000000091187672   0.000002805192713
Si    8.82537  14.25638  16.97187  -0.000003272624485  -0.000006448297329  -0.000001295034074
Si   10.18313  12.89862  18.32963   0.000007860702455   0.000001147715103   0.000001184280352
Si   10.18313  15.61412  21.04512   0.000002390015620   0.000001709841639  -0.000004698375228
Si    7.46762  12.89862  21.04512  -0.000003042405762   0.000000889674150   0.000001688494560
Si    7.46762  15.61412  18.32963  -0.000005259410798  -0.000002171950312   0.000004056025233
Si    6.10988  16.97187   0.67887   0.000000300005940  -0.000000109992460   0.000003730997835
Si    8.82537  16.97187   3.39437  -0.000001568301024   0.000001073964789   0.000000646410212
Si    6.10988  19.68737   3.39437  -0.000004495462598   0.000005010451127   0.000000615364729
Si    8.82537  19.68737   0.67887   0.000003288474231   0.000000453114474  -0.000002835759009
Si   10.18313  18.32963   2.03662   0.000003226459411  -0.000000133750417   0.000002242235440
Si   10.18313  21.04512   4.75212   0.000004997678683  -0.000005125047041   0.000005524846676
Si    7.46762  18.32963   4.75212  -0.000003255853261  -0.000001622607128  -0.000000092993588
Si    7.46762  21.04512   2.03662  -0.000005173667228   0.000002253181609  -0.000006187634700
Si    6.10988  16.97187   6.10987   0.000001615143250  -0.000000292652337   0.000001616522307
Si    8.82537  16.97187   8.82537   0.000001761156786  -0.000000018090278   0.000001764829357
Si    6.10988  19.68737   8.82537   0.000000609387386  -0.000007179736274  -0.000000516017723
Si    8.82537  19.68737   6.10987  -0.000000515923477  -0.000007187401831   0.000000602569109
Si   10.18313  18.32963   7.46762  -0.000006692442294   0.000004757250270   0.000002435074359
Si   10.18313  21.04512  10.18313   0.000003631308428  -0.000004552480633   0.000003632539373
Si    7.46762  18.32963  10.18313   0.000002431988303   0.000004762694751  -0.000006693354519
Si    7.46762  21.04512   7.46762  -0.000001641177304  -0.000000519452187  -0.000001644485648
Si    6.10988  16.97187  11.54087   0.000003820440622   0.000003331930298  -0.000000879523444
Si    8.82537  16.97187  14.25638  -0.000003259583379  -0.000001291118851  -0.000006433720936
Si    6.10988  19.68737  14.25638   0.000001223547137   0.000002803880148   0.000000101154105
Si    8.82537  19.68737  11.54087  -0.000000577532149   0.000002212118958   0.000003092352333
Si   10.18313  18.32963  12.89862   0.000007858376596   0.000001177338285   0.000001145605584
Si   10.18313  21.04512  15.61412   0.000002386534878  -0.000004696289789   0.000001708078859
Si    7.46762  18.32963  15.61412  -0.000005258301522   0.000004054164920  -0.000002174690896
Si    7.46762  21.04512  12.89862  -0.000003037786621   0.000001687186187   0.000000897523681
Si    6.10988  16.97187  16.97187  -0.000000635137648   0.000000438185674   0.000000429812986
Si    8.82537  16.97187  19.68737  -0.000002211662075   0.000003103510679   0.000003492444932
Si    6.10988  19.68737  19.68737   0.000006638772585  -0.000002693718590  -0.000002684202713
Si    8.82537  19.68737  16.97187  -0.000002208009572   0.000003482975561   0.000003097675535
Si   10.18313  18.32963  18.32963   0.000005765405969  -0.000004011765354  -0.000004015011072
Si   10.18313  21.04512  21.04512  -0.000004589159405  -0.000001766739220  -0.000001764267168
Si    7.46762  18.32963  21.04512  -0.000000847401598  -0.000001379253662  -0.000004539734396
Si    7.46762  21.04512  18.32963  -0.000000848668544  -0.000004540154957  -0.000001378289466
Si   11.54087   0.67888   0.67887   0.000004589150627   0.000001766715252   0.000001764354893
Si   14.25638   0.67888   3.39437   0.000000848647187   0.000004540184987   0.000001378233547
Si   11.54087   3.39438   3.39437  -0.000005765398197   0.000004011819809   0.000004014987394
Si   14.25638   3.39438   0.67887   0.000000847423772   0.000001379305767   0.000004539730171
Si   15.61412   2.03662   2.03662  -0.000006638797679   0.000002693755471   0.000002684241651
Si   15.61412   4.75212   4.75212   0.000000635145137  -0.000000438128900  -0.000000429886267
Si   12.89862   2.03662   4.75212   0.000002208071638  -0.000003482931518  -0.000003097701640
Si   12.89862   4.75212   2.03662   0.000002211655162  -0.000003103477571  -0.000003492392705
Si   11.54087   0.67888   6.10987  -0.000002386537623   0.000004696315063  -0.000001708077410
Si   14.25638   0.67888   8.82537   0.000003037787452  -0.000001687221180  -0.000000897471431
Si   11.54087   3.39438   8.82537  -0.000007858382203  -0.000001177311622  -0.000001145544589
Si   14.25638   3.39438   6.10987   0.000005258174003  -0.000004054146382   0.000002174568943
Si   15.61412   2.03662   7.46762  -0.000001223561894  -0.000002803908711  -0.000000101140542
Si   15.61412   4.75212  10.18313  -0.000003820448340  -0.000003331952551   0.000000879628622
Si   12.89862   2.03662  10.18313   0.000000577612829  -0.000002212127951  -0.000003092249872
Si   12.89862   4.75212   7.46762   0.000003259552644   0.000001291123343   0.000006433699274
Si   11.54087   0.67888  11.54087  -0.000003631249455   0.000004552500855  -0.000003632458090
Si   14.25638   0.67888  14.25638   0.000001641174094   0.000000519462870   0.000001644470624
Si   11.54087   3.39438  14.25638   0.000006692484557  -0.000004757261819  -0.000002435026631
Si   14.25638   3.39438  11.54087  -0.000002431985349  -0.000004762664681   0.000006693423332
Si   15.61412   2.03662  12.89862  -0.000000609442707   0.000007179705903   0.000000516084472
Si   15.61412   4.75212  15.61412  -0.000001615098492   0.000000292611712  -0.000001616545546
Si   12.89862   2.03662  15.61412   0.000000515949806   0.000007187483063  -0.000000602607391
Si   12.89862   4.75212  12.89862  -0.000001761136926   0.000000018066548  -0.000001764776726
Si   11.54087   0.67888  16.97187  -0.000004997712466   0.000005125101135  -0.000005524903193
Si   14.25638   0.67888  19.68737   0.000005173682026  -0.000002253211141   0.000006187632428
Si   11.54087   3.39438  19.68737  -0.000003226411431   0.000000133771364  -0.000002242184340
Si   14.25638   3.39438  16.97187   0.000003255824340   0.000001622624742   0.000000092948998
Si   15.61412   2.03662  18.32963   0.000004495505593  -0.000005010447432  -0.000000615400316
Si   15.61412   4.75212  21.04512  -0.000000299969536   0.000000110003101  -0.000003730920120
Si   12.89862   2.03662  21.04512  -0.000003288437762  -0.000000453044825   0.000002835751505
Si   12.89862   4.75212  18.32963   0.000001568357677  -0.000001073921908  -0.000000646471233
Si   11.54087   6.10987   0.67887  -0.000002389955114  -0.000001709831825   0.000004698411202
Si   14.25638   6.10987   3.39437   0.000005259431905   0.000002171953411  -0.000004056061227
Si   11.54087   8.82537   3.39437  -0.000007860688459  -0.000001147784838  -0.000001184239605
Si   14.25638   8.82537   0.67887   0.000003042427177  -0.000000889746144  -0.000001688439209
Si   15.61412   7.46762   2.03662  -0.000001233194636  -0.000000091223126  -0.000002805217504
Si   15.61412  10.18313   4.75212  -0.000003813713678   0.000000863730451  -0.000003340364150
Si   12.89862   7.46762   4.75212   0.000003272747797   0.000006448248272   0.000001295033733
Si   12.89862  10.18313   2.03662   0.000000567568294  -0.000003105623252  -0.000002198465769
Si   11.54087   6.10987   6.10987   0.000000398697027   0.000004703841127   0.000004706179928
Si   14.25638   6.10987   8.82537   0.000003284365199   0.000000475890031   0.000000182798284
Si   11.54087   8.82537   8.82537   0.000000917717052   0.000003008935565   0.000003003265648
Si   14.25638   8.82537   6.10987   0.000003277809384   0.000000185681534   0.000000470878000
Si   15.61412   7.46762   7.46762   0.000003162517645   0.000000547856634   0.000000548848708
Si   15.61412  10.18313  10.18313  -0.000000231440474  -0.000000862002191  -0.000000869753938
Si   12.89862   7.46762  10.18313   0.000004574922927   0.000003652690002  -0.000000335387173
Si   12.89862  10.18313   7.46762   0.000004567042435  -0.000000332059897   0.000003665361712
Si   11.54087   6.10987  11.54087   0.000000861994936   0.000000231444955   0.000000869841200
Si   14.25638   6.10987  14.25638  -0.000000547802908  -0.000003162435041  -0.000000548859419
Si   11.54087   8.82537  14.25638   0.000000332067461  -0.000004567028989  -0.000003665310270
Si   14.25638   8.82537  11.54087  -0.000003652696238  -0.000004574906652   0.000000335407078
Si   15.61412   7.46762  12.89862  -0.000000475856706  -0.000003284316040  -0.000000182712696
Si   15.61412  10.18313  15.61412  -0.000004703858104  -0.000000398704050  -0.000004706245628
Si   12.89862   7.46762  15.61412  -0.000000185694255  -0.000003277840053  -0.000000470895516
Si   12.89862  10.18313  12.89862  -0.000003008901905  -0.000000917703159  -0.000003003318754
Si   11.54087   6.10987  16.97187  -0.000000863721969   0.000003813705978   0.000003340363713
Si   14.25638   6.10987  19.68737   0.000000091307856   0.000001233239743   0.000002805211294
Si   11.54087   8.82537  19.68737   0.000003105533598  -0.000000567529555   0.000002198464570
Si   14.25638   8.82537  16.97187  -0.000006448198526  -0.000003272717244  -0.000001295077453
Si   15.61412   7.46762  18.32963  -0.000002171889506  -0.000005259403335   0.000004056036310
Si   15.61412  10.18313  21.04512   0.000001709841078   0.000002389955566  -0.000004698389449
Si   12.89862   7.46762  21.04512   0.000000889721438  -0.000003042359069   0.000001688455790
Si   12.89862  10.18313  18.32963   0.000001147728281   0.000007860752764   0.000001184286725
Si   11.54087  11.54087   0.67887  -0.000003632673973  -0.000003632628576   0.000004560067213
Si   14.25638  11.54087   3.39437  -0.000002429897281   0.000006698008586  -0.000004761004859
Si   11.54087  14.25638   3.39437   0.000006697999795  -0.000002429982032  -0.000004760996001
Si   14.25638  14.25638   0.67887   0.000001640705408   0.000001640724898   0.000000510744752
Si   15.61412  12.89862   2.03662  -0.000000615475251   0.000000532753015   0.000007185285543
Si   15.61412  15.61412   4.75212  -0.000001635058353  -0.000001635063000   0.000000292041536
Si   12.89862  12.89862   4.75212  -0.000001746494293  -0.000001746534223   0.000000010048152
Si   12.89862  15.61412   2.03662   0.000000532816182  -0.000000615520128   0.000007185244531
Si   11.54087  11.54087   6.10987   0.000000862966760   0.000000862927872   0.000000235304350
Si   14.25638  11.54087   8.82537  -0.000003662112686   0.000000336829841  -0.000004568912701
Si   11.54087  14.25638   8.82537   0.000000336882923  -0.000003662092878  -0.000004568915448
Si   14.25638  14.25638   6.10987  -0.000000548442497  -0.000000548535578  -0.000003155395379
Si   15.61412  12.89862   7.46762  -0.000000467354415  -0.000000190297443  -0.000003277467292
Si   15.61412  15.61412  10.18313  -0.000004695744424  -0.000004695772562  -0.000000405221005
Si   12.89862  12.89862  10.18313  -0.000003012084917  -0.000003012102610  -0.000000923288385
Si   12.89862  15.61412   7.46762  -0.000000190271389  -0.000000467367512  -0.000003277443243
Si   11.54087  11.54087  11.54087   0.000003658686045   0.000003658636720   0.000003660473373
Si   14.25638  11.54087  14.25638   0.000000063500604   0.000003344844209   0.000000061700201
Si   11.54087  14.25638  14.25638   0.000003344836861   0.000000063431661   0.000000061668378
Si   14.25638  14.25638  11.54087   0.000000058127357   0.000000058021510   0.000003348104472
Si   15.61412  12.89862  12.89862  -0.000000807214493   0.000001790011694   0.000001791766426
Si   15.61412  15.61412  15.61412  -0.000002961691098  -0.000002961684268  -0.000002963076530
Si   12.89862  12.89862  15.61412   0.000001788126444   0.000001788084731  -0.000000811671121
Si   12.89862  15.61412  12.89862   0.000001790033217  -0.000000807279215   0.000001791748357
Si   11.54087  11.54087  16.97187   0.000003026508719   0.000003026523221   0.000002459817235
Si   14.25638  11.54087  19.68737  -0.000004862016201   0.000002429815707  -0.000001999087431
Si   11.54087  14.25638  19.68737   0.000002429902827  -0.000004862068486  -0.000001999118821
Si   14.25638  14.25638  16.97187  -0.000001746502230  -0.000001746522733  -0.000000164825687
Si   15.61412  12.89862  18.32963  -0.000002241916823  -0.000004219985734  -0.000005740297191
Si   15.61412  15.61412  21.04512  -0.000001169547317  -0.000001169478269  -0.000001074639292
Si   12.89862  12.89862  21.04512  -0.000000602648093  -0.000000602637555  -0.000000532488073
Si   12.89862  15.61412  18.32963  -0.000004219966828  -0.000002241933970  -0.000005740250887
Si   11.54087  16.97187   0.67887  -0.000005002081365  -0.000005518902791   0.000005117663121
Si   14.25638  16.97187   3.39437   0.000003257400879   0.000000088575007   0.000001623824456
Si   11.54087  19.68737   3.39437  -0.000003226561700  -0.000002237095366   0.000000141006109
Si   14.25638  19.68737   0.67887   0.000005164120154   0.000006184442702  -0.000002242733439
Si   15.61412  18.32963   2.03662   0.000004495371387  -0.000000604148493  -0.000005005149890
Si   15.61412  21.04512   4.75212  -0.000000294769081  -0.000003741834120   0.000000110561327
Si   12.89862  18.32963   4.75212   0.000001562647187  -0.000000634328275  -0.000001075734322
Si   12.89862  21.04512   2.03662  -0.000003287485183   0.000002825904239  -0.000000455073531
Si   11.54087  16.97187   6.10987  -0.000000876712602   0.000003341575641   0.000003805640761
Si   14.25638  16.97187   8.82537  -0.000006436189929  -0.000001291437986  -0.000003267963475
Si   11.54087  19.68737   8.82537   0.000003101159889   0.000002199311872  -0.000000562266894
Si   14.25638  19.68737   6.10987   0.000000097395296   0.000002804820456   0.000001228400166
Si   15.61412  18.32963   7.46762  -0.000002169613689   0.000004054279798  -0.000005257539501
Si   15.61412  21.04512  10.18313   0.000001695902436  -0.000004688396227   0.000002388527456
Si   12.89862  18.32963  10.18313   0.000001146164128   0.000001175207116   0.000007856394189
Si   12.89862  21.04512   7.46762   0.000000894491030   0.000001687846523  -0.000003040899079
Si   11.54087  16.97187  11.54087   0.000003028937634   0.000002452201907   0.000003017671105
Si   14.25638  16.97187  14.25638  -0.000001757196129  -0.000000162023109  -0.000001753489778
Si   11.54087  19.68737  14.25638   0.000002428408195  -0.000002006360945  -0.000004851859775
Si   14.25638  19.68737  11.54087  -0.000004857463671  -0.000002000093213   0.000002432723151
Si   15.61412  18.32963  12.89862  -0.000002243541568  -0.000005750398819  -0.000004212382893
Si   15.61412  21.04512  15.61412  -0.000001180338323  -0.000001069223230  -0.000001176274736
Si   12.89862  18.32963  15.61412  -0.000004214084064  -0.000005744671568  -0.000002246738487
Si   12.89862  21.04512  12.89862  -0.000000590992742  -0.000000526191755  -0.000000596689728
Si   11.54087  16.97187  16.97187  -0.000007474078967   0.000002299189575   0.000002298813653
Si   14.25638  16.97187  19.68737   0.000003075090359  -0.000001801218616  -0.000008988038526
Si   11.54087  19.68737  19.68737  -0.000005192087024   0.000001870112592   0.000001868941030
Si   14.25638  19.68737  16.97187   0.000003080476042  -0.000008983313465  -0.000001799137486
Si   15.61412  18.32963  18.32963  -0.000004299468825  -0.000000069578578  -0.000000070238398
Si   15.61412  21.04512  21.04512  -0.000006574824484   0.000003879276960   0.000003883718788
Si   12.89862  18.32963  21.04512   0.000002134233577   0.000000006589307  -0.000003014884349
Si   12.89862  21.04512  18.32963   0.000002140033101  -0.000003010560586   0.000000005235530
Si   16.97187   0.67888   0.67887   0.000001535556583  -0.000000465032909  -0.000000466749476
Si   19.68737   0.67888   3.39437  -0.000001213677416  -0.000001252959155  -0.000004828772633
Si   16.97187   3.39438   3.39437  -0.000003535357747   0.000000594227740   0.000000599998308
Si   19.68737   3.39438   0.67887  -0.000001213706402  -0.000004824519645  -0.000001249911736
Si   21.04512   2.03662   2.03662  -0.000000004079076  -0.000001574970201  -0.000001562208777
Si   21.04512   4.75212   4.75212  -0.000003452245344   0.000002615340126   0.000002605019154
Si   18.32963   2.03662   4.75212   0.000000651479795   0.000004143387809   0.000000701798148
Si   18.32963   4.75212   2.03662   0.000000649706828   0.000000710516293   0.000004144280265
Si   16.97187   0.67888   6.10987  -0.000000107958387   0.000003735124983   0.000000302294758
Si   19.68737   0.67888   8.82537   0.000000453313240  -0.000002832045542   0.000003282223769
Si   16.97187   3.39438   8.82537   0.000001076948075   0.000000636117343  -0.000001558174910
Si   19.68737   3.39438   6.10987   0.000005002611114   0.000000614768745  -0.000004499682162
Si   21.04512   2.03662   7.46762   0.000002239119603  -0.000006180287023  -0.000005167288869
Si   21.04512   4.75212  10.18313  -0.000005124062156   0.000005522499123   0.000004994657441
Si   18.32963   2.03662  10.18313  -0.000000130312323   0.000002236863949   0.000003228385150
Si   18.32963   4.75212   7.46762  -0.000001630944363  -0.000000099201104  -0.000003258310861
Si   16.97187   0.67888  11.54087  -0.000005522484665   0.000005124070692  -0.000004994626586
Si   19.68737   0.67888  14.25638   0.000006180268708  -0.000002239111118   0.000005167293245
Si   16.97187   3.39438  14.25638   0.000000099189825   0.000001630956825   0.000003258313172
Si   19.68737   3.39438  11.54087  -0.000002236864324   0.000000130331452  -0.000003228330781
Si   21.04512   2.03662  12.89862   0.000002831981355  -0.000000453314357  -0.000003282201977
Si   21.04512   4.75212  15.61412  -0.000003735169846   0.000000107992691  -0.000000302302302
Si   18.32963   2.03662  15.61412  -0.000000614798085  -0.000005002529119   0.000004499694350
Si   18.32963   4.75212  12.89862  -0.000000636157613  -0.000001076904826   0.000001558216350
Si   16.97187   0.67888  16.97187  -0.000002615341272   0.000003452257583  -0.000002605048214
Si   19.68737   0.67888  19.68737   0.000001575003022   0.000000004058297   0.000001562233819
Si   16.97187   3.39438  19.68737  -0.000000710449089  -0.000000649691661  -0.000004144301032
Si   19.68737   3.39438  16.97187  -0.000004143380661  -0.000000651483432  -0.000000701819697
Si   21.04512   2.03662  18.32963   0.000001252946121   0.000001213701924   0.000004828760923
Si   21.04512   4.75212  21.04512   0.000000465038195  -0.000001535554083   0.000000466736668
Si   18.32963   2.03662  21.04512   0.000004824514711   0.000001213769841   0.000001249830648
Si   18.32963   4.75212  18.32963  -0.000000594199919   0.000003535337328  -0.000000599979009
Si   16.97187   6.10987   0.67887  -0.000000109972078   0.000000300015865   0.000003730989761
Si   19.68737   6.10987   3.39437   0.000005010404185  -0.000004495428814   0.000000615303345
Si   16.97187   8.82537   3.39437   0.000001073984019  -0.000001568351389   0.000000646327986
Si   19.68737   8.82537   0.67887   0.000000453036720   0.000003288474238  -0.000002835751601
Si   21.04512   7.46762   2.03662   0.000002253123288  -0.000005173691951  -0.000006187636474
Si   21.04512  10.18313   4.75212  -0.000005125118541   0.000004997667892   0.000005524882531
Si   18.32963   7.46762   4.75212  -0.000001622637541  -0.000003255845810  -0.000000093030017
Si   18.32963  10.18313   2.03662  -0.000000133795507   0.000003226335687   0.000002242228094
Si   16.97187   6.10987   6.10987  -0.000000292647266   0.000001615133195   0.000001616526509
Si   19.68737   6.10987   8.82537  -0.000007179657647   0.000000609451531  -0.000000516033460
Si   16.97187   8.82537   8.82537  -0.000000018138480   0.000001761129890   0.000001764793682
Si   19.68737   8.82537   6.10987  -0.000007187453311  -0.000000515927279   0.000000602520301
Si   21.04512   7.46762   7.46762  -0.000000519464713  -0.000001641182297  -0.000001644468495
Si   21.04512  10.18313  10.18313  -0.000004552492274   0.000003631289778   0.000003632568187
Si   18.32963   7.46762  10.18313   0.000004762701393   0.000002432009600  -0.000006693343493
Si   18.32963  10.18313   7.46762   0.000004757244334  -0.000006692416053   0.000002435014046
Si   16.97187   6.10987  11.54087   0.000003331988083   0.000003820399796  -0.000000879560078
Si   19.68737   6.10987  14.25638   0.000002803831952   0.000001223563775   0.000000101144152
Si   16.97187   8.82537  14.25638  -0.000001291111671  -0.000003259563142  -0.000006433727516
Si   19.68737   8.82537  11.54087   0.000002212113100  -0.000000577579320   0.000003092296542
Si   21.04512   7.46762  12.89862   0.000001687179969  -0.000003037736969   0.000000897499428
Si   21.04512  10.18313  15.61412  -0.000004696327766   0.000002386503074   0.000001708014149
Si   18.32963   7.46762  15.61412   0.000004054146475  -0.000005258165764  -0.000002174616395
Si   18.32963  10.18313  12.89862   0.000001177370957   0.000007858401267   0.000001145572911
Si   16.97187   6.10987  16.97187   0.000000438151241  -0.000000635084694   0.000000429884119
Si   19.68737   6.10987  19.68737  -0.000002693787777   0.000006638810314  -0.000002684229554
Si   16.97187   8.82537  19.68737   0.000003103489832  -0.000002211707577   0.000003492423058
Si   19.68737   8.82537  16.97187   0.000003482935578  -0.000002208081481   0.000003097681097
Si   21.04512   7.46762  18.32963  -0.000004540226713  -0.000000848675737  -0.000001378266339
Si   21.04512  10.18313  21.04512  -0.000001766767368  -0.000004589131796  -0.000001764324364
Si   18.32963   7.46762  21.04512  -0.000001379284086  -0.000000847384098  -0.000004539699739
Si   18.32963  10.18313  18.32963  -0.000004011742352   0.000005765336788  -0.000004015037463
Si   16.97187  11.54087   0.67887  -0.000005518912826  -0.000005002153274   0.000005117710556
Si   19.68737  11.54087   3.39437  -0.000002237106166  -0.000003226594404   0.000000141119827
Si   16.97187  14.25638   3.39437   0.000000088571270   0.000003257375150   0.000001623807495
Si   19.68737  14.25638   0.67887   0.000006184410944   0.000005164181497  -0.000002242670369
Si   21.04512  12.89862   2.03662   0.000002825882975  -0.000003287531795  -0.000000455095237
Si   21.04512  15.61412   4.75212  -0.000003741853261  -0.000000294800819   0.000000110566910
Si   18.32963  12.89862   4.75212  -0.000000634351119   0.000001562566994  -0.000001075686017
Si   18.32963  15.61412   2.03662  -0.000000604123155   0.000004495346646  -0.000005005159406
Si   16.97187  11.54087   6.10987   0.000003341579157  -0.000000876748773   0.000003805676908
Si   19.68737  11.54087   8.82537   0.000002199325863   0.000003101166617  -0.000000562217644
Si   16.97187  14.25638   8.82537  -0.000001291428719  -0.000006436211390  -0.000003268017488
Si   19.68737  14.25638   6.10987   0.000002804780883   0.000000097388356   0.000001228382253
Si   21.04512  12.89862   7.46762   0.000001687748207   0.000000894479770  -0.000003040907581
Si   21.04512  15.61412  10.18313  -0.000004688451804   0.000001695864539   0.000002388500537
Si   18.32963  12.89862  10.18313   0.000001175256252   0.000001146090213   0.000007856371092
Si   18.32963  15.61412   7.46762   0.000004054224713  -0.000002169605656  -0.000005257563765
Si   16.97187  11.54087  11.54087   0.000002452171120   0.000003028928994   0.000003017662154
Si   19.68737  11.54087  14.25638  -0.000002006384579   0.000002428388107  -0.000004851964197
Si   16.97187  14.25638  14.25638  -0.000000162049508  -0.000001757212230  -0.000001753544133
Si   19.68737  14.25638  11.54087  -0.000002000160595  -0.000004857482273   0.000002432769782
Si   21.04512  12.89862  12.89862  -0.000000526244136  -0.000000591046722  -0.000000596643270
Si   21.04512  15.61412  15.61412  -0.000001069295977  -0.000001180361734  -0.000001176306210
Si   18.32963  12.89862  15.61412  -0.000005744686937  -0.000004214112152  -0.000002246812317
Si   18.32963  15.61412  12.89862  -0.000005750455248  -0.000002243634637  -0.000004212405894
Si   16.97187  11.54087  16.97187   0.000002299158019  -0.000007474137459   0.000002298777540
Si   19.68737  11.54087  19.68737   0.000001870157675  -0.000005192172253   0.000001868922940
Si   16.97187  14.25638  19.68737  -0.000001801242086   0.000003075023937  -0.000008988043743
Si   19.68737  14.25638  16.97187  -0.000008983332694   0.000003080491759  -0.000001799090787
Si   21.04512  12.89862  18.32963  -0.000003010586881   0.000002139964424   0.000000005250937
Si   21.04512  15.61412  21.04512   0.000003879286086  -0.000006574819281   0.000003883709863
Si   18.32963  12.89862  21.04512   0.000000006552512   0.000002134171871  -0.000003014884173
Si   18.32963  15.61412  18.32963  -0.000000069573484  -0.000004299443009  -0.000000070289219
Si   16.97187  16.97187   0.67887  -0.000002607083885  -0.000002606969279   0.000003464453918
Si   19.68737  16.97187   3.39437  -0.000004149225280  -0.000000696130143  -0.000000658574171
Si   16.97187  19.68737   3.39437  -0.000000696125509  -0.000004149233332  -0.000000658562484
Si   19.68737  19.68737   0.67887   0.000001560485897   0.000001560495551   0.000000008170555
Si   21.04512  18.32963   2.03662   0.000001247328872   0.000004818919533   0.000001210045211
Si   21.04512  21.04512   4.75212   0.000000480314407   0.000000480324259  -0.000001530440538
Si   18.32963  18.32963   4.75212  -0.000000597357506  -0.000000597320790   0.000003536445412
Si   18.32963  21.04512   2.03662   0.000004818899577   0.000001247382591   0.000001210020844
Si   16.97187  16.97187   6.10987   0.000000438570584   0.000000438499886  -0.000000624111921
Si   19.68737  16.97187   8.82537   0.000003493707618   0.000003103306103  -0.000002217014556
Si   16.97187  19.68737   8.82537   0.000003103303021   0.000003493704421  -0.000002217024619
Si   19.68737  19.68737   6.10987  -0.000002688332447  -0.000002688252761   0.000006644998932
Si   21.04512  18.32963   7.46762  -0.000004542323127  -0.000001378981118  -0.000000848716499
Si   21.04512  21.04512  10.18313  -0.000001773589384  -0.000001773527191  -0.000004589271653
Si   18.32963  18.32963  10.18313  -0.000004014474770  -0.000004014447979   0.000005766500715
Si   18.32963  21.04512   7.46762  -0.000001379005455  -0.000004542280254  -0.000000848707202
Si   16.97187  16.97187  11.54087   0.000002301500097   0.000002301513253  -0.000007467475637
Si   19.68737  16.97187  14.25638  -0.000008992247241  -0.000001799757312   0.000003068120581
Si   16.97187  19.68737  14.25638  -0.000001799700570  -0.000008992232450   0.000003068056791
Si   19.68737  19.68737  11.54087   0.000001858900466   0.000001858946590  -0.000005185789046
Si   21.04512  18.32963  12.89862  -0.000003014246503   0.000000014646969   0.000002137452523
Si   21.04512  21.04512  15.61412   0.000003885417135   0.000003885457188  -0.000006583469572
Si   18.32963  18.32963  15.61412  -0.000000077423415  -0.000000077395201  -0.000004295580606
Si   18.32963  21.04512  12.89862   0.000000014615648  -0.000003014262362   0.000002137440870
Si   16.97187  16.97187  16.97187   0.000001386618871   0.000001386620401   0.000001396157315
Si   19.68737  16.97187  19.68737   0.000004995960229  -0.000006174463851   0.000004988087371
Si   16.97187  19.68737  19.68737  -0.000006174481929   0.000004995940175   0.000004988140395
Si   19.68737  19.68737  16.97187   0.000005003839366   0.000005003848202  -0.000006163732919
Si   21.04512  18.32963  18.32963  -0.000008739362486   0.000000301280814   0.000000300168293
Si   21.04512  21.04512  21.04512  -0.000000287820375  -0.000000287785383  -0.000000281726319
Si   18.32963  18.32963  21.04512   0.000000303977430   0.000000304050928  -0.000008743837601
Si   18.32963  21.04512  18.32963   0.000000301304212  -0.000008739278033   0.000000300137396
