216 

Si    0.72888   0.67888   0.67888   0.013631497222575   0.000002001508739   0.000002001633796
Si    3.39437   0.67888   3.39437  -0.000195062193776   0.000124674057186  -0.000201385161555
Si    0.67888   3.39437   3.39437   0.000433613918370  -0.000118049911399  -0.000118379221418
Si    3.39437   3.39437   0.67888  -0.000195098224759  -0.000201497829424   0.000125084699948
Si    4.75213   2.03662   2.03662   0.000008528810619   0.000027583004322   0.000027703911199
Si    4.75213   4.75213   4.75213   0.000015183948908   0.000008182061845   0.000008179268691
Si    2.03662   2.03662   4.75213   0.000034201418825  -0.000037162276189   0.000036357289761
Si    2.03662   4.75213   2.03662   0.000034100550508   0.000036445473979  -0.000037241421469
Si    0.67888   0.67888   6.10987  -0.000020657485543   0.000002865311847   0.000000639571681
Si    3.39437   0.67888   8.82538  -0.000019862486283   0.000008157645026   0.000008160492012
Si    0.67888   3.39437   8.82538  -0.000005492637039  -0.000008080980752   0.000010810313793
Si    3.39437   3.39437   6.10987  -0.000016814588471   0.000020982212363  -0.000003350432834
Si    4.75213   2.03662   7.46762  -0.000000012480199  -0.000007640598321  -0.000000924036117
Si    4.75213   4.75213  10.18313   0.000003069802744  -0.000019389317483  -0.000004684407237
Si    2.03662   2.03662  10.18313   0.000016305328609   0.000000110292898   0.000002748976994
Si    2.03662   4.75213   7.46762   0.000010341301927  -0.000005955091210   0.000007312151944
Si    0.67888   0.67888  11.54087  -0.000015370092794   0.000008186800753  -0.000007929545515
Si    3.39437   0.67888  14.25638  -0.000189138525492  -0.000112700091339   0.000191716151847
Si    0.67888   3.39437  14.25638   0.000432168673521   0.000113040274370  -0.000117147217453
Si    3.39437   3.39437  11.54087  -0.000022187293718   0.000016445246510   0.000003309577514
Si    4.75213   2.03662  12.89863  -0.000016975842866   0.000054663250530   0.000024688451300
Si    4.75213   4.75213  15.61412  -0.000010845140606  -0.000012843140688  -0.000064391461244
Si    2.03662   2.03662  15.61412  -0.003409351500673  -0.002468380005051   0.002461238062982
Si    2.03662   4.75213  12.89863  -0.000177938711034   0.000057691092265  -0.000051981020629
Si    0.67888   6.10987   0.67888  -0.000020495630092   0.000000650386898   0.000002888486349
Si    3.39437   6.10987   3.39437  -0.000016846210440  -0.000003358719910   0.000020964703467
Si    0.67888   8.82538   3.39437  -0.000005641396570   0.000010755009155  -0.000008079800827
Si    3.39437   8.82538   0.67888  -0.000019774385954   0.000008156367881   0.000008161532173
Si    4.75213   7.46762   2.03662  -0.000000001034147  -0.000000909692887  -0.000007645585141
Si    4.75213  10.18313   4.75213   0.000003190724243  -0.000004692174599  -0.000019381576789
Si    2.03662   7.46762   4.75213   0.000010346888106   0.000007286598261  -0.000005919878275
Si    2.03662  10.18313   2.03662   0.000016281698724   0.000002732355634   0.000000284961055
Si    0.67888   6.10987   6.10987   0.000110657296348  -0.000020536078936  -0.000020567795541
Si    3.39437   6.10987   8.82538  -0.000005688608203   0.000014365607888   0.000004395359414
Si    0.67888   8.82538   8.82538   0.000105434276793   0.000008974838815   0.000008956349152
Si    3.39437   8.82538   6.10987  -0.000005682098700   0.000004382352647   0.000014370261223
Si    4.75213   7.46762   7.46762   0.000008934015045  -0.000012505993913  -0.000012506419271
Si    4.75213  10.18313  10.18313   0.000007894197458   0.000004349424692   0.000004345761503
Si    2.03662   7.46762  10.18313  -0.000061816483567  -0.000005671303812  -0.000001444843098
Si    2.03662  10.18313   7.46762  -0.000061816607363  -0.000001449534557  -0.000005682377382
Si    0.67888   6.10987  11.54087   0.000107992451777   0.000019463743859  -0.000023260114405
Si    3.39437   6.10987  14.25638  -0.000021122631034  -0.000011454028524  -0.000024517704076
Si    0.67888   8.82538  14.25638  -0.000010923529783   0.000000275198987   0.000000788900331
Si    3.39437   8.82538  11.54087  -0.000011783410286   0.000007464300037  -0.000024196567828
Si    4.75213   7.46762  12.89863   0.000009271703170  -0.000005158577635   0.000031224347326
Si    4.75213  10.18313  15.61412   0.000000017291044  -0.000001087924341   0.000005627185442
Si    2.03662   7.46762  15.61412   0.000015406982890  -0.000005623877135  -0.000003170398376
Si    2.03662  10.18313  12.89863   0.000009470756562  -0.000010175493871   0.000015931927634
Si    0.67888  11.54087   0.67888  -0.000015236819679  -0.000007930542882   0.000008162727204
Si    3.39437  11.54087   3.39437  -0.000022169720449   0.000003300610222   0.000016351518341
Si    0.67888  14.25638   3.39437   0.000432189482276  -0.000116811386352   0.000113369816719
Si    3.39437  14.25638   0.67888  -0.000189182606630   0.000191805774097  -0.000113116075971
Si    4.75213  12.89863   2.03662  -0.000016949194959   0.000024687513303   0.000054547345644
Si    4.75213  15.61412   4.75213  -0.000010890255755  -0.000064531460520  -0.000012849534586
Si    2.03662  12.89863   4.75213  -0.000177938744244  -0.000051920239744   0.000057741994542
Si    2.03662  15.61412   2.03662  -0.003409349101598   0.002461149765790  -0.002468475969164
Si    0.67888  11.54087   6.10987   0.000107974776076  -0.000023210345815   0.000019506277452
Si    3.39437  11.54087   8.82538  -0.000011772870039  -0.000024216011445   0.000007445724711
Si    0.67888  14.25638   8.82538  -0.000010757680080   0.000000799488724   0.000000236941012
Si    3.39437  14.25638   6.10987  -0.000021136999665  -0.000024610408111  -0.000011466970923
Si    4.75213  12.89863   7.46762   0.000009168485600   0.000031237162961  -0.000005142365966
Si    4.75213  15.61412  10.18313  -0.000000027807041   0.000005640388198  -0.000001092028250
Si    2.03662  12.89863  10.18313   0.000009465306042   0.000015964959312  -0.000010196806590
Si    2.03662  15.61412   7.46762   0.000015430073169  -0.000003000451286  -0.000005636285430
Si    0.67888  11.54087  11.54087   0.000112513165406   0.000011564906240   0.000011615124316
Si    3.39437  11.54087  14.25638  -0.000016819894255   0.000001357119199  -0.000022980412321
Si    0.67888  14.25638  14.25638   0.000431700065393   0.000108982474323   0.000109328820204
Si    3.39437  14.25638  11.54087  -0.000016823498838  -0.000022977336321   0.000001330151865
Si    4.75213  12.89863  12.89863   0.000015184866938   0.000008131015472   0.000008141444291
Si    4.75213  15.61412  15.61412   0.000009493516468  -0.000035701208201  -0.000035826570357
Si    2.03662  12.89863  15.61412   0.000034991930911  -0.000026419522883   0.000034359915513
Si    2.03662  15.61412  12.89863   0.000035091175559   0.000034276396097  -0.000026327777535
Si    6.10987   0.67888   0.67888  -0.000004684791496   0.000002878081206   0.000002874589309
Si    8.82538   0.67888   3.39437   0.000006440684554   0.000005526342963  -0.000008017296056
Si    6.10987   3.39437   3.39437   0.000002871061449  -0.000014372717426  -0.000014374239390
Si    8.82538   3.39437   0.67888   0.000006456306780  -0.000008012418696   0.000005510747437
Si   10.18313   2.03662   2.03662  -0.000001362445053   0.000002681639185   0.000002708351698
Si   10.18313   4.75213   4.75213   0.000000768102950  -0.000000867687554  -0.000000906730540
Si    7.46762   2.03662   4.75213   0.000000597005583   0.000011294091730   0.000004672504321
Si    7.46762   4.75213   2.03662   0.000000630701508   0.000004674377717   0.000011296003823
Si    6.10987   0.67888   6.10987  -0.000004368351423   0.000028318754002  -0.000014472439519
Si    8.82538   0.67888   8.82538   0.000006832193207   0.000008978095146   0.000008956297532
Si    6.10987   3.39437   8.82538  -0.000000573839206   0.000012235388916   0.000001088408537
Si    8.82538   3.39437   6.10987   0.000005871576958  -0.000004461005810   0.000000857793742
Si   10.18313   2.03662   7.46762  -0.000003953943055  -0.000000884594340  -0.000006380738385
Si   10.18313   4.75213  10.18313   0.000005006284691   0.000011508935349  -0.000007287172618
Si    7.46762   2.03662  10.18313  -0.000011372757284   0.000001941318932   0.000001100564799
Si    7.46762   4.75213   7.46762  -0.000003115487293   0.000004010901406  -0.000015434998217
Si    6.10987   0.67888  11.54087  -0.000005242652136  -0.000018305579198   0.000011585991335
Si    8.82538   0.67888  14.25638   0.000001156215173   0.000005503995891   0.000000726116884
Si    6.10987   3.39437  14.25638   0.000002107885516  -0.000011603968512   0.000004464957914
Si    8.82538   3.39437  11.54087   0.000012132887571  -0.000007487601672  -0.000007134537202
Si   10.18313   2.03662  12.89863   0.000003412344070  -0.000010148887355   0.000009080788374
Si   10.18313   4.75213  15.61412   0.000004303225521   0.000000918241339   0.000007270830236
Si    7.46762   2.03662  15.61412  -0.000003982115093  -0.000003803147424   0.000000064545572
Si    7.46762   4.75213  12.89863  -0.000007359564079   0.000012887879249   0.000005008506211
Si    6.10987   6.10987   0.67888  -0.000004483673404  -0.000014485722627   0.000028283045877
Si    8.82538   6.10987   3.39437   0.000005889495617   0.000000851266924  -0.000004468164293
Si    6.10987   8.82538   3.39437  -0.000000582649646   0.000001093829768   0.000012224439846
Si    8.82538   8.82538   0.67888   0.000006786090275   0.000008974785660   0.000008959541512
Si   10.18313   7.46762   2.03662  -0.000003943497486  -0.000006384871240  -0.000000902277735
Si   10.18313  10.18313   4.75213   0.000005000624222  -0.000007275460368   0.000011533295498
Si    7.46762   7.46762   4.75213  -0.000003120153072  -0.000015418303466   0.000003997012520
Si    7.46762  10.18313   2.03662  -0.000011359603917   0.000001090853974   0.000001958718251
Si    6.10987   6.10987   6.10987  -0.000003926954720   0.000003383815744   0.000003383365975
Si    8.82538   6.10987   8.82538   0.000001963804548   0.000000843202844   0.000002878908171
Si    6.10987   8.82538   8.82538  -0.000000921274779   0.000002889309748   0.000002885036615
Si    8.82538   8.82538   6.10987   0.000001953561150   0.000002852853379   0.000000837833035
Si   10.18313   7.46762   7.46762  -0.000001931127923  -0.000002006852840  -0.000002024923421
Si   10.18313  10.18313  10.18313  -0.000001056038319  -0.000000882580898  -0.000000860327007
Si    7.46762   7.46762  10.18313  -0.000003879775140  -0.000003818533912   0.000000054064328
Si    7.46762  10.18313   7.46762  -0.000003896937488   0.000000070765737  -0.000003809146704
Si    6.10987   6.10987  11.54087  -0.000003809687277   0.000003478727372  -0.000010593157504
Si    8.82538   6.10987  14.25638   0.000010274156547  -0.000001821125364  -0.000001481296902
Si    6.10987   8.82538  14.25638   0.000000293661199   0.000008916193727  -0.000015110977057
Si    8.82538   8.82538  11.54087   0.000007238150092   0.000008177217897  -0.000008129496811
Si   10.18313   7.46762  12.89863   0.000005875112549   0.000004386261433  -0.000001522016213
Si   10.18313  10.18313  15.61412  -0.000003943397597  -0.000000734328852  -0.000006227803501
Si    7.46762   7.46762  15.61412  -0.000013219130015  -0.000010066734454  -0.000010916926599
Si    7.46762  10.18313  12.89863   0.000002147478305   0.000008135031773   0.000007051446892
Si    6.10987  11.54087   0.67888  -0.000005357491690   0.000011595111979  -0.000018268458853
Si    8.82538  11.54087   3.39437   0.000012131702351  -0.000007154206520  -0.000007474121355
Si    6.10987  14.25638   3.39437   0.000002108052360   0.000004485814091  -0.000011589422672
Si    8.82538  14.25638   0.67888   0.000001188956682   0.000000730971077   0.000005536698109
Si   10.18313  12.89863   2.03662   0.000003428609396   0.000009091266547  -0.000010157912559
Si   10.18313  15.61412   4.75213   0.000004287274830   0.000007257532140   0.000000930851073
Si    7.46762  12.89863   4.75213  -0.000007359665174   0.000005059839414   0.000012902197291
Si    7.46762  15.61412   2.03662  -0.000003964678372   0.000000052474107  -0.000003822453900
Si    6.10987  11.54087   6.10987  -0.000003809609083  -0.000010599616235   0.000003465893495
Si    8.82538  11.54087   8.82538   0.000007231156715  -0.000008125161940   0.000008168206705
Si    6.10987  14.25638   8.82538   0.000000302413393  -0.000015125993159   0.000008923817025
Si    8.82538  14.25638   6.10987   0.000010275319526  -0.000001486269673  -0.000001822281812
Si   10.18313  12.89863   7.46762   0.000005880830578  -0.000001499829336   0.000004402270318
Si   10.18313  15.61412  10.18313  -0.000003953754198  -0.000006238929552  -0.000000744869587
Si    7.46762  12.89863  10.18313   0.000002169381339   0.000007020564135   0.000008142020528
Si    7.46762  15.61412   7.46762  -0.000013232405523  -0.000010917841396  -0.000010057982234
Si    6.10987  11.54087  11.54087  -0.000003053128023  -0.000006273036662  -0.000006268305848
Si    8.82538  11.54087  14.25638   0.000005870557618  -0.000004598864257   0.000000710879294
Si    6.10987  14.25638  14.25638   0.000002004425167   0.000011476192555   0.000011482035111
Si    8.82538  14.25638  11.54087   0.000005887114364   0.000000710997565  -0.000004612753937
Si   10.18313  12.89863  12.89863   0.000000770395987   0.000006651431122   0.000006682024669
Si   10.18313  15.61412  15.61412  -0.000002235754024  -0.000005570127945  -0.000005592479621
Si    7.46762  12.89863  15.61412  -0.000004653868642   0.000006355273614  -0.000018588764131
Si    7.46762  15.61412  12.89863  -0.000004670581982  -0.000018577219405   0.000006374281309
Si   11.54087   0.67888   0.67888  -0.000013430612658   0.000008148472345   0.000008152484584
Si   14.25638   0.67888   3.39437  -0.000179302630562   0.000112581914665   0.000182479630988
Si   11.54087   3.39437   3.39437  -0.000006631935656  -0.000003526898202  -0.000003550696459
Si   14.25638   3.39437   0.67888  -0.000179335744046   0.000182550565092   0.000112988497545
Si   15.61412   2.03662   2.03662  -0.003262986975255   0.002166834639289   0.002166947010675
Si   15.61412   4.75213   4.75213  -0.000180887504177  -0.000045690675164  -0.000045774342208
Si   12.89863   2.03662   4.75213  -0.000014360057245  -0.000055144880693   0.000022776008918
Si   12.89863   4.75213   2.03662  -0.000014319675323   0.000022767730431  -0.000055021737443
Si   11.54087   0.67888   6.10987  -0.000006655288905   0.000022729987020   0.000013096737720
Si   14.25638   0.67888   8.82538  -0.000011135292795   0.000002890961859   0.000002884729807
Si   11.54087   3.39437   8.82538  -0.000008759381577  -0.000024312332894   0.000007223307674
Si   14.25638   3.39437   6.10987  -0.000014146442252  -0.000031373777535   0.000011736240706
Si   15.61412   2.03662   7.46762   0.000013584899685  -0.000001241345301  -0.000000010426441
Si   15.61412   4.75213  10.18313   0.000006422351526   0.000011814124932   0.000011218627197
Si   12.89863   2.03662  10.18313   0.000004465243477   0.000009196681602   0.000001799829003
Si   12.89863   4.75213   7.46762   0.000009166378059   0.000031444545359  -0.000012883231497
Si   11.54087   0.67888  11.54087  -0.000012754779271  -0.000010878011797  -0.000022918176994
Si   14.25638   0.67888  14.25638  -0.000178485622382  -0.000102463352510  -0.000185407096065
Si   11.54087   3.39437  14.25638  -0.000001003326837   0.000008819383074  -0.000010828618426
Si   14.25638   3.39437  11.54087  -0.000013387826702  -0.000027760391104  -0.000007716689921
Si   15.61412   2.03662  12.89863   0.000029299335795   0.000040267871229   0.000029996739743
Si   15.61412   4.75213  15.61412   0.000023874970711  -0.000019102131946  -0.000047606527584
Si   12.89863   2.03662  15.61412   0.000005118821966  -0.000027794067620   0.000025945397725
Si   12.89863   4.75213  12.89863   0.000015162361812   0.000008323624117   0.000007996917980
Si   11.54087   6.10987   0.67888  -0.000006777114512   0.000013103424561   0.000022701676009
Si   14.25638   6.10987   3.39437  -0.000014130513290   0.000011722183105  -0.000031300650460
Si   11.54087   8.82538   3.39437  -0.000008768728094   0.000007242235792  -0.000024281466087
Si   14.25638   8.82538   0.67888  -0.000011051580027   0.000002889008735   0.000002886618972
Si   15.61412   7.46762   2.03662   0.000013591705205  -0.000000014858047  -0.000001429363726
Si   15.61412  10.18313   4.75213   0.000006404880671   0.000011201365252   0.000011795764178
Si   12.89863   7.46762   4.75213   0.000009265941116  -0.000012904777107   0.000031433724367
Si   12.89863  10.18313   2.03662   0.000004490371778   0.000001801631325   0.000009191565838
Si   11.54087   6.10987   6.10987  -0.000010947589708  -0.000003424836822  -0.000003413565762
Si   14.25638   6.10987   8.82538  -0.000002618305555  -0.000015197985356   0.000008675230729
Si   11.54087   8.82538   8.82538  -0.000009858288903   0.000008157066881   0.000008161176100
Si   14.25638   8.82538   6.10987  -0.000002628928235   0.000008669036567  -0.000015197302946
Si   15.61412   7.46762   7.46762  -0.000070097863641  -0.000010400385564  -0.000010376440894
Si   15.61412  10.18313  10.18313  -0.000068234287564   0.000001422502855   0.000001417018948
Si   12.89863   7.46762  10.18313   0.000003453059160   0.000001348849606  -0.000003349112249
Si   12.89863  10.18313   7.46762   0.000003470246135  -0.000003348141055   0.000001331216904
Si   11.54087   6.10987  11.54087  -0.000006664764445  -0.000002627929467   0.000000616248083
Si   14.25638   6.10987  14.25638  -0.000014278454040   0.000004845327911   0.000024881050315
Si   11.54087   8.82538  14.25638  -0.000002667124614   0.000004604995908   0.000014455117236
Si   14.25638   8.82538  11.54087  -0.000003504062391   0.000001340254786   0.000012309274605
Si   15.61412   7.46762  12.89863   0.000001137893269  -0.000018484840385  -0.000000747660993
Si   15.61412  10.18313  15.61412   0.000013574509384  -0.000003733845195  -0.000002330926214
Si   12.89863   7.46762  15.61412   0.000005526327151  -0.000009957153488  -0.000017353882126
Si   12.89863  10.18313  12.89863   0.000003189514329   0.000003059096084  -0.000019591644013
Si   11.54087  11.54087   0.67888  -0.000012858980260  -0.000022948948117  -0.000010855163227
Si   14.25638  11.54087   3.39437  -0.000013401700308  -0.000007735920216  -0.000027760530866
Si   11.54087  14.25638   3.39437  -0.000001020605682  -0.000010815630398   0.000008813757512
Si   14.25638  14.25638   0.67888  -0.000178511376361  -0.000185483218515  -0.000102867670147
Si   15.61412  12.89863   2.03662   0.000029149939279   0.000030080630825   0.000040343420024
Si   15.61412  15.61412   4.75213   0.000024040855262  -0.000047527342857  -0.000019001554789
Si   12.89863  12.89863   4.75213   0.000015162004375   0.000007989529243   0.000008324722496
Si   12.89863  15.61412   2.03662   0.000005102272876   0.000025846436126  -0.000027912086382
Si   11.54087  11.54087   6.10987  -0.000006647504496   0.000000630192320  -0.000002632512664
Si   14.25638  11.54087   8.82538  -0.000003493400964   0.000012305643740   0.000001336267482
Si   11.54087  14.25638   8.82538  -0.000002675089569   0.000014461896279   0.000004618371734
Si   14.25638  14.25638   6.10987  -0.000014266217358   0.000024876058726   0.000004830588068
Si   15.61412  12.89863   7.46762   0.000001138209941  -0.000000782866759  -0.000018511774144
Si   15.61412  15.61412  10.18313   0.000013603552885  -0.000002511455259  -0.000003745623691
Si   12.89863  12.89863  10.18313   0.000003073406497  -0.000019596294772   0.000003061869063
Si   12.89863  15.61412   7.46762   0.000005500643526  -0.000017354990435  -0.000009959622179
Si   11.54087  11.54087  11.54087  -0.000011984489238  -0.000004731379979  -0.000004746762523
Si   14.25638  11.54087  14.25638  -0.000014137771144  -0.000018839085254   0.000024175843190
Si   11.54087  14.25638  14.25638  -0.000005601250148  -0.000004638632286  -0.000004618864599
Si   14.25638  14.25638  11.54087  -0.000014151551444   0.000024256988394  -0.000018859875801
Si   15.61412  12.89863  12.89863  -0.000180892685832   0.000063663314540   0.000063710560100
Si   15.61412  15.61412  15.61412  -0.003264902657519  -0.002175711568541  -0.002175811248268
Si   12.89863  12.89863  15.61412  -0.000008193506164  -0.000010909868561   0.000045152468497
Si   12.89863  15.61412  12.89863  -0.000008250861760   0.000045251078598  -0.000010923348982
