216 

Si    0.72888   0.67888   0.67888   0.013631496576841   0.000002001528579   0.000002001653636
Si    3.39437   0.67888   3.39437  -0.000195061753736   0.000124669168350  -0.000201389179475
Si    0.67888   3.39437   3.39437   0.000433612182629  -0.000118058782710  -0.000118388094073
Si    3.39437   3.39437   0.67888  -0.000195097787205  -0.000201501848808   0.000125079809412
Si    4.75213   2.03662   2.03662   0.000008523636605   0.000027577363247   0.000027698268153
Si    4.75213   4.75213   4.75213   0.000015186619578   0.000008178989431   0.000008176195726
Si    2.03662   2.03662   4.75213   0.000034200734921  -0.000037171946340   0.000036344799274
Si    2.03662   4.75213   2.03662   0.000034099867153   0.000036432983663  -0.000037251092129
Si    0.67888   0.67888   6.10987  -0.000020661560646   0.000002850195718   0.000000635189058
Si    3.39437   0.67888   8.82538  -0.000019862302443   0.000008157660067   0.000008160505880
Si    0.67888   3.39437   8.82538  -0.000005500554455  -0.000008086497134   0.000010822725382
Si    3.39437   3.39437   6.10987  -0.000016807705233   0.000020978950142  -0.000003356784652
Si    4.75213   2.03662   7.46762  -0.000000011639002  -0.000007644112219  -0.000000929629589
Si    4.75213   4.75213  10.18313   0.000003069022157  -0.000019402539592  -0.000004682739907
Si    2.03662   2.03662  10.18313   0.000016297225473   0.000000112371373   0.000002760287837
Si    2.03662   4.75213   7.46762   0.000010338796751  -0.000005955340731   0.000007312720938
Si    0.67888   0.67888  11.54087  -0.000015374149011   0.000008201924332  -0.000007925174572
Si    3.39437   0.67888  14.25638  -0.000189138059650  -0.000112695190699   0.000191720149754
Si    0.67888   3.39437  14.25638   0.000432167018463   0.000113040005440  -0.000117146945105
Si    3.39437   3.39437  11.54087  -0.000022190466704   0.000016430302903   0.000003317775903
Si    4.75213   2.03662  12.89863  -0.000016981536138   0.000054661035749   0.000024694321690
Si    4.75213   4.75213  15.61412  -0.000010850809653  -0.000012849001555  -0.000064389267611
Si    2.03662   2.03662  15.61412  -0.003409349414596  -0.002468382051979   0.002461240140209
Si    2.03662   4.75213  12.89863  -0.000177947575094   0.000057679755054  -0.000051969696975
Si    0.67888   6.10987   0.67888  -0.000020499705437   0.000000646004067   0.000002873366733
Si    3.39437   6.10987   3.39437  -0.000016839328464  -0.000003365072831   0.000020961440825
Si    0.67888   8.82538   3.39437  -0.000005649317465   0.000010767418683  -0.000008085317380
Si    3.39437   8.82538   0.67888  -0.000019774200842   0.000008156381753   0.000008161547197
Si    4.75213   7.46762   2.03662  -0.000000000193831  -0.000000915286731  -0.000007649098896
Si    4.75213  10.18313   4.75213   0.000003189944389  -0.000004690507258  -0.000019394798289
Si    2.03662   7.46762   4.75213   0.000010344382989   0.000007287166034  -0.000005920126084
Si    2.03662  10.18313   2.03662   0.000016273593355   0.000002743664590   0.000000287039240
Si    0.67888   6.10987   6.10987   0.000110647841422  -0.000020539255591  -0.000020570972124
Si    3.39437   6.10987   8.82538  -0.000005692630079   0.000014356965101   0.000004390015442
Si    0.67888   8.82538   8.82538   0.000105425912461   0.000008974852563   0.000008956362896
Si    3.39437   8.82538   6.10987  -0.000005686120603   0.000004377010011   0.000014361616965
Si    4.75213   7.46762   7.46762   0.000008932269346  -0.000012515395850  -0.000012515821591
Si    4.75213  10.18313  10.18313   0.000007892411425   0.000004358814589   0.000004355151791
Si    2.03662   7.46762  10.18313  -0.000061827902825  -0.000005674398356  -0.000001441722710
Si    2.03662  10.18313   7.46762  -0.000061828026635  -0.000001446413500  -0.000005685471270
Si    0.67888   6.10987  11.54087   0.000107982897600   0.000019456505717  -0.000023252873102
Si    3.39437   6.10987  14.25638  -0.000021125762683  -0.000011462244367  -0.000024502771267
Si    0.67888   8.82538  14.25638  -0.000010931471184   0.000000262796505   0.000000794406729
Si    3.39437   8.82538  11.54087  -0.000011787455887   0.000007469649752  -0.000024187943175
Si    4.75213   7.46762  12.89863   0.000009270944379  -0.000005160265670   0.000031237576894
Si    4.75213  10.18313  15.61412   0.000000018132292  -0.000001082320374   0.000005630711539
Si    2.03662   7.46762  15.61412   0.000015398874649  -0.000005635179398  -0.000003172466933
Si    2.03662  10.18313  12.89863   0.000009468246626  -0.000010176052922   0.000015932139226
Si    0.67888  11.54087   0.67888  -0.000015240876135  -0.000007926171737   0.000008177854256
Si    3.39437  11.54087   3.39437  -0.000022172893995   0.000003308808974   0.000016336573693
Si    0.67888  14.25638   3.39437   0.000432187827216  -0.000116811112474   0.000113369549309
Si    3.39437  14.25638   0.67888  -0.000189182143290   0.000191809773480  -0.000113111173634
Si    4.75213  12.89863   2.03662  -0.000016954886727   0.000024693383625   0.000054545132683
Si    4.75213  15.61412   4.75213  -0.000010895926320  -0.000064529265072  -0.000012855395522
Si    2.03662  12.89863   4.75213  -0.000177947608280  -0.000051908917627   0.000057730655816
Si    2.03662  15.61412   2.03662  -0.003409347015522   0.002461151843830  -0.002468478015295
Si    0.67888  11.54087   6.10987   0.000107965221920  -0.000023203104799   0.000019499039032
Si    3.39437  11.54087   8.82538  -0.000011776915654  -0.000024207388255   0.000007451075763
Si    0.67888  14.25638   8.82538  -0.000010765618022   0.000000804994940   0.000000224536467
Si    3.39437  14.25638   6.10987  -0.000021140130738  -0.000024595476350  -0.000011475186400
Si    4.75213  12.89863   7.46762   0.000009167726063   0.000031250393149  -0.000005144053975
Si    4.75213  15.61412  10.18313  -0.000000026964892   0.000005643914440  -0.000001086424654
Si    2.03662  12.89863  10.18313   0.000009462796034   0.000015965172602  -0.000010197366856
Si    2.03662  15.61412   7.46762   0.000015421967151  -0.000003002520120  -0.000005647589596
Si    0.67888  11.54087  11.54087   0.000112503754760   0.000011568068627   0.000011618286633
Si    3.39437  11.54087  14.25638  -0.000016813012808   0.000001363481157  -0.000022977139136
Si    0.67888  14.25638  14.25638   0.000431698278893   0.000108991328023   0.000109337675254
Si    3.39437  14.25638  11.54087  -0.000016816616085  -0.000022974063570   0.000001336512731
Si    4.75213  12.89863  12.89863   0.000015187539176   0.000008134113348   0.000008144542709
Si    4.75213  15.61412  15.61412   0.000009488385356  -0.000035695580613  -0.000035820940804
Si    2.03662  12.89863  15.61412   0.000034991248324  -0.000026407068673   0.000034369594112
Si    2.03662  15.61412  12.89863   0.000035090492438   0.000034286074185  -0.000026315323138
Si    6.10987   0.67888   0.67888  -0.000004694982681   0.000002878074517   0.000002874582612
Si    8.82538   0.67888   3.39437   0.000006440511817   0.000005524211386  -0.000008023214074
Si    6.10987   3.39437   3.39437   0.000002863810340  -0.000014376200393  -0.000014377722329
Si    8.82538   3.39437   0.67888   0.000006456132691  -0.000008018336918   0.000005508614027
Si   10.18313   2.03662   2.03662  -0.000001362630198   0.000002677018171   0.000002703730198
Si   10.18313   4.75213   4.75213   0.000000771239678  -0.000000876758988  -0.000000915801783
Si    7.46762   2.03662   4.75213   0.000000589770576   0.000011289431671   0.000004667955445
Si    7.46762   4.75213   2.03662   0.000000623465565   0.000004669826894   0.000011291343776
Si    6.10987   0.67888   6.10987  -0.000004377893603   0.000028316374880  -0.000014481449992
Si    8.82538   0.67888   8.82538   0.000006835882948   0.000008978112263   0.000008956312799
Si    6.10987   3.39437   8.82538  -0.000000579848185   0.000012231906632   0.000001087989173
Si    8.82538   3.39437   6.10987   0.000005868328112  -0.000004469908452   0.000000851703996
Si   10.18313   2.03662   7.46762  -0.000003953485476  -0.000000891043662  -0.000006381301488
Si   10.18313   4.75213  10.18313   0.000005001714998   0.000011501649520  -0.000007282898839
Si    7.46762   2.03662  10.18313  -0.000011378377466   0.000001939665572   0.000001106266534
Si    7.46762   4.75213   7.46762  -0.000003126792973   0.000004002446004  -0.000015437208489
Si    6.10987   0.67888  11.54087  -0.000005252195990  -0.000018303232919   0.000011595008113
Si    8.82538   0.67888  14.25638   0.000001156021546   0.000005506135116   0.000000732023219
Si    6.10987   3.39437  14.25638   0.000002095399420  -0.000011610825812   0.000004471843956
Si    8.82538   3.39437  11.54087   0.000012129903006  -0.000007492436454  -0.000007129358985
Si   10.18313   2.03662  12.89863   0.000003411415763  -0.000010151633082   0.000009089182584
Si   10.18313   4.75213  15.61412   0.000004302299132   0.000000909812364   0.000007273582322
Si    7.46762   2.03662  15.61412  -0.000003987805223  -0.000003805563848   0.000000066965650
Si    7.46762   4.75213  12.89863  -0.000007363694269   0.000012882473055   0.000005013941403
Si    6.10987   6.10987   0.67888  -0.000004493214462  -0.000014494732253   0.000028280667348
Si    8.82538   6.10987   3.39437   0.000005886246822   0.000000845178267  -0.000004477067940
Si    6.10987   8.82538   3.39437  -0.000000588658848   0.000001093408287   0.000012220958408
Si    8.82538   8.82538   0.67888   0.000006789780141   0.000008974800933   0.000008959558622
Si   10.18313   7.46762   2.03662  -0.000003943038994  -0.000006385434074  -0.000000908726468
Si   10.18313  10.18313   4.75213   0.000004996055264  -0.000007271187134   0.000011526011013
Si    7.46762   7.46762   4.75213  -0.000003131458075  -0.000015420514292   0.000003988555334
Si    7.46762  10.18313   2.03662  -0.000011365223577   0.000001096556131   0.000001957064175
Si    6.10987   6.10987   6.10987  -0.000003938250277   0.000003375858698   0.000003375410445
Si    8.82538   6.10987   8.82538   0.000001957528689   0.000000836525071   0.000002886036920
Si    6.10987   8.82538   8.82538  -0.000000922236914   0.000002889300973   0.000002885027843
Si    8.82538   8.82538   6.10987   0.000001947286754   0.000002859982935   0.000000831155083
Si   10.18313   7.46762   7.46762  -0.000001925948381  -0.000002007947760  -0.000002026017527
Si   10.18313  10.18313  10.18313  -0.000001050857232  -0.000000881480182  -0.000000859227099
Si    7.46762   7.46762  10.18313  -0.000003882002702  -0.000003824721966   0.000000060256224
Si    7.46762  10.18313   7.46762  -0.000003899165032   0.000000076956675  -0.000003815335719
Si    6.10987   6.10987  11.54087  -0.000003806947369   0.000003471970886  -0.000010586376581
Si    8.82538   6.10987  14.25638   0.000010271129690  -0.000001826322067  -0.000001476478409
Si    6.10987   8.82538  14.25638   0.000000287655052   0.000008916580026  -0.000015107485743
Si    8.82538   8.82538  11.54087   0.000007231896912   0.000008170092320  -0.000008122831176
Si   10.18313   7.46762  12.89863   0.000005870546959   0.000004381994465  -0.000001514768447
Si   10.18313  10.18313  15.61412  -0.000003942939599  -0.000000733737597  -0.000006221323629
Si    7.46762   7.46762  15.61412  -0.000013224794425  -0.000010072452421  -0.000010915285523
Si    7.46762  10.18313  12.89863   0.000002136193001   0.000008137233919   0.000007059908726
Si    6.10987  11.54087   0.67888  -0.000005367034443   0.000011604127930  -0.000018266113147
Si    8.82538  11.54087   3.39437   0.000012128717885  -0.000007149027045  -0.000007478955339
Si    6.10987  14.25638   3.39437   0.000002095566279   0.000004492699226  -0.000011596280883
Si    8.82538  14.25638   0.67888   0.000001188761693   0.000000736877620   0.000005538839152
Si   10.18313  12.89863   2.03662   0.000003427680491   0.000009099659226  -0.000010160658400
Si   10.18313  15.61412   4.75213   0.000004286349028   0.000007260284130   0.000000922420587
Si    7.46762  12.89863   4.75213  -0.000007363795334   0.000005065274418   0.000012896790915
Si    7.46762  15.61412   2.03662  -0.000003970368492   0.000000054894892  -0.000003824869633
Si    6.10987  11.54087   6.10987  -0.000003806869160  -0.000010592835983   0.000003459136338
Si    8.82538  11.54087   8.82538   0.000007224902078  -0.000008118496487   0.000008161081930
Si    6.10987  14.25638   8.82538   0.000000296407443  -0.000015122500963   0.000008924201239
Si    8.82538  14.25638   6.10987   0.000010272292597  -0.000001481450382  -0.000001827477247
Si   10.18313  12.89863   7.46762   0.000005876264248  -0.000001492580244   0.000004398002788
Si   10.18313  15.61412  10.18313  -0.000003953297110  -0.000006232449083  -0.000000744278064
Si    7.46762  12.89863  10.18313   0.000002158095328   0.000007029024209   0.000008144222141
Si    7.46762  15.61412   7.46762  -0.000013238070448  -0.000010916201031  -0.000010063699779
Si    6.10987  11.54087  11.54087  -0.000003064420749  -0.000006265071575  -0.000006260342280
Si    8.82538  11.54087  14.25638   0.000005867305937  -0.000004592770422   0.000000719790192
Si    6.10987  14.25638  14.25638   0.000001997173169   0.000011479682839   0.000011485525371
Si    8.82538  14.25638  11.54087   0.000005883862605   0.000000719907453  -0.000004606659009
Si   10.18313  12.89863  12.89863   0.000000773532879   0.000006660489639   0.000006691083018
Si   10.18313  15.61412  15.61412  -0.000002235939341  -0.000005565499904  -0.000005587851109
Si    7.46762  12.89863  15.61412  -0.000004661124891   0.000006359829517  -0.000018584112544
Si    7.46762  15.61412  12.89863  -0.000004677837295  -0.000018572567823   0.000006378835258
Si   11.54087   0.67888   0.67888  -0.000013432558915   0.000008148485087   0.000008152497324
Si   14.25638   0.67888   3.39437  -0.000179293285099   0.000112577164048   0.000182474405254
Si   11.54087   3.39437   3.39437  -0.000006634245293  -0.000003531361419  -0.000003555158518
Si   14.25638   3.39437   0.67888  -0.000179326400721   0.000182545340361   0.000112983745297
Si   15.61412   2.03662   2.03662  -0.003262979738750   0.002166831236253   0.002166943606972
Si   15.61412   4.75213   4.75213  -0.000180889530772  -0.000045691146663  -0.000045774812396
Si   12.89863   2.03662   4.75213  -0.000014354134318  -0.000055149625117   0.000022769835203
Si   12.89863   4.75213   2.03662  -0.000014313750271   0.000022761556389  -0.000055026484055
Si   11.54087   0.67888   6.10987  -0.000006654278252   0.000022727609269   0.000013094774867
Si   14.25638   0.67888   8.82538  -0.000011123766770   0.000002890956051   0.000002884723431
Si   11.54087   3.39437   8.82538  -0.000008754171352  -0.000024322190289   0.000007223173082
Si   14.25638   3.39437   6.10987  -0.000014138596195  -0.000031369922294   0.000011734259854
Si   15.61412   2.03662   7.46762   0.000013583543406  -0.000001250065919  -0.000000004870251
Si   15.61412   4.75213  10.18313   0.000006427092605   0.000011801941743   0.000011225274456
Si   12.89863   2.03662  10.18313   0.000004478712589   0.000009193118917   0.000001800659373
Si   12.89863   4.75213   7.46762   0.000009179947563   0.000031443528216  -0.000012888649731
Si   11.54087   0.67888  11.54087  -0.000012753791080  -0.000010875623174  -0.000022916231286
Si   14.25638   0.67888  14.25638  -0.000178476275059  -0.000102458642153  -0.000185401863070
Si   11.54087   3.39437  14.25638  -0.000000999979342   0.000008811100166  -0.000010820326764
Si   14.25638   3.39437  11.54087  -0.000013369563821  -0.000027768611221  -0.000007712326698
Si   15.61412   2.03662  12.89863   0.000029304094761   0.000040271969543   0.000029994496005
Si   15.61412   4.75213  15.61412   0.000023879710685  -0.000019099882308  -0.000047610638246
Si   12.89863   2.03662  15.61412   0.000005123521700  -0.000027794034956   0.000025945370248
Si   12.89863   4.75213  12.89863   0.000015178125691   0.000008313559438   0.000008007007004
Si   11.54087   6.10987   0.67888  -0.000006776101999   0.000013101460453   0.000022699298843
Si   14.25638   6.10987   3.39437  -0.000014122667463   0.000011720202284  -0.000031296794193
Si   11.54087   8.82538   3.39437  -0.000008763517626   0.000007242098917  -0.000024291324694
Si   14.25638   8.82538   0.67888  -0.000011040051752   0.000002889002336   0.000002886613185
Si   15.61412   7.46762   2.03662   0.000013590347262  -0.000000009303829  -0.000001438084298
Si   15.61412  10.18313   4.75213   0.000006409621897   0.000011208011375   0.000011783579055
Si   12.89863   7.46762   4.75213   0.000009279511843  -0.000012910195042   0.000031432706161
Si   12.89863  10.18313   2.03662   0.000004503840810   0.000001802461644   0.000009188002896
Si   11.54087   6.10987   6.10987  -0.000010932385852  -0.000003430341108  -0.000003419069511
Si   14.25638   6.10987   8.82538  -0.000002608750153  -0.000015200757325   0.000008670211298
Si   11.54087   8.82538   8.82538  -0.000009845921599   0.000008157078567   0.000008161187792
Si   14.25638   8.82538   6.10987  -0.000002619372687   0.000008664018261  -0.000015200073666
Si   15.61412   7.46762   7.46762  -0.000070101046142  -0.000010403639083  -0.000010379695243
Si   15.61412  10.18313  10.18313  -0.000068237426528   0.000001425739857   0.000001420256784
Si   12.89863   7.46762  10.18313   0.000003466947769   0.000001351516484  -0.000003351770831
Si   12.89863  10.18313   7.46762   0.000003484134721  -0.000003350799314   0.000001333884133
Si   11.54087   6.10987  11.54087  -0.000006663247066  -0.000002632502235   0.000000620832012
Si   14.25638   6.10987  14.25638  -0.000014260194657   0.000004840971681   0.000024889276706
Si   11.54087   8.82538  14.25638  -0.000002661891048   0.000004605137821   0.000014464958791
Si   14.25638   8.82538  11.54087  -0.000003494509913   0.000001345234762   0.000012312051439
Si   15.61412   7.46762  12.89863   0.000001142615087  -0.000018491498593  -0.000000735470427
Si   15.61412  10.18313  15.61412   0.000013573150408  -0.000003739392953  -0.000002322199972
Si   12.89863   7.46762  15.61412   0.000005539838001  -0.000009957997119  -0.000017350331598
Si   12.89863  10.18313  12.89863   0.000003203063170   0.000003064495748  -0.000019590617044
Si   11.54087  11.54087   0.67888  -0.000012857990238  -0.000022947001174  -0.000010852775201
Si   14.25638  11.54087   3.39437  -0.000013383438069  -0.000007731558188  -0.000027768751045
Si   11.54087  14.25638   3.39437  -0.000001017258173  -0.000010807338683   0.000008805474649
Si   14.25638  14.25638   0.67888  -0.000178502031178  -0.000185477986532  -0.000102862958149
Si   15.61412  12.89863   2.03662   0.000029154699208   0.000030078387704   0.000040347518957
Si   15.61412  15.61412   4.75213   0.000024045594276  -0.000047531452903  -0.000018999304546
Si   12.89863  12.89863   4.75213   0.000015177768273   0.000007999619015   0.000008314658535
Si   12.89863  15.61412   2.03662   0.000005106972615   0.000025846411075  -0.000027912051283
Si   11.54087  11.54087   6.10987  -0.000006645987129   0.000000634774465  -0.000002637087218
Si   14.25638  11.54087   8.82538  -0.000003483848650   0.000012308421806   0.000001341248597
Si   11.54087  14.25638   8.82538  -0.000002669856252   0.000014471736618   0.000004618511358
Si   14.25638  14.25638   6.10987  -0.000014247957321   0.000024884285081   0.000004826230624
Si   15.61412  12.89863   7.46762   0.000001142931625  -0.000000770678119  -0.000018518433479
Si   15.61412  15.61412  10.18313   0.000013602195545  -0.000002502728977  -0.000003751173421
Si   12.89863  12.89863  10.18313   0.000003086954120  -0.000019595268861   0.000003067269002
Si   12.89863  15.61412   7.46762   0.000005514154440  -0.000017351440178  -0.000009960465838
Si   11.54087  11.54087  11.54087  -0.000011969325834  -0.000004725890585  -0.000004741273669
Si   14.25638  11.54087  14.25638  -0.000014129923148  -0.000018837070790   0.000024172018081
Si   11.54087  14.25638  14.25638  -0.000005603512580  -0.000004634178631  -0.000004614412105
Si   14.25638  14.25638  11.54087  -0.000014143703221   0.000024253164332  -0.000018857861329
Si   15.61412  12.89863  12.89863  -0.000180894713621   0.000063663822374   0.000063711066621
Si   15.61412  15.61412  15.61412  -0.003264895472051  -0.002175708186210  -0.002175807865264
Si   12.89863  12.89863  15.61412  -0.000008187554014  -0.000010903681903   0.000045157196094
Si   12.89863  15.61412  12.89863  -0.000008244911708   0.000045255804028  -0.000010917162642
