216 

Si    0.67888   0.67888   0.67888   0.000008974336685   0.000008974336685   0.000008955832703
Si    3.39437   0.67888   3.39437  -0.000008974336614   0.000008974336519  -0.000008955833042
Si    0.67888   3.39437   3.39437   0.000008974336576  -0.000008974336879  -0.000008955832712
Si    3.39437   3.39437   0.67888  -0.000008974336452  -0.000008974336697   0.000008955832755
Si    4.75213   2.03662   2.03662   0.000007118414768   0.000000000000040   0.000000000000194
Si    4.75213   4.75213   4.75213   0.000008157318861   0.000008157318995   0.000008161418571
Si    2.03662   2.03662   4.75213  -0.000000000000881  -0.000000000000034   0.000007124879101
Si    2.03662   4.75213   2.03662  -0.000000000000623   0.000007118414898  -0.000000000000041
Si    0.67888   0.67888   6.10987   0.000002872607062   0.000002872606858   0.000000869889336
Si    3.39437   0.67888   8.82538  -0.000008157318703   0.000008157319048   0.000008161418320
Si    0.67888   3.39437   8.82538   0.000008157319203  -0.000008157318926   0.000008161418278
Si    3.39437   3.39437   6.10987  -0.000002872606507  -0.000002872606471   0.000000869889392
Si    4.75213   2.03662   7.46762   0.000002889835145   0.000000875492251  -0.000002885567228
Si    4.75213   4.75213  10.18313   0.000002872606990   0.000002872606600  -0.000000869889774
Si    2.03662   2.03662  10.18313  -0.000000000000953   0.000000000000009   0.000000000000120
Si    2.03662   4.75213   7.46762   0.000000875491508   0.000002889834893  -0.000002885567169
Si    0.67888   0.67888  11.54087   0.000008157319211   0.000008157318937  -0.000008161418463
Si    3.39437   0.67888  14.25638  -0.000002872606451   0.000002872606742  -0.000000869889310
Si    0.67888   3.39437  14.25638   0.000002872607031  -0.000002872606692  -0.000000869889562
Si    3.39437   3.39437  11.54087  -0.000008157318710  -0.000008157318767  -0.000008161418437
Si    4.75213   2.03662  12.89863   0.000002889835213  -0.000000875492273   0.000002885567107
Si    4.75213   4.75213  15.61412   0.000008974336791   0.000008974337076  -0.000008955832836
Si    2.03662   2.03662  15.61412  -0.000000000000913  -0.000000000000045  -0.000007124878900
Si    2.03662   4.75213  12.89863  -0.000000875492972   0.000002889835165   0.000002885567263
Si    0.67888   6.10987   0.67888   0.000002889835077   0.000000875492246   0.000002885567124
Si    3.39437   6.10987   3.39437  -0.000002889834730   0.000000875492135  -0.000002885567059
Si    0.67888   8.82538   3.39437   0.000008157319172   0.000008157318749  -0.000008161418268
Si    3.39437   8.82538   0.67888  -0.000008157318802   0.000008157318998   0.000008161418409
Si    4.75213   7.46762   2.03662   0.000002872606937  -0.000002872606534   0.000000869889407
Si    4.75213  10.18313   4.75213   0.000002889835224  -0.000000875492215   0.000002885567320
Si    2.03662   7.46762   4.75213   0.000000875491326  -0.000002889834929   0.000002885567230
Si    2.03662  10.18313   2.03662  -0.000000000000922   0.000000000000118  -0.000000000000154
Si    0.67888   6.10987   6.10987   0.000007118414983   0.000000000000240  -0.000000000000093
Si    3.39437   6.10987   8.82538  -0.000002889834715  -0.000000875492171   0.000002885567381
Si    0.67888   8.82538   8.82538   0.000008974336999   0.000008974336494   0.000008955832638
Si    3.39437   8.82538   6.10987  -0.000002872606569   0.000002872606459  -0.000000869889549
Si    4.75213   7.46762   7.46762   0.000008157319227  -0.000008157318739  -0.000008161418251
Si    4.75213  10.18313  10.18313   0.000007118414499  -0.000000000000133  -0.000000000000168
Si    2.03662   7.46762  10.18313  -0.000000000000860  -0.000007118414480  -0.000000000000038
Si    2.03662  10.18313   7.46762  -0.000000000000982   0.000000000000236  -0.000007124878865
Si    0.67888   6.10987  11.54087   0.000002889835469  -0.000000875492190  -0.000002885567081
Si    3.39437   6.10987  14.25638  -0.000007118414521  -0.000000000000106  -0.000000000000122
Si    0.67888   8.82538  14.25638   0.000002872606947   0.000002872606978   0.000000869889537
Si    3.39437   8.82538  11.54087  -0.000008974336306   0.000008974336675  -0.000008955832597
Si    4.75213   7.46762  12.89863   0.000008974336826  -0.000008974336558   0.000008955832793
Si    4.75213  10.18313  15.61412   0.000002889835149   0.000000875492415  -0.000002885567261
Si    2.03662   7.46762  15.61412  -0.000000875492874  -0.000002889834905  -0.000002885567190
Si    2.03662  10.18313  12.89863  -0.000000000000771  -0.000000000000226   0.000007124878788
Si    0.67888  11.54087   0.67888   0.000008157319275  -0.000008157319011   0.000008161418361
Si    3.39437  11.54087   3.39437  -0.000008157318906  -0.000008157318982  -0.000008161418292
Si    0.67888  14.25638   3.39437   0.000002889835386  -0.000000875492297  -0.000002885567356
Si    3.39437  14.25638   0.67888  -0.000002889834758  -0.000000875492361   0.000002885567223
Si    4.75213  12.89863   2.03662   0.000002872607021   0.000002872606664  -0.000000869889570
Si    4.75213  15.61412   4.75213   0.000008974336808  -0.000008974336748   0.000008955832760
Si    2.03662  12.89863   4.75213  -0.000000875493132   0.000002889834798   0.000002885567019
Si    2.03662  15.61412   2.03662  -0.000000000000857  -0.000007118414755   0.000000000000444
Si    0.67888  11.54087   6.10987   0.000002872607226  -0.000002872606886  -0.000000869889396
Si    3.39437  11.54087   8.82538  -0.000008974336276  -0.000008974336701   0.000008955832898
Si    0.67888  14.25638   8.82538   0.000002889835303   0.000000875492185   0.000002885567333
Si    3.39437  14.25638   6.10987  -0.000007118414508  -0.000000000000003  -0.000000000000018
Si    4.75213  12.89863   7.46762   0.000008974336918   0.000008974336483  -0.000008955832725
Si    4.75213  15.61412  10.18313   0.000002872606959  -0.000002872606794   0.000000869889734
Si    2.03662  12.89863  10.18313  -0.000000000000944   0.000007118414457  -0.000000000000084
Si    2.03662  15.61412   7.46762  -0.000000875493146  -0.000002889834970  -0.000002885567366
Si    0.67888  11.54087  11.54087   0.000008974336835  -0.000008974336709  -0.000008955832704
Si    3.39437  11.54087  14.25638  -0.000002872606738  -0.000002872607094   0.000000869889575
Si    0.67888  14.25638  14.25638   0.000007118414847  -0.000000000000199  -0.000000000000018
Si    3.39437  14.25638  11.54087  -0.000002889834679   0.000000875492208  -0.000002885567447
Si    4.75213  12.89863  12.89863   0.000008157319188   0.000008157318993   0.000008161418444
Si    4.75213  15.61412  15.61412   0.000008157319088  -0.000008157319029  -0.000008161418544
Si    2.03662  12.89863  15.61412   0.000000875491292   0.000002889834995  -0.000002885567332
Si    2.03662  15.61412  12.89863   0.000000875491244  -0.000002889834980   0.000002885567379
Si    6.10987   0.67888   0.67888   0.000000875491406   0.000002889834876   0.000002885567206
Si    8.82538   0.67888   3.39437   0.000008157319112   0.000008157318934  -0.000008161418361
Si    6.10987   3.39437   3.39437   0.000000875491485  -0.000002889834826  -0.000002885567331
Si    8.82538   3.39437   0.67888   0.000008157319080  -0.000008157318940   0.000008161418306
Si   10.18313   2.03662   2.03662  -0.000000000000652  -0.000000000000020   0.000000000000022
Si   10.18313   4.75213   4.75213  -0.000000875493167   0.000002889834982   0.000002885567264
Si    7.46762   2.03662   4.75213  -0.000002889834714   0.000000875492189   0.000002885567326
Si    7.46762   4.75213   2.03662  -0.000002872606410   0.000002872606831   0.000000869889697
Si    6.10987   0.67888   6.10987  -0.000000000000644   0.000007118414754   0.000000000000119
Si    8.82538   0.67888   8.82538   0.000008974336896   0.000008974336681   0.000008955832761
Si    6.10987   3.39437   8.82538  -0.000000875493042  -0.000002889834790   0.000002885567307
Si    8.82538   3.39437   6.10987   0.000002872607130  -0.000002872606731  -0.000000869889467
Si   10.18313   2.03662   7.46762  -0.000000000000813   0.000000000000259  -0.000007124878819
Si   10.18313   4.75213  10.18313  -0.000000000001020   0.000007118414572  -0.000000000000068
Si    7.46762   2.03662  10.18313  -0.000007118414389   0.000000000000005   0.000000000000002
Si    7.46762   4.75213   7.46762  -0.000008157318711   0.000008157318808  -0.000008161418225
Si    6.10987   0.67888  11.54087  -0.000000875493088   0.000002889835068  -0.000002885567426
Si    8.82538   0.67888  14.25638   0.000002872607231   0.000002872606741   0.000000869889565
Si    6.10987   3.39437  14.25638  -0.000000000000795  -0.000007118414697   0.000000000000103
Si    8.82538   3.39437  11.54087   0.000008974337257  -0.000008974336762  -0.000008955832836
Si   10.18313   2.03662  12.89863  -0.000000000001050   0.000000000000039   0.000007124878869
Si   10.18313   4.75213  15.61412   0.000000875491461   0.000002889834678  -0.000002885567337
Si    7.46762   2.03662  15.61412  -0.000002889834493  -0.000000875492241  -0.000002885567405
Si    7.46762   4.75213  12.89863  -0.000008974336755   0.000008974336720   0.000008955832499
Si    6.10987   6.10987   0.67888  -0.000000000000785  -0.000000000000011   0.000007124878709
Si    8.82538   6.10987   3.39437   0.000002889835319  -0.000000875492317  -0.000002885567297
Si    6.10987   8.82538   3.39437  -0.000000875493239   0.000002889834866  -0.000002885567267
Si    8.82538   8.82538   0.67888   0.000008974336954   0.000008974336836   0.000008955832649
Si   10.18313   7.46762   2.03662  -0.000000000000942  -0.000007118414784   0.000000000000364
Si   10.18313  10.18313   4.75213  -0.000000000001144  -0.000000000000221   0.000007124878683
Si    7.46762   7.46762   4.75213  -0.000008157318753  -0.000008157318859   0.000008161418440
Si    7.46762  10.18313   2.03662  -0.000007118414464   0.000000000000077  -0.000000000000100
Si    6.10987   6.10987   6.10987  -0.000000000000904   0.000000000000091  -0.000000000000151
Si    8.82538   6.10987   8.82538   0.000002889835319   0.000000875492091   0.000002885567370
Si    6.10987   8.82538   8.82538   0.000000875491123   0.000002889834834   0.000002885567316
Si    8.82538   8.82538   6.10987   0.000002872607014   0.000002872606790   0.000000869889303
Si   10.18313   7.46762   7.46762  -0.000000875493143  -0.000002889835149  -0.000002885567400
Si   10.18313  10.18313  10.18313  -0.000000000000887   0.000000000000109   0.000000000000145
Si    7.46762   7.46762  10.18313  -0.000002872606613  -0.000002872606804  -0.000000869889501
Si    7.46762  10.18313   7.46762  -0.000002889834660  -0.000000875492318  -0.000002885567115
Si    6.10987   6.10987  11.54087  -0.000000000000814   0.000000000000194  -0.000007124878755
Si    8.82538   6.10987  14.25638   0.000007118414897   0.000000000000090   0.000000000000068
Si    6.10987   8.82538  14.25638  -0.000000000000938   0.000007118414496  -0.000000000000134
Si    8.82538   8.82538  11.54087   0.000008157318845   0.000008157318849  -0.000008161418332
Si   10.18313   7.46762  12.89863   0.000000875491444  -0.000002889834979   0.000002885567304
Si   10.18313  10.18313  15.61412  -0.000000000000942   0.000000000000097  -0.000007124878847
Si    7.46762   7.46762  15.61412  -0.000008974336687  -0.000008974336707  -0.000008955832774
Si    7.46762  10.18313  12.89863  -0.000002889834537   0.000000875492319   0.000002885567297
Si    6.10987  11.54087   0.67888  -0.000000875493164  -0.000002889835102   0.000002885567300
Si    8.82538  11.54087   3.39437   0.000008974337156  -0.000008974336852  -0.000008955832643
Si    6.10987  14.25638   3.39437  -0.000000000000968  -0.000000000000043  -0.000007124878829
Si    8.82538  14.25638   0.67888   0.000002889835559   0.000000875492143   0.000002885567117
Si   10.18313  12.89863   2.03662  -0.000000000000778   0.000007118414626  -0.000000000000428
Si   10.18313  15.61412   4.75213   0.000000875491782  -0.000002889834868   0.000002885567176
Si    7.46762  12.89863   4.75213  -0.000008974336402   0.000008974336679   0.000008955832677
Si    7.46762  15.61412   2.03662  -0.000002872606409  -0.000002872606577  -0.000000869889462
Si    6.10987  11.54087   6.10987  -0.000000000001261  -0.000007118414653  -0.000000000000010
Si    8.82538  11.54087   8.82538   0.000008157318709  -0.000008157319107   0.000008161418462
Si    6.10987  14.25638   8.82538  -0.000000000000885   0.000000000000084   0.000007124878717
Si    8.82538  14.25638   6.10987   0.000007118414858   0.000000000000159   0.000000000000017
Si   10.18313  12.89863   7.46762   0.000000875491600   0.000002889835247  -0.000002885567272
Si   10.18313  15.61412  10.18313  -0.000000000000888  -0.000007118414346   0.000000000000037
Si    7.46762  12.89863  10.18313  -0.000002872606282   0.000002872606701   0.000000869889296
Si    7.46762  15.61412   7.46762  -0.000008974336458  -0.000008974336689  -0.000008955832543
Si    6.10987  11.54087  11.54087   0.000000875491290  -0.000002889835066  -0.000002885567187
Si    8.82538  11.54087  14.25638   0.000002872606994  -0.000002872606835  -0.000000869889474
Si    6.10987  14.25638  14.25638  -0.000000000000942  -0.000000000000221   0.000000000000145
Si    8.82538  14.25638  11.54087   0.000002889835086  -0.000000875492151  -0.000002885567082
Si   10.18313  12.89863  12.89863  -0.000000875492817   0.000002889834990   0.000002885567411
Si   10.18313  15.61412  15.61412  -0.000000875493146  -0.000002889834872  -0.000002885567188
Si    7.46762  12.89863  15.61412  -0.000008157318801   0.000008157318922  -0.000008161418253
Si    7.46762  15.61412  12.89863  -0.000008157318449  -0.000008157318803   0.000008161418218
Si   11.54087   0.67888   0.67888  -0.000008157318533   0.000008157318662   0.000008161418398
Si   14.25638   0.67888   3.39437  -0.000000875493186   0.000002889834817  -0.000002885567187
Si   11.54087   3.39437   3.39437  -0.000008157318605  -0.000008157318909  -0.000008161418342
Si   14.25638   3.39437   0.67888  -0.000000875493234  -0.000002889834982   0.000002885567335
Si   15.61412   2.03662   2.03662  -0.000007118414225   0.000000000000066  -0.000000000000091
Si   15.61412   4.75213   4.75213  -0.000008974336337   0.000008974336795   0.000008955832698
Si   12.89863   2.03662   4.75213   0.000002889834933  -0.000000875492441   0.000002885567150
Si   12.89863   4.75213   2.03662   0.000002872606758   0.000002872606437  -0.000000869889530
Si   11.54087   0.67888   6.10987  -0.000002872606593   0.000002872606825  -0.000000869889614
Si   14.25638   0.67888   8.82538   0.000000875491282   0.000002889834919   0.000002885567372
Si   11.54087   3.39437   8.82538  -0.000008974336799  -0.000008974336880   0.000008955832988
Si   14.25638   3.39437   6.10987  -0.000000000000752  -0.000007118414671   0.000000000000009
Si   15.61412   2.03662   7.46762  -0.000002889834684  -0.000000875492231  -0.000002885567272
Si   15.61412   4.75213  10.18313  -0.000002872606497   0.000002872606898   0.000000869889273
Si   12.89863   2.03662  10.18313   0.000007118414910   0.000000000000080  -0.000000000000266
Si   12.89863   4.75213   7.46762   0.000008974336976   0.000008974336963  -0.000008955832942
Si   11.54087   0.67888  11.54087  -0.000008974336672   0.000008974336545  -0.000008955832711
Si   14.25638   0.67888  14.25638  -0.000000000001058   0.000007118414242  -0.000000000000011
Si   11.54087   3.39437  14.25638  -0.000002872606449  -0.000002872606865   0.000000869889430
Si   14.25638   3.39437  11.54087   0.000000875491107  -0.000002889835006  -0.000002885567252
Si   15.61412   2.03662  12.89863  -0.000002889834580   0.000000875492208   0.000002885567377
Si   15.61412   4.75213  15.61412  -0.000008157318608   0.000008157318874  -0.000008161418127
Si   12.89863   2.03662  15.61412   0.000002889835051   0.000000875492370  -0.000002885567126
Si   12.89863   4.75213  12.89863   0.000008157319086   0.000008157318911   0.000008161418431
Si   11.54087   6.10987   0.67888  -0.000002889834501  -0.000000875492041   0.000002885567351
Si   14.25638   6.10987   3.39437  -0.000000000000877   0.000000000000036  -0.000007124878727
Si   11.54087   8.82538   3.39437  -0.000008974336492   0.000008974336848  -0.000008955832943
Si   14.25638   8.82538   0.67888   0.000000875491441   0.000002889835105   0.000002885567087
Si   15.61412   7.46762   2.03662  -0.000002872606218  -0.000002872606568  -0.000000869889310
Si   15.61412  10.18313   4.75213  -0.000002889834611   0.000000875492231   0.000002885567090
Si   12.89863   7.46762   4.75213   0.000008974337095  -0.000008974336820   0.000008955832782
Si   12.89863  10.18313   2.03662   0.000007118415010  -0.000000000000117   0.000000000000114
Si   11.54087   6.10987   6.10987  -0.000007118414520  -0.000000000000168   0.000000000000096
Si   14.25638   6.10987   8.82538  -0.000000000000774  -0.000000000000214   0.000007124878663
Si   11.54087   8.82538   8.82538  -0.000008157318620   0.000008157318917   0.000008161418163
Si   14.25638   8.82538   6.10987  -0.000000000000770   0.000007118414588   0.000000000000034
Si   15.61412   7.46762   7.46762  -0.000008974336323  -0.000008974336640  -0.000008955832700
Si   15.61412  10.18313  10.18313  -0.000007118414189   0.000000000000052   0.000000000000138
Si   12.89863   7.46762  10.18313   0.000002872606895  -0.000002872606827   0.000000869889759
Si   12.89863  10.18313   7.46762   0.000002889835197   0.000000875492252  -0.000002885567267
Si   11.54087   6.10987  11.54087  -0.000002889834813   0.000000875492038  -0.000002885567492
Si   14.25638   6.10987  14.25638  -0.000000000000899   0.000000000000110   0.000000000000101
Si   11.54087   8.82538  14.25638  -0.000002872606559   0.000002872606735  -0.000000869889317
Si   14.25638   8.82538  11.54087  -0.000000875492787   0.000002889835046  -0.000002885567459
Si   15.61412   7.46762  12.89863  -0.000008157318444  -0.000008157318877   0.000008161418244
Si   15.61412  10.18313  15.61412  -0.000002889834642  -0.000000875492320  -0.000002885567254
Si   12.89863   7.46762  15.61412   0.000008157319067  -0.000008157318949  -0.000008161418420
Si   12.89863  10.18313  12.89863   0.000002889834950  -0.000000875492091   0.000002885567494
Si   11.54087  11.54087   0.67888  -0.000008974336574  -0.000008974336244   0.000008955832732
Si   14.25638  11.54087   3.39437   0.000000875491366  -0.000002889834833  -0.000002885567318
Si   11.54087  14.25638   3.39437  -0.000002889834758   0.000000875492221  -0.000002885567232
Si   14.25638  14.25638   0.67888  -0.000000000000786   0.000000000000009   0.000007124878738
Si   15.61412  12.89863   2.03662  -0.000002872606566   0.000002872606774   0.000000869889436
Si   15.61412  15.61412   4.75213  -0.000008157318903  -0.000008157318829   0.000008161418294
Si   12.89863  12.89863   4.75213   0.000008157319225   0.000008157319082   0.000008161418255
Si   12.89863  15.61412   2.03662   0.000002872606973  -0.000002872606566   0.000000869889340
Si   11.54087  11.54087   6.10987  -0.000002872606489  -0.000002872606844   0.000000869889389
Si   14.25638  11.54087   8.82538  -0.000000875493005  -0.000002889835054   0.000002885567346
Si   11.54087  14.25638   8.82538  -0.000002889834742  -0.000000875492205   0.000002885567221
Si   14.25638  14.25638   6.10987  -0.000000000000806  -0.000000000000045  -0.000000000000108
Si   15.61412  12.89863   7.46762  -0.000008157318634   0.000008157318899  -0.000008161418380
Si   15.61412  15.61412  10.18313  -0.000002872606482  -0.000002872606745  -0.000000869889484
Si   12.89863  12.89863  10.18313   0.000002872606852   0.000002872606708  -0.000000869889412
Si   12.89863  15.61412   7.46762   0.000008157319119  -0.000008157318757  -0.000008161418415
Si   11.54087  11.54087  11.54087  -0.000008157318608  -0.000008157318806  -0.000008161418323
Si   14.25638  11.54087  14.25638  -0.000000000000642  -0.000007118414456   0.000000000000088
Si   11.54087  14.25638  14.25638  -0.000007118414513  -0.000000000000042  -0.000000000000030
Si   14.25638  14.25638  11.54087  -0.000000000000699  -0.000000000000011  -0.000007124878734
Si   15.61412  12.89863  12.89863  -0.000008974336414   0.000008974336724   0.000008955832888
Si   15.61412  15.61412  15.61412  -0.000008974336608  -0.000008974336759  -0.000008955832682
Si   12.89863  12.89863  15.61412   0.000008974336954   0.000008974336664  -0.000008955832678
Si   12.89863  15.61412  12.89863   0.000008974336960  -0.000008974336674   0.000008955833062
