216 

Si    0.67888   0.67888   0.67888   0.000006062395171   0.000006062394248   0.000006045496690
Si    3.39437   0.67888   3.39437  -0.000006062392825   0.000006062394105  -0.000006045497081
Si    0.67888   3.39437   3.39437   0.000006062395052  -0.000006062394343  -0.000006045496808
Si    3.39437   3.39437   0.67888  -0.000006062392802  -0.000006062394206   0.000006045496608
Si    4.75213   2.03662   2.03662   0.000008387534703   0.000000000000066   0.000000000000066
Si    4.75213   4.75213   4.75213   0.000004937320794   0.000004937319776   0.000004941504651
Si    2.03662   2.03662   4.75213   0.000000000000509  -0.000000000000003   0.000008392743382
Si    2.03662   4.75213   2.03662   0.000000000000699   0.000008387533812  -0.000000000000154
Si    0.67888   0.67888   6.10987   0.000002760029280   0.000002760028188   0.000000195459400
Si    3.39437   0.67888   8.82538  -0.000004937318361   0.000004937319731   0.000004941504581
Si    0.67888   3.39437   8.82538   0.000004937320919  -0.000004937319774   0.000004941504509
Si    3.39437   3.39437   6.10987  -0.000002760026706  -0.000002760027889   0.000000195459568
Si    4.75213   2.03662   7.46762   0.000002774836880   0.000000200102513  -0.000002771120220
Si    4.75213   4.75213  10.18313   0.000002760029209   0.000002760027952  -0.000000195459624
Si    2.03662   2.03662  10.18313   0.000000000000126  -0.000000000000037   0.000000000000094
Si    2.03662   4.75213   7.46762   0.000000200103017   0.000002774835532  -0.000002771119883
Si    0.67888   0.67888  11.54087   0.000004937321029   0.000004937319700  -0.000004941504668
Si    3.39437   0.67888  14.25638  -0.000002760026764   0.000002760028211  -0.000000195459255
Si    0.67888   3.39437  14.25638   0.000002760029467  -0.000002760028053  -0.000000195459600
Si    3.39437   3.39437  11.54087  -0.000004937318487  -0.000004937319578  -0.000004941504472
Si    4.75213   2.03662  12.89863   0.000002774837032  -0.000000200102520   0.000002771120026
Si    4.75213   4.75213  15.61412   0.000006062395343   0.000006062394421  -0.000006045496825
Si    2.03662   2.03662  15.61412   0.000000000000537   0.000000000000024  -0.000008392743253
Si    2.03662   4.75213  12.89863  -0.000000200101868   0.000002774835969   0.000002771120287
Si    0.67888   6.10987   0.67888   0.000002774836801   0.000000200102509   0.000002771119940
Si    3.39437   6.10987   3.39437  -0.000002774834380   0.000000200102498  -0.000002771120013
Si    0.67888   8.82538   3.39437   0.000004937320972   0.000004937319614  -0.000004941504544
Si    3.39437   8.82538   0.67888  -0.000004937318530   0.000004937319818   0.000004941504404
Si    4.75213   7.46762   2.03662   0.000002760029223  -0.000002760028070   0.000000195459350
Si    4.75213  10.18313   4.75213   0.000002774837138  -0.000000200102390   0.000002771120216
Si    2.03662   7.46762   4.75213   0.000000200102863  -0.000002774835770   0.000002771120007
Si    2.03662  10.18313   2.03662   0.000000000000184   0.000000000000098  -0.000000000000080
Si    0.67888   6.10987   6.10987   0.000008387534867   0.000000000000341  -0.000000000000087
Si    3.39437   6.10987   8.82538  -0.000002774834435  -0.000000200102579   0.000002771120204
Si    0.67888   8.82538   8.82538   0.000006062395408   0.000006062393950   0.000006045496596
Si    3.39437   8.82538   6.10987  -0.000002760026766   0.000002760027675  -0.000000195459610
Si    4.75213   7.46762   7.46762   0.000004937321160  -0.000004937319598  -0.000004941504357
Si    4.75213  10.18313  10.18313   0.000008387534522  -0.000000000000098  -0.000000000000145
Si    2.03662   7.46762  10.18313   0.000000000000478  -0.000008387533441   0.000000000000071
Si    2.03662  10.18313   7.46762   0.000000000000376   0.000000000000387  -0.000008392743051
Si    0.67888   6.10987  11.54087   0.000002774837272  -0.000000200102599  -0.000002771119914
Si    3.39437   6.10987  14.25638  -0.000008387532540  -0.000000000000208  -0.000000000000203
Si    0.67888   8.82538  14.25638   0.000002760029238   0.000002760028240   0.000000195459448
Si    3.39437   8.82538  11.54087  -0.000006062392778   0.000006062394074  -0.000006045496514
Si    4.75213   7.46762  12.89863   0.000006062395397  -0.000006062394047   0.000006045496800
Si    4.75213  10.18313  15.61412   0.000002774836925   0.000000200102632  -0.000002771120076
Si    2.03662   7.46762  15.61412  -0.000000200101782  -0.000002774835887  -0.000002771120023
Si    2.03662  10.18313  12.89863   0.000000000000619  -0.000000000000218   0.000008392743011
Si    0.67888  11.54087   0.67888   0.000004937321148  -0.000004937319765   0.000004941504649
Si    3.39437  11.54087   3.39437  -0.000004937318561  -0.000004937319612  -0.000004941504428
Si    0.67888  14.25638   3.39437   0.000002774837056  -0.000000200102514  -0.000002771120232
Si    3.39437  14.25638   0.67888  -0.000002774834498  -0.000000200102605   0.000002771120099
Si    4.75213  12.89863   2.03662   0.000002760029309   0.000002760027966  -0.000000195459559
Si    4.75213  15.61412   4.75213   0.000006062395463  -0.000006062394211   0.000006045496699
Si    2.03662  12.89863   4.75213  -0.000000200102040   0.000002774835591   0.000002771119953
Si    2.03662  15.61412   2.03662   0.000000000000486  -0.000008387533826   0.000000000000272
Si    0.67888  11.54087   6.10987   0.000002760029395  -0.000002760028049  -0.000000195459187
Si    3.39437  11.54087   8.82538  -0.000006062392638  -0.000006062394122   0.000006045496899
Si    0.67888  14.25638   8.82538   0.000002774837083   0.000000200102526   0.000002771120283
Si    3.39437  14.25638   6.10987  -0.000008387532459  -0.000000000000062   0.000000000000046
Si    4.75213  12.89863   7.46762   0.000006062395561   0.000006062393998  -0.000006045496640
Si    4.75213  15.61412  10.18313   0.000002760029207  -0.000002760028077   0.000000195459634
Si    2.03662  12.89863  10.18313   0.000000000000406   0.000008387533563  -0.000000000000037
Si    2.03662  15.61412   7.46762  -0.000000200102082  -0.000002774835760  -0.000002771120213
Si    0.67888  11.54087  11.54087   0.000006062395309  -0.000006062394161  -0.000006045496673
Si    3.39437  11.54087  14.25638  -0.000002760027038  -0.000002760028319   0.000000195459571
Si    0.67888  14.25638  14.25638   0.000008387534718  -0.000000000000211  -0.000000000000083
Si    3.39437  14.25638  11.54087  -0.000002774834423   0.000000200102506  -0.000002771120338
Si    4.75213  12.89863  12.89863   0.000004937321048   0.000004937319906   0.000004941504707
Si    4.75213  15.61412  15.61412   0.000004937320970  -0.000004937319838  -0.000004941504837
Si    2.03662  12.89863  15.61412   0.000000200103027   0.000002774835810  -0.000002771120165
Si    2.03662  15.61412  12.89863   0.000000200102779  -0.000002774835575   0.000002771120177
Si    6.10987   0.67888   0.67888   0.000000200102956   0.000002774835656   0.000002771120145
Si    8.82538   0.67888   3.39437   0.000004937320916   0.000004937319700  -0.000004941504553
Si    6.10987   3.39437   3.39437   0.000000200103164  -0.000002774835503  -0.000002771120370
Si    8.82538   3.39437   0.67888   0.000004937320742  -0.000004937319693   0.000004941504594
Si   10.18313   2.03662   2.03662   0.000000000000433   0.000000000000051   0.000000000000024
Si   10.18313   4.75213   4.75213  -0.000000200102163   0.000002774835837   0.000002771120175
Si    7.46762   2.03662   4.75213  -0.000002774834414   0.000000200102582   0.000002771120278
Si    7.46762   4.75213   2.03662  -0.000002760026761   0.000002760028137   0.000000195459737
Si    6.10987   0.67888   6.10987   0.000000000000746   0.000008387533676   0.000000000000134
Si    8.82538   0.67888   8.82538   0.000006062395393   0.000006062394086   0.000006045496669
Si    6.10987   3.39437   8.82538  -0.000000200101915  -0.000002774835749   0.000002771120297
Si    8.82538   3.39437   6.10987   0.000002760029358  -0.000002760028037  -0.000000195459422
Si   10.18313   2.03662   7.46762   0.000000000000577   0.000000000000223  -0.000008392743127
Si   10.18313   4.75213  10.18313   0.000000000000326   0.000008387533647  -0.000000000000100
Si    7.46762   2.03662  10.18313  -0.000008387532408  -0.000000000000003   0.000000000000021
Si    7.46762   4.75213   7.46762  -0.000004937318378   0.000004937319411  -0.000004941504617
Si    6.10987   0.67888  11.54087  -0.000000200101970   0.000002774835887  -0.000002771120317
Si    8.82538   0.67888  14.25638   0.000002760029381   0.000002760028063   0.000000195459443
Si    6.10987   3.39437  14.25638   0.000000000000466  -0.000008387533598   0.000000000000219
Si    8.82538   3.39437  11.54087   0.000006062395766  -0.000006062394194  -0.000006045496781
Si   10.18313   2.03662  12.89863   0.000000000000319   0.000000000000093   0.000008392743170
Si   10.18313   4.75213  15.61412   0.000000200103098   0.000002774835529  -0.000002771120225
Si    7.46762   2.03662  15.61412  -0.000002774834378  -0.000000200102633  -0.000002771120294
Si    7.46762   4.75213  12.89863  -0.000006062393174   0.000006062394172   0.000006045496608
Si    6.10987   6.10987   0.67888   0.000000000000590  -0.000000000000155   0.000008392742989
Si    8.82538   6.10987   3.39437   0.000002774837017  -0.000000200102588  -0.000002771120184
Si    6.10987   8.82538   3.39437  -0.000000200101953   0.000002774835632  -0.000002771120159
Si    8.82538   8.82538   0.67888   0.000006062395461   0.000006062394230   0.000006045496618
Si   10.18313   7.46762   2.03662   0.000000000000374  -0.000008387533729   0.000000000000311
Si   10.18313  10.18313   4.75213   0.000000000000261  -0.000000000000112   0.000008392743057
Si    7.46762   7.46762   4.75213  -0.000004937318446  -0.000004937319522   0.000004941504582
Si    7.46762  10.18313   2.03662  -0.000008387532316   0.000000000000014  -0.000000000000000
Si    6.10987   6.10987   6.10987   0.000000000000402   0.000000000000097  -0.000000000000151
Si    8.82538   6.10987   8.82538   0.000002774837164   0.000000200102509   0.000002771120486
Si    6.10987   8.82538   8.82538   0.000000200102854   0.000002774835536   0.000002771120059
Si    8.82538   8.82538   6.10987   0.000002760029317   0.000002760028180   0.000000195459249
Si   10.18313   7.46762   7.46762  -0.000000200102032  -0.000002774835970  -0.000002771120416
Si   10.18313  10.18313  10.18313   0.000000000000330   0.000000000000070  -0.000000000000007
Si    7.46762   7.46762  10.18313  -0.000002760026733  -0.000002760028102  -0.000000195459698
Si    7.46762  10.18313   7.46762  -0.000002774834383  -0.000000200102615  -0.000002771120070
Si    6.10987   6.10987  11.54087   0.000000000000453   0.000000000000211  -0.000008392742841
Si    8.82538   6.10987  14.25638   0.000008387534755   0.000000000000163   0.000000000000174
Si    6.10987   8.82538  14.25638   0.000000000000571   0.000008387533402  -0.000000000000210
Si    8.82538   8.82538  11.54087   0.000004937320646   0.000004937319529  -0.000004941504485
Si   10.18313   7.46762  12.89863   0.000000200103160  -0.000002774835787   0.000002771119984
Si   10.18313  10.18313  15.61412   0.000000000000482  -0.000000000000015  -0.000008392743118
Si    7.46762   7.46762  15.61412  -0.000006062393011  -0.000006062394290  -0.000006045496853
Si    7.46762  10.18313  12.89863  -0.000002774834358   0.000000200102638   0.000002771120244
Si    6.10987  11.54087   0.67888  -0.000000200102001  -0.000002774835723   0.000002771120141
Si    8.82538  11.54087   3.39437   0.000006062395659  -0.000006062394262  -0.000006045496600
Si    6.10987  14.25638   3.39437   0.000000000000326   0.000000000000039  -0.000008392743094
Si    8.82538  14.25638   0.67888   0.000002774837191   0.000000200102322   0.000002771119944
Si   10.18313  12.89863   2.03662   0.000000000000562   0.000008387533556  -0.000000000000137
Si   10.18313  15.61412   4.75213   0.000000200103344  -0.000002774835665   0.000002771120171
Si    7.46762  12.89863   4.75213  -0.000006062392586   0.000006062394211   0.000006045496858
Si    7.46762  15.61412   2.03662  -0.000002760026761  -0.000002760027856  -0.000000195459421
Si    6.10987  11.54087   6.10987   0.000000000000179  -0.000008387533605  -0.000000000000006
Si    8.82538  11.54087   8.82538   0.000004937320734  -0.000004937319694   0.000004941504445
Si    6.10987  14.25638   8.82538   0.000000000000403  -0.000000000000013   0.000008392743023
Si    8.82538  14.25638   6.10987   0.000008387534882   0.000000000000052  -0.000000000000020
Si   10.18313  12.89863   7.46762   0.000000200103266   0.000002774835888  -0.000002771120046
Si   10.18313  15.61412  10.18313   0.000000000000420  -0.000008387533486  -0.000000000000122
Si    7.46762  12.89863  10.18313  -0.000002760026623   0.000002760028070   0.000000195459412
Si    7.46762  15.61412   7.46762  -0.000006062392754  -0.000006062394224  -0.000006045496658
Si    6.10987  11.54087  11.54087   0.000000200103014  -0.000002774835711  -0.000002771120112
Si    8.82538  11.54087  14.25638   0.000002760029295  -0.000002760028133  -0.000000195459401
Si    6.10987  14.25638  14.25638   0.000000000000122  -0.000000000000149   0.000000000000114
Si    8.82538  14.25638  11.54087   0.000002774836812  -0.000000200102531  -0.000002771120159
Si   10.18313  12.89863  12.89863  -0.000000200101813   0.000002774835801   0.000002771120248
Si   10.18313  15.61412  15.61412  -0.000000200102189  -0.000002774835639  -0.000002771119992
Si    7.46762  12.89863  15.61412  -0.000004937318548   0.000004937319643  -0.000004941504226
Si    7.46762  15.61412  12.89863  -0.000004937318295  -0.000004937319433   0.000004941504374
Si   11.54087   0.67888   0.67888  -0.000004937318179   0.000004937319460   0.000004941504554
Si   14.25638   0.67888   3.39437  -0.000000200102135   0.000002774835662  -0.000002771120051
Si   11.54087   3.39437   3.39437  -0.000004937318272  -0.000004937319689  -0.000004941504460
Si   14.25638   3.39437   0.67888  -0.000000200102118  -0.000002774835784   0.000002771120081
Si   15.61412   2.03662   2.03662  -0.000008387532061   0.000000000000038  -0.000000000000093
Si   15.61412   4.75213   4.75213  -0.000006062392744   0.000006062394212   0.000006045496798
Si   12.89863   2.03662   4.75213   0.000002774836695  -0.000000200102739   0.000002771120133
Si   12.89863   4.75213   2.03662   0.000002760028971   0.000002760027856  -0.000000195459511
Si   11.54087   0.67888   6.10987  -0.000002760026832   0.000002760028067  -0.000000195459669
Si   14.25638   0.67888   8.82538   0.000000200103039   0.000002774835655   0.000002771120215
Si   11.54087   3.39437   8.82538  -0.000006062393206  -0.000006062394256   0.000006045496880
Si   14.25638   3.39437   6.10987   0.000000000000581  -0.000008387533688  -0.000000000000093
Si   15.61412   2.03662   7.46762  -0.000002774834379  -0.000000200102659  -0.000002771120043
Si   15.61412   4.75213  10.18313  -0.000002760026805   0.000002760028066   0.000000195459398
Si   12.89863   2.03662  10.18313   0.000008387534958   0.000000000000030  -0.000000000000196
Si   12.89863   4.75213   7.46762   0.000006062395571   0.000006062394289  -0.000006045496769
Si   11.54087   0.67888  11.54087  -0.000006062392972   0.000006062394197  -0.000006045496716
Si   14.25638   0.67888  14.25638   0.000000000000402   0.000008387533317  -0.000000000000131
Si   11.54087   3.39437  14.25638  -0.000002760026646  -0.000002760028077   0.000000195459428
Si   14.25638   3.39437  11.54087   0.000000200102864  -0.000002774835710  -0.000002771120176
Si   15.61412   2.03662  12.89863  -0.000002774834338   0.000000200102555   0.000002771120410
Si   15.61412   4.75213  15.61412  -0.000004937318319   0.000004937319514  -0.000004941504143
Si   12.89863   2.03662  15.61412   0.000002774836970   0.000000200102735  -0.000002771120011
Si   12.89863   4.75213  12.89863   0.000004937320832   0.000004937319659   0.000004941504680
Si   11.54087   6.10987   0.67888  -0.000002774834158  -0.000000200102304   0.000002771120243
Si   14.25638   6.10987   3.39437   0.000000000000399   0.000000000000079  -0.000008392743106
Si   11.54087   8.82538   3.39437  -0.000006062392978   0.000006062394228  -0.000006045496931
Si   14.25638   8.82538   0.67888   0.000000200103082   0.000002774835608   0.000002771120037
Si   15.61412   7.46762   2.03662  -0.000002760026626  -0.000002760027887  -0.000000195459450
Si   15.61412  10.18313   4.75213  -0.000002774834502   0.000000200102619   0.000002771119959
Si   12.89863   7.46762   4.75213   0.000006062395677  -0.000006062394213   0.000006045496766
Si   12.89863  10.18313   2.03662   0.000008387534957  -0.000000000000052   0.000000000000065
Si   11.54087   6.10987   6.10987  -0.000008387532638  -0.000000000000079   0.000000000000188
Si   14.25638   6.10987   8.82538   0.000000000000441  -0.000000000000155   0.000008392742914
Si   11.54087   8.82538   8.82538  -0.000004937318233   0.000004937319790   0.000004941504274
Si   14.25638   8.82538   6.10987   0.000000000000485   0.000008387533627   0.000000000000104
Si   15.61412   7.46762   7.46762  -0.000006062392760  -0.000006062394147  -0.000006045496748
Si   15.61412  10.18313  10.18313  -0.000008387532207   0.000000000000149   0.000000000000127
Si   12.89863   7.46762  10.18313   0.000002760029145  -0.000002760028197   0.000000195459738
Si   12.89863  10.18313   7.46762   0.000002774836855   0.000000200102615  -0.000002771120188
Si   11.54087   6.10987  11.54087  -0.000002774834669   0.000000200102475  -0.000002771120373
Si   14.25638   6.10987  14.25638   0.000000000000288   0.000000000000031   0.000000000000083
Si   11.54087   8.82538  14.25638  -0.000002760026833   0.000002760028005  -0.000000195459220
Si   14.25638   8.82538  11.54087  -0.000000200101656   0.000002774835814  -0.000002771120393
Si   15.61412   7.46762  12.89863  -0.000004937318174  -0.000004937319556   0.000004941504367
Si   15.61412  10.18313  15.61412  -0.000002774834533  -0.000000200102735  -0.000002771120249
Si   12.89863   7.46762  15.61412   0.000004937320784  -0.000004937319695  -0.000004941504588
Si   12.89863  10.18313  12.89863   0.000002774836633  -0.000000200102415   0.000002771120224
Si   11.54087  11.54087   0.67888  -0.000006062393015  -0.000006062393775   0.000006045496738
Si   14.25638  11.54087   3.39437   0.000000200102894  -0.000002774835555  -0.000002771120018
Si   11.54087  14.25638   3.39437  -0.000002774834446   0.000000200102421  -0.000002771120022
Si   14.25638  14.25638   0.67888   0.000000000000521  -0.000000000000038   0.000008392743100
Si   15.61412  12.89863   2.03662  -0.000002760026817   0.000002760028049   0.000000195459519
Si   15.61412  15.61412   4.75213  -0.000004937318657  -0.000004937319523   0.000004941504467
Si   12.89863  12.89863   4.75213   0.000004937321033   0.000004937319978   0.000004941504563
Si   12.89863  15.61412   2.03662   0.000002760029141  -0.000002760027874   0.000000195459393
Si   11.54087  11.54087   6.10987  -0.000002760026776  -0.000002760028172   0.000000195459556
Si   14.25638  11.54087   8.82538  -0.000000200102046  -0.000002774835826   0.000002771120225
Si   11.54087  14.25638   8.82538  -0.000002774834456  -0.000000200102636   0.000002771119963
Si   14.25638  14.25638   6.10987   0.000000000000191  -0.000000000000041   0.000000000000006
Si   15.61412  12.89863   7.46762  -0.000004937318432   0.000004937319461  -0.000004941504630
Si   15.61412  15.61412  10.18313  -0.000002760026755  -0.000002760027980  -0.000000195459542
Si   12.89863  12.89863  10.18313   0.000002760029091   0.000002760027947  -0.000000195459482
Si   12.89863  15.61412   7.46762   0.000004937320820  -0.000004937319755  -0.000004941504686
Si   11.54087  11.54087  11.54087  -0.000004937318177  -0.000004937319466  -0.000004941504490
Si   14.25638  11.54087  14.25638   0.000000000000839  -0.000008387533387   0.000000000000121
Si   11.54087  14.25638  14.25638  -0.000008387532493  -0.000000000000116  -0.000000000000118
Si   14.25638  14.25638  11.54087   0.000000000000578  -0.000000000000015  -0.000008392742993
Si   15.61412  12.89863  12.89863  -0.000006062392721   0.000006062394268   0.000006045496829
Si   15.61412  15.61412  15.61412  -0.000006062392850  -0.000006062394109  -0.000006045496859
Si   12.89863  12.89863  15.61412   0.000006062395478   0.000006062394015  -0.000006045496569
Si   12.89863  15.61412  12.89863   0.000006062395722  -0.000006062394069   0.000006045496939
