216 

Si    0.67888   0.67888   0.67888   0.000006059110475   0.000006059109291   0.000006042253015
Si    3.39437   0.67888   3.39437  -0.000006059122482   0.000006059111025  -0.000006042247851
Si    0.67888   3.39437   3.39437   0.000006059123016  -0.000006059095970  -0.000006042245371
Si    3.39437   3.39437   0.67888  -0.000006059114123  -0.000006059133719   0.000006042247620
Si    4.75213   2.03662   2.03662   0.000008422620116  -0.000000000010490  -0.000000000012760
Si    4.75213   4.75213   4.75213   0.000004926580331   0.000004926594984   0.000004930363869
Si    2.03662   2.03662   4.75213  -0.000000000014573  -0.000000000003204   0.000008428038562
Si    2.03662   4.75213   2.03662   0.000000000016978   0.000008422626827   0.000000000018676
Si    0.67888   0.67888   6.10987   0.000002760262726   0.000002760301469   0.000000197749791
Si    3.39437   0.67888   8.82538  -0.000004926583746   0.000004926607439   0.000004930380061
Si    0.67888   3.39437   8.82538   0.000004926628441  -0.000004926601202   0.000004930354535
Si    3.39437   3.39437   6.10987  -0.000002760277027  -0.000002760294310   0.000000197720402
Si    4.75213   2.03662   7.46762   0.000002775578285   0.000000201990528  -0.000002771738795
Si    4.75213   4.75213  10.18313   0.000002760257702   0.000002760285713  -0.000000197741203
Si    2.03662   2.03662  10.18313  -0.000000000010804  -0.000000000004128  -0.000000000002616
Si    2.03662   4.75213   7.46762   0.000000201962023   0.000002775575142  -0.000002771749142
Si    0.67888   0.67888  11.54087   0.000004926597557   0.000004926575787  -0.000004930380642
Si    3.39437   0.67888  14.25638  -0.000002760266892   0.000002760287215  -0.000000197743038
Si    0.67888   3.39437  14.25638   0.000002760269897  -0.000002760256246  -0.000000197750727
Si    3.39437   3.39437  11.54087  -0.000004926605918  -0.000004926609091  -0.000004930371107
Si    4.75213   2.03662  12.89863   0.000002775581511  -0.000000201970800   0.000002771734333
Si    4.75213   4.75213  15.61412   0.000006059100283   0.000006059118795  -0.000006042246645
Si    2.03662   2.03662  15.61412   0.000000000007978  -0.000000000001477  -0.000008428002662
Si    2.03662   4.75213  12.89863  -0.000000201996570   0.000002775573094   0.000002771753439
Si    0.67888   6.10987   0.67888   0.000002775565902   0.000000201979830   0.000002771740220
Si    3.39437   6.10987   3.39437  -0.000002775562337   0.000000201991201  -0.000002771791328
Si    0.67888   8.82538   3.39437   0.000004926629743   0.000004926583268  -0.000004930385559
Si    3.39437   8.82538   0.67888  -0.000004926603946   0.000004926600707   0.000004930360792
Si    4.75213   7.46762   2.03662   0.000002760273105  -0.000002760284319   0.000000197755078
Si    4.75213  10.18313   4.75213   0.000002775569493  -0.000000201957299   0.000002771731310
Si    2.03662   7.46762   4.75213   0.000000201961648  -0.000002775567054   0.000002771746745
Si    2.03662  10.18313   2.03662  -0.000000000010182  -0.000000000011669  -0.000000000007534
Si    0.67888   6.10987   6.10987   0.000008422633117   0.000000000000670   0.000000000008559
Si    3.39437   6.10987   8.82538  -0.000002775568141  -0.000000201988890   0.000002771782750
Si    0.67888   8.82538   8.82538   0.000006059123740   0.000006059124278   0.000006042232186
Si    3.39437   8.82538   6.10987  -0.000002760292126   0.000002760273815  -0.000000197725330
Si    4.75213   7.46762   7.46762   0.000004926612637  -0.000004926597839  -0.000004930370851
Si    4.75213  10.18313  10.18313   0.000008422613529  -0.000000000015013  -0.000000000016946
Si    2.03662   7.46762  10.18313  -0.000000000009533  -0.000008422634837  -0.000000000008942
Si    2.03662  10.18313   7.46762  -0.000000000004020   0.000000000026233  -0.000008428005343
Si    0.67888   6.10987  11.54087   0.000002775586215  -0.000000201995204  -0.000002771761862
Si    3.39437   6.10987  14.25638  -0.000008422633548   0.000000000010792  -0.000000000004747
Si    0.67888   8.82538  14.25638   0.000002760291960   0.000002760289451   0.000000197704531
Si    3.39437   8.82538  11.54087  -0.000006059096080   0.000006059117939  -0.000006042256308
Si    4.75213   7.46762  12.89863   0.000006059105895  -0.000006059097979   0.000006042245254
Si    4.75213  10.18313  15.61412   0.000002775552436   0.000000201982964  -0.000002771751495
Si    2.03662   7.46762  15.61412  -0.000000201975236  -0.000002775581107  -0.000002771751255
Si    2.03662  10.18313  12.89863  -0.000000000008747  -0.000000000013925   0.000008428032494
Si    0.67888  11.54087   0.67888   0.000004926601476  -0.000004926609894   0.000004930377529
Si    3.39437  11.54087   3.39437  -0.000004926603313  -0.000004926593912  -0.000004930360270
Si    0.67888  14.25638   3.39437   0.000002775584041  -0.000000201964651  -0.000002771764882
Si    3.39437  14.25638   0.67888  -0.000002775580742  -0.000000201974658   0.000002771758695
Si    4.75213  12.89863   2.03662   0.000002760290125   0.000002760260300  -0.000000197745089
Si    4.75213  15.61412   4.75213   0.000006059136538  -0.000006059101392   0.000006042252301
Si    2.03662  12.89863   4.75213  -0.000000201963394   0.000002775567786   0.000002771744849
Si    2.03662  15.61412   2.03662   0.000000000012731  -0.000008422605626   0.000000000009754
Si    0.67888  11.54087   6.10987   0.000002760283710  -0.000002760283306  -0.000000197727978
Si    3.39437  11.54087   8.82538  -0.000006059111030  -0.000006059105749   0.000006042250273
Si    0.67888  14.25638   8.82538   0.000002775575365   0.000000201982723   0.000002771779071
Si    3.39437  14.25638   6.10987  -0.000008422630676  -0.000000000000806   0.000000000017899
Si    4.75213  12.89863   7.46762   0.000006059107542   0.000006059133859  -0.000006042265160
Si    4.75213  15.61412  10.18313   0.000002760272593  -0.000002760275407   0.000000197745683
Si    2.03662  12.89863  10.18313  -0.000000000008219   0.000008422635745   0.000000000009848
Si    2.03662  15.61412   7.46762  -0.000000201973950  -0.000002775572119  -0.000002771755697
Si    0.67888  11.54087  11.54087   0.000006059108464  -0.000006059104522  -0.000006042252233
Si    3.39437  11.54087  14.25638  -0.000002760265722  -0.000002760278130   0.000000197734790
Si    0.67888  14.25638  14.25638   0.000008422599144  -0.000000000001224   0.000000000004214
Si    3.39437  14.25638  11.54087  -0.000002775570383   0.000000201981126  -0.000002771742806
Si    4.75213  12.89863  12.89863   0.000004926595743   0.000004926601384   0.000004930377218
Si    4.75213  15.61412  15.61412   0.000004926572891  -0.000004926617844  -0.000004930385556
Si    2.03662  12.89863  15.61412   0.000000201989334   0.000002775582630  -0.000002771733530
Si    2.03662  15.61412  12.89863   0.000000201985562  -0.000002775581072   0.000002771758435
Si    6.10987   0.67888   0.67888   0.000000201983972   0.000002775583134   0.000002771774775
Si    8.82538   0.67888   3.39437   0.000004926608649   0.000004926590625  -0.000004930370227
Si    6.10987   3.39437   3.39437   0.000000201978066  -0.000002775588751  -0.000002771730549
Si    8.82538   3.39437   0.67888   0.000004926620674  -0.000004926602505   0.000004930362341
Si   10.18313   2.03662   2.03662  -0.000000000007361   0.000000000007084  -0.000000000005005
Si   10.18313   4.75213   4.75213  -0.000000201966560   0.000002775570397   0.000002771741643
Si    7.46762   2.03662   4.75213  -0.000002775558457   0.000000201980136   0.000002771749459
Si    7.46762   4.75213   2.03662  -0.000002760278000   0.000002760286524   0.000000197737088
Si    6.10987   0.67888   6.10987   0.000000000011204   0.000008422606690   0.000000000003161
Si    8.82538   0.67888   8.82538   0.000006059142003   0.000006059107342   0.000006042266413
Si    6.10987   3.39437   8.82538  -0.000000201978366  -0.000002775589290   0.000002771768296
Si    8.82538   3.39437   6.10987   0.000002760297061  -0.000002760272799  -0.000000197743130
Si   10.18313   2.03662   7.46762   0.000000000009273   0.000000000004677  -0.000008428022076
Si   10.18313   4.75213  10.18313   0.000000000017367   0.000008422612658  -0.000000000026725
Si    7.46762   2.03662  10.18313  -0.000008422626892   0.000000000013721  -0.000000000010739
Si    7.46762   4.75213   7.46762  -0.000004926604502   0.000004926607548  -0.000004930378668
Si    6.10987   0.67888  11.54087  -0.000000201998802   0.000002775560246  -0.000002771735350
Si    8.82538   0.67888  14.25638   0.000002760279336   0.000002760289800   0.000000197723276
Si    6.10987   3.39437  14.25638   0.000000000019834  -0.000008422599698   0.000000000009317
Si    8.82538   3.39437  11.54087   0.000006059102897  -0.000006059111173  -0.000006042240832
Si   10.18313   2.03662  12.89863  -0.000000000016557   0.000000000003054   0.000008428031920
Si   10.18313   4.75213  15.61412   0.000000201984091   0.000002775560986  -0.000002771738893
Si    7.46762   2.03662  15.61412  -0.000002775586856  -0.000000201991784  -0.000002771762931
Si    7.46762   4.75213  12.89863  -0.000006059101263   0.000006059103733   0.000006042252689
Si    6.10987   6.10987   0.67888   0.000000000028376  -0.000000000009648   0.000008428033269
Si    8.82538   6.10987   3.39437   0.000002775584685  -0.000000201989426  -0.000002771756880
Si    6.10987   8.82538   3.39437  -0.000000201965985   0.000002775559804  -0.000002771730338
Si    8.82538   8.82538   0.67888   0.000006059118907   0.000006059085165   0.000006042254479
Si   10.18313   7.46762   2.03662  -0.000000000009972  -0.000008422602556   0.000000000006758
Si   10.18313  10.18313   4.75213   0.000000000016669   0.000000000015102   0.000008428006880
Si    7.46762   7.46762   4.75213  -0.000004926623908  -0.000004926590648   0.000004930356833
Si    7.46762  10.18313   2.03662  -0.000008422629412   0.000000000021887   0.000000000021358
Si    6.10987   6.10987   6.10987   0.000000000008783  -0.000000000022896   0.000000000001755
Si    8.82538   6.10987   8.82538   0.000002775585987   0.000000201954865   0.000002771743011
Si    6.10987   8.82538   8.82538   0.000000201973047   0.000002775571428   0.000002771746761
Si    8.82538   8.82538   6.10987   0.000002760304222   0.000002760300939   0.000000197741389
Si   10.18313   7.46762   7.46762  -0.000000201983287  -0.000002775565237  -0.000002771733474
Si   10.18313  10.18313  10.18313   0.000000000003078   0.000000000011468  -0.000000000022381
Si    7.46762   7.46762  10.18313  -0.000002760265006  -0.000002760261206  -0.000000197751467
Si    7.46762  10.18313   7.46762  -0.000002775554268  -0.000000201988536  -0.000002771746623
Si    6.10987   6.10987  11.54087   0.000000000001669  -0.000000000011723  -0.000008428026178
Si    8.82538   6.10987  14.25638   0.000008422603807  -0.000000000010278  -0.000000000000136
Si    6.10987   8.82538  14.25638  -0.000000000006706   0.000008422620843   0.000000000017393
Si    8.82538   8.82538  11.54087   0.000004926603939   0.000004926600650  -0.000004930362704
Si   10.18313   7.46762  12.89863   0.000000201994236  -0.000002775582729   0.000002771739518
Si   10.18313  10.18313  15.61412   0.000000000028226   0.000000000000790  -0.000008428027730
Si    7.46762   7.46762  15.61412  -0.000006059109977  -0.000006059109087  -0.000006042270769
Si    7.46762  10.18313  12.89863  -0.000002775560147   0.000000201996351   0.000002771741064
Si    6.10987  11.54087   0.67888  -0.000000201971587  -0.000002775554365   0.000002771733430
Si    8.82538  11.54087   3.39437   0.000006059122440  -0.000006059090357  -0.000006042245913
Si    6.10987  14.25638   3.39437  -0.000000000001137  -0.000000000001113  -0.000008428033329
Si    8.82538  14.25638   0.67888   0.000002775572867   0.000000202005169   0.000002771784310
Si   10.18313  12.89863   2.03662  -0.000000000020566   0.000008422634307  -0.000000000002583
Si   10.18313  15.61412   4.75213   0.000000201981769  -0.000002775569208   0.000002771753906
Si    7.46762  12.89863   4.75213  -0.000006059109527   0.000006059106250   0.000006042240351
Si    7.46762  15.61412   2.03662  -0.000002760283630  -0.000002760293700  -0.000000197726212
Si    6.10987  11.54087   6.10987  -0.000000000002160  -0.000008422622031   0.000000000009946
Si    8.82538  11.54087   8.82538   0.000004926610531  -0.000004926594314   0.000004930349477
Si    6.10987  14.25638   8.82538   0.000000000006252  -0.000000000025720   0.000008428015173
Si    8.82538  14.25638   6.10987   0.000008422617103   0.000000000009186  -0.000000000002478
Si   10.18313  12.89863   7.46762   0.000000201986732   0.000002775568259  -0.000002771775433
Si   10.18313  15.61412  10.18313   0.000000000006994  -0.000008422622795   0.000000000006054
Si    7.46762  12.89863  10.18313  -0.000002760279631   0.000002760269483   0.000000197731333
Si    7.46762  15.61412   7.46762  -0.000006059079066  -0.000006059121785  -0.000006042261695
Si    6.10987  11.54087  11.54087   0.000000201981801  -0.000002775538875  -0.000002771747746
Si    8.82538  11.54087  14.25638   0.000002760276874  -0.000002760272787  -0.000000197749317
Si    6.10987  14.25638  14.25638   0.000000000020092   0.000000000006971  -0.000000000014866
Si    8.82538  14.25638  11.54087   0.000002775577182  -0.000000201974525  -0.000002771751401
Si   10.18313  12.89863  12.89863  -0.000000201985820   0.000002775577982   0.000002771756002
Si   10.18313  15.61412  15.61412  -0.000000201986381  -0.000002775574340  -0.000002771748193
Si    7.46762  12.89863  15.61412  -0.000004926603555   0.000004926570855  -0.000004930373397
Si    7.46762  15.61412  12.89863  -0.000004926586803  -0.000004926598869   0.000004930379010
Si   11.54087   0.67888   0.67888  -0.000004926598698   0.000004926627748   0.000004930377511
Si   14.25638   0.67888   3.39437  -0.000000201984966   0.000002775568232  -0.000002771762323
Si   11.54087   3.39437   3.39437  -0.000004926607933  -0.000004926604688  -0.000004930382563
Si   14.25638   3.39437   0.67888  -0.000000201981719  -0.000002775554930   0.000002771733773
Si   15.61412   2.03662   2.03662  -0.000008422620271  -0.000000000001321   0.000000000005454
Si   15.61412   4.75213   4.75213  -0.000006059086478   0.000006059136281   0.000006042237104
Si   12.89863   2.03662   4.75213   0.000002775585118  -0.000000201982424   0.000002771733727
Si   12.89863   4.75213   2.03662   0.000002760272088   0.000002760290488  -0.000000197723395
Si   11.54087   0.67888   6.10987  -0.000002760266435   0.000002760290434  -0.000000197736644
Si   14.25638   0.67888   8.82538   0.000000201976716   0.000002775559927   0.000002771737047
Si   11.54087   3.39437   8.82538  -0.000006059103569  -0.000006059105898   0.000006042252506
Si   14.25638   3.39437   6.10987   0.000000000010814  -0.000008422601953   0.000000000006623
Si   15.61412   2.03662   7.46762  -0.000002775549358  -0.000000201984662  -0.000002771762185
Si   15.61412   4.75213  10.18313  -0.000002760277862   0.000002760286532   0.000000197741068
Si   12.89863   2.03662  10.18313   0.000008422622303  -0.000000000011407  -0.000000000003890
Si   12.89863   4.75213   7.46762   0.000006059128870   0.000006059104785  -0.000006042234671
Si   11.54087   0.67888  11.54087  -0.000006059136045   0.000006059091177  -0.000006042244340
Si   14.25638   0.67888  14.25638  -0.000000000002782   0.000008422629110  -0.000000000017406
Si   11.54087   3.39437  14.25638  -0.000002760260618  -0.000002760273205   0.000000197743188
Si   14.25638   3.39437  11.54087   0.000000202003978  -0.000002775572998  -0.000002771745405
Si   15.61412   2.03662  12.89863  -0.000002775567688   0.000000202004054   0.000002771748660
Si   15.61412   4.75213  15.61412  -0.000004926585910   0.000004926614338  -0.000004930368101
Si   12.89863   2.03662  15.61412   0.000002775556760   0.000000201988134  -0.000002771746696
Si   12.89863   4.75213  12.89863   0.000004926600912   0.000004926597397   0.000004930359934
Si   11.54087   6.10987   0.67888  -0.000002775566262  -0.000000201963899   0.000002771733160
Si   14.25638   6.10987   3.39437  -0.000000000018063   0.000000000002457  -0.000008428051792
Si   11.54087   8.82538   3.39437  -0.000006059098882   0.000006059124725  -0.000006042223862
Si   14.25638   8.82538   0.67888   0.000000202003085   0.000002775566422   0.000002771745237
Si   15.61412   7.46762   2.03662  -0.000002760271013  -0.000002760292305  -0.000000197719528
Si   15.61412  10.18313   4.75213  -0.000002775592799   0.000000202000823   0.000002771756056
Si   12.89863   7.46762   4.75213   0.000006059147351  -0.000006059111338   0.000006042240631
Si   12.89863  10.18313   2.03662   0.000008422644228  -0.000000000021310   0.000000000000511
Si   11.54087   6.10987   6.10987  -0.000008422630166   0.000000000023139  -0.000000000005509
Si   14.25638   6.10987   8.82538  -0.000000000006793   0.000000000008437   0.000008428034881
Si   11.54087   8.82538   8.82538  -0.000004926595465   0.000004926589875   0.000004930388305
Si   14.25638   8.82538   6.10987  -0.000000000016427   0.000008422626814  -0.000000000000743
Si   15.61412   7.46762   7.46762  -0.000006059099901  -0.000006059101464  -0.000006042246990
Si   15.61412  10.18313  10.18313  -0.000008422603433   0.000000000030193   0.000000000003498
Si   12.89863   7.46762  10.18313   0.000002760273063  -0.000002760276423   0.000000197752278
Si   12.89863  10.18313   7.46762   0.000002775583237   0.000000201981804  -0.000002771751315
Si   11.54087   6.10987  11.54087  -0.000002775541326   0.000000201990256  -0.000002771724284
Si   14.25638   6.10987  14.25638  -0.000000000000040  -0.000000000002352  -0.000000000001126
Si   11.54087   8.82538  14.25638  -0.000002760287368   0.000002760279830  -0.000000197729853
Si   14.25638   8.82538  11.54087  -0.000000201985258   0.000002775543145  -0.000002771745037
Si   15.61412   7.46762  12.89863  -0.000004926598761  -0.000004926612413   0.000004930376787
Si   15.61412  10.18313  15.61412  -0.000002775591221  -0.000000201974204  -0.000002771711333
Si   12.89863   7.46762  15.61412   0.000004926608774  -0.000004926621141  -0.000004930377641
Si   12.89863  10.18313  12.89863   0.000002775570825  -0.000000201970732   0.000002771736566
Si   11.54087  11.54087   0.67888  -0.000006059091312  -0.000006059118484   0.000006042256339
Si   14.25638  11.54087   3.39437   0.000000202000681  -0.000002775562440  -0.000002771742181
Si   11.54087  14.25638   3.39437  -0.000002775562299   0.000000201956370  -0.000002771757765
Si   14.25638  14.25638   0.67888   0.000000000013136   0.000000000007780   0.000008428036515
Si   15.61412  12.89863   2.03662  -0.000002760260987   0.000002760294431   0.000000197740552
Si   15.61412  15.61412   4.75213  -0.000004926610512  -0.000004926592587   0.000004930364440
Si   12.89863  12.89863   4.75213   0.000004926619629   0.000004926619220   0.000004930390485
Si   12.89863  15.61412   2.03662   0.000002760293718  -0.000002760282447   0.000000197714150
Si   11.54087  11.54087   6.10987  -0.000002760275061  -0.000002760292418   0.000000197761230
Si   14.25638  11.54087   8.82538  -0.000000201986220  -0.000002775570087   0.000002771738100
Si   11.54087  14.25638   8.82538  -0.000002775543852  -0.000000202011140   0.000002771742895
Si   14.25638  14.25638   6.10987   0.000000000003833  -0.000000000001789  -0.000000000009716
Si   15.61412  12.89863   7.46762  -0.000004926599339   0.000004926616345  -0.000004930351864
Si   15.61412  15.61412  10.18313  -0.000002760282527  -0.000002760265441  -0.000000197753387
Si   12.89863  12.89863  10.18313   0.000002760297609   0.000002760282391  -0.000000197732012
Si   12.89863  15.61412   7.46762   0.000004926592672  -0.000004926595814  -0.000004930371798
Si   11.54087  11.54087  11.54087  -0.000004926611879  -0.000004926623531  -0.000004930394916
Si   14.25638  11.54087  14.25638  -0.000000000000062  -0.000008422641608  -0.000000000019505
Si   11.54087  14.25638  14.25638  -0.000008422603020   0.000000000005765  -0.000000000002262
Si   14.25638  14.25638  11.54087   0.000000000029567  -0.000000000010373  -0.000008428031279
Si   15.61412  12.89863  12.89863  -0.000006059101888   0.000006059138583   0.000006042260490
Si   15.61412  15.61412  15.61412  -0.000006059107849  -0.000006059120657  -0.000006042244344
Si   12.89863  12.89863  15.61412   0.000006059114326   0.000006059105656  -0.000006042243984
Si   12.89863  15.61412  12.89863   0.000006059100890  -0.000006059092180   0.000006042254219
