300 

Si    0.00000  -0.00000  -0.00000   0.000009455478586  -0.000008764365841  -0.000008763945467
Si    1.35775   1.35775   1.35775  -0.000000103124062   0.000010145482190   0.000010129491188
Si    2.71550   2.71550   0.00000   0.000009455478691  -0.000008764366712  -0.000008763945507
Si    4.07325   4.07325   1.35775  -0.000000103123946   0.000010145481647   0.000010129491265
Si    5.43100   5.43100   0.00000   0.000009455478663  -0.000008764366857  -0.000008763945320
Si    6.78875   6.78875   1.35775  -0.000000103123998   0.000010145482037   0.000010129491439
Si    8.14650   8.14650   0.00000   0.000009455478613  -0.000008764366041  -0.000008763945166
Si    9.50425   9.50425   1.35775  -0.000000103124096   0.000010145482891   0.000010129491463
Si   10.86200  10.86200   0.00000   0.000009455478563  -0.000008764365389  -0.000008763945249
Si   12.21975  12.21975   1.35775  -0.000000103124188   0.000010145482938   0.000010129491288
Si    2.71550   0.00000   2.71550   0.000009455478416  -0.000008764365638  -0.000008763945455
Si    4.07325   1.35775   4.07325  -0.000000103124128   0.000010145482503   0.000010129491431
Si    5.43100   2.71550   2.71550   0.000009455478509  -0.000008764366379  -0.000008763945405
Si    6.78875   4.07325   4.07325  -0.000000103124163   0.000010145481906   0.000010129491509
Si    8.14650   5.43100   2.71550   0.000009455478400  -0.000008764366524  -0.000008763945318
Si    9.50425   6.78875   4.07325  -0.000000103124260   0.000010145482249   0.000010129491514
Si   10.86200   8.14650   2.71550   0.000009455478311  -0.000008764365819  -0.000008763945304
Si   12.21975   9.50425   4.07325  -0.000000103124344   0.000010145482976   0.000010129491424
Si   13.57750  10.86200   2.71550   0.000009455478276  -0.000008764365298  -0.000008763945386
Si   14.93525  12.21975   4.07325  -0.000000103124335   0.000010145483115   0.000010129491385
Si    5.43100  -0.00000   5.43100   0.000009455478384  -0.000008764365400  -0.000008763945086
Si    6.78875   1.35775   6.78875  -0.000000103124112   0.000010145482582   0.000010129491787
Si    8.14650   2.71550   5.43100   0.000009455478398  -0.000008764366276  -0.000008763945006
Si    9.50425   4.07325   6.78875  -0.000000103124180   0.000010145481809   0.000010129491793
Si   10.86200   5.43100   5.43100   0.000009455478341  -0.000008764366549  -0.000008763945028
Si   12.21975   6.78875   6.78875  -0.000000103124256   0.000010145482061   0.000010129491691
Si   13.57750   8.14650   5.43100   0.000009455478234  -0.000008764365898  -0.000008763945091
Si   14.93525   9.50425   6.78875  -0.000000103124337   0.000010145482879   0.000010129491643
Si   16.29300  10.86200   5.43100   0.000009455478227  -0.000008764365219  -0.000008763945150
Si   17.65075  12.21975   6.78875  -0.000000103124223   0.000010145483249   0.000010129491715
Si    8.14650   0.00000   8.14650   0.000009455478598  -0.000008764365494  -0.000008763944802
Si    9.50425   1.35775   9.50425  -0.000000103123953   0.000010145482320   0.000010129491743
Si   10.86200   2.71550   8.14650   0.000009455478571  -0.000008764366517  -0.000008763944878
Si   12.21975   4.07325   9.50425  -0.000000103123995   0.000010145481493   0.000010129491621
Si   13.57750   5.43100   8.14650   0.000009455478486  -0.000008764366869  -0.000008763944951
Si   14.93525   6.78875   9.50425  -0.000000103124064   0.000010145481740   0.000010129491622
Si   16.29300   8.14650   8.14650   0.000009455478380  -0.000008764366151  -0.000008763944931
Si   17.65075   9.50425   9.50425  -0.000000103124043   0.000010145482731   0.000010129491764
Si   19.00850  10.86200   8.14650   0.000009455478505  -0.000008764365262  -0.000008763944849
Si   20.36625  12.21975   9.50425  -0.000000103123922   0.000010145483158   0.000010129491844
Si   10.86200   0.00000  10.86200   0.000009455478722  -0.000008764365777  -0.000008763945064
Si   12.21975   1.35775  12.21975  -0.000000103123949   0.000010145482053   0.000010129491357
Si   13.57750   2.71550  10.86200   0.000009455478705  -0.000008764366797  -0.000008763945255
Si   14.93525   4.07325  12.21975  -0.000000103123862   0.000010145481369   0.000010129491302
Si   16.29300   5.43100  10.86200   0.000009455478684  -0.000008764367064  -0.000008763945170
Si   17.65075   6.78875  12.21975  -0.000000103123855   0.000010145481742   0.000010129491539
Si   19.00850   8.14650  10.86200   0.000009455478681  -0.000008764366249  -0.000008763944943
Si   20.36625   9.50425  12.21975  -0.000000103123846   0.000010145482739   0.000010129491728
Si   21.72400  10.86200  10.86200   0.000009455478773  -0.000008764365384  -0.000008763944871
Si   23.08175  12.21975  12.21975  -0.000000103123901   0.000010145482943   0.000010129491597
Si    0.00000   2.71550   2.71550   0.000005214160982   0.000007339556650   0.000007327681516
Si    1.35775   4.07325   4.07325   0.000005728746691   0.000003543604795   0.000003553536296
Si    2.71550   5.43100   2.71550   0.000005214161177   0.000007339556624   0.000007327681640
Si    4.07325   6.78875   4.07325   0.000005728746734   0.000003543605167   0.000003553536300
Si    5.43100   8.14650   2.71550   0.000005214161158   0.000007339557378   0.000007327681659
Si    6.78875   9.50425   4.07325   0.000005728746628   0.000003543605934   0.000003553536193
Si    8.14650  10.86200   2.71550   0.000005214161018   0.000007339557939   0.000007327681585
Si    9.50425  12.21975   4.07325   0.000005728746497   0.000003543606038   0.000003553536066
Si   10.86200  13.57750   2.71550   0.000005214160863   0.000007339557456   0.000007327681498
Si   12.21975  14.93525   4.07325   0.000005728746491   0.000003543605282   0.000003553536129
Si    2.71550   2.71550   5.43100   0.000005214160851   0.000007339557096   0.000007327681838
Si    4.07325   4.07325   6.78875   0.000005728746462   0.000003543605129   0.000003553536423
Si    5.43100   5.43100   5.43100   0.000005214160840   0.000007339556903   0.000007327681842
Si    6.78875   6.78875   6.78875   0.000005728746348   0.000003543605323   0.000003553536293
Si    8.14650   8.14650   5.43100   0.000005214160771   0.000007339557534   0.000007327681661
Si    9.50425   9.50425   6.78875   0.000005728746314   0.000003543606059   0.000003553536088
Si   10.86200  10.86200   5.43100   0.000005214160694   0.000007339558051   0.000007327681591
Si   12.21975  12.21975   6.78875   0.000005728746314   0.000003543606265   0.000003553536116
Si   13.57750  13.57750   5.43100   0.000005214160700   0.000007339557741   0.000007327681677
Si   14.93525  14.93525   6.78875   0.000005728746420   0.000003543605708   0.000003553536334
Si    5.43100   2.71550   8.14650   0.000005214160761   0.000007339557219   0.000007327681837
Si    6.78875   4.07325   9.50425   0.000005728746371   0.000003543604998   0.000003553536082
Si    8.14650   5.43100   8.14650   0.000005214160698   0.000007339556832   0.000007327681707
Si    9.50425   6.78875   9.50425   0.000005728746324   0.000003543605109   0.000003553535927
Si   10.86200   8.14650   8.14650   0.000005214160698   0.000007339557435   0.000007327681525
Si   12.21975   9.50425   9.50425   0.000005728746383   0.000003543605950   0.000003553535849
Si   13.57750  10.86200   8.14650   0.000005214160677   0.000007339558118   0.000007327681547
Si   14.93525  12.21975   9.50425   0.000005728746454   0.000003543606374   0.000003553535986
Si   16.29300  13.57750   8.14650   0.000005214160769   0.000007339558015   0.000007327681720
Si   17.65075  14.93525   9.50425   0.000005728746511   0.000003543605821   0.000003553536126
Si    8.14650   2.71550  10.86200   0.000005214160890   0.000007339556856   0.000007327681503
Si    9.50425   4.07325  12.21975   0.000005728746544   0.000003543604564   0.000003553535763
Si   10.86200   5.43100  10.86200   0.000005214160844   0.000007339556497   0.000007327681318
Si   12.21975   6.78875  12.21975   0.000005728746630   0.000003543604829   0.000003553535697
Si   13.57750   8.14650  10.86200   0.000005214160936   0.000007339557209   0.000007327681310
Si   14.93525   9.50425  12.21975   0.000005728746785   0.000003543605782   0.000003553535842
Si   16.29300  10.86200  10.86200   0.000005214161003   0.000007339558009   0.000007327681494
Si   17.65075  12.21975  12.21975   0.000005728746847   0.000003543606183   0.000003553535984
Si   19.00850  13.57750  10.86200   0.000005214161060   0.000007339557860   0.000007327681598
Si   20.36625  14.93525  12.21975   0.000005728746699   0.000003543605444   0.000003553535917
Si   10.86200   2.71550  13.57750   0.000005214160977   0.000007339556507   0.000007327681331
Si   12.21975   4.07325  14.93525   0.000005728746717   0.000003543604417   0.000003553535899
Si   13.57750   5.43100  13.57750   0.000005214161153   0.000007339556331   0.000007327681294
Si   14.93525   6.78875  14.93525   0.000005728746962   0.000003543604862   0.000003553536013
Si   16.29300   8.14650  13.57750   0.000005214161273   0.000007339557118   0.000007327681481
Si   17.65075   9.50425  14.93525   0.000005728747025   0.000003543605753   0.000003553536144
Si   19.00850  10.86200  13.57750   0.000005214161294   0.000007339557874   0.000007327681604
Si   20.36625  12.21975  14.93525   0.000005728746886   0.000003543605970   0.000003553536083
Si   21.72400  13.57750  13.57750   0.000005214161135   0.000007339557510   0.000007327681523
Si   23.08175  14.93525  14.93525   0.000005728746653   0.000003543605079   0.000003553535923
Si    0.00000   5.43100   5.43100   0.000012729718962  -0.000004486791261  -0.000004474702474
Si    1.35775   6.78875   6.78875  -0.000003128588617   0.000006967389981   0.000006972811215
Si    2.71550   8.14650   5.43100   0.000012729719077  -0.000004486790563  -0.000004474702536
Si    4.07325   9.50425   6.78875  -0.000003128588689   0.000006967390723   0.000006972810980
Si    5.43100  10.86200   5.43100   0.000012729718945  -0.000004486789940  -0.000004474702768
Si    6.78875  12.21975   6.78875  -0.000003128588785   0.000006967390989   0.000006972810808
Si    8.14650  13.57750   5.43100   0.000012729718772  -0.000004486790254  -0.000004474702815
Si    9.50425  14.93525   6.78875  -0.000003128588862   0.000006967390362   0.000006972810955
Si   10.86200  16.29300   5.43100   0.000012729718711  -0.000004486791093  -0.000004474702613
Si   12.21975  17.65075   6.78875  -0.000003128588772   0.000006967389722   0.000006972811208
Si    2.71550   5.43100   8.14650   0.000012729718550  -0.000004486790787  -0.000004474702613
Si    4.07325   6.78875   9.50425  -0.000003128589184   0.000006967390247   0.000006972810514
Si    5.43100   8.14650   8.14650   0.000012729718460  -0.000004486790283  -0.000004474702868
Si    6.78875   9.50425   9.50425  -0.000003128589227   0.000006967390977   0.000006972810282
Si    8.14650  10.86200   8.14650   0.000012729718417  -0.000004486789614  -0.000004474703060
Si    9.50425  12.21975   9.50425  -0.000003128589155   0.000006967391422   0.000006972810253
Si   10.86200  13.57750   8.14650   0.000012729718400  -0.000004486789769  -0.000004474702920
Si   12.21975  14.93525   9.50425  -0.000003128589121   0.000006967390925   0.000006972810469
Si   13.57750  16.29300   8.14650   0.000012729718486  -0.000004486790495  -0.000004474702651
Si   14.93525  17.65075   9.50425  -0.000003128589064   0.000006967390230   0.000006972810622
Si    5.43100   5.43100  10.86200   0.000012729718303  -0.000004486790877  -0.000004474703392
Si    6.78875   6.78875  12.21975  -0.000003128589268   0.000006967390041   0.000006972809762
Si    8.14650   8.14650  10.86200   0.000012729718296  -0.000004486790353  -0.000004474703589
Si    9.50425   9.50425  12.21975  -0.000003128589126   0.000006967390928   0.000006972809682
Si   10.86200  10.86200  10.86200   0.000012729718430  -0.000004486789510  -0.000004474703603
Si   12.21975  12.21975  12.21975  -0.000003128589000   0.000006967391444   0.000006972809753
Si   13.57750  13.57750  10.86200   0.000012729718479  -0.000004486789555  -0.000004474703449
Si   14.93525  14.93525  12.21975  -0.000003128588955   0.000006967390940   0.000006972809855
Si   16.29300  16.29300  10.86200   0.000012729718459  -0.000004486790344  -0.000004474703297
Si   17.65075  17.65075  12.21975  -0.000003128589105   0.000006967390084   0.000006972809874
Si    8.14650   5.43100  13.57750   0.000012729718564  -0.000004486791382  -0.000004474703670
Si    9.50425   6.78875  14.93525  -0.000003128588808   0.000006967389649   0.000006972809989
Si   10.86200   8.14650  13.57750   0.000012729718730  -0.000004486790640  -0.000004474703701
Si   12.21975   9.50425  14.93525  -0.000003128588549   0.000006967390632   0.000006972810041
Si   13.57750  10.86200  13.57750   0.000012729718954  -0.000004486789797  -0.000004474703605
Si   14.93525  12.21975  14.93525  -0.000003128588413   0.000006967391034   0.000006972810115
Si   16.29300  13.57750  13.57750   0.000012729718972  -0.000004486789924  -0.000004474703487
Si   17.65075  14.93525  14.93525  -0.000003128588533   0.000006967390370   0.000006972810082
Si   19.00850  16.29300  13.57750   0.000012729718769  -0.000004486790879  -0.000004474703539
Si   20.36625  17.65075  14.93525  -0.000003128588837   0.000006967389487   0.000006972809997
Si   10.86200   5.43100  16.29300   0.000012729718930  -0.000004486791616  -0.000004474703101
Si   12.21975   6.78875  17.65075  -0.000003128588405   0.000006967389593   0.000006972810855
Si   13.57750   8.14650  16.29300   0.000012729719251  -0.000004486790800  -0.000004474703039
Si   14.93525   9.50425  17.65075  -0.000003128588180   0.000006967390492   0.000006972810846
Si   16.29300  10.86200  16.29300   0.000012729719342  -0.000004486790080  -0.000004474703014
Si   17.65075  12.21975  17.65075  -0.000003128588267   0.000006967390715   0.000006972810751
Si   19.00850  13.57750  16.29300   0.000012729719172  -0.000004486790370  -0.000004474703108
Si   20.36625  14.93525  17.65075  -0.000003128588510   0.000006967389986   0.000006972810674
Si   21.72400  16.29300  16.29300   0.000012729718892  -0.000004486791355  -0.000004474703147
Si   23.08175  17.65075  17.65075  -0.000003128588655   0.000006967389250   0.000006972810760
Si    0.00000   8.14650   8.14650   0.000009455478476  -0.000008764366048  -0.000008763943860
Si    1.35775   9.50425   9.50425  -0.000000103124298   0.000010145482798   0.000010129492424
Si    2.71550  10.86200   8.14650   0.000009455478467  -0.000008764365290  -0.000008763944154
Si    4.07325  12.21975   9.50425  -0.000000103124359   0.000010145483398   0.000010129492248
Si    5.43100  13.57750   8.14650   0.000009455478248  -0.000008764365239  -0.000008763944157
Si    6.78875  14.93525   9.50425  -0.000000103124500   0.000010145483069   0.000010129492384
Si    8.14650  16.29300   8.14650   0.000009455478060  -0.000008764366063  -0.000008763943885
Si    9.50425  17.65075   9.50425  -0.000000103124577   0.000010145482187   0.000010129492679
Si   10.86200  19.00850   8.14650   0.000009455478208  -0.000008764366544  -0.000008763943725
Si   12.21975  20.36625   9.50425  -0.000000103124392   0.000010145482103   0.000010129492730
Si    2.71550   8.14650  10.86200   0.000009455477808  -0.000008764365672  -0.000008763944956
Si    4.07325   9.50425  12.21975  -0.000000103124937   0.000010145483193   0.000010129491262
Si    5.43100  10.86200  10.86200   0.000009455477751  -0.000008764364852  -0.000008763945156
Si    6.78875  12.21975  12.21975  -0.000000103124891   0.000010145483937   0.000010129491230
Si    8.14650  13.57750  10.86200   0.000009455477743  -0.000008764364650  -0.000008763945039
Si    9.50425  14.93525  12.21975  -0.000000103124930   0.000010145483627   0.000010129491393
Si   10.86200  16.29300  10.86200   0.000009455477681  -0.000008764365415  -0.000008763944773
Si   12.21975  17.65075  12.21975  -0.000000103124960   0.000010145482746   0.000010129491533
Si   13.57750  19.00850  10.86200   0.000009455477774  -0.000008764365991  -0.000008763944733
Si   14.93525  20.36625  12.21975  -0.000000103124936   0.000010145482533   0.000010129491468
Si    5.43100   8.14650  13.57750   0.000009455477525  -0.000008764365646  -0.000008763945628
Si    6.78875   9.50425  14.93525  -0.000000103124955   0.000010145483212   0.000010129491104
Si    8.14650  10.86200  13.57750   0.000009455477719  -0.000008764364680  -0.000008763945687
Si    9.50425  12.21975  14.93525  -0.000000103124781   0.000010145483968   0.000010129491090
Si   10.86200  13.57750  13.57750   0.000009455477752  -0.000008764364504  -0.000008763945573
Si   12.21975  14.93525  14.93525  -0.000000103124810   0.000010145483577   0.000010129491190
Si   13.57750  16.29300  13.57750   0.000009455477702  -0.000008764365302  -0.000008763945443
Si   14.93525  17.65075  14.93525  -0.000000103124888   0.000010145482666   0.000010129491257
Si   16.29300  19.00850  13.57750   0.000009455477618  -0.000008764365953  -0.000008763945489
Si   17.65075  20.36625  14.93525  -0.000000103125021   0.000010145482434   0.000010129491183
Si    8.14650   8.14650  16.29300   0.000009455477970  -0.000008764365974  -0.000008763945095
Si    9.50425   9.50425  17.65075  -0.000000103124355   0.000010145482863   0.000010129492021
Si   10.86200  10.86200  16.29300   0.000009455478247  -0.000008764365019  -0.000008763945101
Si   12.21975  12.21975  17.65075  -0.000000103124146   0.000010145483466   0.000010129492006
Si   13.57750  13.57750  16.29300   0.000009455478298  -0.000008764365006  -0.000008763945021
Si   14.93525  14.93525  17.65075  -0.000000103124221   0.000010145482975   0.000010129492085
Si   16.29300  16.29300  16.29300   0.000009455478125  -0.000008764365865  -0.000008763944962
Si   17.65075  17.65075  17.65075  -0.000000103124510   0.000010145482055   0.000010129492138
Si   19.00850  19.00850  16.29300   0.000009455477887  -0.000008764366484  -0.000008763945000
Si   20.36625  20.36625  17.65075  -0.000000103124653   0.000010145481945   0.000010129492110
Si   10.86200   8.14650  19.00850   0.000009455478553  -0.000008764366254  -0.000008763944018
Si   12.21975   9.50425  20.36625  -0.000000103123897   0.000010145482586   0.000010129492925
Si   13.57750  10.86200  19.00850   0.000009455478805  -0.000008764365418  -0.000008763944119
Si   14.93525  12.21975  20.36625  -0.000000103123839   0.000010145483110   0.000010129492768
Si   16.29300  13.57750  19.00850   0.000009455478647  -0.000008764365467  -0.000008763944135
Si   17.65075  14.93525  20.36625  -0.000000103124097   0.000010145482640   0.000010129492826
Si   19.00850  16.29300  19.00850   0.000009455478313  -0.000008764366329  -0.000008763944052
Si   20.36625  17.65075  20.36625  -0.000000103124348   0.000010145481749   0.000010129493002
Si   21.72400  19.00850  19.00850   0.000009455478231  -0.000008764366875  -0.000008763943963
Si   23.08175  20.36625  20.36625  -0.000000103124258   0.000010145481709   0.000010129493085
Si    0.00000  10.86200  10.86200   0.000005214161035   0.000007339557792   0.000007327682107
Si    1.35775  12.21975  12.21975   0.000005728746625   0.000003543606242   0.000003553536033
Si    2.71550  13.57750  10.86200   0.000005214160915   0.000007339558204   0.000007327682010
Si    4.07325  14.93525  12.21975   0.000005728746550   0.000003543606241   0.000003553536027
Si    5.43100  16.29300  10.86200   0.000005214160699   0.000007339557575   0.000007327682244
Si    6.78875  17.65075  12.21975   0.000005728746326   0.000003543605280   0.000003553536260
Si    8.14650  19.00850  10.86200   0.000005214160614   0.000007339556707   0.000007327682448
Si    9.50425  20.36625  12.21975   0.000005728746347   0.000003543604751   0.000003553536420
Si   10.86200  21.72400  10.86200   0.000005214160846   0.000007339556864   0.000007327682361
Si   12.21975  23.08175  12.21975   0.000005728746575   0.000003543605394   0.000003553536274
Si    2.71550  10.86200  13.57750   0.000005214160340   0.000007339558279   0.000007327681113
Si    4.07325  12.21975  14.93525   0.000005728746032   0.000003543606764   0.000003553535447
Si    5.43100  13.57750  13.57750   0.000005214160346   0.000007339558770   0.000007327681081
Si    6.78875  14.93525  14.93525   0.000005728746051   0.000003543606739   0.000003553535440
Si    8.14650  16.29300  13.57750   0.000005214160215   0.000007339558127   0.000007327681271
Si    9.50425  17.65075  14.93525   0.000005728745867   0.000003543605812   0.000003553535622
Si   10.86200  19.00850  13.57750   0.000005214160147   0.000007339557321   0.000007327681400
Si   12.21975  20.36625  14.93525   0.000005728745866   0.000003543605338   0.000003553535726
Si   13.57750  21.72400  13.57750   0.000005214160258   0.000007339557448   0.000007327681302
Si   14.93525  23.08175  14.93525   0.000005728745936   0.000003543605901   0.000003553535617
Si    5.43100  10.86200  16.29300   0.000005214160076   0.000007339558519   0.000007327681165
Si    6.78875  12.21975  17.65075   0.000005728745962   0.000003543606848   0.000003553535820
Si    8.14650  13.57750  16.29300   0.000005214160228   0.000007339558977   0.000007327681143
Si    9.50425  14.93525  17.65075   0.000005728746043   0.000003543606767   0.000003553535839
Si   10.86200  16.29300  16.29300   0.000005214160106   0.000007339558282   0.000007327681315
Si   12.21975  17.65075  17.65075   0.000005728745905   0.000003543605858   0.000003553536069
Si   13.57750  19.00850  16.29300   0.000005214160001   0.000007339557490   0.000007327681409
Si   14.93525  20.36625  17.65075   0.000005728745783   0.000003543605380   0.000003553536143
Si   16.29300  21.72400  16.29300   0.000005214159969   0.000007339557607   0.000007327681321
Si   17.65075  23.08175  17.65075   0.000005728745776   0.000003543605948   0.000003553536013
Si    8.14650  10.86200  19.00850   0.000005214160598   0.000007339558151   0.000007327682098
Si    9.50425  12.21975  20.36625   0.000005728746592   0.000003543606403   0.000003553536737
Si   10.86200  13.57750  19.00850   0.000005214160735   0.000007339558513   0.000007327682104
Si   12.21975  14.93525  20.36625   0.000005728746647   0.000003543606271   0.000003553536806
Si   13.57750  16.29300  19.00850   0.000005214160572   0.000007339557820   0.000007327682295
Si   14.93525  17.65075  20.36625   0.000005728746393   0.000003543605335   0.000003553537010
Si   16.29300  19.00850  19.00850   0.000005214160330   0.000007339557021   0.000007327682401
Si   17.65075  20.36625  20.36625   0.000005728746134   0.000003543604825   0.000003553537047
Si   19.00850  21.72400  19.00850   0.000005214160293   0.000007339557175   0.000007327682297
Si   20.36625  23.08175  20.36625   0.000005728746243   0.000003543605477   0.000003553536896
Si   10.86200  10.86200  21.72400   0.000005214161220   0.000007339557673   0.000007327682781
Si   12.21975  12.21975  23.08175   0.000005728747039   0.000003543605994   0.000003553536934
Si   13.57750  13.57750  21.72400   0.000005214161229   0.000007339558047   0.000007327682706
Si   14.93525  14.93525  23.08175   0.000005728746946   0.000003543605901   0.000003553536946
Si   16.29300  16.29300  21.72400   0.000005214160947   0.000007339557361   0.000007327682885
Si   17.65075  17.65075  23.08175   0.000005728746624   0.000003543604956   0.000003553537138
Si   19.00850  19.00850  21.72400   0.000005214160703   0.000007339556521   0.000007327683048
Si   20.36625  20.36625  23.08175   0.000005728746484   0.000003543604430   0.000003553537289
Si   21.72400  21.72400  21.72400   0.000005214160864   0.000007339556692   0.000007327682986
Si   23.08175  23.08175  23.08175   0.000005728746783   0.000003543605113   0.000003553537166
Si    0.00000  13.57750  13.57750   0.000012729719184  -0.000004486789990  -0.000004474703526
Si    1.35775  14.93525  14.93525  -0.000003128588366   0.000006967390704   0.000006972809648
Si    2.71550  16.29300  13.57750   0.000012729719145  -0.000004486790489  -0.000004474703607
Si    4.07325  17.65075  14.93525  -0.000003128588368   0.000006967389881   0.000006972809617
Si    5.43100  19.00850  13.57750   0.000012729719021  -0.000004486791451  -0.000004474703456
Si    6.78875  20.36625  14.93525  -0.000003128588457   0.000006967389219   0.000006972809827
Si    8.14650  21.72400  13.57750   0.000012729718986  -0.000004486791556  -0.000004474703286
Si    9.50425  23.08175  14.93525  -0.000003128588443   0.000006967389697   0.000006972809979
Si   10.86200  24.43950  13.57750   0.000012729719136  -0.000004486790629  -0.000004474703324
Si   12.21975  25.79725  14.93525  -0.000003128588384   0.000006967390615   0.000006972809840
Si    2.71550  13.57750  16.29300   0.000012729718707  -0.000004486789641  -0.000004474703947
Si    4.07325  14.93525  17.65075  -0.000003128588736   0.000006967391065   0.000006972809556
Si    5.43100  16.29300  16.29300   0.000012729718745  -0.000004486790094  -0.000004474703983
Si    6.78875  17.65075  17.65075  -0.000003128588719   0.000006967390299   0.000006972809612
Si    8.14650  19.00850  16.29300   0.000012729718603  -0.000004486790986  -0.000004474703819
Si    9.50425  20.36625  17.65075  -0.000003128588824   0.000006967389681   0.000006972809795
Si   10.86200  21.72400  16.29300   0.000012729718561  -0.000004486791025  -0.000004474703711
Si   12.21975  23.08175  17.65075  -0.000003128588867   0.000006967390111   0.000006972809837
Si   13.57750  24.43950  16.29300   0.000012729718624  -0.000004486790230  -0.000004474703785
Si   14.93525  25.79725  17.65075  -0.000003128588836   0.000006967390914   0.000006972809694
Si    5.43100  13.57750  19.00850   0.000012729718563  -0.000004486789482  -0.000004474703636
Si    6.78875  14.93525  20.36625  -0.000003128588721   0.000006967391153   0.000006972810076
Si    8.14650  16.29300  19.00850   0.000012729718603  -0.000004486789892  -0.000004474703573
Si    9.50425  17.65075  20.36625  -0.000003128588701   0.000006967390361   0.000006972810225
Si   10.86200  19.00850  19.00850   0.000012729718498  -0.000004486790797  -0.000004474703383
Si   12.21975  20.36625  20.36625  -0.000003128588840   0.000006967389698   0.000006972810372
Si   13.57750  21.72400  19.00850   0.000012729718425  -0.000004486790893  -0.000004474703324
Si   14.93525  23.08175  20.36625  -0.000003128588961   0.000006967390049   0.000006972810304
Si   16.29300  24.43950  19.00850   0.000012729718420  -0.000004486790136  -0.000004474703463
Si   17.65075  25.79725  20.36625  -0.000003128588920   0.000006967390922   0.000006972810135
Si    8.14650  13.57750  21.72400   0.000012729718979  -0.000004486789722  -0.000004474702885
Si    9.50425  14.93525  23.08175  -0.000003128588240   0.000006967390864   0.000006972810596
Si   10.86200  16.29300  21.72400   0.000012729718995  -0.000004486790207  -0.000004474702779
Si   12.21975  17.65075  23.08175  -0.000003128588319   0.000006967389987   0.000006972810665
Si   13.57750  19.00850  21.72400   0.000012729718834  -0.000004486791135  -0.000004474702646
Si   14.93525  20.36625  23.08175  -0.000003128588548   0.000006967389226   0.000006972810719
Si   16.29300  21.72400  21.72400   0.000012729718645  -0.000004486791329  -0.000004474702669
Si   17.65075  23.08175  23.08175  -0.000003128588696   0.000006967389586   0.000006972810706
Si   19.00850  24.43950  21.72400   0.000012729718733  -0.000004486790480  -0.000004474702829
Si   20.36625  25.79725  23.08175  -0.000003128588464   0.000006967390612   0.000006972810610
Si   10.86200  13.57750  24.43950   0.000012729719410  -0.000004486790053  -0.000004474702807
Si   12.21975  14.93525  25.79725  -0.000003128588033   0.000006967390577   0.000006972810280
Si   13.57750  16.29300  24.43950   0.000012729719309  -0.000004486790556  -0.000004474702837
Si   14.93525  17.65075  25.79725  -0.000003128588152   0.000006967389683   0.000006972810212
Si   16.29300  19.00850  24.43950   0.000012729719124  -0.000004486791570  -0.000004474702739
Si   17.65075  20.36625  25.79725  -0.000003128588327   0.000006967388930   0.000006972810345
Si   19.00850  21.72400  24.43950   0.000012729719024  -0.000004486791776  -0.000004474702644
Si   20.36625  23.08175  25.79725  -0.000003128588309   0.000006967389336   0.000006972810515
Si   21.72400  24.43950  24.43950   0.000012729719251  -0.000004486790817  -0.000004474702704
Si   23.08175  25.79725  25.79725  -0.000003128588081   0.000006967390393   0.000006972810431
