216 

Si    0.72888   0.67888   0.67888   0.013631496582774   0.000002001538221   0.000002001680842
Si    3.39437   0.67888   3.39437  -0.000195061765859   0.000124669227260  -0.000201389139127
Si    0.67888   3.39437   3.39437   0.000433612188217  -0.000118058842047  -0.000118388065123
Si    3.39437   3.39437   0.67888  -0.000195097768163  -0.000201501777738   0.000125079869874
Si    4.75213   2.03662   2.03662   0.000008523695187   0.000027577379754   0.000027698271374
Si    4.75213   4.75213   4.75213   0.000015186616965   0.000008178978947   0.000008176197937
Si    2.03662   2.03662   4.75213   0.000034200791942  -0.000037171883638   0.000036344711220
Si    2.03662   4.75213   2.03662   0.000034099889009   0.000036432971985  -0.000037251189196
Si    0.67888   0.67888   6.10987  -0.000020661597338   0.000002850134877   0.000000635229116
Si    3.39437   0.67888   8.82538  -0.000019862259993   0.000008157634376   0.000008160554520
Si    0.67888   3.39437   8.82538  -0.000005500562074  -0.000008086513849   0.000010822737113
Si    3.39437   3.39437   6.10987  -0.000016807718395   0.000020978905801  -0.000003356713804
Si    4.75213   2.03662   7.46762  -0.000000011683684  -0.000007644053853  -0.000000929646309
Si    4.75213   4.75213  10.18313   0.000003068974286  -0.000019402595479  -0.000004682728411
Si    2.03662   2.03662  10.18313   0.000016297230798   0.000000112321987   0.000002760275451
Si    2.03662   4.75213   7.46762   0.000010338845440  -0.000005955374045   0.000007312650851
Si    0.67888   0.67888  11.54087  -0.000015374140016   0.000008202000289  -0.000007925163148
Si    3.39437   0.67888  14.25638  -0.000189138050478  -0.000112695224010   0.000191720232958
Si    0.67888   3.39437  14.25638   0.000432167009612   0.000113040002469  -0.000117146962442
Si    3.39437   3.39437  11.54087  -0.000022190435197   0.000016430430706   0.000003317781364
Si    4.75213   2.03662  12.89863  -0.000016981510238   0.000054660996661   0.000024694332495
Si    4.75213   4.75213  15.61412  -0.000010850772134  -0.000012849064524  -0.000064389344126
Si    2.03662   2.03662  15.61412  -0.003409349487192  -0.002468382090926   0.002461240113920
Si    2.03662   4.75213  12.89863  -0.000177947552715   0.000057679817280  -0.000051969712886
Si    0.67888   6.10987   0.67888  -0.000020499717346   0.000000645999820   0.000002873407036
Si    3.39437   6.10987   3.39437  -0.000016839331788  -0.000003364949883   0.000020961432700
Si    0.67888   8.82538   3.39437  -0.000005649353556   0.000010767410626  -0.000008085311775
Si    3.39437   8.82538   0.67888  -0.000019774212739   0.000008156393509   0.000008161611796
Si    4.75213   7.46762   2.03662  -0.000000000163360  -0.000000915309410  -0.000007649099512
Si    4.75213  10.18313   4.75213   0.000003189962975  -0.000004690553940  -0.000019394848241
Si    2.03662   7.46762   4.75213   0.000010344416415   0.000007287180012  -0.000005920209853
Si    2.03662  10.18313   2.03662   0.000016273562888   0.000002743634251   0.000000286987419
Si    0.67888   6.10987   6.10987   0.000110647734002  -0.000020539308970  -0.000020570937373
Si    3.39437   6.10987   8.82538  -0.000005692598414   0.000014356981831   0.000004390032299
Si    0.67888   8.82538   8.82538   0.000105425902252   0.000008974849048   0.000008956343814
Si    3.39437   8.82538   6.10987  -0.000005686188064   0.000004376989036   0.000014361599976
Si    4.75213   7.46762   7.46762   0.000008932268941  -0.000012515363195  -0.000012515820650
Si    4.75213  10.18313  10.18313   0.000007892410232   0.000004358790870   0.000004355177763
Si    2.03662   7.46762  10.18313  -0.000061827914219  -0.000005674418493  -0.000001441667823
Si    2.03662  10.18313   7.46762  -0.000061828029971  -0.000001446439664  -0.000005685444692
Si    0.67888   6.10987  11.54087   0.000107982847479   0.000019456518006  -0.000023252866375
Si    3.39437   6.10987  14.25638  -0.000021125713528  -0.000011462201901  -0.000024502831212
Si    0.67888   8.82538  14.25638  -0.000010931482115   0.000000262829245   0.000000794388255
Si    3.39437   8.82538  11.54087  -0.000011787398593   0.000007469569331  -0.000024188046377
Si    4.75213   7.46762  12.89863   0.000009270888847  -0.000005160280670   0.000031237617341
Si    4.75213  10.18313  15.61412   0.000000018137393  -0.000001082312049   0.000005630691941
Si    2.03662   7.46762  15.61412   0.000015398927816  -0.000005635111426  -0.000003172516999
Si    2.03662  10.18313  12.89863   0.000009468194367  -0.000010176071580   0.000015932217484
Si    0.67888  11.54087   0.67888  -0.000015240887566  -0.000007926142833   0.000008177875658
Si    3.39437  11.54087   3.39437  -0.000022172883997   0.000003308838141   0.000016336566240
Si    0.67888  14.25638   3.39437   0.000432187780696  -0.000116811124809   0.000113369537877
Si    3.39437  14.25638   0.67888  -0.000189182131813   0.000191809736319  -0.000113111162851
Si    4.75213  12.89863   2.03662  -0.000016954915445   0.000024693381736   0.000054545139424
Si    4.75213  15.61412   4.75213  -0.000010895952078  -0.000064529346822  -0.000012855376963
Si    2.03662  12.89863   4.75213  -0.000177947568496  -0.000051908968397   0.000057730708026
Si    2.03662  15.61412   2.03662  -0.003409346979408   0.002461151849642  -0.002468478064520
Si    0.67888  11.54087   6.10987   0.000107965198970  -0.000023203065351   0.000019499003159
Si    3.39437  11.54087   8.82538  -0.000011776924612  -0.000024207303435   0.000007451063131
Si    0.67888  14.25638   8.82538  -0.000010765647932   0.000000804946933   0.000000224467629
Si    3.39437  14.25638   6.10987  -0.000021140159189  -0.000024595440544  -0.000011475175635
Si    4.75213  12.89863   7.46762   0.000009167685788   0.000031250318027  -0.000005144176336
Si    4.75213  15.61412  10.18313  -0.000000026960178   0.000005643867397  -0.000001086405544
Si    2.03662  12.89863  10.18313   0.000009462775500   0.000015965244926  -0.000010197363429
Si    2.03662  15.61412   7.46762   0.000015421932138  -0.000003002498386  -0.000005647583692
Si    0.67888  11.54087  11.54087   0.000112503745376   0.000011568109233   0.000011618282451
Si    3.39437  11.54087  14.25638  -0.000016812972584   0.000001363494861  -0.000022977096608
Si    0.67888  14.25638  14.25638   0.000431698206578   0.000108991353858   0.000109337630684
Si    3.39437  14.25638  11.54087  -0.000016816643878  -0.000022974101544   0.000001336446066
Si    4.75213  12.89863  12.89863   0.000015187498722   0.000008134178821   0.000008144544265
Si    4.75213  15.61412  15.61412   0.000009488376845  -0.000035695571972  -0.000035821002608
Si    2.03662  12.89863  15.61412   0.000034991264841  -0.000026407055881   0.000034369556912
Si    2.03662  15.61412  12.89863   0.000035090529212   0.000034286053082  -0.000026315325956
Si    6.10987   0.67888   0.67888  -0.000004694986738   0.000002878079458   0.000002874554456
Si    8.82538   0.67888   3.39437   0.000006440515259   0.000005524184070  -0.000008023143108
Si    6.10987   3.39437   3.39437   0.000002863879050  -0.000014376179771  -0.000014377757528
Si    8.82538   3.39437   0.67888   0.000006456093839  -0.000008018313509   0.000005508621265
Si   10.18313   2.03662   2.03662  -0.000001362688406   0.000002677029919   0.000002703722425
Si   10.18313   4.75213   4.75213   0.000000771258960  -0.000000876669900  -0.000000915780881
Si    7.46762   2.03662   4.75213   0.000000589853267   0.000011289506863   0.000004667953686
Si    7.46762   4.75213   2.03662   0.000000623469446   0.000004669788672   0.000011291375666
Si    6.10987   0.67888   6.10987  -0.000004377831145   0.000028316354191  -0.000014481435996
Si    8.82538   0.67888   8.82538   0.000006835878488   0.000008978094028   0.000008956322227
Si    6.10987   3.39437   8.82538  -0.000000579870737   0.000012231904846   0.000001088011753
Si    8.82538   3.39437   6.10987   0.000005868291339  -0.000004469919879   0.000000851746613
Si   10.18313   2.03662   7.46762  -0.000003953521236  -0.000000891060965  -0.000006381305478
Si   10.18313   4.75213  10.18313   0.000005001663239   0.000011501696587  -0.000007282927534
Si    7.46762   2.03662  10.18313  -0.000011378271122   0.000001939718353   0.000001106291299
Si    7.46762   4.75213   7.46762  -0.000003126792655   0.000004002417345  -0.000015437157697
Si    6.10987   0.67888  11.54087  -0.000005252281810  -0.000018303264603   0.000011595062042
Si    8.82538   0.67888  14.25638   0.000001156054778   0.000005506168998   0.000000732087357
Si    6.10987   3.39437  14.25638   0.000002095317178  -0.000011610813025   0.000004471816000
Si    8.82538   3.39437  11.54087   0.000012129843015  -0.000007492421808  -0.000007129390049
Si   10.18313   2.03662  12.89863   0.000003411404749  -0.000010151616477   0.000009089158230
Si   10.18313   4.75213  15.61412   0.000004302322523   0.000000909849854   0.000007273623453
Si    7.46762   2.03662  15.61412  -0.000003987857498  -0.000003805607025   0.000000067000855
Si    7.46762   4.75213  12.89863  -0.000007363708556   0.000012882427457   0.000005013838289
Si    6.10987   6.10987   0.67888  -0.000004493210531  -0.000014494701829   0.000028280711843
Si    8.82538   6.10987   3.39437   0.000005886224816   0.000000845194032  -0.000004477170189
Si    6.10987   8.82538   3.39437  -0.000000588614819   0.000001093477045   0.000012220943476
Si    8.82538   8.82538   0.67888   0.000006789787990   0.000008974823923   0.000008959464353
Si   10.18313   7.46762   2.03662  -0.000003943033630  -0.000006385577590  -0.000000908705740
Si   10.18313  10.18313   4.75213   0.000004996115364  -0.000007271170039   0.000011525977365
Si    7.46762   7.46762   4.75213  -0.000003131533809  -0.000015420568671   0.000003988578786
Si    7.46762  10.18313   2.03662  -0.000011365271726   0.000001096640364   0.000001957064531
Si    6.10987   6.10987   6.10987  -0.000003938222805   0.000003375820338   0.000003375406174
Si    8.82538   6.10987   8.82538   0.000001957542049   0.000000836453595   0.000002885999299
Si    6.10987   8.82538   8.82538  -0.000000922227725   0.000002889273963   0.000002884966775
Si    8.82538   8.82538   6.10987   0.000001947199992   0.000002859972691   0.000000831157282
Si   10.18313   7.46762   7.46762  -0.000001925865693  -0.000002007944215  -0.000002025929079
Si   10.18313  10.18313  10.18313  -0.000001050837276  -0.000000881471721  -0.000000859220079
Si    7.46762   7.46762  10.18313  -0.000003881962649  -0.000003824698091   0.000000060325365
Si    7.46762  10.18313   7.46762  -0.000003899182288   0.000000076923712  -0.000003815273140
Si    6.10987   6.10987  11.54087  -0.000003806915517   0.000003471971921  -0.000010586393765
Si    8.82538   6.10987  14.25638   0.000010271119118  -0.000001826311372  -0.000001476426269
Si    6.10987   8.82538  14.25638   0.000000287664392   0.000008916561054  -0.000015107552529
Si    8.82538   8.82538  11.54087   0.000007231902908   0.000008170038504  -0.000008122810695
Si   10.18313   7.46762  12.89863   0.000005870633103   0.000004382047478  -0.000001514802491
Si   10.18313  10.18313  15.61412  -0.000003942939330  -0.000000733762644  -0.000006221239863
Si    7.46762   7.46762  15.61412  -0.000013224804633  -0.000010072488364  -0.000010915255891
Si    7.46762  10.18313  12.89863   0.000002136157195   0.000008137305567   0.000007059944966
Si    6.10987  11.54087   0.67888  -0.000005366972716   0.000011604136423  -0.000018266200468
Si    8.82538  11.54087   3.39437   0.000012128666486  -0.000007149000588  -0.000007478943763
Si    6.10987  14.25638   3.39437   0.000002095583689   0.000004492754541  -0.000011596242648
Si    8.82538  14.25638   0.67888   0.000001188798402   0.000000736945263   0.000005538904368
Si   10.18313  12.89863   2.03662   0.000003427549805   0.000009099620420  -0.000010160611587
Si   10.18313  15.61412   4.75213   0.000004286299983   0.000007260295041   0.000000922339878
Si    7.46762  12.89863   4.75213  -0.000007363777352   0.000005065195919   0.000012896861699
Si    7.46762  15.61412   2.03662  -0.000003970365013   0.000000054835800  -0.000003825005890
Si    6.10987  11.54087   6.10987  -0.000003806814447  -0.000010592736723   0.000003459133375
Si    8.82538  11.54087   8.82538   0.000007224911261  -0.000008118420697   0.000008160996978
Si    6.10987  14.25638   8.82538   0.000000296478701  -0.000015122509851   0.000008924369710
Si    8.82538  14.25638   6.10987   0.000010272246221  -0.000001481419605  -0.000001827487292
Si   10.18313  12.89863   7.46762   0.000005876202070  -0.000001492638122   0.000004398089129
Si   10.18313  15.61412  10.18313  -0.000003953379375  -0.000006232406413  -0.000000744265158
Si    7.46762  12.89863  10.18313   0.000002158084503   0.000007028997965   0.000008144211446
Si    7.46762  15.61412   7.46762  -0.000013238043211  -0.000010916186419  -0.000010063781115
Si    6.10987  11.54087  11.54087  -0.000003064398231  -0.000006265146955  -0.000006260374706
Si    8.82538  11.54087  14.25638   0.000005867327378  -0.000004592827117   0.000000719765009
Si    6.10987  14.25638  14.25638   0.000001997218751   0.000011479705085   0.000011485538023
Si    8.82538  14.25638  11.54087   0.000005883844786   0.000000719934404  -0.000004606679999
Si   10.18313  12.89863  12.89863   0.000000773482153   0.000006660473378   0.000006691078026
Si   10.18313  15.61412  15.61412  -0.000002236047883  -0.000005565477737  -0.000005587896768
Si    7.46762  12.89863  15.61412  -0.000004661154004   0.000006359800784  -0.000018584067260
Si    7.46762  15.61412  12.89863  -0.000004677839404  -0.000018572561451   0.000006378816491
Si   11.54087   0.67888   0.67888  -0.000013432608917   0.000008148478134   0.000008152561448
Si   14.25638   0.67888   3.39437  -0.000179293278699   0.000112577171366   0.000182474360568
Si   11.54087   3.39437   3.39437  -0.000006634217644  -0.000003531421050  -0.000003555122833
Si   14.25638   3.39437   0.67888  -0.000179326469503   0.000182545400406   0.000112983793317
Si   15.61412   2.03662   2.03662  -0.003262979668870   0.002166831233806   0.002166943658492
Si   15.61412   4.75213   4.75213  -0.000180889490623  -0.000045691053987  -0.000045774727379
Si   12.89863   2.03662   4.75213  -0.000014354200956  -0.000055149619100   0.000022769855121
Si   12.89863   4.75213   2.03662  -0.000014313751957   0.000022761631514  -0.000055026509050
Si   11.54087   0.67888   6.10987  -0.000006654272767   0.000022727580980   0.000013094791779
Si   14.25638   0.67888   8.82538  -0.000011123780335   0.000002890931485   0.000002884716559
Si   11.54087   3.39437   8.82538  -0.000008754174752  -0.000024322218893   0.000007223150871
Si   14.25638   3.39437   6.10987  -0.000014138596018  -0.000031369885926   0.000011734309149
Si   15.61412   2.03662   7.46762   0.000013583564147  -0.000001250092592  -0.000000004875571
Si   15.61412   4.75213  10.18313   0.000006427115297   0.000011802029173   0.000011225262564
Si   12.89863   2.03662  10.18313   0.000004478722494   0.000009193107769   0.000001800616079
Si   12.89863   4.75213   7.46762   0.000009179943642   0.000031443474136  -0.000012888633006
Si   11.54087   0.67888  11.54087  -0.000012753778431  -0.000010875638672  -0.000022916203306
Si   14.25638   0.67888  14.25638  -0.000178476282181  -0.000102458610552  -0.000185401864945
Si   11.54087   3.39437  14.25638  -0.000000999952757   0.000008811035566  -0.000010820383470
Si   14.25638   3.39437  11.54087  -0.000013369526749  -0.000027768702195  -0.000007712292558
Si   15.61412   2.03662  12.89863   0.000029304003131   0.000040272027593   0.000029994478881
Si   15.61412   4.75213  15.61412   0.000023879729636  -0.000019099839505  -0.000047610597799
Si   12.89863   2.03662  15.61412   0.000005123633517  -0.000027794012117   0.000025945318111
Si   12.89863   4.75213  12.89863   0.000015178150560   0.000008313597726   0.000008007038392
Si   11.54087   6.10987   0.67888  -0.000006776127535   0.000013101434947   0.000022699259450
Si   14.25638   6.10987   3.39437  -0.000014122719800   0.000011720153301  -0.000031296777024
Si   11.54087   8.82538   3.39437  -0.000008763530273   0.000007242036937  -0.000024291261145
Si   14.25638   8.82538   0.67888  -0.000011040019037   0.000002889016051   0.000002886658672
Si   15.61412   7.46762   2.03662   0.000013590381391  -0.000000009270011  -0.000001438092633
Si   15.61412  10.18313   4.75213   0.000006409645005   0.000011208008653   0.000011783607101
Si   12.89863   7.46762   4.75213   0.000009279399131  -0.000012910204264   0.000031432724602
Si   12.89863  10.18313   2.03662   0.000004503898969   0.000001802545230   0.000009187939354
Si   11.54087   6.10987   6.10987  -0.000010932382013  -0.000003430360296  -0.000003419150523
Si   14.25638   6.10987   8.82538  -0.000002608748811  -0.000015200737804   0.000008670187567
Si   11.54087   8.82538   8.82538  -0.000009846034153   0.000008157072013   0.000008161188985
Si   14.25638   8.82538   6.10987  -0.000002619390813   0.000008664080426  -0.000015199975999
Si   15.61412   7.46762   7.46762  -0.000070101065639  -0.000010403651305  -0.000010379716955
Si   15.61412  10.18313  10.18313  -0.000068237469433   0.000001425665782   0.000001420307368
Si   12.89863   7.46762  10.18313   0.000003466973292   0.000001351466643  -0.000003351739194
Si   12.89863  10.18313   7.46762   0.000003484210161  -0.000003350863449   0.000001333777596
Si   11.54087   6.10987  11.54087  -0.000006663231995  -0.000002632434133   0.000000620811925
Si   14.25638   6.10987  14.25638  -0.000014260232727   0.000004840967449   0.000024889251697
Si   11.54087   8.82538  14.25638  -0.000002661843714   0.000004605096885   0.000014465005710
Si   14.25638   8.82538  11.54087  -0.000003494432669   0.000001345284542   0.000012311966654
Si   15.61412   7.46762  12.89863   0.000001142605912  -0.000018491613187  -0.000000735520391
Si   15.61412  10.18313  15.61412   0.000013573215914  -0.000003739364451  -0.000002322161768
Si   12.89863   7.46762  15.61412   0.000005539820251  -0.000009958032433  -0.000017350326593
Si   12.89863  10.18313  12.89863   0.000003203043320   0.000003064521808  -0.000019590617083
Si   11.54087  11.54087   0.67888  -0.000012857957364  -0.000022947060233  -0.000010852827977
Si   14.25638  11.54087   3.39437  -0.000013383465047  -0.000007731604336  -0.000027768764266
Si   11.54087  14.25638   3.39437  -0.000001017224677  -0.000010807329784   0.000008805511991
Si   14.25638  14.25638   0.67888  -0.000178502089785  -0.000185477974795  -0.000102862973569
Si   15.61412  12.89863   2.03662   0.000029154715628   0.000030078412537   0.000040347555122
Si   15.61412  15.61412   4.75213   0.000024045635906  -0.000047531465107  -0.000018999290183
Si   12.89863  12.89863   4.75213   0.000015177767493   0.000007999578366   0.000008314593441
Si   12.89863  15.61412   2.03662   0.000005107031485   0.000025846393966  -0.000027912103515
Si   11.54087  11.54087   6.10987  -0.000006645977516   0.000000634733122  -0.000002637020068
Si   14.25638  11.54087   8.82538  -0.000003483860563   0.000012308514431   0.000001341279479
Si   11.54087  14.25638   8.82538  -0.000002669809044   0.000014471706757   0.000004618448697
Si   14.25638  14.25638   6.10987  -0.000014247908022   0.000024884251943   0.000004826230076
Si   15.61412  12.89863   7.46762   0.000001142932098  -0.000000770618013  -0.000018518435218
Si   15.61412  15.61412  10.18313   0.000013602264609  -0.000002502780100  -0.000003751172778
Si   12.89863  12.89863  10.18313   0.000003086997869  -0.000019595220769   0.000003067263874
Si   12.89863  15.61412   7.46762   0.000005514168196  -0.000017351400446  -0.000009960410250
Si   11.54087  11.54087  11.54087  -0.000011969307659  -0.000004725917401  -0.000004741269740
Si   14.25638  11.54087  14.25638  -0.000014129896427  -0.000018837077607   0.000024172002884
Si   11.54087  14.25638  14.25638  -0.000005603512671  -0.000004634187887  -0.000004614440271
Si   14.25638  14.25638  11.54087  -0.000014143688978   0.000024253152354  -0.000018857833142
Si   15.61412  12.89863  12.89863  -0.000180894670294   0.000063663822282   0.000063711082959
Si   15.61412  15.61412  15.61412  -0.003264895433706  -0.002175708215871  -0.002175807893654
Si   12.89863  12.89863  15.61412  -0.000008187570872  -0.000010903690301   0.000045157242511
Si   12.89863  15.61412  12.89863  -0.000008244927887   0.000045255806029  -0.000010917118081
