64 

C   -0.00000  -0.00000  -0.00000   0.000000000024185   0.000000000000295  -0.000000000000081
C   -0.00000   1.78350   1.78350   0.000000000022264   0.000000000000974  -0.000000000000516
C    1.78350  -0.00000   1.78350   0.000000000023666   0.000000000000477  -0.000000000000115
C    1.78350   1.78350  -0.00000   0.000000000022870   0.000000000001454  -0.000000000000646
C    0.89175   0.89175   0.89175   0.000000000022473  -0.000000000000719  -0.000000000001689
C    0.89175   2.67525   2.67525   0.000000000022266   0.000000000000375  -0.000000000001040
C    2.67525   0.89175   2.67525   0.000000000022267  -0.000000000000495  -0.000000000000561
C    2.67525   2.67525   0.89175   0.000000000023197  -0.000000000000643  -0.000000000000361
C   -0.00000  -0.00000   3.56700   0.000000000022787  -0.000000000000012   0.000000000000839
C   -0.00000   1.78350   5.35050   0.000000000023451  -0.000000000000584   0.000000000001803
C    1.78350  -0.00000   5.35050   0.000000000022830   0.000000000000377   0.000000000000580
C    1.78350   1.78350   3.56700   0.000000000023988  -0.000000000000083   0.000000000000319
C    0.89175   0.89175   4.45875   0.000000000022791  -0.000000000000240   0.000000000000766
C    0.89175   2.67525   6.24225   0.000000000023006   0.000000000000109   0.000000000000724
C    2.67525   0.89175   6.24225   0.000000000023508  -0.000000000000146   0.000000000000299
C    2.67525   2.67525   4.45875   0.000000000022857  -0.000000000000424   0.000000000000303
C   -0.00000   3.56700  -0.00000   0.000000000023573  -0.000000000000743  -0.000000000001351
C   -0.00000   5.35050   1.78350   0.000000000022832   0.000000000000352  -0.000000000000246
C    1.78350   3.56700   1.78350   0.000000000022233  -0.000000000000965  -0.000000000000183
C    1.78350   5.35050  -0.00000   0.000000000022912   0.000000000000497  -0.000000000000919
C    0.89175   4.45875   0.89175   0.000000000022775  -0.000000000000747  -0.000000000000829
C    0.89175   6.24225   2.67525   0.000000000023153  -0.000000000000449   0.000000000000010
C    2.67525   4.45875   2.67525   0.000000000023336  -0.000000000000130   0.000000000000441
C    2.67525   6.24225   0.89175   0.000000000022981  -0.000000000000150  -0.000000000000975
C   -0.00000   3.56700   3.56700   0.000000000022641  -0.000000000000468  -0.000000000000566
C   -0.00000   5.35050   5.35050   0.000000000023112  -0.000000000000007   0.000000000000704
C    1.78350   3.56700   5.35050   0.000000000023053  -0.000000000000011   0.000000000000675
C    1.78350   5.35050   3.56700   0.000000000023638  -0.000000000000263  -0.000000000000095
C    0.89175   4.45875   4.45875   0.000000000022587  -0.000000000000768  -0.000000000000017
C    0.89175   6.24225   6.24225   0.000000000022318   0.000000000000290  -0.000000000000011
C    2.67525   4.45875   6.24225   0.000000000023945  -0.000000000000124  -0.000000000000340
C    2.67525   6.24225   4.45875   0.000000000024224  -0.000000000000260   0.000000000000600
C    3.56700  -0.00000  -0.00000   0.000000000023747   0.000000000000258  -0.000000000000679
C    3.56700   1.78350   1.78350   0.000000000022842   0.000000000001199  -0.000000000001325
C    5.35050  -0.00000   1.78350   0.000000000023694  -0.000000000000276   0.000000000000077
C    5.35050   1.78350  -0.00000   0.000000000024088  -0.000000000000246  -0.000000000000156
C    4.45875   0.89175   0.89175   0.000000000024140   0.000000000000501  -0.000000000001402
C    4.45875   2.67525   2.67525   0.000000000023090   0.000000000000975   0.000000000000345
C    6.24225   0.89175   2.67525   0.000000000023706   0.000000000001126   0.000000000000351
C    6.24225   2.67525   0.89175   0.000000000024213  -0.000000000000484  -0.000000000000419
C    3.56700  -0.00000   3.56700   0.000000000022121   0.000000000000555   0.000000000000769
C    3.56700   1.78350   5.35050   0.000000000023006  -0.000000000000347   0.000000000001471
C    5.35050  -0.00000   5.35050   0.000000000024271   0.000000000000079   0.000000000000407
C    5.35050   1.78350   3.56700   0.000000000024175   0.000000000000682  -0.000000000000189
C    4.45875   0.89175   4.45875   0.000000000023311  -0.000000000000169   0.000000000000056
C    4.45875   2.67525   6.24225   0.000000000023662   0.000000000000610   0.000000000000826
C    6.24225   0.89175   6.24225   0.000000000023666   0.000000000000011   0.000000000000248
C    6.24225   2.67525   4.45875   0.000000000022851   0.000000000000092   0.000000000000556
C    3.56700   3.56700  -0.00000   0.000000000023892   0.000000000000039  -0.000000000000215
C    3.56700   5.35050   1.78350   0.000000000023397  -0.000000000000664  -0.000000000000749
C    5.35050   3.56700   1.78350   0.000000000023615  -0.000000000000118  -0.000000000000058
C    5.35050   5.35050  -0.00000   0.000000000023144  -0.000000000001443  -0.000000000000487
C    4.45875   4.45875   0.89175   0.000000000023356   0.000000000000170  -0.000000000001113
C    4.45875   6.24225   2.67525   0.000000000024515  -0.000000000000326  -0.000000000000387
C    6.24225   4.45875   2.67525   0.000000000023633   0.000000000000040  -0.000000000000573
C    6.24225   6.24225   0.89175   0.000000000024065  -0.000000000000214   0.000000000000190
C    3.56700   3.56700   3.56700   0.000000000024275   0.000000000000015  -0.000000000000436
C    3.56700   5.35050   5.35050   0.000000000024335   0.000000000000628   0.000000000000787
C    5.35050   3.56700   5.35050   0.000000000023869  -0.000000000000166   0.000000000001132
C    5.35050   5.35050   3.56700   0.000000000023042  -0.000000000000408  -0.000000000000269
C    4.45875   4.45875   4.45875   0.000000000023425  -0.000000000000133   0.000000000000339
C    4.45875   6.24225   6.24225   0.000000000023047  -0.000000000001072  -0.000000000000644
C    6.24225   4.45875   6.24225   0.000000000023359  -0.000000000000474   0.000000000000698
C    6.24225   6.24225   4.45875   0.000000000024345   0.000000000000235   0.000000000000365
