216 

Si    0.67888   0.67888   0.67888   0.000009230669780   0.000009230636539   0.000009212803897
Si    3.39437   0.67888   3.39437  -0.000009230654203   0.000009230648039  -0.000009212822910
Si    0.67888   3.39437   3.39437   0.000009230652693  -0.000009230634866  -0.000009212816970
Si    3.39437   3.39437   0.67888  -0.000009230648907  -0.000009230644445   0.000009212801213
Si    4.75213   2.03662   2.03662   0.000007339854225   0.000000000004885   0.000000000006271
Si    4.75213   4.75213   4.75213   0.000008381556104   0.000008381545385   0.000008385464569
Si    2.03662   2.03662   4.75213   0.000000000014230   0.000000000019669   0.000007347254372
Si    2.03662   4.75213   2.03662   0.000000000012639   0.000007339860608   0.000000000010864
Si    0.67888   0.67888   6.10987   0.000003092534574   0.000003092498859   0.000000875655045
Si    3.39437   0.67888   8.82538  -0.000008381555618   0.000008381542466   0.000008385482077
Si    0.67888   3.39437   8.82538   0.000008381539344  -0.000008381532557   0.000008385470344
Si    3.39437   3.39437   6.10987  -0.000003092524910  -0.000003092532738   0.000000875652823
Si    4.75213   2.03662   7.46762   0.000003110680908   0.000000880686508  -0.000003106567441
Si    4.75213   4.75213  10.18313   0.000003092507693   0.000003092526438  -0.000000875645808
Si    2.03662   2.03662  10.18313   0.000000000007350   0.000000000000666  -0.000000000007452
Si    2.03662   4.75213   7.46762   0.000000880647027   0.000003110685094  -0.000003106555490
Si    0.67888   0.67888  11.54087   0.000008381586000   0.000008381558216  -0.000008385480520
Si    3.39437   0.67888  14.25638  -0.000003092503315   0.000003092504034  -0.000000875636305
Si    0.67888   3.39437  14.25638   0.000003092545040  -0.000003092492109  -0.000000875651805
Si    3.39437   3.39437  11.54087  -0.000008381539427  -0.000008381562986  -0.000008385468639
Si    4.75213   2.03662  12.89863   0.000003110668303  -0.000000880643239   0.000003106552682
Si    4.75213   4.75213  15.61412   0.000009230627968   0.000009230654495  -0.000009212813800
Si    2.03662   2.03662  15.61412   0.000000000015089   0.000000000009479  -0.000007347285373
Si    2.03662   4.75213  12.89863  -0.000000880667323   0.000003110668781   0.000003106578609
Si    0.67888   6.10987   0.67888   0.000003110702674   0.000000880639201   0.000003106570882
Si    3.39437   6.10987   3.39437  -0.000003110687873   0.000000880655097  -0.000003106564906
Si    0.67888   8.82538   3.39437   0.000008381564077   0.000008381550490  -0.000008385484292
Si    3.39437   8.82538   0.67888  -0.000008381554681   0.000008381531929   0.000008385478324
Si    4.75213   7.46762   2.03662   0.000003092498354  -0.000003092551743   0.000000875620158
Si    4.75213  10.18313   4.75213   0.000003110698787  -0.000000880647027   0.000003106551809
Si    2.03662   7.46762   4.75213   0.000000880664425  -0.000003110704255   0.000003106555394
Si    2.03662  10.18313   2.03662   0.000000000004397  -0.000000000012055  -0.000000000008785
Si    0.67888   6.10987   6.10987   0.000007339878972  -0.000000000018707  -0.000000000000204
Si    3.39437   6.10987   8.82538  -0.000003110687950  -0.000000880668390   0.000003106570553
Si    0.67888   8.82538   8.82538   0.000009230657217   0.000009230653179   0.000009212803053
Si    3.39437   8.82538   6.10987  -0.000003092498325   0.000003092522480  -0.000000875643388
Si    4.75213   7.46762   7.46762   0.000008381553642  -0.000008381577939  -0.000008385451002
Si    4.75213  10.18313  10.18313   0.000007339842585   0.000000000012609  -0.000000000003255
Si    2.03662   7.46762  10.18313   0.000000000008585  -0.000007339858674   0.000000000019775
Si    2.03662  10.18313   7.46762  -0.000000000005450  -0.000000000007528  -0.000007347277850
Si    0.67888   6.10987  11.54087   0.000003110712074  -0.000000880687464  -0.000003106568663
Si    3.39437   6.10987  14.25638  -0.000007339838435   0.000000000000892  -0.000000000007483
Si    0.67888   8.82538  14.25638   0.000003092536181   0.000003092503595   0.000000875640599
Si    3.39437   8.82538  11.54087  -0.000009230638736   0.000009230639386  -0.000009212804996
Si    4.75213   7.46762  12.89863   0.000009230642635  -0.000009230627007   0.000009212803881
Si    4.75213  10.18313  15.61412   0.000003110698880   0.000000880672607  -0.000003106557091
Si    2.03662   7.46762  15.61412  -0.000000880644198  -0.000003110693913  -0.000003106573516
Si    2.03662  10.18313  12.89863   0.000000000013049   0.000000000008264   0.000007347287181
Si    0.67888  11.54087   0.67888   0.000008381568417  -0.000008381539009   0.000008385487310
Si    3.39437  11.54087   3.39437  -0.000008381559635  -0.000008381545334  -0.000008385460078
Si    0.67888  14.25638   3.39437   0.000003110687671  -0.000000880651406  -0.000003106558814
Si    3.39437  14.25638   0.67888  -0.000003110697530  -0.000000880662188   0.000003106541963
Si    4.75213  12.89863   2.03662   0.000003092525578   0.000003092528213  -0.000000875650449
Si    4.75213  15.61412   4.75213   0.000009230634757  -0.000009230630054   0.000009212808568
Si    2.03662  12.89863   4.75213  -0.000000880648817   0.000003110684934   0.000003106572146
Si    2.03662  15.61412   2.03662   0.000000000006084  -0.000007339841762  -0.000000000012390
Si    0.67888  11.54087   6.10987   0.000003092537826  -0.000003092510108  -0.000000875629261
Si    3.39437  11.54087   8.82538  -0.000009230638990  -0.000009230637119   0.000009212821242
Si    0.67888  14.25638   8.82538   0.000003110715400   0.000000880650840   0.000003106562553
Si    3.39437  14.25638   6.10987  -0.000007339860780   0.000000000016738   0.000000000017465
Si    4.75213  12.89863   7.46762   0.000009230636945   0.000009230653713  -0.000009212794154
Si    4.75213  15.61412  10.18313   0.000003092506114  -0.000003092524048   0.000000875641274
Si    2.03662  12.89863  10.18313   0.000000000015794   0.000007339861055   0.000000000007599
Si    2.03662  15.61412   7.46762  -0.000000880634467  -0.000003110687174  -0.000003106563764
Si    0.67888  11.54087  11.54087   0.000009230640986  -0.000009230636224  -0.000009212819907
Si    3.39437  11.54087  14.25638  -0.000003092501790  -0.000003092514472   0.000000875628269
Si    0.67888  14.25638  14.25638   0.000007339853650  -0.000000000014447   0.000000000011988
Si    3.39437  14.25638  11.54087  -0.000003110682629   0.000000880668245  -0.000003106586582
Si    4.75213  12.89863  12.89863   0.000008381546052   0.000008381554953   0.000008385473843
Si    4.75213  15.61412  15.61412   0.000008381546921  -0.000008381552819  -0.000008385479643
Si    2.03662  12.89863  15.61412   0.000000880646793   0.000003110714525  -0.000003106558347
Si    2.03662  15.61412  12.89863   0.000000880651966  -0.000003110690858   0.000003106580279
Si    6.10987   0.67888   0.67888   0.000000880635041   0.000003110712189   0.000003106567047
Si    8.82538   0.67888   3.39437   0.000008381565733   0.000008381580823  -0.000008385462958
Si    6.10987   3.39437   3.39437   0.000000880661702  -0.000003110710166  -0.000003106580181
Si    8.82538   3.39437   0.67888   0.000008381555798  -0.000008381536815   0.000008385446694
Si   10.18313   2.03662   2.03662   0.000000000016568  -0.000000000003046   0.000000000006561
Si   10.18313   4.75213   4.75213  -0.000000880659278   0.000003110708076   0.000003106556057
Si    7.46762   2.03662   4.75213  -0.000003110685866   0.000000880664778   0.000003106560815
Si    7.46762   4.75213   2.03662  -0.000003092501151   0.000003092539526   0.000000875637528
Si    6.10987   0.67888   6.10987   0.000000000001637   0.000007339847323   0.000000000005526
Si    8.82538   0.67888   8.82538   0.000009230639030   0.000009230636189   0.000009212805324
Si    6.10987   3.39437   8.82538  -0.000000880648057  -0.000003110695691   0.000003106557728
Si    8.82538   3.39437   6.10987   0.000003092526439  -0.000003092510599  -0.000000875616625
Si   10.18313   2.03662   7.46762   0.000000000018215   0.000000000024173  -0.000007347289020
Si   10.18313   4.75213  10.18313   0.000000000004505   0.000007339863267  -0.000000000009671
Si    7.46762   2.03662  10.18313  -0.000007339867185   0.000000000013137  -0.000000000007349
Si    7.46762   4.75213   7.46762  -0.000008381574372   0.000008381535338  -0.000008385457543
Si    6.10987   0.67888  11.54087  -0.000000880647238   0.000003110687943  -0.000003106559549
Si    8.82538   0.67888  14.25638   0.000003092532189   0.000003092525078   0.000000875626382
Si    6.10987   3.39437  14.25638  -0.000000000011459  -0.000007339826717   0.000000000017996
Si    8.82538   3.39437  11.54087   0.000009230643034  -0.000009230618757  -0.000009212827788
Si   10.18313   2.03662  12.89863  -0.000000000000645   0.000000000009919   0.000007347278070
Si   10.18313   4.75213  15.61412   0.000000880661290   0.000003110687411  -0.000003106547927
Si    7.46762   2.03662  15.61412  -0.000003110691804  -0.000000880651173  -0.000003106552890
Si    7.46762   4.75213  12.89863  -0.000009230629246   0.000009230634133   0.000009212811847
Si    6.10987   6.10987   0.67888  -0.000000000011904  -0.000000000011517   0.000007347269267
Si    8.82538   6.10987   3.39437   0.000003110699923  -0.000000880658471  -0.000003106565620
Si    6.10987   8.82538   3.39437  -0.000000880660829   0.000003110718699  -0.000003106564795
Si    8.82538   8.82538   0.67888   0.000009230633693   0.000009230624055   0.000009212818492
Si   10.18313   7.46762   2.03662  -0.000000000024859  -0.000007339887491  -0.000000000016405
Si   10.18313  10.18313   4.75213  -0.000000000014387   0.000000000031950   0.000007347277943
Si    7.46762   7.46762   4.75213  -0.000008381543040  -0.000008381560434   0.000008385457877
Si    7.46762  10.18313   2.03662  -0.000007339865091   0.000000000000269  -0.000000000002557
Si    6.10987   6.10987   6.10987  -0.000000000009877  -0.000000000011953   0.000000000001863
Si    8.82538   6.10987   8.82538   0.000003110696840   0.000000880642719   0.000003106572257
Si    6.10987   8.82538   8.82538   0.000000880638688   0.000003110694726   0.000003106560021
Si    8.82538   8.82538   6.10987   0.000003092487523   0.000003092504262   0.000000875604448
Si   10.18313   7.46762   7.46762  -0.000000880621929  -0.000003110704810  -0.000003106552747
Si   10.18313  10.18313  10.18313   0.000000000031690   0.000000000005993  -0.000000000006848
Si    7.46762   7.46762  10.18313  -0.000003092545228  -0.000003092543752  -0.000000875617625
Si    7.46762  10.18313   7.46762  -0.000003110720090  -0.000000880637695  -0.000003106557722
Si    6.10987   6.10987  11.54087  -0.000000000003657   0.000000000005773  -0.000007347307198
Si    8.82538   6.10987  14.25638   0.000007339833123  -0.000000000011039   0.000000000018488
Si    6.10987   8.82538  14.25638   0.000000000003264   0.000007339874939  -0.000000000022730
Si    8.82538   8.82538  11.54087   0.000008381582500   0.000008381547192  -0.000008385457931
Si   10.18313   7.46762  12.89863   0.000000880655952  -0.000003110681587   0.000003106538068
Si   10.18313  10.18313  15.61412   0.000000000025111   0.000000000022357  -0.000007347281188
Si    7.46762   7.46762  15.61412  -0.000009230636125  -0.000009230665014  -0.000009212808918
Si    7.46762  10.18313  12.89863  -0.000003110694226   0.000000880653651   0.000003106565023
Si    6.10987  11.54087   0.67888  -0.000000880652689  -0.000003110677287   0.000003106557001
Si    8.82538  11.54087   3.39437   0.000009230654987  -0.000009230626445  -0.000009212817703
Si    6.10987  14.25638   3.39437   0.000000000015991  -0.000000000000145  -0.000007347284853
Si    8.82538  14.25638   0.67888   0.000003110703324   0.000000880640128   0.000003106586911
Si   10.18313  12.89863   2.03662  -0.000000000009523   0.000007339857430  -0.000000000003342
Si   10.18313  15.61412   4.75213   0.000000880650710  -0.000003110726821   0.000003106579286
Si    7.46762  12.89863   4.75213  -0.000009230637655   0.000009230637607   0.000009212792969
Si    7.46762  15.61412   2.03662  -0.000003092530721  -0.000003092534407  -0.000000875645823
Si    6.10987  11.54087   6.10987  -0.000000000015522  -0.000007339861474   0.000000000003860
Si    8.82538  11.54087   8.82538   0.000008381570155  -0.000008381531744   0.000008385469454
Si    6.10987  14.25638   8.82538   0.000000000009473  -0.000000000011610   0.000007347271199
Si    8.82538  14.25638   6.10987   0.000007339881822  -0.000000000014854  -0.000000000028970
Si   10.18313  12.89863   7.46762   0.000000880681839   0.000003110707921  -0.000003106565161
Si   10.18313  15.61412  10.18313   0.000000000010133  -0.000007339844935   0.000000000008206
Si    7.46762  12.89863  10.18313  -0.000003092529922   0.000003092522506   0.000000875651043
Si    7.46762  15.61412   7.46762  -0.000009230658814  -0.000009230648743  -0.000009212795006
Si    6.10987  11.54087  11.54087   0.000000880647618  -0.000003110664595  -0.000003106571101
Si    8.82538  11.54087  14.25638   0.000003092521442  -0.000003092507045  -0.000000875658728
Si    6.10987  14.25638  14.25638  -0.000000000008102  -0.000000000005556   0.000000000025244
Si    8.82538  14.25638  11.54087   0.000003110693235  -0.000000880691821  -0.000003106545778
Si   10.18313  12.89863  12.89863  -0.000000880649381   0.000003110674315   0.000003106553108
Si   10.18313  15.61412  15.61412  -0.000000880651904  -0.000003110716391  -0.000003106567054
Si    7.46762  12.89863  15.61412  -0.000008381572945   0.000008381566478  -0.000008385452351
Si    7.46762  15.61412  12.89863  -0.000008381552568  -0.000008381565387   0.000008385468693
Si   11.54087   0.67888   0.67888  -0.000008381568369   0.000008381554927   0.000008385471380
Si   14.25638   0.67888   3.39437  -0.000000880652696   0.000003110692921  -0.000003106571055
Si   11.54087   3.39437   3.39437  -0.000008381546827  -0.000008381543536  -0.000008385473617
Si   14.25638   3.39437   0.67888  -0.000000880661685  -0.000003110672186   0.000003106588701
Si   15.61412   2.03662   2.03662  -0.000007339852765   0.000000000016044   0.000000000007458
Si   15.61412   4.75213   4.75213  -0.000009230639237   0.000009230640092   0.000009212818322
Si   12.89863   2.03662   4.75213   0.000003110707114  -0.000000880622571   0.000003106557618
Si   12.89863   4.75213   2.03662   0.000003092534068   0.000003092499534  -0.000000875647028
Si   11.54087   0.67888   6.10987  -0.000003092527925   0.000003092522390  -0.000000875634152
Si   14.25638   0.67888   8.82538   0.000000880649097   0.000003110684956   0.000003106570208
Si   11.54087   3.39437   8.82538  -0.000009230640646  -0.000009230638941   0.000009212811310
Si   14.25638   3.39437   6.10987   0.000000000002352  -0.000007339840255   0.000000000005210
Si   15.61412   2.03662   7.46762  -0.000003110687090  -0.000000880640941  -0.000003106545980
Si   15.61412   4.75213  10.18313  -0.000003092512889   0.000003092514820   0.000000875636601
Si   12.89863   2.03662  10.18313   0.000007339857970   0.000000000012202   0.000000000007344
Si   12.89863   4.75213   7.46762   0.000009230637881   0.000009230659698  -0.000009212803480
Si   11.54087   0.67888  11.54087  -0.000009230649972   0.000009230646783  -0.000009212802850
Si   14.25638   0.67888  14.25638  -0.000000000003327   0.000007339867256  -0.000000000005627
Si   11.54087   3.39437  14.25638  -0.000003092502044  -0.000003092520990   0.000000875630329
Si   14.25638   3.39437  11.54087   0.000000880657479  -0.000003110684556  -0.000003106573456
Si   15.61412   2.03662  12.89863  -0.000003110710053   0.000000880666469   0.000003106545437
Si   15.61412   4.75213  15.61412  -0.000008381552343   0.000008381557903  -0.000008385469567
Si   12.89863   2.03662  15.61412   0.000003110688716   0.000000880672506  -0.000003106566423
Si   12.89863   4.75213  12.89863   0.000008381557000   0.000008381546193   0.000008385478821
Si   11.54087   6.10987   0.67888  -0.000003110700522  -0.000000880660937   0.000003106566126
Si   14.25638   6.10987   3.39437  -0.000000000003932  -0.000000000017392  -0.000007347290388
Si   11.54087   8.82538   3.39437  -0.000009230644981   0.000009230639737  -0.000009212808936
Si   14.25638   8.82538   0.67888   0.000000880646220   0.000003110702114   0.000003106550947
Si   15.61412   7.46762   2.03662  -0.000003092502388  -0.000003092535650  -0.000000875630875
Si   15.61412  10.18313   4.75213  -0.000003110700010   0.000000880658119   0.000003106556169
Si   12.89863   7.46762   4.75213   0.000009230635244  -0.000009230664201   0.000009212805864
Si   12.89863  10.18313   2.03662   0.000007339843851  -0.000000000002140  -0.000000000003089
Si   11.54087   6.10987   6.10987  -0.000007339841726  -0.000000000010767   0.000000000013178
Si   14.25638   6.10987   8.82538   0.000000000001272  -0.000000000011333   0.000007347268445
Si   11.54087   8.82538   8.82538  -0.000008381561317   0.000008381571866   0.000008385473244
Si   14.25638   8.82538   6.10987  -0.000000000016092   0.000007339847871   0.000000000013273
Si   15.61412   7.46762   7.46762  -0.000009230631816  -0.000009230651048  -0.000009212789364
Si   15.61412  10.18313  10.18313  -0.000007339842614   0.000000000015758  -0.000000000006480
Si   12.89863   7.46762  10.18313   0.000003092518934  -0.000003092541798   0.000000875638805
Si   12.89863  10.18313   7.46762   0.000003110701870   0.000000880666190  -0.000003106559510
Si   11.54087   6.10987  11.54087  -0.000003110710496   0.000000880640567  -0.000003106587264
Si   14.25638   6.10987  14.25638  -0.000000000018855  -0.000000000022131   0.000000000015296
Si   11.54087   8.82538  14.25638  -0.000003092545661   0.000003092520836  -0.000000875614663
Si   14.25638   8.82538  11.54087  -0.000000880680335   0.000003110694108  -0.000003106572874
Si   15.61412   7.46762  12.89863  -0.000008381550278  -0.000008381576182   0.000008385462502
Si   15.61412  10.18313  15.61412  -0.000003110699915  -0.000000880641835  -0.000003106557279
Si   12.89863   7.46762  15.61412   0.000008381541823  -0.000008381563497  -0.000008385473391
Si   12.89863  10.18313  12.89863   0.000003110705015  -0.000000880634837   0.000003106557235
Si   11.54087  11.54087   0.67888  -0.000009230645037  -0.000009230622746   0.000009212803155
Si   14.25638  11.54087   3.39437   0.000000880641351  -0.000003110674857  -0.000003106582285
Si   11.54087  14.25638   3.39437  -0.000003110708353   0.000000880651702  -0.000003106575670
Si   14.25638  14.25638   0.67888   0.000000000003745  -0.000000000019565   0.000007347296718
Si   15.61412  12.89863   2.03662  -0.000003092521237   0.000003092553582   0.000000875632118
Si   15.61412  15.61412   4.75213  -0.000008381555452  -0.000008381565422   0.000008385449892
Si   12.89863  12.89863   4.75213   0.000008381565472   0.000008381553334   0.000008385468604
Si   12.89863  15.61412   2.03662   0.000003092513359  -0.000003092519404   0.000000875644121
Si   11.54087  11.54087   6.10987  -0.000003092510821  -0.000003092499583   0.000000875635585
Si   14.25638  11.54087   8.82538  -0.000000880673055  -0.000003110668207   0.000003106561016
Si   11.54087  14.25638   8.82538  -0.000003110686474  -0.000000880681729   0.000003106562913
Si   14.25638  14.25638   6.10987  -0.000000000014693  -0.000000000008033  -0.000000000011408
Si   15.61412  12.89863   7.46762  -0.000008381578047   0.000008381569553  -0.000008385462799
Si   15.61412  15.61412  10.18313  -0.000003092531680  -0.000003092520249  -0.000000875637485
Si   12.89863  12.89863  10.18313   0.000003092503892   0.000003092507350  -0.000000875628621
Si   12.89863  15.61412   7.46762   0.000008381556301  -0.000008381569165  -0.000008385466817
Si   11.54087  11.54087  11.54087  -0.000008381562105  -0.000008381532819  -0.000008385470675
Si   14.25638  11.54087  14.25638   0.000000000003314  -0.000007339857464   0.000000000010616
Si   11.54087  14.25638  14.25638  -0.000007339850979  -0.000000000015341   0.000000000020698
Si   14.25638  14.25638  11.54087  -0.000000000003756   0.000000000002237  -0.000007347273586
Si   15.61412  12.89863  12.89863  -0.000009230669150   0.000009230651765   0.000009212820151
Si   15.61412  15.61412  15.61412  -0.000009230627424  -0.000009230632777  -0.000009212813089
Si   12.89863  12.89863  15.61412   0.000009230630912   0.000009230643737  -0.000009212813492
Si   12.89863  15.61412  12.89863   0.000009230647450  -0.000009230635987   0.000009212810477
