360 

Si    0.00000   0.00000   0.00000  -0.000050208164833  -0.000050208185305   0.000226614745754
Si    1.35775   1.35775   1.35775   0.000045839193035   0.000045839178705  -0.000245283122432
Si    2.71550   2.71550   0.00000  -0.000050208173875  -0.000050208175886   0.000226614742132
Si    4.07325   4.07325   1.35775   0.000045839188679   0.000045839199049  -0.000245283120313
Si    5.43100   5.43100   0.00000  -0.000050208166644  -0.000050208153024   0.000226614740579
Si    6.78875   6.78875   1.35775   0.000045839206818   0.000045839217788  -0.000245283121947
Si    8.14650   8.14650   0.00000  -0.000050208150000  -0.000050208148660   0.000226614746323
Si    9.50425   9.50425   1.35775   0.000045839219225   0.000045839208890  -0.000245283122429
Si   10.86200  10.86200   0.00000  -0.000050208147285  -0.000050208169054   0.000226614748293
Si   12.21975  12.21975   1.35775   0.000045839213102   0.000045839184468  -0.000245283123024
Si    2.71550   0.00000   2.71550  -0.000034398943936  -0.000054519114246   0.000239091716779
Si    4.07325   1.35775   4.07325   0.000046927915791   0.000063566704865  -0.000235114137802
Si    5.43100   2.71550   2.71550  -0.000034398938253  -0.000054519094728   0.000239091720562
Si    6.78875   4.07325   4.07325   0.000046927922374   0.000063566727247  -0.000235114135650
Si    8.14650   5.43100   2.71550  -0.000034398916334  -0.000054519077347   0.000239091722222
Si    9.50425   6.78875   4.07325   0.000046927945526   0.000063566739379  -0.000235114148321
Si   10.86200   8.14650   2.71550  -0.000034398903070  -0.000054519081424   0.000239091714715
Si   12.21975   9.50425   4.07325   0.000046927944396   0.000063566716269  -0.000235114149627
Si   13.57750  10.86200   2.71550  -0.000034398921734  -0.000054519108578   0.000239091715373
Si   14.93525  12.21975   4.07325   0.000046927927523   0.000063566694938  -0.000235114141963
Si    5.43100   0.00000   5.43100  -0.000052886852169  -0.000057666562252   0.000224303761007
Si    6.78875   1.35775   6.78875   0.000053906910842   0.000052536702180  -0.000234724414273
Si    8.14650   2.71550   5.43100  -0.000052886833197  -0.000057666539854   0.000224303751953
Si    9.50425   4.07325   6.78875   0.000054517044216   0.000053149670033  -0.000234724426083
Si   10.86200   5.43100   5.43100  -0.000052886812460  -0.000057666525541   0.000224303741704
Si   12.21975   6.78875   6.78875   0.000054517056609   0.000053149671739  -0.000234724440245
Si   13.57750   8.14650   5.43100  -0.000052886811797  -0.000057666535801   0.000224303734509
Si   14.93525   9.50425   6.78875   0.000054517049185   0.000053149655163  -0.000234724440679
Si   16.29300  10.86200   5.43100  -0.000052886834658  -0.000057666560689   0.000224303742960
Si   17.65075  12.21975   6.78875   0.000054517029910   0.000053149641629  -0.000234724426063
Si    8.14650   0.00000   8.14650  -0.000050823717154  -0.000050823674152   0.000226614731469
Si    9.50425   1.35775   9.50425   0.000045224190815   0.000045224232299  -0.000245283136094
Si   10.86200   2.71550   8.14650  -0.000050823701294  -0.000050823660882   0.000226614725778
Si   12.21975   4.07325   9.50425   0.000045224210146   0.000045224244017  -0.000245283148623
Si   13.57750   5.43100   8.14650  -0.000050823686341  -0.000050823653404   0.000226614710334
Si   14.93525   6.78875   9.50425   0.000045224210278   0.000045224245811  -0.000245283158180
Si   16.29300   8.14650   8.14650  -0.000050816487185  -0.000050816453933   0.000226614709041
Si   17.65075   9.50425   9.50425   0.000045224193450   0.000045224233681  -0.000245283157810
Si   19.00850  10.86200   8.14650  -0.000050823720115  -0.000050823677702   0.000226614722696
Si   20.36625  12.21975   9.50425   0.000045224175967   0.000045224225118  -0.000245283138514
Si   10.86200   0.00000  10.86200  -0.000034398943877  -0.000054519085744   0.000239091713188
Si   12.21975   1.35775  12.21975   0.000046927921809   0.000063566721476  -0.000235114141614
Si   13.57750   2.71550  10.86200  -0.000034398930092  -0.000054519079309   0.000239091704608
Si   14.93525   4.07325  12.21975   0.000046927924629   0.000063566733789  -0.000235114161181
Si   16.29300   5.43100  10.86200  -0.000034398932179  -0.000054519073842   0.000239091692485
Si   17.65075   6.78875  12.21975   0.000046927918631   0.000063566733424  -0.000235114162894
Si   19.00850   8.14650  10.86200  -0.000034398952193  -0.000054519068457   0.000239091688803
Si   20.36625   9.50425  12.21975   0.000046927907287   0.000063566737847  -0.000235114160043
Si   21.72400  10.86200  10.86200  -0.000034398954761  -0.000054519076830   0.000239091702479
Si   23.08175  12.21975  12.21975   0.000046927909713   0.000063566722795  -0.000235114140032
Si   13.57750   0.00000  13.57750  -0.000052886813115  -0.000057666559067   0.000224303763239
Si   14.93525   1.35775  14.93525   0.000054517336638   0.000053149973694  -0.000234724412534
Si   16.29300   2.71550  13.57750  -0.000052886823473  -0.000057666556510   0.000224303752275
Si   17.65075   4.07325  14.93525   0.000054517323590   0.000053149984182  -0.000234724420556
Si   19.00850   5.43100  13.57750  -0.000052886834287  -0.000057666540578   0.000224303741254
Si   20.36625   6.78875  14.93525   0.000054517324350   0.000053150001556  -0.000234724422471
Si   21.72400   8.14650  13.57750  -0.000052886834077  -0.000057666538187   0.000224303750932
Si   23.08175   9.50425  14.93525   0.000054517330562   0.000053149998519  -0.000234724412052
Si   24.43950  10.86200  13.57750  -0.000052886819428  -0.000057666547122   0.000224303762467
Si   25.79725  12.21975  14.93525   0.000054517336024   0.000053149981019  -0.000234724405744
Si    0.00000   2.71550   2.71550  -0.000054519100757  -0.000034398941719   0.000239091721746
Si    1.35775   4.07325   4.07325   0.000063566714891   0.000046927924616  -0.000235114137591
Si    2.71550   5.43100   2.71550  -0.000054519101781  -0.000034398923404   0.000239091722943
Si    4.07325   6.78875   4.07325   0.000063566715804   0.000046927942802  -0.000235114136856
Si    5.43100   8.14650   2.71550  -0.000054519097185  -0.000034398909987   0.000239091723170
Si    6.78875   9.50425   4.07325   0.000063566726382   0.000046927943235  -0.000235114141342
Si    8.14650  10.86200   2.71550  -0.000054519093980  -0.000034398919102   0.000239091719580
Si    9.50425  12.21975   4.07325   0.000063566725298   0.000046927927375  -0.000235114147933
Si   10.86200  13.57750   2.71550  -0.000054519094282  -0.000034398937421   0.000239091718141
Si   12.21975  14.93525   4.07325   0.000063566719637   0.000046927916958  -0.000235114147090
Si    2.71550   2.71550   5.43100  -0.000052354975286  -0.000052354971656   0.000229861175582
Si    4.07325   4.07325   6.78875   0.000043302128621   0.000043302137518  -0.000245316133199
Si    5.43100   5.43100   5.43100  -0.000052354968816  -0.000052354958379   0.000229861183957
Si    6.78875   6.78875   6.78875   0.000043302130908   0.000043302142669  -0.000245316132024
Si    8.14650   8.14650   5.43100  -0.000052354960998  -0.000052354950494   0.000229861171685
Si    9.50425   9.50425   6.78875   0.000043302142925   0.000043302142408  -0.000245316153510
Si   10.86200  10.86200   5.43100  -0.000052354952999  -0.000052354965953   0.000229861163833
Si   12.21975  12.21975   6.78875   0.000043302145620   0.000043302129695  -0.000245316157077
Si   13.57750  13.57750   5.43100  -0.000052354961072  -0.000052354984398   0.000229861168999
Si   14.93525  14.93525   6.78875   0.000043302138698   0.000043302117532  -0.000245316136945
Si    5.43100   2.71550   8.14650  -0.000054424692277  -0.000044137960557   0.000238293350681
Si    6.78875   4.07325   9.50425   0.000061195849820   0.000041418014726  -0.000233473408433
Si    8.14650   5.43100   8.14650  -0.000054424685344  -0.000044137946023   0.000238293340204
Si    9.50425   6.78875   9.50425   0.000061195861713   0.000041418021213  -0.000233473422344
Si   10.86200   8.14650   8.14650  -0.000054424670452  -0.000044137947944   0.000238293326547
Si   12.21975   9.50425   9.50425   0.000061195879378   0.000041418015214  -0.000233473434512
Si   13.57750  10.86200   8.14650  -0.000054424667614  -0.000044137961720   0.000238293323837
Si   14.93525  12.21975   9.50425   0.000061195876112   0.000041418005325  -0.000233473427117
Si   16.29300  13.57750   8.14650  -0.000054424680581  -0.000044137966861   0.000238293335113
Si   17.65075  14.93525   9.50425   0.000061195858793   0.000041418005989  -0.000233473414863
Si    8.14650   2.71550  10.86200  -0.000054519131116  -0.000034398908419   0.000239091713517
Si    9.50425   4.07325  12.21975   0.000063566676271   0.000046927957432  -0.000235114151158
Si   10.86200   5.43100  10.86200  -0.000054519111471  -0.000034398903403   0.000239091705667
Si   12.21975   6.78875  12.21975   0.000063566701839   0.000046927955938  -0.000235114158945
Si   13.57750   8.14650  10.86200  -0.000054519101456  -0.000034398898318   0.000239091691059
Si   14.93525   9.50425  12.21975   0.000063566710998   0.000046927957094  -0.000235114168144
Si   16.29300  10.86200  10.86200  -0.000054519107179  -0.000034398907926   0.000239091696486
Si   17.65075  12.21975  12.21975   0.000063566696940   0.000046927951489  -0.000235114158365
Si   19.00850  13.57750  10.86200  -0.000054519124898  -0.000034398910790   0.000239091707579
Si   20.36625  14.93525  12.21975   0.000063566683423   0.000046927949998  -0.000235114147605
Si   10.86200   2.71550  13.57750  -0.000051739466899  -0.000051739426570   0.000229861169424
Si   12.21975   4.07325  14.93525   0.000043302121204   0.000043302148753  -0.000245316144022
Si   13.57750   5.43100  13.57750  -0.000051739459395  -0.000051739422270   0.000229861159132
Si   14.93525   6.78875  14.93525   0.000043302123922   0.000043302156845  -0.000245316153804
Si   16.29300   8.14650  13.57750  -0.000052354978542  -0.000052354940943   0.000229861157284
Si   17.65075   9.50425  14.93525   0.000043302123527   0.000043302162221  -0.000245316155937
Si   19.00850  10.86200  13.57750  -0.000051739469058  -0.000051739417905   0.000229861157507
Si   20.36625  12.21975  14.93525   0.000043302113885   0.000043302159432  -0.000245316147251
Si   21.72400  13.57750  13.57750  -0.000051739476296  -0.000051739431440   0.000229861173147
Si   23.08175  14.93525  14.93525   0.000043302110802   0.000043302146293  -0.000245316134665
Si   13.57750   2.71550  16.29300  -0.000054424682947  -0.000044137964630   0.000238293348950
Si   14.93525   4.07325  17.65075   0.000061192839540   0.000041414366463  -0.000233473411990
Si   16.29300   5.43100  16.29300  -0.000054424680964  -0.000044137956165   0.000238293341044
Si   17.65075   6.78875  17.65075   0.000061192840314   0.000041414379565  -0.000233473413550
Si   19.00850   8.14650  16.29300  -0.000054424683981  -0.000044137942230   0.000238293339516
Si   20.36625   9.50425  17.65075   0.000061192841905   0.000041414389393  -0.000233473413401
Si   21.72400  10.86200  16.29300  -0.000054424681532  -0.000044137946903   0.000238293347387
Si   23.08175  12.21975  17.65075   0.000061192843294   0.000041414375486  -0.000233473407384
Si   24.43950  13.57750  16.29300  -0.000054424684538  -0.000044137958449   0.000238293351086
Si   25.79725  14.93525  17.65075   0.000061192840025   0.000041414361551  -0.000233473407735
Si    0.00000   5.43100   5.43100  -0.000057666548060  -0.000052886826065   0.000224303752624
Si    1.35775   6.78875   6.78875   0.000053149665416   0.000054517054269  -0.000234724420673
Si    2.71550   8.14650   5.43100  -0.000057666547755  -0.000052886813233   0.000224303756193
Si    4.07325   9.50425   6.78875   0.000053149657101   0.000054517058949  -0.000234724422494
Si    5.43100  10.86200   5.43100  -0.000057666552793  -0.000052886815029   0.000224303751571
Si    6.78875  12.21975   6.78875   0.000053149649338   0.000054517048607  -0.000234724434303
Si    8.14650  13.57750   5.43100  -0.000057666550127  -0.000052886826817   0.000224303742394
Si    9.50425  14.93525   6.78875   0.000053149659708   0.000054517039590  -0.000234724440128
Si   10.86200  16.29300   5.43100  -0.000057666552294  -0.000052886833842   0.000224303742738
Si   12.21975  17.65075   6.78875   0.000053149663167   0.000054517045143  -0.000234724433035
Si    2.71550   5.43100   8.14650  -0.000044137956789  -0.000054424674428   0.000238293348155
Si    4.07325   6.78875   9.50425   0.000041418004815   0.000061195872399  -0.000233473412968
Si    5.43100   8.14650   8.14650  -0.000044137965160  -0.000054424670069   0.000238293346358
Si    6.78875   9.50425   9.50425   0.000041417999677   0.000061195869638  -0.000233473421608
Si    8.14650  10.86200   8.14650  -0.000044137960903  -0.000054424672104   0.000238293325384
Si    9.50425  12.21975   9.50425   0.000041418008372   0.000061195855507  -0.000233473429535
Si   10.86200  13.57750   8.14650  -0.000044137952738  -0.000054424686724   0.000238293325018
Si   12.21975  14.93525   9.50425   0.000041418021069   0.000061195862380  -0.000233473434584
Si   13.57750  16.29300   8.14650  -0.000044137946291  -0.000054424686654   0.000238293336552
Si   14.93525  17.65075   9.50425   0.000041418019186   0.000061195862283  -0.000233473413235
Si    5.43100   5.43100  10.86200  -0.000047352742279  -0.000047352725879   0.000243684174642
Si    6.78875   6.78875  12.21975   0.000058193819942   0.000058193833621  -0.000224055176100
Si    8.14650   8.14650  10.86200  -0.000047352745083  -0.000047352725202   0.000243684165960
Si    9.50425   9.50425  12.21975   0.000058193824023   0.000058193828174  -0.000224055188050
Si   10.86200  10.86200  10.86200  -0.000047352719962  -0.000047352731796   0.000243684152189
Si   12.21975  12.21975  12.21975   0.000058193848689   0.000058193828092  -0.000224055196390
Si   13.57750  13.57750  10.86200  -0.000047352710829  -0.000047352735474   0.000243684155060
Si   14.93525  14.93525  12.21975   0.000058193849655   0.000058193830087  -0.000224055187682
Si   16.29300  16.29300  10.86200  -0.000047352718036  -0.000047352728661   0.000243684167892
Si   17.65075  17.65075  12.21975   0.000058193836396   0.000058193837460  -0.000224055179477
Si    8.14650   5.43100  13.57750  -0.000057666581809  -0.000052886807054   0.000224303751797
Si    9.50425   6.78875  14.93525   0.000052536675235   0.000053906948924  -0.000234724430851
Si   10.86200   8.14650  13.57750  -0.000057666564066  -0.000052886809525   0.000224303741385
Si   12.21975   9.50425  14.93525   0.000052536693301   0.000053906944791  -0.000234724438195
Si   13.57750  10.86200  13.57750  -0.000057666545218  -0.000052886807837   0.000224303731163
Si   14.93525  12.21975  14.93525   0.000052536706305   0.000053906950210  -0.000234724443947
Si   16.29300  13.57750  13.57750  -0.000057666544729  -0.000052886805210   0.000224303735353
Si   17.65075  14.93525  14.93525   0.000052536701287   0.000053906954041  -0.000234724435853
Si   19.00850  16.29300  13.57750  -0.000057666572636  -0.000052886804924   0.000224303746512
Si   20.36625  17.65075  14.93525   0.000052536677941   0.000053906954046  -0.000234724427211
Si   10.86200   5.43100  16.29300  -0.000044137985793  -0.000054424662210   0.000238293338341
Si   12.21975   6.78875  17.65075   0.000041417987729   0.000061195875799  -0.000233473428866
Si   13.57750   8.14650  16.29300  -0.000044137972936  -0.000054424652440   0.000238293322589
Si   14.93525   9.50425  17.65075   0.000041418002446   0.000061195886100  -0.000233473433847
Si   16.29300  10.86200  16.29300  -0.000044137962933  -0.000054424648429   0.000238293318963
Si   17.65075  12.21975  17.65075   0.000041418002748   0.000061195884882  -0.000233473427559
Si   19.00850  13.57750  16.29300  -0.000044137976687  -0.000054424651679   0.000238293330393
Si   20.36625  14.93525  17.65075   0.000041417985597   0.000061195889626  -0.000233473428565
Si   21.72400  16.29300  16.29300  -0.000044137988814  -0.000054424658184   0.000238293339094
Si   23.08175  17.65075  17.65075   0.000041417975754   0.000061195878754  -0.000233473425368
Si   13.57750   5.43100  19.00850  -0.000047352742136  -0.000047352729951   0.000243684162746
Si   14.93525   6.78875  20.36625   0.000058193837689   0.000058193831316  -0.000224055185068
Si   16.29300   8.14650  19.00850  -0.000047352732167  -0.000047352719380   0.000243684163977
Si   17.65075   9.50425  20.36625   0.000058193838696   0.000058193840621  -0.000224055181862
Si   19.00850  10.86200  19.00850  -0.000047352725650  -0.000047352713637   0.000243684163556
Si   20.36625  12.21975  20.36625   0.000058193836091   0.000058193840919  -0.000224055184218
Si   21.72400  13.57750  19.00850  -0.000047350588755  -0.000047350573233   0.000243684166706
Si   23.08175  14.93525  20.36625   0.000058193824947   0.000058193827288  -0.000224055186780
Si   24.43950  16.29300  19.00850  -0.000047350593850  -0.000047350581760   0.000243684166481
Si   25.79725  17.65075  20.36625   0.000058193830061   0.000058193823324  -0.000224055190211
Si    0.00000   8.14650   8.14650  -0.000051431971750  -0.000051432001730   0.000226614730079
Si    1.35775   9.50425   9.50425   0.000045224247292   0.000045224197715  -0.000245283128904
Si    2.71550  10.86200   8.14650  -0.000051431981044  -0.000051432002986   0.000226614727419
Si    4.07325  12.21975   9.50425   0.000045224222120   0.000045224195186  -0.000245283145210
Si    5.43100  13.57750   8.14650  -0.000050823679186  -0.000050823698376   0.000226614716781
Si    6.78875  14.93525   9.50425   0.000045224213430   0.000045224191002  -0.000245283159815
Si    8.14650  16.29300   8.14650  -0.000050823674157  -0.000050823700611   0.000226614708695
Si    9.50425  17.65075   9.50425   0.000045224231119   0.000045224196645  -0.000245283158968
Si   10.86200  19.00850   8.14650  -0.000051431976773  -0.000051432008137   0.000226614714611
Si   12.21975  20.36625   9.50425   0.000045224245208   0.000045224206534  -0.000245283144895
Si    2.71550   8.14650  10.86200  -0.000034398902133  -0.000054519100963   0.000239091712085
Si    4.07325   9.50425  12.21975   0.000046927936412   0.000063566701899  -0.000235114149286
Si    5.43100  10.86200  10.86200  -0.000034398926078  -0.000054519117357   0.000239091708803
Si    6.78875  12.21975  12.21975   0.000046927930658   0.000063566686668  -0.000235114163211
Si    8.14650  13.57750  10.86200  -0.000034398920884  -0.000054519117362   0.000239091687839
Si    9.50425  14.93525  12.21975   0.000046927948765   0.000063566686618  -0.000235114165596
Si   10.86200  16.29300  10.86200  -0.000034398900540  -0.000054519109655   0.000239091684751
Si   12.21975  17.65075  12.21975   0.000046927969625   0.000063566709369  -0.000235114165731
Si   13.57750  19.00850  10.86200  -0.000034398889174  -0.000054519103265   0.000239091707344
Si   14.93525  20.36625  12.21975   0.000046927960909   0.000063566718483  -0.000235114157168
Si    5.43100   8.14650  13.57750  -0.000052886825851  -0.000057666561398   0.000224303749817
Si    6.78875   9.50425  14.93525   0.000053906930988   0.000052536679230  -0.000234724433483
Si    8.14650  10.86200  13.57750  -0.000052886830141  -0.000057666573035   0.000224303739127
Si    9.50425  12.21975  14.93525   0.000053906942957   0.000052536671465  -0.000234724440455
Si   10.86200  13.57750  13.57750  -0.000052886799606  -0.000057666568445   0.000224303729609
Si   12.21975  14.93525  14.93525   0.000053906974483   0.000052536687846  -0.000234724446204
Si   13.57750  16.29300  13.57750  -0.000052886782099  -0.000057666557898   0.000224303735745
Si   14.93525  17.65075  14.93525   0.000053906976286   0.000052536702437  -0.000234724440797
Si   16.29300  19.00850  13.57750  -0.000052886793469  -0.000057666556187   0.000224303751613
Si   17.65075  20.36625  14.93525   0.000053906950187   0.000052536698930  -0.000234724432215
Si    8.14650   8.14650  16.29300  -0.000050816495067  -0.000050816481913   0.000226614719286
Si    9.50425   9.50425  17.65075   0.000045224206007   0.000045224191235  -0.000245283149794
Si   10.86200  10.86200  16.29300  -0.000050816476554  -0.000050816486538   0.000226614709742
Si   12.21975  12.21975  17.65075   0.000045224228307   0.000045224200668  -0.000245283159928
Si   13.57750  13.57750  16.29300  -0.000050816453882  -0.000050816479173   0.000226614706411
Si   14.93525  14.93525  17.65075   0.000045224238001   0.000045224215510  -0.000245283163361
Si   16.29300  16.29300  16.29300  -0.000050816451365  -0.000050816469838   0.000226614712009
Si   17.65075  17.65075  17.65075   0.000045224225689   0.000045224220509  -0.000245283158631
Si   19.00850  19.00850  16.29300  -0.000050816480073  -0.000050816470519   0.000226614717827
Si   20.36625  20.36625  17.65075   0.000045224198491   0.000045224210730  -0.000245283154052
Si   10.86200   8.14650  19.00850  -0.000034398931069  -0.000054519099353   0.000239091684790
Si   12.21975   9.50425  20.36625   0.000046927931355   0.000063566700398  -0.000235114167289
Si   13.57750  10.86200  19.00850  -0.000034398916456  -0.000054519100092   0.000239091686348
Si   14.93525  12.21975  20.36625   0.000046927956130   0.000063566712743  -0.000235114176844
Si   16.29300  13.57750  19.00850  -0.000034398903731  -0.000054519085227   0.000239091680478
Si   17.65075  14.93525  20.36625   0.000046927951226   0.000063566714725  -0.000235114171839
Si   19.00850  16.29300  19.00850  -0.000034398923152  -0.000054519083937   0.000239091680315
Si   20.36625  17.65075  20.36625   0.000046927926725   0.000063566718540  -0.000235114180472
Si   21.72400  19.00850  19.00850  -0.000034398939205  -0.000054519095884   0.000239091690600
Si   23.08175  20.36625  20.36625   0.000046927913504   0.000063566713794  -0.000235114182744
Si   13.57750   8.14650  21.72400  -0.000052885426022  -0.000057665030612   0.000224303730078
Si   14.93525   9.50425  23.08175   0.000053906964880   0.000052536689578  -0.000234724438675
Si   16.29300  10.86200  21.72400  -0.000052885419443  -0.000057665026875   0.000224303735615
Si   17.65075  12.21975  23.08175   0.000053906962453   0.000052536688162  -0.000234724436212
Si   19.00850  13.57750  21.72400  -0.000052885421947  -0.000057665024899   0.000224303730694
Si   20.36625  14.93525  23.08175   0.000053906947896   0.000052536687710  -0.000234724449013
Si   21.72400  16.29300  21.72400  -0.000052885438390  -0.000057665031068   0.000224303727187
Si   23.08175  17.65075  23.08175   0.000053906936378   0.000052536685591  -0.000234724454806
Si   24.43950  19.00850  21.72400  -0.000052885438617  -0.000057665038394   0.000224303730417
Si   25.79725  20.36625  23.08175   0.000053906944677   0.000052536687662  -0.000234724446837
Si    0.00000  10.86200  10.86200  -0.000053909171510  -0.000033791532936   0.000239091710995
Si    1.35775  12.21975  12.21975   0.000063566737034   0.000046927915044  -0.000235114145224
Si    2.71550  13.57750  10.86200  -0.000053909192034  -0.000033791545676   0.000239091704300
Si    4.07325  14.93525  12.21975   0.000063566712998   0.000046927904670  -0.000235114158122
Si    5.43100  16.29300  10.86200  -0.000053909201996  -0.000033791545369   0.000239091687986
Si    6.78875  17.65075  12.21975   0.000063566718898   0.000046927918095  -0.000235114168940
Si    8.14650  19.00850  10.86200  -0.000053909191804  -0.000033791533566   0.000239091687077
Si    9.50425  20.36625  12.21975   0.000063566743550   0.000046927934203  -0.000235114160286
Si   10.86200  21.72400  10.86200  -0.000053909170406  -0.000033791526032   0.000239091701386
Si   12.21975  23.08175  12.21975   0.000063566754767   0.000046927932207  -0.000235114146684
Si    2.71550  10.86200  13.57750  -0.000051739436642  -0.000051739465796   0.000229861172161
Si    4.07325  12.21975  14.93525   0.000043302132269   0.000043302106874  -0.000245316148391
Si    5.43100  13.57750  13.57750  -0.000051739454066  -0.000051739475174   0.000229861156906
Si    6.78875  14.93525  14.93525   0.000043302126157   0.000043302106912  -0.000245316155017
Si    8.14650  16.29300  13.57750  -0.000051739438505  -0.000051739470531   0.000229861153226
Si    9.50425  17.65075  14.93525   0.000043302156027   0.000043302129974  -0.000245316157249
Si   10.86200  19.00850  13.57750  -0.000051739409913  -0.000051739448004   0.000229861157534
Si   12.21975  20.36625  14.93525   0.000043302178502   0.000043302144964  -0.000245316152592
Si   13.57750  21.72400  13.57750  -0.000051739407316  -0.000051739446633   0.000229861168936
Si   14.93525  23.08175  14.93525   0.000043302159715   0.000043302131878  -0.000245316146450
Si    5.43100  10.86200  16.29300  -0.000054424690190  -0.000044137989256   0.000238293331090
Si    6.78875  12.21975  17.65075   0.000061195854953   0.000041417974387  -0.000233473428145
Si    8.14650  13.57750  16.29300  -0.000054424680752  -0.000044137994263   0.000238293327141
Si    9.50425  14.93525  17.65075   0.000061195876629   0.000041417982698  -0.000233473430583
Si   10.86200  16.29300  16.29300  -0.000054424646047  -0.000044137972463   0.000238293322101
Si   12.21975  17.65075  17.65075   0.000061195908303   0.000041418008322  -0.000233473435108
Si   13.57750  19.00850  16.29300  -0.000054424632366  -0.000044137956340   0.000238293325073
Si   14.93525  20.36625  17.65075   0.000061195903541   0.000041418015034  -0.000233473436653
Si   16.29300  21.72400  16.29300  -0.000054424656868  -0.000044137965916   0.000238293330663
Si   17.65075  23.08175  17.65075   0.000061195872648   0.000041417992778  -0.000233473432257
Si    8.14650  10.86200  19.00850  -0.000054519117007  -0.000034398945171   0.000239091687666
Si    9.50425  12.21975  20.36625   0.000063566703095   0.000046927915057  -0.000235114171207
Si   10.86200  13.57750  19.00850  -0.000054519091925  -0.000034398938995   0.000239091687095
Si   12.21975  14.93525  20.36625   0.000063566733149   0.000046927929117  -0.000235114173773
Si   13.57750  16.29300  19.00850  -0.000054519066502  -0.000034398920066   0.000239091683885
Si   14.93525  17.65075  20.36625   0.000063566743832   0.000046927947037  -0.000235114181495
Si   16.29300  19.00850  19.00850  -0.000054519074698  -0.000034398914206   0.000239091682573
Si   17.65075  20.36625  20.36625   0.000063566721778   0.000046927943099  -0.000235114183601
Si   19.00850  21.72400  19.00850  -0.000054519105754  -0.000034398929369   0.000239091685729
Si   20.36625  23.08175  20.36625   0.000063566696095   0.000046927922607  -0.000235114178421
Si   10.86200  10.86200  21.72400  -0.000052354969595  -0.000052354977689   0.000229861139420
Si   12.21975  12.21975  23.08175   0.000043302144766   0.000043302126164  -0.000245316168224
Si   13.57750  13.57750  21.72400  -0.000052354944333  -0.000052354971786   0.000229861142424
Si   14.93525  14.93525  23.08175   0.000043302160720   0.000043302136166  -0.000245316171202
Si   16.29300  16.29300  21.72400  -0.000052354939047  -0.000052354962486   0.000229861136469
Si   17.65075  17.65075  23.08175   0.000043302149122   0.000043302140685  -0.000245316182028
Si   19.00850  19.00850  21.72400  -0.000052354962115  -0.000052354962637   0.000229861130565
Si   20.36625  20.36625  23.08175   0.000043302127516   0.000043302134998  -0.000245316185956
Si   21.72400  21.72400  21.72400  -0.000052354979105  -0.000052354973426   0.000229861132552
Si   23.08175  23.08175  23.08175   0.000043302124140   0.000043302126663  -0.000245316177706
Si   13.57750  10.86200  24.43950  -0.000054424651086  -0.000044137974430   0.000238293322899
Si   14.93525  12.21975  25.79725   0.000061195904048   0.000041417990219  -0.000233473421641
Si   16.29300  13.57750  24.43950  -0.000054424646086  -0.000044137976184   0.000238293324016
Si   17.65075  14.93525  25.79725   0.000061195892431   0.000041417985223  -0.000233473430811
Si   19.00850  16.29300  24.43950  -0.000054424661162  -0.000044137974310   0.000238293311019
Si   20.36625  17.65075  25.79725   0.000061195873913   0.000041417986754  -0.000233473445856
Si   21.72400  19.00850  24.43950  -0.000054424676556  -0.000044137975369   0.000238293303487
Si   23.08175  20.36625  25.79725   0.000061195873717   0.000041417993210  -0.000233473446582
Si   24.43950  21.72400  24.43950  -0.000054424670930  -0.000044137975009   0.000238293310721
Si   25.79725  23.08175  25.79725   0.000061195892335   0.000041417994237  -0.000233473431991
Si    0.00000  13.57750  13.57750  -0.000057666535691  -0.000052886835771   0.000224303761494
Si    1.35775  14.93525  14.93525   0.000052536698365   0.000053906913473  -0.000234724412536
Si    2.71550  16.29300  13.57750  -0.000057666558139  -0.000052886844408   0.000224303750408
Si    4.07325  17.65075  14.93525   0.000052536684990   0.000053906922292  -0.000234724421589
Si    5.43100  19.00850  13.57750  -0.000057666561418  -0.000052886826392   0.000224303741055
Si    6.78875  20.36625  14.93525   0.000052536702385   0.000053906946979  -0.000234724421068
Si    8.14650  21.72400  13.57750  -0.000057666540588  -0.000052886810992   0.000224303748621
Si    9.50425  23.08175  14.93525   0.000052536724567   0.000053906954589  -0.000234724414529
Si   10.86200  24.43950  13.57750  -0.000057666522990  -0.000052886816546   0.000224303761275
Si   12.21975  25.79725  14.93525   0.000052536723068   0.000053906934866  -0.000234724409284
Si    2.71550  13.57750  16.29300  -0.000044137964022  -0.000054424694232   0.000238293342856
Si    4.07325  14.93525  17.65075   0.000041414346417   0.000061192820932  -0.000233473410617
Si    5.43100  16.29300  16.29300  -0.000044137981130  -0.000054424696689   0.000238293341840
Si    6.78875  17.65075  17.65075   0.000041417987127   0.000061195866818  -0.000233473409834
Si    8.14650  19.00850  16.29300  -0.000044137955762  -0.000054424668723   0.000238293341574
Si    9.50425  20.36625  17.65075   0.000041414382242   0.000061192863795  -0.000233473413123
Si   10.86200  21.72400  16.29300  -0.000044137930559  -0.000054424652669   0.000238293342341
Si   12.21975  23.08175  17.65075   0.000041414393504   0.000061192862989  -0.000233473416469
Si   13.57750  24.43950  16.29300  -0.000044137941650  -0.000054424670160   0.000238293346371
Si   14.93525  25.79725  17.65075   0.000041414366655   0.000061192838583  -0.000233473416674
Si    5.43100  13.57750  19.00850  -0.000047350610083  -0.000047350604413   0.000243684167367
Si    6.78875  14.93525  20.36625   0.000058193803822   0.000058193817082  -0.000224055177785
Si    8.14650  16.29300  19.00850  -0.000047350594717  -0.000047350589342   0.000243684167782
Si    9.50425  17.65075  20.36625   0.000058193827928   0.000058193840010  -0.000224055178538
Si   10.86200  19.00850  19.00850  -0.000047350563473  -0.000047350563556   0.000243684162172
Si   12.21975  20.36625  20.36625   0.000058193851515   0.000058193859027  -0.000224055191903
Si   13.57750  21.72400  19.00850  -0.000047350557176  -0.000047350559923   0.000243684157676
Si   14.93525  23.08175  20.36625   0.000058193842223   0.000058193851220  -0.000224055198738
Si   16.29300  24.43950  19.00850  -0.000047352732780  -0.000047352737930   0.000243684163579
Si   17.65075  25.79725  20.36625   0.000058193812185   0.000058193825260  -0.000224055188616
Si    8.14650  13.57750  21.72400  -0.000057666581147  -0.000052886825809   0.000224303738608
Si    9.50425  14.93525  23.08175   0.000052536676851   0.000053906940111  -0.000234724433038
Si   10.86200  16.29300  21.72400  -0.000057666554697  -0.000052886810034   0.000224303736268
Si   12.21975  17.65075  23.08175   0.000052536707160   0.000053906958655  -0.000234724441694
Si   13.57750  19.00850  21.72400  -0.000057666536558  -0.000052886793835   0.000224303724496
Si   14.93525  20.36625  23.08175   0.000052536713296   0.000053906967005  -0.000234724454641
Si   16.29300  21.72400  21.72400  -0.000057666550353  -0.000052886801329   0.000224303721659
Si   17.65075  23.08175  23.08175   0.000052536686080   0.000053906956169  -0.000234724456454
Si   19.00850  24.43950  21.72400  -0.000057666579473  -0.000052886817533   0.000224303728705
Si   20.36625  25.79725  23.08175   0.000052536665404   0.000053906940680  -0.000234724443584
Si   10.86200  13.57750  24.43950  -0.000044137963749  -0.000054424666943   0.000238293323350
Si   12.21975  14.93525  25.79725   0.000041414317901   0.000061192782152  -0.000233473416810
Si   13.57750  16.29300  24.43950  -0.000044137951750  -0.000054424663992   0.000238293322631
Si   14.93525  17.65075  25.79725   0.000041414326288   0.000061192787956  -0.000233473430387
Si   16.29300  19.00850  24.43950  -0.000044137952798  -0.000054424656756   0.000238293310330
Si   17.65075  20.36625  25.79725   0.000041414311202   0.000061192798642  -0.000233473448949
Si   19.00850  21.72400  24.43950  -0.000044137974952  -0.000054424659392   0.000238293305810
Si   20.36625  23.08175  25.79725   0.000041414294834   0.000061192795381  -0.000233473445097
Si   21.72400  24.43950  24.43950  -0.000044137987010  -0.000054424667876   0.000238293316445
Si   23.08175  25.79725  25.79725   0.000041414293576   0.000061192788983  -0.000233473430669
Si   13.57750  13.57750  27.15500  -0.000047350563872  -0.000047350588745   0.000243684172197
Si   14.93525  14.93525  28.51275   0.000057578620045   0.000057578594575  -0.000224055170173
Si   16.29300  16.29300  27.15500  -0.000047350567998  -0.000047350592489   0.000243684163253
Si   17.65075  17.65075  28.51275   0.000057578607854   0.000057578593430  -0.000224055183693
Si   19.00850  19.00850  27.15500  -0.000047350586092  -0.000047350586985   0.000243684148129
Si   20.36625  20.36625  28.51275   0.000057578597209   0.000057578608038  -0.000224055192920
Si   21.72400  21.72400  27.15500  -0.000047350593671  -0.000047350580095   0.000243684148743
Si   23.08175  23.08175  28.51275   0.000057578607512   0.000057578615591  -0.000224055183532
Si   24.43950  24.43950  27.15500  -0.000047350578203  -0.000047350584983   0.000243684166540
Si   25.79725  25.79725  28.51275   0.000057578620536   0.000057578607638  -0.000224055168835
