216 

Si    0.67888   0.67888   0.67888   0.000009230650271   0.000009230650264   0.000009212822717
Si    3.39437   0.67888   3.39437  -0.000009230650361   0.000009230650349  -0.000009212822818
Si    0.67888   3.39437   3.39437   0.000009230650285  -0.000009230650265  -0.000009212822703
Si    3.39437   3.39437   0.67888  -0.000009230650361  -0.000009230650384   0.000009212822833
Si    4.75213   2.03662   2.03662   0.000007339841092  -0.000000000000016   0.000000000000007
Si    4.75213   4.75213   4.75213   0.000008381558094   0.000008381558274   0.000008385471915
Si    2.03662   2.03662   4.75213  -0.000000000000059   0.000000000000127   0.000007347272545
Si    2.03662   4.75213   2.03662  -0.000000000000071   0.000007339841110   0.000000000000146
Si    0.67888   0.67888   6.10987   0.000003092513386   0.000003092513532   0.000000875645303
Si    3.39437   0.67888   8.82538  -0.000008381558239   0.000008381558234   0.000008385471864
Si    0.67888   3.39437   8.82538   0.000008381558122  -0.000008381558091   0.000008385471756
Si    3.39437   3.39437   6.10987  -0.000003092513513  -0.000003092513305   0.000000875645305
Si    4.75213   2.03662   7.46762   0.000003110689329   0.000000880662726  -0.000003106557862
Si    4.75213   4.75213  10.18313   0.000003092513387   0.000003092513470  -0.000000875645447
Si    2.03662   2.03662  10.18313  -0.000000000000049   0.000000000000012   0.000000000000003
Si    2.03662   4.75213   7.46762   0.000000880662565   0.000003110689495  -0.000003106557933
Si    0.67888   0.67888  11.54087   0.000008381558131   0.000008381558134  -0.000008385471771
Si    3.39437   0.67888  14.25638  -0.000003092513500   0.000003092513305  -0.000000875645319
Si    0.67888   3.39437  14.25638   0.000003092513362  -0.000003092513545  -0.000000875645326
Si    3.39437   3.39437  11.54087  -0.000008381558258  -0.000008381558251  -0.000008385471899
Si    4.75213   2.03662  12.89863   0.000003110689329  -0.000000880662729   0.000003106557860
Si    4.75213   4.75213  15.61412   0.000009230650243   0.000009230650226  -0.000009212822708
Si    2.03662   2.03662  15.61412  -0.000000000000067  -0.000000000000121  -0.000007347272533
Si    2.03662   4.75213  12.89863  -0.000000880662686   0.000003110689344   0.000003106557790
Si    0.67888   6.10987   0.67888   0.000003110689310   0.000000880662605   0.000003106557967
Si    3.39437   6.10987   3.39437  -0.000003110689421   0.000000880662615  -0.000003106557703
Si    0.67888   8.82538   3.39437   0.000008381558132   0.000008381558133  -0.000008385471695
Si    3.39437   8.82538   0.67888  -0.000008381558234   0.000008381558258   0.000008385471904
Si    4.75213   7.46762   2.03662   0.000003092513401  -0.000003092513431   0.000000875645457
Si    4.75213  10.18313   4.75213   0.000003110689342  -0.000000880662718   0.000003106557926
Si    2.03662   7.46762   4.75213   0.000000880662568  -0.000003110689416   0.000003106558005
Si    2.03662  10.18313   2.03662  -0.000000000000036   0.000000000000005   0.000000000000060
Si    0.67888   6.10987   6.10987   0.000007339841091   0.000000000000043   0.000000000000043
Si    3.39437   6.10987   8.82538  -0.000003110689446  -0.000000880662565   0.000003106557744
Si    0.67888   8.82538   8.82538   0.000009230650286   0.000009230650264   0.000009212822692
Si    3.39437   8.82538   6.10987  -0.000003092513503   0.000003092513336  -0.000000875645249
Si    4.75213   7.46762   7.46762   0.000008381558087  -0.000008381558196  -0.000008385471872
Si    4.75213  10.18313  10.18313   0.000007339841063   0.000000000000004  -0.000000000000067
Si    2.03662   7.46762  10.18313  -0.000000000000066  -0.000007339841089  -0.000000000000170
Si    2.03662  10.18313   7.46762  -0.000000000000059  -0.000000000000134  -0.000007347272522
Si    0.67888   6.10987  11.54087   0.000003110689297  -0.000000880662591  -0.000003106558001
Si    3.39437   6.10987  14.25638  -0.000007339841235   0.000000000000002  -0.000000000000043
Si    0.67888   8.82538  14.25638   0.000003092513374   0.000003092513519   0.000000875645258
Si    3.39437   8.82538  11.54087  -0.000009230650391   0.000009230650373  -0.000009212822897
Si    4.75213   7.46762  12.89863   0.000009230650245  -0.000009230650242   0.000009212822657
Si    4.75213  10.18313  15.61412   0.000003110689327   0.000000880662740  -0.000003106557875
Si    2.03662   7.46762  15.61412  -0.000000880662675  -0.000003110689348  -0.000003106557846
Si    2.03662  10.18313  12.89863  -0.000000000000065   0.000000000000112   0.000007347272462
Si    0.67888  11.54087   0.67888   0.000008381558118  -0.000008381558127   0.000008385471780
Si    3.39437  11.54087   3.39437  -0.000008381558232  -0.000008381558239  -0.000008385471815
Si    0.67888  14.25638   3.39437   0.000003110689310  -0.000000880662615  -0.000003106557930
Si    3.39437  14.25638   0.67888  -0.000003110689411  -0.000000880662602   0.000003106557772
Si    4.75213  12.89863   2.03662   0.000003092513430   0.000003092513453  -0.000000875645381
Si    4.75213  15.61412   4.75213   0.000009230650261  -0.000009230650278   0.000009212822718
Si    2.03662  12.89863   4.75213  -0.000000880662653   0.000003110689299   0.000003106557871
Si    2.03662  15.61412   2.03662  -0.000000000000037  -0.000007339841123  -0.000000000000098
Si    0.67888  11.54087   6.10987   0.000003092513372  -0.000003092513567  -0.000000875645258
Si    3.39437  11.54087   8.82538  -0.000009230650368  -0.000009230650386   0.000009212822794
Si    0.67888  14.25638   8.82538   0.000003110689320   0.000000880662571   0.000003106557942
Si    3.39437  14.25638   6.10987  -0.000007339841210  -0.000000000000048   0.000000000000007
Si    4.75213  12.89863   7.46762   0.000009230650263   0.000009230650203  -0.000009212822703
Si    4.75213  15.61412  10.18313   0.000003092513393  -0.000003092513469   0.000000875645407
Si    2.03662  12.89863  10.18313  -0.000000000000056   0.000007339841083   0.000000000000078
Si    2.03662  15.61412   7.46762  -0.000000880662658  -0.000003110689372  -0.000003106557824
Si    0.67888  11.54087  11.54087   0.000009230650277  -0.000009230650279  -0.000009212822770
Si    3.39437  11.54087  14.25638  -0.000003092513504  -0.000003092513304   0.000000875645263
Si    0.67888  14.25638  14.25638   0.000007339841091   0.000000000000008  -0.000000000000030
Si    3.39437  14.25638  11.54087  -0.000003110689414   0.000000880662578  -0.000003106557776
Si    4.75213  12.89863  12.89863   0.000008381558108   0.000008381558253   0.000008385471836
Si    4.75213  15.61412  15.61412   0.000008381558137  -0.000008381558240  -0.000008385471875
Si    2.03662  12.89863  15.61412   0.000000880662589   0.000003110689452  -0.000003106557960
Si    2.03662  15.61412  12.89863   0.000000880662565  -0.000003110689444   0.000003106557921
Si    6.10987   0.67888   0.67888   0.000000880662614   0.000003110689311   0.000003106557852
Si    8.82538   0.67888   3.39437   0.000008381558147   0.000008381558246  -0.000008385471919
Si    6.10987   3.39437   3.39437   0.000000880662605  -0.000003110689359  -0.000003106557827
Si    8.82538   3.39437   0.67888   0.000008381558144  -0.000008381558300   0.000008385471916
Si   10.18313   2.03662   2.03662  -0.000000000000125  -0.000000000000017   0.000000000000000
Si   10.18313   4.75213   4.75213  -0.000000880662663   0.000003110689422   0.000003106557912
Si    7.46762   2.03662   4.75213  -0.000003110689442   0.000000880662717   0.000003106557823
Si    7.46762   4.75213   2.03662  -0.000003092513503   0.000003092513391   0.000000875645438
Si    6.10987   0.67888   6.10987  -0.000000000000054   0.000007339841221  -0.000000000000023
Si    8.82538   0.67888   8.82538   0.000009230650228   0.000009230650334   0.000009212822833
Si    6.10987   3.39437   8.82538  -0.000000880662690  -0.000003110689308   0.000003106557814
Si    8.82538   3.39437   6.10987   0.000003092513398  -0.000003092513341  -0.000000875645331
Si   10.18313   2.03662   7.46762  -0.000000000000035   0.000000000000110  -0.000007347272541
Si   10.18313   4.75213  10.18313  -0.000000000000028   0.000007339841176  -0.000000000000121
Si    7.46762   2.03662  10.18313  -0.000007339841189  -0.000000000000009   0.000000000000004
Si    7.46762   4.75213   7.46762  -0.000008381558252   0.000008381558273  -0.000008385471859
Si    6.10987   0.67888  11.54087  -0.000000880662682   0.000003110689312  -0.000003106557828
Si    8.82538   0.67888  14.25638   0.000003092513401   0.000003092513337   0.000000875645332
Si    6.10987   3.39437  14.25638  -0.000000000000047  -0.000007339841277  -0.000000000000001
Si    8.82538   3.39437  11.54087   0.000009230650243  -0.000009230650376  -0.000009212822831
Si   10.18313   2.03662  12.89863  -0.000000000000030  -0.000000000000126   0.000007347272547
Si   10.18313   4.75213  15.61412   0.000000880662607   0.000003110689290  -0.000003106557792
Si    7.46762   2.03662  15.61412  -0.000003110689421  -0.000000880662733  -0.000003106557820
Si    7.46762   4.75213  12.89863  -0.000009230650386   0.000009230650239   0.000009212822681
Si    6.10987   6.10987   0.67888  -0.000000000000044  -0.000000000000019   0.000007347272673
Si    8.82538   6.10987   3.39437   0.000003110689337  -0.000000880662637  -0.000003106557763
Si    6.10987   8.82538   3.39437  -0.000000880662682   0.000003110689343  -0.000003106557766
Si    8.82538   8.82538   0.67888   0.000009230650227   0.000009230650390   0.000009212822855
Si   10.18313   7.46762   2.03662  -0.000000000000034  -0.000007339841137   0.000000000000133
Si   10.18313  10.18313   4.75213  -0.000000000000056  -0.000000000000103   0.000007347272600
Si    7.46762   7.46762   4.75213  -0.000008381558256  -0.000008381558194   0.000008385471913
Si    7.46762  10.18313   2.03662  -0.000007339841195   0.000000000000027   0.000000000000044
Si    6.10987   6.10987   6.10987  -0.000000000000104   0.000000000000024   0.000000000000028
Si    8.82538   6.10987   8.82538   0.000003110689328   0.000000880662673   0.000003106557770
Si    6.10987   8.82538   8.82538   0.000000880662577   0.000003110689363   0.000003106557810
Si    8.82538   8.82538   6.10987   0.000003092513405   0.000003092513380   0.000000875645360
Si   10.18313   7.46762   7.46762  -0.000000880662643  -0.000003110689369  -0.000003106557880
Si   10.18313  10.18313  10.18313  -0.000000000000096   0.000000000000003  -0.000000000000045
Si    7.46762   7.46762  10.18313  -0.000003092513504  -0.000003092513365  -0.000000875645467
Si    7.46762  10.18313   7.46762  -0.000003110689436  -0.000000880662723  -0.000003106557819
Si    6.10987   6.10987  11.54087  -0.000000000000084   0.000000000000033  -0.000007347272698
Si    8.82538   6.10987  14.25638   0.000007339841095  -0.000000000000007  -0.000000000000019
Si    6.10987   8.82538  14.25638  -0.000000000000067   0.000007339841264  -0.000000000000031
Si    8.82538   8.82538  11.54087   0.000008381558147   0.000008381558293  -0.000008385471969
Si   10.18313   7.46762  12.89863   0.000000880662620  -0.000003110689283   0.000003106557755
Si   10.18313  10.18313  15.61412  -0.000000000000054   0.000000000000128  -0.000007347272543
Si    7.46762   7.46762  15.61412  -0.000009230650376  -0.000009230650240  -0.000009212822687
Si    7.46762  10.18313  12.89863  -0.000003110689420   0.000000880662741   0.000003106557782
Si    6.10987  11.54087   0.67888  -0.000000880662663  -0.000003110689308   0.000003106557854
Si    8.82538  11.54087   3.39437   0.000009230650229  -0.000009230650368  -0.000009212822796
Si    6.10987  14.25638   3.39437  -0.000000000000050  -0.000000000000000  -0.000007347272631
Si    8.82538  14.25638   0.67888   0.000003110689319   0.000000880662636   0.000003106557796
Si   10.18313  12.89863   2.03662  -0.000000000000044   0.000007339841169  -0.000000000000086
Si   10.18313  15.61412   4.75213   0.000000880662584  -0.000003110689321   0.000003106557782
Si    7.46762  12.89863   4.75213  -0.000009230650390   0.000009230650230   0.000009212822723
Si    7.46762  15.61412   2.03662  -0.000003092513490  -0.000003092513413  -0.000000875645400
Si    6.10987  11.54087   6.10987  -0.000000000000074  -0.000007339841257   0.000000000000025
Si    8.82538  11.54087   8.82538   0.000008381558133  -0.000008381558283   0.000008385471884
Si    6.10987  14.25638   8.82538  -0.000000000000061  -0.000000000000053   0.000007347272645
Si    8.82538  14.25638   6.10987   0.000007339841083  -0.000000000000044   0.000000000000012
Si   10.18313  12.89863   7.46762   0.000000880662583   0.000003110689260  -0.000003106557804
Si   10.18313  15.61412  10.18313  -0.000000000000041  -0.000007339841164   0.000000000000109
Si    7.46762  12.89863  10.18313  -0.000003092513508   0.000003092513374   0.000000875645393
Si    7.46762  15.61412   7.46762  -0.000009230650402  -0.000009230650293  -0.000009212822708
Si    6.10987  11.54087  11.54087   0.000000880662602  -0.000003110689342  -0.000003106557895
Si    8.82538  11.54087  14.25638   0.000003092513401  -0.000003092513331  -0.000000875645355
Si    6.10987  14.25638  14.25638  -0.000000000000084   0.000000000000006  -0.000000000000004
Si    8.82538  14.25638  11.54087   0.000003110689345  -0.000000880662642  -0.000003106557800
Si   10.18313  12.89863  12.89863  -0.000000880662670   0.000003110689418   0.000003106557871
Si   10.18313  15.61412  15.61412  -0.000000880662663  -0.000003110689401  -0.000003106557898
Si    7.46762  12.89863  15.61412  -0.000008381558227   0.000008381558254  -0.000008385471856
Si    7.46762  15.61412  12.89863  -0.000008381558238  -0.000008381558248   0.000008385471845
Si   11.54087   0.67888   0.67888  -0.000008381558235   0.000008381558133   0.000008385471783
Si   14.25638   0.67888   3.39437  -0.000000880662655   0.000003110689415  -0.000003106557902
Si   11.54087   3.39437   3.39437  -0.000008381558211  -0.000008381558158  -0.000008385471773
Si   14.25638   3.39437   0.67888  -0.000000880662662  -0.000003110689426   0.000003106557897
Si   15.61412   2.03662   2.03662  -0.000007339841190   0.000000000000003   0.000000000000014
Si   15.61412   4.75213   4.75213  -0.000009230650363   0.000009230650394   0.000009212822862
Si   12.89863   2.03662   4.75213   0.000003110689304  -0.000000880662532   0.000003106557874
Si   12.89863   4.75213   2.03662   0.000003092513393   0.000003092513431  -0.000000875645202
Si   11.54087   0.67888   6.10987  -0.000003092513472   0.000003092513519  -0.000000875645342
Si   14.25638   0.67888   8.82538   0.000000880662579   0.000003110689391   0.000003106557909
Si   11.54087   3.39437   8.82538  -0.000009230650373  -0.000009230650218   0.000009212822704
Si   14.25638   3.39437   6.10987  -0.000000000000018  -0.000007339841006   0.000000000000006
Si   15.61412   2.03662   7.46762  -0.000003110689424  -0.000000880662506  -0.000003106557885
Si   15.61412   4.75213  10.18313  -0.000003092513477   0.000003092513494   0.000000875645196
Si   12.89863   2.03662  10.18313   0.000007339841125   0.000000000000015   0.000000000000009
Si   12.89863   4.75213   7.46762   0.000009230650292   0.000009230650416  -0.000009212822820
Si   11.54087   0.67888  11.54087  -0.000009230650383   0.000009230650223  -0.000009212822694
Si   14.25638   0.67888  14.25638  -0.000000000000053   0.000007339841032  -0.000000000000012
Si   11.54087   3.39437  14.25638  -0.000003092513464  -0.000003092513572   0.000000875645338
Si   14.25638   3.39437  11.54087   0.000000880662578  -0.000003110689406  -0.000003106557901
Si   15.61412   2.03662  12.89863  -0.000003110689429   0.000000880662538   0.000003106557879
Si   15.61412   4.75213  15.61412  -0.000008381558240   0.000008381558142  -0.000008385471799
Si   12.89863   2.03662  15.61412   0.000003110689310   0.000000880662506  -0.000003106557880
Si   12.89863   4.75213  12.89863   0.000008381558187   0.000008381558166   0.000008385471747
Si   11.54087   6.10987   0.67888  -0.000003110689398  -0.000000880662653   0.000003106557977
Si   14.25638   6.10987   3.39437  -0.000000000000040   0.000000000000013  -0.000007347272393
Si   11.54087   8.82538   3.39437  -0.000009230650385   0.000009230650264  -0.000009212822647
Si   14.25638   8.82538   0.67888   0.000000880662572   0.000003110689395   0.000003106557921
Si   15.61412   7.46762   2.03662  -0.000003092513490  -0.000003092513449  -0.000000875645180
Si   15.61412  10.18313   4.75213  -0.000003110689408   0.000000880662519   0.000003106557949
Si   12.89863   7.46762   4.75213   0.000009230650294  -0.000009230650360   0.000009212822891
Si   12.89863  10.18313   2.03662   0.000007339841124   0.000000000000021   0.000000000000041
Si   11.54087   6.10987   6.10987  -0.000007339841146   0.000000000000040   0.000000000000025
Si   14.25638   6.10987   8.82538  -0.000000000000025   0.000000000000046   0.000007347272426
Si   11.54087   8.82538   8.82538  -0.000008381558227   0.000008381558165   0.000008385471756
Si   14.25638   8.82538   6.10987  -0.000000000000034   0.000007339841040   0.000000000000046
Si   15.61412   7.46762   7.46762  -0.000009230650354  -0.000009230650327  -0.000009212822805
Si   15.61412  10.18313  10.18313  -0.000007339841168  -0.000000000000009  -0.000000000000040
Si   12.89863   7.46762  10.18313   0.000003092513398  -0.000003092513417   0.000000875645179
Si   12.89863  10.18313   7.46762   0.000003110689325   0.000000880662512  -0.000003106557852
Si   11.54087   6.10987  11.54087  -0.000003110689395   0.000000880662649  -0.000003106558020
Si   14.25638   6.10987  14.25638  -0.000000000000042  -0.000000000000009  -0.000000000000032
Si   11.54087   8.82538  14.25638  -0.000003092513474   0.000003092513547  -0.000000875645378
Si   14.25638   8.82538  11.54087  -0.000000880662646   0.000003110689415  -0.000003106557974
Si   15.61412   7.46762  12.89863  -0.000008381558222  -0.000008381558148   0.000008385471721
Si   15.61412  10.18313  15.61412  -0.000003110689432  -0.000000880662515  -0.000003106557898
Si   12.89863   7.46762  15.61412   0.000008381558185  -0.000008381558162  -0.000008385471798
Si   12.89863  10.18313  12.89863   0.000003110689330  -0.000000880662518   0.000003106557829
Si   11.54087  11.54087   0.67888  -0.000009230650385  -0.000009230650227   0.000009212822718
Si   14.25638  11.54087   3.39437   0.000000880662557  -0.000003110689414  -0.000003106557851
Si   11.54087  14.25638   3.39437  -0.000003110689421   0.000000880662623  -0.000003106557957
Si   14.25638  14.25638   0.67888  -0.000000000000065   0.000000000000019   0.000007347272439
Si   15.61412  12.89863   2.03662  -0.000003092513480   0.000003092513458   0.000000875645257
Si   15.61412  15.61412   4.75213  -0.000008381558238  -0.000008381558171   0.000008385471785
Si   12.89863  12.89863   4.75213   0.000008381558179   0.000008381558140   0.000008385471823
Si   12.89863  15.61412   2.03662   0.000003092513357  -0.000003092513447   0.000000875645225
Si   11.54087  11.54087   6.10987  -0.000003092513475  -0.000003092513553   0.000000875645362
Si   14.25638  11.54087   8.82538  -0.000000880662633  -0.000003110689443   0.000003106557888
Si   11.54087  14.25638   8.82538  -0.000003110689385  -0.000000880662688   0.000003106557965
Si   14.25638  14.25638   6.10987  -0.000000000000050  -0.000000000000045   0.000000000000015
Si   15.61412  12.89863   7.46762  -0.000008381558236   0.000008381558099  -0.000008385471771
Si   15.61412  15.61412  10.18313  -0.000003092513487  -0.000003092513480  -0.000000875645215
Si   12.89863  12.89863  10.18313   0.000003092513385   0.000003092513416  -0.000000875645245
Si   12.89863  15.61412   7.46762   0.000008381558169  -0.000008381558192  -0.000008385471795
Si   11.54087  11.54087  11.54087  -0.000008381558220  -0.000008381558165  -0.000008385471831
Si   14.25638  11.54087  14.25638  -0.000000000000042  -0.000007339841031  -0.000000000000049
Si   11.54087  14.25638  14.25638  -0.000007339841164   0.000000000000009  -0.000000000000017
Si   14.25638  14.25638  11.54087  -0.000000000000038  -0.000000000000019  -0.000007347272448
Si   15.61412  12.89863  12.89863  -0.000009230650370   0.000009230650351   0.000009212822772
Si   15.61412  15.61412  15.61412  -0.000009230650377  -0.000009230650349  -0.000009212822828
Si   12.89863  12.89863  15.61412   0.000009230650260   0.000009230650394  -0.000009212822829
Si   12.89863  15.61412  12.89863   0.000009230650261  -0.000009230650373   0.000009212822821
