384 

Si    0.67887   0.67887   0.67888   0.000003780065224   0.000003780064821  -0.000004943501660
Si    3.39438   0.67887   3.39437  -0.000002077211981  -0.000005614851734   0.000007892036980
Si    0.67887   3.39437   3.39437  -0.000005614851273  -0.000002077211530   0.000007892037274
Si    3.39438   3.39437   0.67888   0.000002232242488   0.000002232242432  -0.000005445776102
Si    4.75212   2.03662   2.03662  -0.000000011719281   0.000000377834443  -0.000000871235955
Si    4.75212   4.75212   4.75213  -0.000002021729102  -0.000002021729445  -0.000003168546776
Si    2.03662   2.03662   4.75213  -0.000002167633112  -0.000002167633344  -0.000003637244349
Si    2.03662   4.75212   2.03662   0.000000377834567  -0.000000011719289  -0.000000871235843
Si    0.67887   0.67887   6.10987  -0.000004899091141  -0.000004899091319   0.000000333512195
Si    3.39438   0.67887   8.82537  -0.000002759450278  -0.000005114970679  -0.000009135324622
Si    0.67887   3.39437   8.82537  -0.000005114970433  -0.000002759450327  -0.000009135324681
Si    3.39438   3.39437   6.10987  -0.000004153420320  -0.000004153420249   0.000000193838102
Si    4.75212   2.03662   7.46762   0.000001267465891  -0.000000900118530   0.000001363967219
Si    4.75212   4.75212  10.18313  -0.000000895794318  -0.000000895794649   0.000001254905480
Si    2.03662   2.03662  10.18313   0.000000066589775   0.000000066589672   0.000000225524519
Si    2.03662   4.75212   7.46762  -0.000000900118442   0.000001267465721   0.000001363967849
Si    0.67887   0.67887  11.54087   0.000003757567116   0.000003757567155   0.000005236437902
Si    3.39438   0.67887  14.25638  -0.000000392859878   0.000007079114276  -0.000000029575835
Si    0.67887   3.39437  14.25638   0.000007079114498  -0.000000392859825  -0.000000029575900
Si    3.39438   3.39437  11.54087   0.000002718407169   0.000002718407028   0.000005988255449
Si    4.75212   2.03662  12.89862   0.000000209474489  -0.000000118202733  -0.000000884200015
Si    4.75212   4.75212  15.61413  -0.000001375912219  -0.000001375912461   0.000004813688060
Si    2.03662   2.03662  15.61413   0.000000043499449   0.000000043499536   0.000002438950059
Si    2.03662   4.75212  12.89862  -0.000000118202532   0.000000209474476  -0.000000884199723
Si    0.67887   6.10987   0.67888   0.000003189403952   0.000001619896530   0.000002412907283
Si    3.39438   6.10987   3.39437   0.000005635915362  -0.000005763795001   0.000003492545434
Si    0.67887   8.82537   3.39437   0.000002211770640   0.000001327123315  -0.000002615804763
Si    3.39438   8.82537   0.67888  -0.000001990646555  -0.000003965351841  -0.000004818326295
Si    4.75212   7.46762   2.03662   0.000002006654013   0.000002568633317   0.000000595870407
Si    4.75212  10.18313   4.75213  -0.000002105335433  -0.000001001261283  -0.000003115685388
Si    2.03662   7.46762   4.75213   0.000003415233514  -0.000000697099818  -0.000006810160954
Si    2.03662  10.18313   2.03662   0.000002104390258   0.000001262486162  -0.000000436827603
Si    0.67887   6.10987   6.10987  -0.000001361122941  -0.000001036634758  -0.000000510909364
Si    3.39438   6.10987   8.82537   0.000007203948751  -0.000005288577939  -0.000002219660020
Si    0.67887   8.82537   8.82537  -0.000000023394897   0.000001437699415   0.000002426069954
Si    3.39438   8.82537   6.10987   0.000000596919293   0.000004613283007  -0.000000323210398
Si    4.75212   7.46762   7.46762   0.000001037058548   0.000001966204798  -0.000002559829057
Si    4.75212  10.18313  10.18313   0.000001848746402   0.000002671575283   0.000000921001266
Si    2.03662   7.46762  10.18313  -0.000002055320583   0.000006387152127  -0.000000250076866
Si    2.03662  10.18313   7.46762  -0.000001910754634   0.000002696168836   0.000001633541694
Si    0.67887   6.10987  11.54087   0.000000087489310   0.000003407792132  -0.000000425858904
Si    3.39438   6.10987  14.25638  -0.000002940643970   0.000002000983416   0.000001111013974
Si    0.67887   8.82537  14.25638   0.000000138405803   0.000001469601464   0.000001037332766
Si    3.39438   8.82537  11.54087   0.000000147880506  -0.000003444691929   0.000003858874613
Si    4.75212   7.46762  12.89862   0.000001130830703  -0.000000432241371   0.000001687386662
Si    4.75212  10.18313  15.61413  -0.000002349535132  -0.000000184929349   0.000002208961045
Si    2.03662   7.46762  15.61413   0.000001687991034  -0.000001468088753   0.000006324339780
Si    2.03662  10.18313  12.89862  -0.000000043267237   0.000003473785046   0.000000471390130
Si    0.67887  11.54087   0.67888  -0.000006918700290   0.000006111798938  -0.000003361591293
Si    3.39438  11.54087   3.39437   0.000005332521940  -0.000002288867711  -0.000003078771334
Si    0.67887  14.25638   3.39437  -0.000002155313955   0.000000711773567   0.000005543874041
Si    3.39438  14.25638   0.67888  -0.000000329801875   0.000000518248361  -0.000002631809079
Si    4.75212  12.89862   2.03662  -0.000000234480143   0.000001157503871   0.000000300933600
Si    4.75212  15.61413   4.75213  -0.000001424313822   0.000000812552529  -0.000003373874490
Si    2.03662  12.89862   4.75213  -0.000005668989870  -0.000000563672584   0.000000868954423
Si    2.03662  15.61413   2.03662   0.000001510086146  -0.000003982459011  -0.000000588946754
Si    0.67887  11.54087   6.10987   0.000001991155780  -0.000003518313480   0.000000137620698
Si    3.39438  11.54087   8.82537   0.000005881970681  -0.000001779451684   0.000002226053978
Si    0.67887  14.25638   8.82537  -0.000003222278209   0.000001260908534  -0.000005794524256
Si    3.39438  14.25638   6.10987   0.000007352165074   0.000005928815417  -0.000000202209760
Si    4.75212  12.89862   7.46762  -0.000006277586992  -0.000002011778108  -0.000002876134439
Si    4.75212  15.61413  10.18313   0.000007656273930  -0.000001764562940   0.000000133428138
Si    2.03662  12.89862  10.18313  -0.000004023870594   0.000005474468524   0.000000748494561
Si    2.03662  15.61413   7.46762  -0.000002784641407  -0.000002365496489  -0.000000309606747
Si    0.67887  11.54087  11.54087  -0.000006353217333   0.000002712950069   0.000004752536332
Si    3.39438  11.54087  14.25638   0.000003808875606  -0.000003175548504  -0.000001515813210
Si    0.67887  14.25638  14.25638   0.000003956098199  -0.000004248385636   0.000000324351720
Si    3.39438  14.25638  11.54087  -0.000000235893162   0.000000430274492   0.000003145009564
Si    4.75212  12.89862  12.89862  -0.000004182747754  -0.000000590868687   0.000000849709194
Si    4.75212  15.61413  15.61413   0.000000379329296  -0.000001195544754   0.000005218662395
Si    2.03662  12.89862  15.61413  -0.000007774831685   0.000000262247704  -0.000000071782644
Si    2.03662  15.61413  12.89862  -0.000002713097985  -0.000002727681478  -0.000000527296318
Si    0.67887  16.97188   0.67888  -0.000000758138787   0.000002485919886  -0.000004554408195
Si    3.39438  16.97188   3.39437   0.000002559779160   0.000002276644785   0.000002444271652
Si    0.67887  19.68738   3.39437   0.000003154909976   0.000002868585466   0.000001081745608
Si    3.39438  19.68738   0.67888  -0.000007102082959  -0.000005992154683  -0.000001180780233
Si    4.75212  18.32963   2.03662  -0.000000875076713  -0.000000749866202  -0.000000968187163
Si    4.75212  21.04512   4.75213  -0.000001915300627   0.000000426758675  -0.000003552678630
Si    2.03662  18.32963   4.75213   0.000004586538771   0.000007183877596  -0.000003018337452
Si    2.03662  21.04512   2.03662   0.000002171590863   0.000000878621222   0.000000233972196
Si    0.67887  16.97188   6.10987  -0.000003480033976  -0.000010277135961   0.000000544851172
Si    3.39438  16.97188   8.82537   0.000002905131670   0.000002559980955  -0.000002081417304
Si    0.67887  19.68738   8.82537   0.000004851960742   0.000001223161201  -0.000001542190554
Si    3.39438  19.68738   6.10987   0.000002046453770  -0.000001075763162  -0.000000627915771
Si    4.75212  18.32963   7.46762  -0.000002559980817  -0.000002905131326   0.000002081417170
Si    4.75212  21.04512  10.18313   0.000010277136257   0.000003480034525  -0.000000544851246
Si    2.03662  18.32963  10.18313   0.000001075763228  -0.000002046453896   0.000000627915938
Si    2.03662  21.04512   7.46762  -0.000001223161304  -0.000004851960525   0.000001542190423
Si    0.67887  16.97188  11.54087  -0.000000426758301   0.000001915300906   0.000003552678625
Si    3.39438  16.97188  14.25638   0.000000749866572   0.000000875076538   0.000000968187616
Si    0.67887  19.68738  14.25638  -0.000000878620817  -0.000002171590889  -0.000000233972071
Si    3.39438  19.68738  11.54087  -0.000007183877631  -0.000004586539066   0.000003018337362
Si    4.75212  18.32963  12.89862  -0.000002276644820  -0.000002559779166  -0.000002444271687
Si    4.75212  21.04512  15.61413  -0.000002485919855   0.000000758139265   0.000004554408131
Si    2.03662  18.32963  15.61413   0.000005992154841   0.000007102082928   0.000001180780194
Si    2.03662  21.04512  12.89862  -0.000002868585454  -0.000003154909397  -0.000001081745604
Si    6.10987   0.67887   0.67888   0.000001619896684   0.000003189403912   0.000002412907584
Si    8.82537   0.67887   3.39437   0.000001327122936   0.000002211770335  -0.000002615805184
Si    6.10987   3.39437   3.39437  -0.000005763794829   0.000005635915726   0.000003492545382
Si    8.82537   3.39437   0.67888  -0.000003965352199  -0.000001990646255  -0.000004818326465
Si   10.18313   2.03662   2.03662   0.000001262486018   0.000002104390266  -0.000000436827440
Si   10.18313   4.75212   4.75213  -0.000001001261276  -0.000002105335551  -0.000003115685565
Si    7.46762   2.03662   4.75213  -0.000000697099524   0.000003415233621  -0.000006810160900
Si    7.46762   4.75212   2.03662   0.000002568633330   0.000002006653766   0.000000595870248
Si    6.10987   0.67887   6.10987  -0.000001036634926  -0.000001361123032  -0.000000510908702
Si    8.82537   0.67887   8.82537   0.000001437699320  -0.000000023394905   0.000002426070000
Si    6.10987   3.39437   8.82537  -0.000005288577950   0.000007203948928  -0.000002219660036
Si    8.82537   3.39437   6.10987   0.000004613282864   0.000000596919343  -0.000000323210266
Si   10.18313   2.03662   7.46762   0.000002696168757  -0.000001910754826   0.000001633541413
Si   10.18313   4.75212  10.18313   0.000002671575272   0.000001848746210   0.000000921001063
Si    7.46762   2.03662  10.18313   0.000006387152263  -0.000002055320676  -0.000000250076705
Si    7.46762   4.75212   7.46762   0.000001966204858   0.000001037058053  -0.000002559828893
Si    6.10987   0.67887  11.54087   0.000003407792212   0.000000087489535  -0.000000425858703
Si    8.82537   0.67887  14.25638   0.000001469601237   0.000000138405578   0.000001037332653
Si    6.10987   3.39437  14.25638   0.000002000983473  -0.000002940643714   0.000001111013897
Si    8.82537   3.39437  11.54087  -0.000003444691814   0.000000147880239   0.000003858874572
Si   10.18313   2.03662  12.89862   0.000003473784953  -0.000000043267354   0.000000471389938
Si   10.18313   4.75212  15.61413  -0.000000184929335  -0.000002349535178   0.000002208960792
Si    7.46762   2.03662  15.61413  -0.000001468088642   0.000001687990947   0.000006324339737
Si    7.46762   4.75212  12.89862  -0.000000432241318   0.000001130830301   0.000001687386691
Si    6.10987   6.10987   0.67888   0.000003857332380   0.000003857332274  -0.000000005646792
Si    8.82537   6.10987   3.39437   0.000008578550005   0.000001191602329  -0.000000040098258
Si    6.10987   8.82537   3.39437   0.000001191602548   0.000008578549888  -0.000000040098462
Si    8.82537   8.82537   0.67888   0.000004665227950   0.000004665228286  -0.000003516746912
Si   10.18313   7.46762   2.03662  -0.000007110936094  -0.000002472992568  -0.000000440849527
Si   10.18313  10.18313   4.75213  -0.000001483777443  -0.000001483777238   0.000001029742351
Si    7.46762   7.46762   4.75213  -0.000003672484968  -0.000003672484853   0.000006753045262
Si    7.46762  10.18313   2.03662  -0.000002472992432  -0.000007110936091  -0.000000440849615
Si    6.10987   6.10987   6.10987  -0.000004832555384  -0.000004832555318   0.000001363473371
Si    8.82537   6.10987   8.82537   0.000007651121413  -0.000000066022835   0.000000790629983
Si    6.10987   8.82537   8.82537  -0.000000066022943   0.000007651121029   0.000000790629790
Si    8.82537   8.82537   6.10987   0.000001977221194   0.000001977221425   0.000000890528721
Si   10.18313   7.46762   7.46762   0.000001813945677   0.000006325870076   0.000005756495571
Si   10.18313  10.18313  10.18313  -0.000001979724977  -0.000001979724689  -0.000001682456391
Si    7.46762   7.46762  10.18313  -0.000005643856454  -0.000005643856239   0.000000362122833
Si    7.46762  10.18313   7.46762   0.000006325870375   0.000001813945526   0.000005756495457
Si    6.10987   6.10987  11.54087   0.000002339459066   0.000002339459326  -0.000002180281454
Si    8.82537   6.10987  14.25638  -0.000005182260131   0.000001549549213  -0.000000901650230
Si    6.10987   8.82537  14.25638   0.000001549549234  -0.000005182260369  -0.000000901650517
Si    8.82537   8.82537  11.54087   0.000004016865683   0.000004016865678   0.000003474616405
Si   10.18313   7.46762  12.89862   0.000000633466269   0.000007341141726  -0.000004960604582
Si   10.18313  10.18313  15.61413  -0.000000711043253  -0.000000711042854  -0.000001295512361
Si    7.46762   7.46762  15.61413  -0.000003715434538  -0.000003715434554  -0.000006872354792
Si    7.46762  10.18313  12.89862   0.000007341141904   0.000000633466277  -0.000004960604798
Si    6.10987  11.54087   0.67888  -0.000005767122956   0.000005756888967  -0.000003143641294
Si    8.82537  11.54087   3.39437   0.000001981285092   0.000001509806542   0.000000920688828
Si    6.10987  14.25638   3.39437  -0.000002675704017  -0.000001432471580   0.000005881378596
Si    8.82537  14.25638   0.67888  -0.000000871348275  -0.000001692803452  -0.000002179482513
Si   10.18313  12.89862   2.03662   0.000000763520356  -0.000002178944948  -0.000000870462597
Si   10.18313  15.61413   4.75213  -0.000008468154825   0.000003922956125  -0.000003034594947
Si    7.46762  12.89862   4.75213   0.000001605812427   0.000000756049087  -0.000001765096151
Si    7.46762  15.61413   2.03662  -0.000005439871361  -0.000001761497914  -0.000000042051141
Si    6.10987  11.54087   6.10987   0.000002271656664  -0.000003800001369  -0.000001303075975
Si    8.82537  11.54087   8.82537   0.000001406857167   0.000002892287798  -0.000001136569308
Si    6.10987  14.25638   8.82537  -0.000002345297344  -0.000002605859313  -0.000006273411329
Si    8.82537  14.25638   6.10987   0.000001041841495   0.000002757448483  -0.000000665193677
Si   10.18313  12.89862   7.46762  -0.000002892287731  -0.000001406857099   0.000001136569251
Si   10.18313  15.61413  10.18313   0.000003800001441  -0.000002271656599   0.000001303076401
Si    7.46762  12.89862  10.18313  -0.000002757448445  -0.000001041841331   0.000000665193733
Si    7.46762  15.61413   7.46762   0.000002605859324   0.000002345297447   0.000006273411272
Si    6.10987  11.54087  11.54087  -0.000003922955889   0.000008468155043   0.000003034595249
Si    8.82537  11.54087  14.25638   0.000002178945008  -0.000000763520308   0.000000870462661
Si    6.10987  14.25638  14.25638   0.000001761498215   0.000005439871455   0.000000042051009
Si    8.82537  14.25638  11.54087  -0.000000756048680  -0.000001605812570   0.000001765096032
Si   10.18313  12.89862  12.89862  -0.000001509806604  -0.000001981285054  -0.000000920689051
Si   10.18313  15.61413  15.61413  -0.000005756888855   0.000005767123205   0.000003143641406
Si    7.46762  12.89862  15.61413   0.000001692803879   0.000000871348199   0.000002179482579
Si    7.46762  15.61413  12.89862   0.000001432471608   0.000002675704187  -0.000005881378655
Si    6.10987  16.97188   0.67888   0.000001195545288  -0.000000379329265  -0.000005218662419
Si    8.82537  16.97188   3.39437   0.000000590868582   0.000004182747567  -0.000000849709313
Si    6.10987  19.68738   3.39437   0.000002727681501   0.000002713098298   0.000000527296015
Si    8.82537  19.68738   0.67888  -0.000000262247788   0.000007774831731   0.000000071782671
Si   10.18313  18.32963   2.03662   0.000003175548449  -0.000003808875533   0.000001515812954
Si   10.18313  21.04512   4.75213  -0.000002712949729   0.000006353217189  -0.000004752536026
Si    7.46762  18.32963   4.75213  -0.000000430274539   0.000000235893084  -0.000003145009403
Si    7.46762  21.04512   2.03662   0.000004248385998  -0.000003956097944  -0.000000324351505
Si    6.10987  16.97188   6.10987   0.000001764563229  -0.000007656273971  -0.000000133428098
Si    8.82537  16.97188   8.82537   0.000002011778148   0.000006277587454   0.000002876134097
Si    6.10987  19.68738   8.82537   0.000002365496683   0.000002784641197   0.000000309606717
Si    8.82537  19.68738   6.10987  -0.000005474468532   0.000004023870807  -0.000000748494593
Si   10.18313  18.32963   7.46762   0.000001779451719  -0.000005881971100  -0.000002226053815
Si   10.18313  21.04512  10.18313   0.000003518313750  -0.000001991155723  -0.000000137620756
Si    7.46762  18.32963  10.18313  -0.000005928815293  -0.000007352165082   0.000000202209653
Si    7.46762  21.04512   7.46762  -0.000001260908496   0.000003222278529   0.000005794524213
Si    6.10987  16.97188  11.54087  -0.000000812552460   0.000001424314017   0.000003373874772
Si    8.82537  16.97188  14.25638  -0.000001157503791   0.000000234480180  -0.000000300933769
Si    6.10987  19.68738  14.25638   0.000003982459199  -0.000001510085999   0.000000588946742
Si    8.82537  19.68738  11.54087   0.000000563672464   0.000005668990060  -0.000000868954260
Si   10.18313  18.32963  12.89862   0.000002288867582  -0.000005332522142   0.000003078771299
Si   10.18313  21.04512  15.61413  -0.000006111799008   0.000006918700635   0.000003361591414
Si    7.46762  18.32963  15.61413  -0.000000518248392   0.000000329801662   0.000002631809317
Si    7.46762  21.04512  12.89862  -0.000000711773260   0.000002155313906  -0.000005543873875
Si   11.54087   0.67887   0.67888   0.000006111799375  -0.000006918700653  -0.000003361591239
Si   14.25638   0.67887   3.39437   0.000000711773118  -0.000002155314179   0.000005543874002
Si   11.54087   3.39437   3.39437  -0.000002288867375   0.000005332522281  -0.000003078771226
Si   14.25638   3.39437   0.67888   0.000000518248316  -0.000000329801860  -0.000002631809053
Si   15.61413   2.03662   2.03662  -0.000003982458972   0.000001510086218  -0.000000588947019
Si   15.61413   4.75212   4.75213   0.000000812552546  -0.000001424313833  -0.000003373874459
Si   12.89862   2.03662   4.75213  -0.000000563672406  -0.000005668990045   0.000000868954374
Si   12.89862   4.75212   2.03662   0.000001157503816  -0.000000234480182   0.000000300933828
Si   11.54087   0.67887   6.10987  -0.000003518313463   0.000001991155759   0.000000137620682
Si   14.25638   0.67887   8.82537   0.000001260908412  -0.000003222278380  -0.000005794524210
Si   11.54087   3.39437   8.82537  -0.000001779451511   0.000005881970775   0.000002226053930
Si   14.25638   3.39437   6.10987   0.000005928815443   0.000007352165021  -0.000000202209723
Si   15.61413   2.03662   7.46762  -0.000002365496261  -0.000002784641247  -0.000000309607241
Si   15.61413   4.75212  10.18313  -0.000001764563110   0.000007656274122   0.000000133428132
Si   12.89862   2.03662  10.18313   0.000005474468666  -0.000004023870717   0.000000748494609
Si   12.89862   4.75212   7.46762  -0.000002011778288  -0.000006277587195  -0.000002876133989
Si   11.54087   0.67887  11.54087   0.000002712949687  -0.000006353217073   0.000004752536255
Si   14.25638   0.67887  14.25638  -0.000004248385828   0.000003956098069   0.000000324351455
Si   11.54087   3.39437  14.25638  -0.000003175548351   0.000003808875770  -0.000001515813006
Si   14.25638   3.39437  11.54087   0.000000430274425  -0.000000235893141   0.000003145009552
Si   15.61413   2.03662  12.89862  -0.000002727681488  -0.000002713098089  -0.000000527296461
Si   15.61413   4.75212  15.61413  -0.000001195544909   0.000000379329424   0.000005218662453
Si   12.89862   2.03662  15.61413   0.000000262247664  -0.000007774831686  -0.000000071782625
Si   12.89862   4.75212  12.89862  -0.000000590868581  -0.000004182747754   0.000000849709332
Si   11.54087   6.10987   0.67888   0.000005756889413  -0.000005767123052  -0.000003143641459
Si   14.25638   6.10987   3.39437  -0.000001432471742  -0.000002675704298   0.000005881378466
Si   11.54087   8.82537   3.39437   0.000001509807079   0.000001981285088   0.000000920688945
Si   14.25638   8.82537   0.67888  -0.000001692803926  -0.000000871348155  -0.000002179482336
Si   15.61413   7.46762   2.03662  -0.000001761498092  -0.000005439871227  -0.000000042050817
Si   15.61413  10.18313   4.75213   0.000003922956055  -0.000008468154884  -0.000003034594966
Si   12.89862   7.46762   4.75213   0.000000756048832   0.000001605812356  -0.000001765096090
Si   12.89862  10.18313   2.03662  -0.000002178944966   0.000000763520230  -0.000000870462652
Si   11.54087   6.10987   6.10987  -0.000003800000978   0.000002271656904  -0.000001303076371
Si   14.25638   6.10987   8.82537  -0.000002605859159  -0.000002345297352  -0.000006273411266
Si   11.54087   8.82537   8.82537   0.000002892288129   0.000001406856933  -0.000001136569284
Si   14.25638   8.82537   6.10987   0.000002757448406   0.000001041841425  -0.000000665193466
Si   15.61413   7.46762   7.46762   0.000002345297510   0.000002605859528   0.000006273411124
Si   15.61413  10.18313  10.18313  -0.000002271656583   0.000003800001560   0.000001303076297
Si   12.89862   7.46762  10.18313  -0.000001041841366  -0.000002757448520   0.000000665193592
Si   12.89862  10.18313   7.46762  -0.000001406857060  -0.000002892287895   0.000001136569150
Si   11.54087   6.10987  11.54087   0.000008468155271  -0.000003922955767   0.000003034595011
Si   14.25638   6.10987  14.25638   0.000005439871512   0.000001761498043   0.000000042051297
Si   11.54087   8.82537  14.25638  -0.000000763519849   0.000002178944944   0.000000870462782
Si   14.25638   8.82537  11.54087  -0.000001605812423  -0.000000756049125   0.000001765095993
Si   15.61413   7.46762  12.89862   0.000002675704225   0.000001432471604  -0.000005881378556
Si   15.61413  10.18313  15.61413   0.000005767123142  -0.000005756888910   0.000003143641227
Si   12.89862   7.46762  15.61413   0.000000871348175   0.000001692803882   0.000002179482318
Si   12.89862  10.18313  12.89862  -0.000001981285100  -0.000001509806489  -0.000000920688957
Si   11.54087  11.54087   0.67888   0.000000711043572   0.000000711042849   0.000001295512389
Si   14.25638  11.54087   3.39437  -0.000007341141743  -0.000000633466367   0.000004960604493
Si   11.54087  14.25638   3.39437  -0.000000633466066  -0.000007341141582   0.000004960604710
Si   14.25638  14.25638   0.67888   0.000003715434548   0.000003715434564   0.000006872354744
Si   15.61413  12.89862   2.03662  -0.000001549549092   0.000005182260222   0.000000901650269
Si   15.61413  15.61413   4.75213  -0.000002339459096  -0.000002339459432   0.000002180281935
Si   12.89862  12.89862   4.75213  -0.000004016865530  -0.000004016865702  -0.000003474616389
Si   12.89862  15.61413   2.03662   0.000005182260381  -0.000001549549121   0.000000901650439
Si   11.54087  11.54087   6.10987   0.000001979725120   0.000001979724937   0.000001682456523
Si   14.25638  11.54087   8.82537  -0.000006325870245  -0.000001813945388  -0.000005756495488
Si   11.54087  14.25638   8.82537  -0.000001813945110  -0.000006325870259  -0.000005756495531
Si   14.25638  14.25638   6.10987   0.000005643856530   0.000005643856553  -0.000000362122997
Si   15.61413  12.89862   7.46762   0.000000066023122  -0.000007651121329  -0.000000790630174
Si   15.61413  15.61413  10.18313   0.000004832555446   0.000004832555129  -0.000001363473302
Si   12.89862  12.89862  10.18313  -0.000001977221186  -0.000001977221246  -0.000000890528675
Si   12.89862  15.61413   7.46762  -0.000007651121268   0.000000066022968  -0.000000790629552
Si   11.54087  11.54087  11.54087   0.000001483777437   0.000001483777502  -0.000001029742323
Si   14.25638  11.54087  14.25638   0.000002472992751   0.000007110936116   0.000000440849696
Si   11.54087  14.25638  14.25638   0.000007110936350   0.000002472992780   0.000000440849612
Si   14.25638  14.25638  11.54087   0.000003672485062   0.000003672484914  -0.000006753045434
Si   15.61413  12.89862  12.89862  -0.000001191602564  -0.000008578549969   0.000000040098195
Si   15.61413  15.61413  15.61413  -0.000003857332248  -0.000003857332478   0.000000005646971
Si   12.89862  12.89862  15.61413  -0.000004665228058  -0.000004665227918   0.000003516747015
Si   12.89862  15.61413  12.89862  -0.000008578549771  -0.000001191602613   0.000000040098440
Si   11.54087  16.97188   0.67888   0.000000184929175   0.000002349534804  -0.000002208961230
Si   14.25638  16.97188   3.39437   0.000000432241039  -0.000001130830627  -0.000001687386786
Si   11.54087  19.68738   3.39437  -0.000003473784607   0.000000043267409  -0.000000471389762
Si   14.25638  19.68738   0.67888   0.000001468088835  -0.000001687990882  -0.000006324339631
Si   15.61413  18.32963   2.03662  -0.000002000983143   0.000002940643869  -0.000001111013894
Si   15.61413  21.04512   4.75213  -0.000003407791957  -0.000000087489723   0.000000425858872
Si   12.89862  18.32963   4.75213   0.000003444691791  -0.000000147880524  -0.000003858874722
Si   12.89862  21.04512   2.03662  -0.000001469601371  -0.000000138405362  -0.000001037332973
Si   11.54087  16.97188   6.10987  -0.000002671575239  -0.000001848746197  -0.000000921001587
Si   14.25638  16.97188   8.82537  -0.000001966205038  -0.000001037058212   0.000002559829020
Si   11.54087  19.68738   8.82537  -0.000002696168834   0.000001910754954  -0.000001633541083
Si   14.25638  19.68738   6.10987  -0.000006387152133   0.000002055320883   0.000000250076805
Si   15.61413  18.32963   7.46762   0.000005288578225  -0.000007203948964   0.000002219659825
Si   15.61413  21.04512  10.18313   0.000001036634997   0.000001361122949   0.000000510909093
Si   12.89862  18.32963  10.18313  -0.000004613283144  -0.000000596919334   0.000000323209695
Si   12.89862  21.04512   7.46762  -0.000001437699353   0.000000023395010  -0.000002426069955
Si   11.54087  16.97188  11.54087   0.000001001260889   0.000002105335626   0.000003115685489
Si   14.25638  16.97188  14.25638  -0.000002568633373  -0.000002006653749  -0.000000595870360
Si   11.54087  19.68738  14.25638  -0.000001262485707  -0.000002104390171   0.000000436827444
Si   14.25638  19.68738  11.54087   0.000000697099625  -0.000003415233627   0.000006810160479
Si   15.61413  18.32963  12.89862   0.000005763795038  -0.000005635915641  -0.000003492545505
Si   15.61413  21.04512  15.61413  -0.000001619896848  -0.000003189404134  -0.000002412907480
Si   12.89862  18.32963  15.61413   0.000003965352001   0.000001990646691   0.000004818326467
Si   12.89862  21.04512  12.89862  -0.000001327123149  -0.000002211770235   0.000002615805180
Si   16.97188   0.67887   0.67888   0.000002485920029  -0.000000758139197  -0.000004554408051
Si   19.68738   0.67887   3.39437   0.000002868585481   0.000003154909147   0.000001081745625
Si   16.97188   3.39437   3.39437   0.000002276645032   0.000002559779299   0.000002444271776
Si   19.68738   3.39437   0.67888  -0.000005992154683  -0.000007102083835  -0.000001180779950
Si   21.04512   2.03662   2.03662   0.000000878620525   0.000002171590815   0.000000233972203
Si   21.04512   4.75212   4.75213   0.000000426758701  -0.000001915300539  -0.000003552678594
Si   18.32963   2.03662   4.75213   0.000007183877661   0.000004586539090  -0.000003018337546
Si   18.32963   4.75212   2.03662  -0.000000749866336  -0.000000875076499  -0.000000968187572
Si   16.97188   0.67887   6.10987  -0.000010277136182  -0.000003480034383   0.000000544851552
Si   19.68738   0.67887   8.82537   0.000001223161406   0.000004851960434  -0.000001542190602
Si   16.97188   3.39437   8.82537   0.000002559981002   0.000002905131432  -0.000002081417353
Si   19.68738   3.39437   6.10987  -0.000001075763127   0.000002046453846  -0.000000627915985
Si   21.04512   2.03662   7.46762  -0.000004851960393  -0.000001223161334   0.000001542190516
Si   21.04512   4.75212  10.18313   0.000003480034420   0.000010277136283  -0.000000544851138
Si   18.32963   2.03662  10.18313  -0.000002046453817   0.000001075763291   0.000000627916106
Si   18.32963   4.75212   7.46762  -0.000002905131473  -0.000002559980864   0.000002081417296
Si   16.97188   0.67887  11.54087   0.000001915300745  -0.000000426758489   0.000003552678865
Si   19.68738   0.67887  14.25638  -0.000002171590848  -0.000000878621275  -0.000000233972209
Si   16.97188   3.39437  14.25638   0.000000875076736   0.000000749866392   0.000000968187334
Si   19.68738   3.39437  11.54087  -0.000004586538617  -0.000007183877773   0.000003018337404
Si   21.04512   2.03662  12.89862  -0.000003154909488  -0.000002868585398  -0.000001081745729
Si   21.04512   4.75212  15.61413   0.000000758139350  -0.000002485919815   0.000004554408250
Si   18.32963   2.03662  15.61413   0.000007102082906   0.000005992154988   0.000001180780379
Si   18.32963   4.75212  12.89862  -0.000002559779208  -0.000002276644868  -0.000002444271781
Si   16.97188   6.10987   0.67888  -0.000000379328749   0.000001195544802  -0.000005218662397
Si   19.68738   6.10987   3.39437   0.000002713098021   0.000002727681328   0.000000527296284
Si   16.97188   8.82537   3.39437   0.000004182747782   0.000000590868845  -0.000000849709538
Si   19.68738   8.82537   0.67888   0.000007774831592  -0.000000262247618   0.000000071782673
Si   21.04512   7.46762   2.03662  -0.000003956098095   0.000004248385798  -0.000000324351614
Si   21.04512  10.18313   4.75213   0.000006353217271  -0.000002712949771  -0.000004752536021
Si   18.32963   7.46762   4.75213   0.000000235893124  -0.000000430274566  -0.000003145009389
Si   18.32963  10.18313   2.03662  -0.000003808875434   0.000003175548534   0.000001515813069
Si   16.97188   6.10987   6.10987  -0.000007656273825   0.000001764563077  -0.000000133428086
Si   19.68738   6.10987   8.82537   0.000002784641329   0.000002365496721   0.000000309606811
Si   16.97188   8.82537   8.82537   0.000006277587385   0.000002011778048   0.000002876134046
Si   19.68738   8.82537   6.10987   0.000004023870761  -0.000005474468466  -0.000000748494618
Si   21.04512   7.46762   7.46762   0.000003222278441  -0.000001260908826   0.000005794524416
Si   21.04512  10.18313  10.18313  -0.000001991156730   0.000003518313780  -0.000000137620875
Si   18.32963   7.46762  10.18313  -0.000007352164951  -0.000005928815416   0.000000202209660
Si   18.32963  10.18313   7.46762  -0.000005881970762   0.000001779451750  -0.000002226054024
Si   16.97188   6.10987  11.54087   0.000001424313867  -0.000000812552364   0.000003373874751
Si   19.68738   6.10987  14.25638  -0.000001510086103   0.000003982459003   0.000000588946871
Si   16.97188   8.82537  14.25638   0.000000234480345  -0.000001157503654  -0.000000300933902
Si   19.68738   8.82537  11.54087   0.000005668989890   0.000000563672595  -0.000000868954338
Si   21.04512   7.46762  12.89862   0.000002155313994  -0.000000711773358  -0.000005543873985
Si   21.04512  10.18313  15.61413   0.000006918700676  -0.000006111799083   0.000003361591448
Si   18.32963   7.46762  15.61413   0.000000329801849  -0.000000518248533   0.000002631809319
Si   18.32963  10.18313  12.89862  -0.000005332522036   0.000002288867449   0.000003078771407
Si   16.97188  11.54087   0.67888   0.000002349534985   0.000000184929150  -0.000002208960939
Si   19.68738  11.54087   3.39437   0.000000043267197  -0.000003473784756  -0.000000471389206
Si   16.97188  14.25638   3.39437  -0.000001130830432   0.000000432241419  -0.000001687386850
Si   19.68738  14.25638   0.67888  -0.000001687991139   0.000001468089191  -0.000006324339739
Si   21.04512  12.89862   2.03662  -0.000000138405401  -0.000001469601390  -0.000001037332830
Si   21.04512  15.61413   4.75213  -0.000000087489678  -0.000003407792016   0.000000425858662
Si   18.32963  12.89862   4.75213  -0.000000147880201   0.000003444691791  -0.000003858874669
Si   18.32963  15.61413   2.03662   0.000002940643903  -0.000002000983403  -0.000001111014079
Si   16.97188  11.54087   6.10987  -0.000001848746358  -0.000002671575331  -0.000000921000889
Si   19.68738  11.54087   8.82537   0.000001910754791  -0.000002696168994  -0.000001633541105
Si   16.97188  14.25638   8.82537  -0.000001037058164  -0.000001966204829   0.000002559829003
Si   19.68738  14.25638   6.10987   0.000002055320722  -0.000006387152099   0.000000250076935
Si   21.04512  12.89862   7.46762   0.000000023394930  -0.000001437699539  -0.000002426070198
Si   21.04512  15.61413  10.18313   0.000001361122970   0.000001036634807   0.000000510908924
Si   18.32963  12.89862  10.18313  -0.000000596919213  -0.000004613283245   0.000000323209873
Si   18.32963  15.61413   7.46762  -0.000007203948910   0.000005288577769   0.000002219659949
Si   16.97188  11.54087  11.54087   0.000002105335650   0.000001001261095   0.000003115685650
Si   19.68738  11.54087  14.25638  -0.000002104390461  -0.000001262485963   0.000000436827315
Si   16.97188  14.25638  14.25638  -0.000002006653718  -0.000002568633172  -0.000000595870418
Si   19.68738  14.25638  11.54087  -0.000003415233562   0.000000697099371   0.000006810160447
Si   21.04512  12.89862  12.89862  -0.000002211770281  -0.000001327123263   0.000002615804969
Si   21.04512  15.61413  15.61413  -0.000003189404239  -0.000001619896865  -0.000002412907762
Si   18.32963  12.89862  15.61413   0.000001990646813   0.000003965351899   0.000004818326413
Si   18.32963  15.61413  12.89862  -0.000005635915580   0.000005763794660  -0.000003492545514
Si   16.97188  16.97188   0.67888   0.000001375912439   0.000001375912294  -0.000004813687796
Si   19.68738  16.97188   3.39437   0.000000118202759  -0.000000209474708   0.000000884199968
Si   16.97188  19.68738   3.39437  -0.000000209474492   0.000000118202637   0.000000884199691
Si   19.68738  19.68738   0.67888  -0.000000043499518  -0.000000043499176  -0.000002438950060
Si   21.04512  18.32963   2.03662  -0.000007079114265   0.000000392860052   0.000000029576004
Si   21.04512  21.04512   4.75213  -0.000003757567222  -0.000003757567013  -0.000005236437860
Si   18.32963  18.32963   4.75213  -0.000002718407066  -0.000002718406941  -0.000005988255618
Si   18.32963  21.04512   2.03662   0.000000392860179  -0.000007079114241   0.000000029575889
Si   16.97188  16.97188   6.10987   0.000000895794381   0.000000895794464  -0.000001254905360
Si   19.68738  16.97188   8.82537   0.000000900118578  -0.000001267465606  -0.000001363967429
Si   16.97188  19.68738   8.82537  -0.000001267465688   0.000000900118182  -0.000001363967654
Si   19.68738  19.68738   6.10987  -0.000000066589741  -0.000000066589494  -0.000000225524493
Si   21.04512  18.32963   7.46762   0.000005114970960   0.000002759450125   0.000009135324721
Si   21.04512  21.04512  10.18313   0.000004899091324   0.000004899091547  -0.000000333512095
Si   18.32963  18.32963  10.18313   0.000004153420379   0.000004153420601  -0.000000193838321
Si   18.32963  21.04512   7.46762   0.000002759450439   0.000005114970849   0.000009135324600
Si   16.97188  16.97188  11.54087   0.000002021729094   0.000002021729333   0.000003168547156
Si   19.68738  16.97188  14.25638  -0.000000377834309   0.000000011719353   0.000000871235989
Si   16.97188  19.68738  14.25638   0.000000011719381  -0.000000377834563   0.000000871235745
Si   19.68738  19.68738  11.54087   0.000002167633269   0.000002167633233   0.000003637244311
Si   21.04512  18.32963  12.89862   0.000005614851577   0.000002077212024  -0.000007892037044
Si   21.04512  21.04512  15.61413  -0.000003780065000  -0.000003780064559   0.000004943501795
Si   18.32963  18.32963  15.61413  -0.000002232242467  -0.000002232242516   0.000005445776068
Si   18.32963  21.04512  12.89862   0.000002077212199   0.000005614851558  -0.000007892037224
