512 

Si    0.67887   0.67888   0.67887   0.000000287888744   0.000000287790753   0.000000281582500
Si    3.39437   0.67888   3.39437  -0.000000301268068   0.000008739324318  -0.000000300118400
Si    0.67887   3.39438   3.39437   0.000008739299905  -0.000000301290737  -0.000000300168317
Si    3.39437   3.39438   0.67887  -0.000000304084400  -0.000000303998592   0.000008743766040
Si    4.75212   2.03662   2.03662   0.000006174525419  -0.000004995964372  -0.000004988020774
Si    4.75212   4.75212   4.75212  -0.000001386678657  -0.000001386594935  -0.000001396119201
Si    2.03662   2.03662   4.75212  -0.000005003800765  -0.000005003855095   0.000006163764970
Si    2.03662   4.75212   2.03662  -0.000004995924751   0.000006174417053  -0.000004988062651
Si    0.67887   0.67888   6.10987  -0.000003885459113  -0.000003885456065   0.000006583508659
Si    3.39437   0.67888   8.82537  -0.000000014675835   0.000003014218019  -0.000002137418769
Si    0.67887   3.39438   8.82537   0.000003014265501  -0.000000014678917  -0.000002137431095
Si    3.39437   3.39438   6.10987   0.000000077400635   0.000000077337098   0.000004295507564
Si    4.75212   2.03662   7.46762   0.000001799701879   0.000008992346989  -0.000003068069624
Si    4.75212   4.75212  10.18313  -0.000002301592125  -0.000002301498818   0.000007467451963
Si    2.03662   2.03662  10.18313  -0.000001858891310  -0.000001858938791   0.000005185818263
Si    2.03662   4.75212   7.46762   0.000008992336027   0.000001799716840  -0.000003068074737
Si    0.67887   0.67888  11.54087   0.000001773600590   0.000001773508289   0.000004589242539
Si    3.39437   0.67888  14.25638   0.000001378937152   0.000004542351123   0.000000848742495
Si    0.67887   3.39438  14.25638   0.000004542285711   0.000001378943562   0.000000848766357
Si    3.39437   3.39438  11.54087   0.000004014465380   0.000004014461806  -0.000005766547749
Si    4.75212   2.03662  12.89862  -0.000003103362476  -0.000003493704960   0.000002216972985
Si    4.75212   4.75212  15.61412  -0.000000438537812  -0.000000438638838   0.000000624111493
Si    2.03662   2.03662  15.61412   0.000002688281300   0.000002688274252  -0.000006644928208
Si    2.03662   4.75212  12.89862  -0.000003493631839  -0.000003103342755   0.000002216985070
Si    0.67887   0.67888  16.97187  -0.000000480272736  -0.000000480286019   0.000001530351669
Si    3.39437   0.67888  19.68737  -0.000004818995426  -0.000001247349724  -0.000001210050834
Si    0.67887   3.39438  19.68737  -0.000001247266590  -0.000004818888031  -0.000001210097467
Si    3.39437   3.39438  16.97187   0.000000597303886   0.000000597228302  -0.000003536409266
Si    4.75212   2.03662  18.32963   0.000000696091228   0.000004149341256   0.000000658573093
Si    4.75212   4.75212  21.04512   0.000002607010731   0.000002607012528  -0.000003464447936
Si    2.03662   2.03662  21.04512  -0.000001560484783  -0.000001560455366  -0.000000008241654
Si    2.03662   4.75212  18.32963   0.000004149253289   0.000000696071807   0.000000658624285
Si    0.67887   6.10987   0.67887  -0.000003879383461   0.000006574788295  -0.000003883675511
Si    3.39437   6.10987   3.39437   0.000000069667556   0.000004299443518   0.000000070343635
Si    0.67887   8.82537   3.39437   0.000003010578406  -0.000002139944827  -0.000000005309206
Si    3.39437   8.82537   0.67887  -0.000000006574495  -0.000002134196066   0.000003014954956
Si    4.75212   7.46762   2.03662   0.000001801173243  -0.000003075018108   0.000008988062179
Si    4.75212  10.18313   4.75212  -0.000002299283150   0.000007474195373  -0.000002298823687
Si    2.03662   7.46762   4.75212   0.000008983409207  -0.000003080452969   0.000001799119418
Si    2.03662  10.18313   2.03662  -0.000001870078129   0.000005192168046  -0.000001868845173
Si    0.67887   6.10987   6.10987   0.000001069298102   0.000001180344130   0.000001176237189
Si    3.39437   6.10987   8.82537   0.000005750452234   0.000002243548756   0.000004212465120
Si    0.67887   8.82537   8.82537   0.000000526226330   0.000000591004200   0.000000596750828
Si    3.39437   8.82537   6.10987   0.000005744607708   0.000004214129116   0.000002246621189
Si    4.75212   7.46762   7.46762   0.000000162108992   0.000001757142297   0.000001753533258
Si    4.75212  10.18313  10.18313  -0.000002452245979  -0.000003028917382  -0.000003017661638
Si    2.03662   7.46762  10.18313   0.000002000186657   0.000004857496696  -0.000002432728075
Si    2.03662  10.18313   7.46762   0.000002006378200  -0.000002428378996   0.000004851959521
Si    0.67887   6.10987  11.54087   0.000004688492391  -0.000001695978968  -0.000002388571645
Si    3.39437   6.10987  14.25638  -0.000004054318259   0.000002169617147   0.000005257528684
Si    0.67887   8.82537  14.25638  -0.000001687852080  -0.000000894448603   0.000003040935244
Si    3.39437   8.82537  11.54087  -0.000001175256905  -0.000001146065419  -0.000007856334573
Si    4.75212   7.46762  12.89862   0.000001291368817   0.000006436160708   0.000003267959882
Si    4.75212  10.18313  15.61412  -0.000003341598705   0.000000876775695  -0.000003805641885
Si    2.03662   7.46762  15.61412  -0.000002804806055  -0.000000097474297  -0.000001228398819
Si    2.03662  10.18313  12.89862  -0.000002199265490  -0.000003101156915   0.000000562136128
Si    0.67887   6.10987  16.97187   0.000003741866224   0.000000294781822  -0.000000110545948
Si    3.39437   6.10987  19.68737   0.000000604037292  -0.000004495384158   0.000005005149761
Si    0.67887   8.82537  19.68737  -0.000002825920419   0.000003287534787   0.000000455005633
Si    3.39437   8.82537  16.97187   0.000000634379258  -0.000001562557175   0.000001075810146
Si    4.75212   7.46762  18.32963  -0.000000088571094  -0.000003257339045  -0.000001623860288
Si    4.75212  10.18313  21.04512   0.000005518823683   0.000005002144848  -0.000005117656150
Si    2.03662   7.46762  21.04512  -0.000006184357769  -0.000005164157828   0.000002242653594
Si    2.03662  10.18313  18.32963   0.000002237154416   0.000003226550891  -0.000000141057146
Si    0.67887  11.54087   0.67887   0.000001766778908   0.000004589151733   0.000001764402850
Si    3.39437  11.54087   3.39437   0.000004011807427  -0.000005765456181   0.000004015085022
Si    0.67887  14.25638   3.39437   0.000004540209944   0.000000848699424   0.000001378274864
Si    3.39437  14.25638   0.67887   0.000001379217100   0.000000847402009   0.000004539740361
Si    4.75212  12.89862   2.03662  -0.000003103572313   0.000002211638161  -0.000003492375106
Si    4.75212  15.61412   4.75212  -0.000000438192463   0.000000635124334  -0.000000429933668
Si    2.03662  12.89862   4.75212  -0.000003482860543   0.000002208038647  -0.000003097759085
Si    2.03662  15.61412   2.03662   0.000002693848196  -0.000006638736605   0.000002684319671
Si    0.67887  11.54087   6.10987   0.000004696305276  -0.000002386621284  -0.000001708156689
Si    3.39437  11.54087   8.82537  -0.000001177349795  -0.000007858415784  -0.000001145519198
Si    0.67887  14.25638   8.82537  -0.000001687164929   0.000003037774667  -0.000000897478254
Si    3.39437  14.25638   6.10987  -0.000004054125243   0.000005258212948   0.000002174618721
Si    4.75212  12.89862   7.46762   0.000001291106229   0.000003259509331   0.000006433671281
Si    4.75212  15.61412  10.18313  -0.000003331988824  -0.000003820435484   0.000000879528749
Si    2.03662  12.89862  10.18313  -0.000002212094628   0.000000577515535  -0.000003092252644
Si    2.03662  15.61412   7.46762  -0.000002803914690  -0.000001223517222  -0.000000101141090
Si    0.67887  11.54087  11.54087   0.000004552531686  -0.000003631330148  -0.000003632483289
Si    3.39437  11.54087  14.25638  -0.000004757318160   0.000006692426190  -0.000002435075433
Si    0.67887  14.25638  14.25638   0.000000519458529   0.000001641196689   0.000001644409111
Si    3.39437  14.25638  11.54087  -0.000004762668842  -0.000002432024820   0.000006693345254
Si    4.75212  12.89862  12.89862   0.000000018082125  -0.000001761141293  -0.000001764810510
Si    4.75212  15.61412  15.61412   0.000000292613585  -0.000001614998965  -0.000001616517838
Si    2.03662  12.89862  15.61412   0.000007187429784   0.000000515889532  -0.000000602519062
Si    2.03662  15.61412  12.89862   0.000007179680322  -0.000000609364389   0.000000516086537
Si    0.67887  11.54087  16.97187   0.000005125107273  -0.000004997721009  -0.000005524841748
Si    3.39437  11.54087  19.68737   0.000000133793010  -0.000003226471586  -0.000002242327394
Si    0.67887  14.25638  19.68737  -0.000002253234074   0.000005173702027   0.000006187605387
Si    3.39437  14.25638  16.97187   0.000001622614179   0.000003255832384   0.000000093032612
Si    4.75212  12.89862  18.32963  -0.000001074044905   0.000001568257242  -0.000000646352574
Si    4.75212  15.61412  21.04512   0.000000110005982  -0.000000299914471  -0.000003730979372
Si    2.03662  12.89862  21.04512  -0.000000453023766  -0.000003288426136   0.000002835786973
Si    2.03662  15.61412  18.32963  -0.000005010367251   0.000004495528621  -0.000000615327289
Si    0.67887  16.97187   0.67887  -0.000000465023010   0.000001535562704  -0.000000466744302
Si    3.39437  16.97187   3.39437   0.000000594116995  -0.000003535314745   0.000000599989147
Si    0.67887  19.68737   3.39437  -0.000001252954805  -0.000001213787355  -0.000004828711148
Si    3.39437  19.68737   0.67887  -0.000004824550278  -0.000001213789459  -0.000001249805363
Si    4.75212  18.32963   2.03662   0.000000710421809   0.000000649717191   0.000004144317022
Si    4.75212  21.04512   4.75212   0.000002615326995  -0.000003452273537   0.000002605020069
Si    2.03662  18.32963   4.75212   0.000004143361267   0.000000651414658   0.000000701777135
Si    2.03662  21.04512   2.03662  -0.000001574948719  -0.000000004077848  -0.000001562195934
Si    0.67887  16.97187   6.10987   0.000003735196947  -0.000000107907636   0.000000302228601
Si    3.39437  16.97187   8.82537   0.000000636170550   0.000001076970300  -0.000001558151154
Si    0.67887  19.68737   8.82537  -0.000002831981104   0.000000453299581   0.000003282231338
Si    3.39437  19.68737   6.10987   0.000000614770352   0.000005002512828  -0.000004499743053
Si    4.75212  18.32963   7.46762  -0.000000099275419  -0.000001630993543  -0.000003258271147
Si    4.75212  21.04512  10.18313   0.000005522468504  -0.000005124138582   0.000004994707042
Si    2.03662  18.32963  10.18313   0.000002236905592  -0.000000130273111   0.000003228351839
Si    2.03662  21.04512   7.46762  -0.000006180287027   0.000002239104166  -0.000005167241305
Si    0.67887  16.97187  11.54087   0.000005124073498  -0.000005522419598  -0.000004994604143
Si    3.39437  16.97187  14.25638   0.000001630958751   0.000000099227240   0.000003258245516
Si    0.67887  19.68737  14.25638  -0.000002239096827   0.000006180315971   0.000005167257933
Si    3.39437  19.68737  11.54087   0.000000130315222  -0.000002236871539  -0.000003228419822
Si    4.75212  18.32963  12.89862  -0.000001077034076  -0.000000636129862   0.000001558150307
Si    4.75212  21.04512  15.61412   0.000000107849958  -0.000003735149703  -0.000000302262222
Si    2.03662  18.32963  15.61412  -0.000005002572392  -0.000000614829135   0.000004499769290
Si    2.03662  21.04512  12.89862  -0.000000453335679   0.000002832018211  -0.000003282240468
Si    0.67887  16.97187  16.97187   0.000003452297187  -0.000002615237531  -0.000002605053958
Si    3.39437  16.97187  19.68737  -0.000000649712544  -0.000000710516164  -0.000004144313265
Si    0.67887  19.68737  19.68737   0.000000004129109   0.000001575072991   0.000001562194119
Si    3.39437  19.68737  16.97187  -0.000000651478517  -0.000004143382743  -0.000000701809668
Si    4.75212  18.32963  18.32963   0.000003535414337  -0.000000594182615  -0.000000599987134
Si    4.75212  21.04512  21.04512  -0.000001535547234   0.000000464992507   0.000000466669711
Si    2.03662  18.32963  21.04512   0.000001213729941   0.000004824489475   0.000001249860337
Si    2.03662  21.04512  18.32963   0.000001213757294   0.000001253002798   0.000004828772621
Si    6.10988   0.67888   0.67887   0.000006574844108  -0.000003879267499  -0.000003883736410
Si    8.82537   0.67888   3.39437  -0.000002139966332   0.000003010560308  -0.000000005225462
Si    6.10988   3.39438   3.39437   0.000004299375573   0.000000069609089   0.000000070282250
Si    8.82537   3.39438   0.67887  -0.000002134219628  -0.000000006657001   0.000003014972720
Si   10.18313   2.03662   2.03662   0.000005192134462  -0.000001870004667  -0.000001868872465
Si   10.18313   4.75212   4.75212   0.000007474135271  -0.000002299230076  -0.000002298831354
Si    7.46762   2.03662   4.75212  -0.000003080465826   0.000008983418851   0.000001799161794
Si    7.46762   4.75212   2.03662  -0.000003074981800   0.000001801203998   0.000008987979338
Si    6.10988   0.67888   6.10987   0.000001180359043   0.000001069208896   0.000001176264829
Si    8.82537   0.67888   8.82537   0.000000590987543   0.000000526225296   0.000000596701456
Si    6.10988   3.39438   8.82537   0.000002243520341   0.000005750453026   0.000004212421312
Si    8.82537   3.39438   6.10987   0.000004214107204   0.000005744629366   0.000002246649555
Si   10.18313   2.03662   7.46762  -0.000002428363509   0.000002006405261   0.000004851923098
Si   10.18313   4.75212  10.18313  -0.000003028904106  -0.000002452217843  -0.000003017681649
Si    7.46762   2.03662  10.18313   0.000004857491681   0.000002000211961  -0.000002432733018
Si    7.46762   4.75212   7.46762   0.000001757151221   0.000000162066439   0.000001753523404
Si    6.10988   0.67888  11.54087  -0.000001695951301   0.000004688445643  -0.000002388512835
Si    8.82537   0.67888  14.25638  -0.000000894438841  -0.000001687848244   0.000003040922719
Si    6.10988   3.39438  14.25638   0.000002169538922  -0.000004054234327   0.000005257598463
Si    8.82537   3.39438  11.54087  -0.000001146142031  -0.000001175225201  -0.000007856384098
Si   10.18313   2.03662  12.89862  -0.000003101125615  -0.000002199314292   0.000000562162979
Si   10.18313   4.75212  15.61412   0.000000876725957  -0.000003341643773  -0.000003805623844
Si    7.46762   2.03662  15.61412  -0.000000097397715  -0.000002804776313  -0.000001228344490
Si    7.46762   4.75212  12.89862   0.000006436204736   0.000001291456502   0.000003267952334
Si    6.10988   0.67888  16.97187   0.000000294771207   0.000003741815375  -0.000000110523482
Si    8.82537   0.67888  19.68737   0.000003287525825  -0.000002825859797   0.000000455063576
Si    6.10988   3.39438  19.68737  -0.000004495422922   0.000000604072853   0.000005005111624
Si    8.82537   3.39438  16.97187  -0.000001562577716   0.000000634356917   0.000001075701200
Si   10.18313   2.03662  18.32963   0.000003226594683   0.000002237105680  -0.000000141066211
Si   10.18313   4.75212  21.04512   0.000005002156667   0.000005518840517  -0.000005117734125
Si    7.46762   2.03662  21.04512  -0.000005164204732  -0.000006184412414   0.000002242698121
Si    7.46762   4.75212  18.32963  -0.000003257368627  -0.000000088594908  -0.000001623782821
Si    6.10988   6.10987   0.67887   0.000001169468395   0.000001169486193   0.000001074596857
Si    8.82537   6.10987   3.39437   0.000004220020612   0.000002241803566   0.000005740228535
Si    6.10988   8.82537   3.39437   0.000002241872342   0.000004219995457   0.000005740193824
Si    8.82537   8.82537   0.67887   0.000000602570893   0.000000602636556   0.000000532505369
Si   10.18313   7.46762   2.03662  -0.000002429907159   0.000004861964322   0.000001999198255
Si   10.18313  10.18313   4.75212  -0.000003026483482  -0.000003026465642  -0.000002459864615
Si    7.46762   7.46762   4.75212   0.000001746535235   0.000001746585022   0.000000164818716
Si    7.46762  10.18313   2.03662   0.000004861981574  -0.000002429907776   0.000001999161936
Si    6.10988   6.10987   6.10987   0.000002961652808   0.000002961628955   0.000002963105929
Si    8.82537   6.10987   8.82537  -0.000001790049136   0.000000807186367  -0.000001791684946
Si    6.10988   8.82537   8.82537   0.000000807210795  -0.000001789990958  -0.000001791707927
Si    8.82537   8.82537   6.10987  -0.000001788051228  -0.000001788067449   0.000000811734527
Si   10.18313   7.46762   7.46762  -0.000003344912106  -0.000000063408148  -0.000000061721610
Si   10.18313  10.18313  10.18313  -0.000003658607485  -0.000003658626583  -0.000003660466195
Si    7.46762   7.46762  10.18313  -0.000000058102208  -0.000000058060689  -0.000003348111686
Si    7.46762  10.18313   7.46762  -0.000000063443973  -0.000003344853336  -0.000000061720427
Si    6.10988   6.10987  11.54087   0.000004695697978   0.000004695697575   0.000000405187525
Si    8.82537   6.10987  14.25638   0.000000190344030   0.000000467323834   0.000003277455654
Si    6.10988   8.82537  14.25638   0.000000467345317   0.000000190269609   0.000003277488009
Si    8.82537   8.82537  11.54087   0.000003012175220   0.000003012162255   0.000000923226983
Si   10.18313   7.46762  12.89862  -0.000000336810486   0.000003662100187   0.000004568926841
Si   10.18313  10.18313  15.61412  -0.000000862889780  -0.000000862876359  -0.000000235262653
Si    7.46762   7.46762  15.61412   0.000000548434493   0.000000548470724   0.000003155437070
Si    7.46762  10.18313  12.89862   0.000003662100581  -0.000000336788700   0.000004568873196
Si    6.10988   6.10987  16.97187   0.000001635019504   0.000001635080858  -0.000000292052071
Si    8.82537   6.10987  19.68737  -0.000000532761005   0.000000615567019  -0.000007185335920
Si    6.10988   8.82537  19.68737   0.000000615530106  -0.000000532834496  -0.000007185302457
Si    8.82537   8.82537  16.97187   0.000001746522662   0.000001746513567  -0.000000009999051
Si   10.18313   7.46762  18.32963  -0.000006698025786   0.000002429987353   0.000004760947367
Si   10.18313  10.18313  21.04512   0.000003632662592   0.000003632634505  -0.000004560080422
Si    7.46762   7.46762  21.04512  -0.000001640684654  -0.000001640675320  -0.000000510736414
Si    7.46762  10.18313  18.32963   0.000002429989196  -0.000006697971075   0.000004760930181
Si    6.10988  11.54087   0.67887  -0.000001710001310  -0.000002389947999   0.000004698399280
Si    8.82537  11.54087   3.39437  -0.000001147687218  -0.000007860687009  -0.000001184274396
Si    6.10988  14.25638   3.39437   0.000002171856902   0.000005259367931  -0.000004056011967
Si    8.82537  14.25638   0.67887  -0.000000889710244   0.000003042367113  -0.000001688408066
Si   10.18313  12.89862   2.03662  -0.000003105493321   0.000000567476972  -0.000002198377591
Si   10.18313  15.61412   4.75212   0.000000863763034  -0.000003813738436  -0.000003340413797
Si    7.46762  12.89862   4.75212   0.000006448212796   0.000003272732405   0.000001295044871
Si    7.46762  15.61412   2.03662  -0.000000091285632  -0.000001233072356  -0.000002805212660
Si    6.10988  11.54087   6.10987   0.000004703848609   0.000000398692056   0.000004706233116
Si    8.82537  11.54087   8.82537   0.000003008942485   0.000000917687350   0.000003003318855
Si    6.10988  14.25638   8.82537   0.000000475817627   0.000003284346743   0.000000182849334
Si    8.82537  14.25638   6.10987   0.000000185729267   0.000003277803816   0.000000470919175
Si   10.18313  12.89862   7.46762  -0.000000331963022   0.000004566982439   0.000003665389009
Si   10.18313  15.61412  10.18313  -0.000000861977396  -0.000000231450228  -0.000000869801052
Si    7.46762  12.89862  10.18313   0.000003652704955   0.000004574844394  -0.000000335402802
Si    7.46762  15.61412   7.46762   0.000000547860576   0.000003162454845   0.000000548834191
Si    6.10988  11.54087  11.54087   0.000000231385902   0.000000862026966   0.000000869767267
Si    8.82537  11.54087  14.25638  -0.000004567039220   0.000000332080174  -0.000003665316424
Si    6.10988  14.25638  14.25638  -0.000003162502884  -0.000000547899442  -0.000000548910336
Si    8.82537  14.25638  11.54087  -0.000004574892936  -0.000003652613858   0.000000335380375
Si   10.18313  12.89862  12.89862  -0.000000917744965  -0.000003009027252  -0.000003003376004
Si   10.18313  15.61412  15.61412  -0.000000398627957  -0.000004703782623  -0.000004706174193
Si    7.46762  12.89862  15.61412  -0.000003277790153  -0.000000185680380  -0.000000470873257
Si    7.46762  15.61412  12.89862  -0.000003284270069  -0.000000475883372  -0.000000182802895
Si    6.10988  11.54087  16.97187   0.000003813756283  -0.000000863815323   0.000003340365336
Si    8.82537  11.54087  19.68737  -0.000000567509214   0.000003105550114   0.000002198388489
Si    6.10988  14.25638  19.68737   0.000001233173623   0.000000091277746   0.000002805206355
Si    8.82537  14.25638  16.97187  -0.000003272732215  -0.000006448281628  -0.000001295058164
Si   10.18313  12.89862  18.32963   0.000007860729187   0.000001147708131   0.000001184297061
Si   10.18313  15.61412  21.04512   0.000002389989305   0.000001709862054  -0.000004698453241
Si    7.46762  12.89862  21.04512  -0.000003042363058   0.000000889766553   0.000001688420988
Si    7.46762  15.61412  18.32963  -0.000005259422584  -0.000002171944852   0.000004056063990
Si    6.10988  16.97187   0.67887   0.000000299940179  -0.000000109984649   0.000003731007943
Si    8.82537  16.97187   3.39437  -0.000001568255263   0.000001074027807   0.000000646448964
Si    6.10988  19.68737   3.39437  -0.000004495463761   0.000005010386868   0.000000615369227
Si    8.82537  19.68737   0.67887   0.000003288488694   0.000000453036534  -0.000002835776482
Si   10.18313  18.32963   2.03662   0.000003226492049  -0.000000133821018   0.000002242207704
Si   10.18313  21.04512   4.75212   0.000004997648694  -0.000005125112031   0.000005524885890
Si    7.46762  18.32963   4.75212  -0.000003255866971  -0.000001622601083  -0.000000093098994
Si    7.46762  21.04512   2.03662  -0.000005173717870   0.000002253182910  -0.000006187552548
Si    6.10988  16.97187   6.10987   0.000001615025019  -0.000000292571705   0.000001616601408
Si    8.82537  16.97187   8.82537   0.000001761150590  -0.000000018071931   0.000001764856706
Si    6.10988  19.68737   8.82537   0.000000609409393  -0.000007179702712  -0.000000515960916
Si    8.82537  19.68737   6.10987  -0.000000515921859  -0.000007187463707   0.000000602555441
Si   10.18313  18.32963   7.46762  -0.000006692422797   0.000004757253335   0.000002435022313
Si   10.18313  21.04512  10.18313   0.000003631308822  -0.000004552444718   0.000003632466743
Si    7.46762  18.32963  10.18313   0.000002431960231   0.000004762727674  -0.000006693432690
Si    7.46762  21.04512   7.46762  -0.000001641140999  -0.000000519457119  -0.000001644497124
Si    6.10988  16.97187  11.54087   0.000003820429807   0.000003331936838  -0.000000879608660
Si    8.82537  16.97187  14.25638  -0.000003259547716  -0.000001291051049  -0.000006433720707
Si    6.10988  19.68737  14.25638   0.000001223492505   0.000002803914048   0.000000101227772
Si    8.82537  19.68737  11.54087  -0.000000577518116   0.000002212118230   0.000003092283461
Si   10.18313  18.32963  12.89862   0.000007858391206   0.000001177301310   0.000001145556425
Si   10.18313  21.04512  15.61412   0.000002386533671  -0.000004696400269   0.000001708102217
Si    7.46762  18.32963  15.61412  -0.000005258255189   0.000004054142502  -0.000002174611965
Si    7.46762  21.04512  12.89862  -0.000003037771581   0.000001687147652   0.000000897430778
Si    6.10988  16.97187  16.97187  -0.000000635203329   0.000000438257227   0.000000429900194
Si    8.82537  16.97187  19.68737  -0.000002211687148   0.000003103586046   0.000003492388822
Si    6.10988  19.68737  19.68737   0.000006638765586  -0.000002693817376  -0.000002684265801
Si    8.82537  19.68737  16.97187  -0.000002207975736   0.000003482935783   0.000003097763623
Si   10.18313  18.32963  18.32963   0.000005765416269  -0.000004011733038  -0.000004014973758
Si   10.18313  21.04512  21.04512  -0.000004589087285  -0.000001766781925  -0.000001764354456
Si    7.46762  18.32963  21.04512  -0.000000847387200  -0.000001379236153  -0.000004539808452
Si    7.46762  21.04512  18.32963  -0.000000848670886  -0.000004540208184  -0.000001378209182
Si   11.54087   0.67888   0.67887   0.000004589126639   0.000001766730884   0.000001764301777
Si   14.25638   0.67888   3.39437   0.000000848717524   0.000004540173795   0.000001378216944
Si   11.54087   3.39438   3.39437  -0.000005765409053   0.000004011789477   0.000004015033125
Si   14.25638   3.39438   0.67887   0.000000847423568   0.000001379156871   0.000004539785570
Si   15.61412   2.03662   2.03662  -0.000006638830293   0.000002693900288   0.000002684241291
Si   15.61412   4.75212   4.75212   0.000000635115515  -0.000000438171274  -0.000000429847407
Si   12.89862   2.03662   4.75212   0.000002208012662  -0.000003482864528  -0.000003097782646
Si   12.89862   4.75212   2.03662   0.000002211613122  -0.000003103602167  -0.000003492373711
Si   11.54087   0.67888   6.10987  -0.000002386552737   0.000004696334476  -0.000001708088727
Si   14.25638   0.67888   8.82537   0.000003037811526  -0.000001687202789  -0.000000897442624
Si   11.54087   3.39438   8.82537  -0.000007858396269  -0.000001177330694  -0.000001145499550
Si   14.25638   3.39438   6.10987   0.000005258215020  -0.000004054182707   0.000002174512670
Si   15.61412   2.03662   7.46762  -0.000001223496880  -0.000002803904594  -0.000000101128429
Si   15.61412   4.75212  10.18313  -0.000003820362040  -0.000003332003503   0.000000879588026
Si   12.89862   2.03662  10.18313   0.000000577546690  -0.000002212111888  -0.000003092341337
Si   12.89862   4.75212   7.46762   0.000003259507356   0.000001291157880   0.000006433775423
Si   11.54087   0.67888  11.54087  -0.000003631341815   0.000004552459340  -0.000003632513853
Si   14.25638   0.67888  14.25638   0.000001641138081   0.000000519414961   0.000001644464629
Si   11.54087   3.39438  14.25638   0.000006692456050  -0.000004757270228  -0.000002435057845
Si   14.25638   3.39438  11.54087  -0.000002432035312  -0.000004762666808   0.000006693375257
Si   15.61412   2.03662  12.89862  -0.000000609340977   0.000007179728470   0.000000516060675
Si   15.61412   4.75212  15.61412  -0.000001614974861   0.000000292597648  -0.000001616564419
Si   12.89862   2.03662  15.61412   0.000000515885781   0.000007187409603  -0.000000602588461
Si   12.89862   4.75212  12.89862  -0.000001761182168   0.000000018088041  -0.000001764834716
Si   11.54087   0.67888  16.97187  -0.000004997748135   0.000005125100896  -0.000005524830499
Si   14.25638   0.67888  19.68737   0.000005173711560  -0.000002253222388   0.000006187589833
Si   11.54087   3.39438  19.68737  -0.000003226503508   0.000000133791836  -0.000002242186454
Si   14.25638   3.39438  16.97187   0.000003255813095   0.000001622638654   0.000000093046369
Si   15.61412   2.03662  18.32963   0.000004495576364  -0.000005010337273  -0.000000615373303
Si   15.61412   4.75212  21.04512  -0.000000299930043   0.000000110006960  -0.000003730977478
Si   12.89862   2.03662  21.04512  -0.000003288470895  -0.000000453050070   0.000002835726987
Si   12.89862   4.75212  18.32963   0.000001568276838  -0.000001074027238  -0.000000646378782
Si   11.54087   6.10987   0.67887  -0.000002389931448  -0.000001709867526   0.000004698466608
Si   14.25638   6.10987   3.39437   0.000005259403529   0.000002171863624  -0.000004056039652
Si   11.54087   8.82537   3.39437  -0.000007860741193  -0.000001147687897  -0.000001184285861
Si   14.25638   8.82537   0.67887   0.000003042378118  -0.000000889714774  -0.000001688490861
Si   15.61412   7.46762   2.03662  -0.000001233166022  -0.000000091277927  -0.000002805185062
Si   15.61412  10.18313   4.75212  -0.000003813718023   0.000000863797267  -0.000003340371213
Si   12.89862   7.46762   4.75212   0.000003272706890   0.000006448236522   0.000001295108676
Si   12.89862  10.18313   2.03662   0.000000567549126  -0.000003105582256  -0.000002198353124
Si   11.54087   6.10987   6.10987   0.000000398685127   0.000004703759341   0.000004706188420
Si   14.25638   6.10987   8.82537   0.000003284303852   0.000000475814517   0.000000182741262
Si   11.54087   8.82537   8.82537   0.000000917702827   0.000003008946017   0.000003003348412
Si   14.25638   8.82537   6.10987   0.000003277783313   0.000000185758615   0.000000470883700
Si   15.61412   7.46762   7.46762   0.000003162493524   0.000000547847029   0.000000548872453
Si   15.61412  10.18313  10.18313  -0.000000231437073  -0.000000861964294  -0.000000869815311
Si   12.89862   7.46762  10.18313   0.000004574816704   0.000003652721254  -0.000000335407889
Si   12.89862  10.18313   7.46762   0.000004567014727  -0.000000332018396   0.000003665393559
Si   11.54087   6.10987  11.54087   0.000000861920423   0.000000231419472   0.000000869760474
Si   14.25638   6.10987  14.25638  -0.000000547838520  -0.000003162539352  -0.000000548915600
Si   11.54087   8.82537  14.25638   0.000000331968142  -0.000004567040686  -0.000003665354336
Si   14.25638   8.82537  11.54087  -0.000003652692691  -0.000004574873259   0.000000335421881
Si   15.61412   7.46762  12.89862  -0.000000475862349  -0.000003284297904  -0.000000182791264
Si   15.61412  10.18313  15.61412  -0.000004703817300  -0.000000398638013  -0.000004706192389
Si   12.89862   7.46762  15.61412  -0.000000185761218  -0.000003277760743  -0.000000470818984
Si   12.89862  10.18313  12.89862  -0.000003008913245  -0.000000917711501  -0.000003003275489
Si   11.54087   6.10987  16.97187  -0.000000863740329   0.000003813773420   0.000003340355212
Si   14.25638   6.10987  19.68737   0.000000091272639   0.000001233236981   0.000002805208480
Si   11.54087   8.82537  19.68737   0.000003105560725  -0.000000567502505   0.000002198339986
Si   14.25638   8.82537  16.97187  -0.000006448270375  -0.000003272655029  -0.000001295024382
Si   15.61412   7.46762  18.32963  -0.000002171883836  -0.000005259470793   0.000004056079098
Si   15.61412  10.18313  21.04512   0.000001710008644   0.000002390012973  -0.000004698448692
Si   12.89862   7.46762  21.04512   0.000000889728814  -0.000003042400297   0.000001688411831
Si   12.89862  10.18313  18.32963   0.000001147683838   0.000007860735976   0.000001184237549
Si   11.54087  11.54087   0.67887  -0.000003632664076  -0.000003632638753   0.000004560072832
Si   14.25638  11.54087   3.39437  -0.000002429976969   0.000006697964592  -0.000004760993560
Si   11.54087  14.25638   3.39437   0.000006698009465  -0.000002429983735  -0.000004761014042
Si   14.25638  14.25638   0.67887   0.000001640672618   0.000001640660342   0.000000510803565
Si   15.61412  12.89862   2.03662  -0.000000615519323   0.000000532837416   0.000007185311055
Si   15.61412  15.61412   4.75212  -0.000001635033696  -0.000001634982557   0.000000292040530
Si   12.89862  12.89862   4.75212  -0.000001746590115  -0.000001746556903   0.000000010052454
Si   12.89862  15.61412   2.03662   0.000000532793232  -0.000000615499206   0.000007185277071
Si   11.54087  11.54087   6.10987   0.000000862918766   0.000000862958252   0.000000235280762
Si   14.25638  11.54087   8.82537  -0.000003662071497   0.000000336830298  -0.000004568904533
Si   11.54087  14.25638   8.82537   0.000000336793388  -0.000003662084458  -0.000004568922432
Si   14.25638  14.25638   6.10987  -0.000000548525925  -0.000000548496209  -0.000003155394180
Si   15.61412  12.89862   7.46762  -0.000000467307671  -0.000000190279600  -0.000003277530264
Si   15.61412  15.61412  10.18313  -0.000004695728995  -0.000004695690749  -0.000000405192904
Si   12.89862  12.89862  10.18313  -0.000003012188228  -0.000003012094172  -0.000000923272919
Si   12.89862  15.61412   7.46762  -0.000000190343004  -0.000000467409354  -0.000003277433818
Si   11.54087  11.54087  11.54087   0.000003658599573   0.000003658592186   0.000003660481378
Si   14.25638  11.54087  14.25638   0.000000063384212   0.000003344868303   0.000000061673080
Si   11.54087  14.25638  14.25638   0.000003344882483   0.000000063452833   0.000000061695641
Si   14.25638  14.25638  11.54087   0.000000058111804   0.000000058126694   0.000003348174351
Si   15.61412  12.89862  12.89862  -0.000000807246617   0.000001790019365   0.000001791611684
Si   15.61412  15.61412  15.61412  -0.000002961651178  -0.000002961720265  -0.000002963038890
Si   12.89862  12.89862  15.61412   0.000001788129141   0.000001788076037  -0.000000811735747
Si   12.89862  15.61412  12.89862   0.000001790050480  -0.000000807265027   0.000001791694484
Si   11.54087  11.54087  16.97187   0.000003026479847   0.000003026446212   0.000002459792793
Si   14.25638  11.54087  19.68737  -0.000004862002889   0.000002429818955  -0.000001999169753
Si   11.54087  14.25638  19.68737   0.000002429892162  -0.000004861968635  -0.000001999109281
Si   14.25638  14.25638  16.97187  -0.000001746538641  -0.000001746518737  -0.000000164882106
Si   15.61412  12.89862  18.32963  -0.000002241752316  -0.000004220040500  -0.000005740303275
Si   15.61412  15.61412  21.04512  -0.000001169435701  -0.000001169506216  -0.000001074598019
Si   12.89862  12.89862  21.04512  -0.000000602650867  -0.000000602593762  -0.000000532370596
Si   12.89862  15.61412  18.32963  -0.000004220040123  -0.000002241868824  -0.000005740200808
Si   11.54087  16.97187   0.67887  -0.000005002214396  -0.000005518776977   0.000005117725054
Si   14.25638  16.97187   3.39437   0.000003257451527   0.000000088545752   0.000001623815240
Si   11.54087  19.68737   3.39437  -0.000003226574491  -0.000002237163927   0.000000141125639
Si   14.25638  19.68737   0.67887   0.000005164137022   0.000006184419850  -0.000002242714152
Si   15.61412  18.32963   2.03662   0.000004495355746  -0.000000604150908  -0.000005005099047
Si   15.61412  21.04512   4.75212  -0.000000294747597  -0.000003741811153   0.000000110511427
Si   12.89862  18.32963   4.75212   0.000001562532925  -0.000000634331060  -0.000001075768808
Si   12.89862  21.04512   2.03662  -0.000003287522186   0.000002825904195  -0.000000455109082
Si   11.54087  16.97187   6.10987  -0.000000876798025   0.000003341567098   0.000003805574218
Si   14.25638  16.97187   8.82537  -0.000006436213400  -0.000001291474925  -0.000003267922844
Si   11.54087  19.68737   8.82537   0.000003101125522   0.000002199295727  -0.000000562212619
Si   14.25638  19.68737   6.10987   0.000000097467214   0.000002804712013   0.000001228397908
Si   15.61412  18.32963   7.46762  -0.000002169540492   0.000004054289108  -0.000005257606642
Si   15.61412  21.04512  10.18313   0.000001695950468  -0.000004688424258   0.000002388479614
Si   12.89862  18.32963  10.18313   0.000001146076654   0.000001175283295   0.000007856390407
Si   12.89862  21.04512   7.46762   0.000000894420534   0.000001687838755  -0.000003040900389
Si   11.54087  16.97187  11.54087   0.000003028927020   0.000002452233295   0.000003017606415
Si   14.25638  16.97187  14.25638  -0.000001757236991  -0.000000162014342  -0.000001753452849
Si   11.54087  19.68737  14.25638   0.000002428374953  -0.000002006424155  -0.000004851850954
Si   14.25638  19.68737  11.54087  -0.000004857518864  -0.000002000259028   0.000002432773670
Si   15.61412  18.32963  12.89862  -0.000002243527481  -0.000005750460837  -0.000004212483278
Si   15.61412  21.04512  15.61412  -0.000001180355887  -0.000001069290847  -0.000001176271689
Si   12.89862  18.32963  15.61412  -0.000004214095780  -0.000005744632988  -0.000002246733736
Si   12.89862  21.04512  12.89862  -0.000000590988553  -0.000000526242899  -0.000000596650109
Si   11.54087  16.97187  16.97187  -0.000007474145871   0.000002299219935   0.000002298823906
Si   14.25638  16.97187  19.68737   0.000003075006198  -0.000001801172385  -0.000008988067507
Si   11.54087  19.68737  19.68737  -0.000005192213965   0.000001870018019   0.000001868911849
Si   14.25638  19.68737  16.97187   0.000003080450643  -0.000008983333637  -0.000001799178317
Si   15.61412  18.32963  18.32963  -0.000004299389027  -0.000000069545222  -0.000000070216542
Si   15.61412  21.04512  21.04512  -0.000006574815021   0.000003879242166   0.000003883645986
Si   12.89862  18.32963  21.04512   0.000002134168204   0.000000006603000  -0.000003014986566
Si   12.89862  21.04512  18.32963   0.000002139900379  -0.000003010538986   0.000000005283417
Si   16.97187   0.67888   0.67887   0.000001535574519  -0.000000465017431  -0.000000466629065
Si   19.68737   0.67888   3.39437  -0.000001213793001  -0.000001252973346  -0.000004828765318
Si   16.97187   3.39438   3.39437  -0.000003535273267   0.000000594152465   0.000000600035835
Si   19.68737   3.39438   0.67887  -0.000001213781308  -0.000004824486801  -0.000001249754475
Si   21.04512   2.03662   2.03662  -0.000000004121355  -0.000001574942275  -0.000001562135431
Si   21.04512   4.75212   4.75212  -0.000003452246658   0.000002615329503   0.000002605039902
Si   18.32963   2.03662   4.75212   0.000000651466147   0.000004143417148   0.000000701712622
Si   18.32963   4.75212   2.03662   0.000000649672784   0.000000710399293   0.000004144321376
Si   16.97187   0.67888   6.10987  -0.000000107955738   0.000003735164701   0.000000302303697
Si   19.68737   0.67888   8.82537   0.000000453319115  -0.000002832038175   0.000003282251635
Si   16.97187   3.39438   8.82537   0.000001077025341   0.000000636180909  -0.000001558036354
Si   19.68737   3.39438   6.10987   0.000005002511876   0.000000614785625  -0.000004499716436
Si   21.04512   2.03662   7.46762   0.000002239112293  -0.000006180298341  -0.000005167276602
Si   21.04512   4.75212  10.18313  -0.000005124167615   0.000005522467731   0.000004994693181
Si   18.32963   2.03662  10.18313  -0.000000130298781   0.000002236874429   0.000003228359078
Si   18.32963   4.75212   7.46762  -0.000001630954737  -0.000000099259375  -0.000003258341742
Si   16.97187   0.67888  11.54087  -0.000005522445575   0.000005124113097  -0.000004994818573
Si   19.68737   0.67888  14.25638   0.000006180328811  -0.000002239127840   0.000005167293573
Si   16.97187   3.39438  14.25638   0.000000099217106   0.000001631028652   0.000003258255886
Si   19.68737   3.39438  11.54087  -0.000002236864990   0.000000130283275  -0.000003228438636
Si   21.04512   2.03662  12.89862   0.000002831965475  -0.000000453324176  -0.000003282248081
Si   21.04512   4.75212  15.61412  -0.000003735146915   0.000000107876430  -0.000000302243976
Si   18.32963   2.03662  15.61412  -0.000000614817214  -0.000005002551766   0.000004499820297
Si   18.32963   4.75212  12.89862  -0.000000636127414  -0.000001077003264   0.000001558197564
Si   16.97187   0.67888  16.97187  -0.000002615282418   0.000003452252402  -0.000002605037796
Si   19.68737   0.67888  19.68737   0.000001574982240   0.000000004052326   0.000001562189630
Si   16.97187   3.39438  19.68737  -0.000000710434307  -0.000000649744807  -0.000004144274071
Si   19.68737   3.39438  16.97187  -0.000004143440128  -0.000000651421806  -0.000000701792115
Si   21.04512   2.03662  18.32963   0.000001253038533   0.000001213790663   0.000004828732545
Si   21.04512   4.75212  21.04512   0.000000465093025  -0.000001535563661   0.000000466662674
Si   18.32963   2.03662  21.04512   0.000004824479303   0.000001213775760   0.000001249809567
Si   18.32963   4.75212  18.32963  -0.000000594102713   0.000003535316502  -0.000000600027780
Si   16.97187   6.10987   0.67887  -0.000000109956037   0.000000299941324   0.000003731028936
Si   19.68737   6.10987   3.39437   0.000005010385618  -0.000004495557567   0.000000615345908
Si   16.97187   8.82537   3.39437   0.000001074029298  -0.000001568307171   0.000000646414476
Si   19.68737   8.82537   0.67887   0.000000453090404   0.000003288491478  -0.000002835746989
Si   21.04512   7.46762   2.03662   0.000002253162954  -0.000005173669585  -0.000006187631379
Si   21.04512  10.18313   4.75212  -0.000005125048850   0.000004997737322   0.000005524849965
Si   18.32963   7.46762   4.75212  -0.000001622613340  -0.000003255774688  -0.000000093068280
Si   18.32963  10.18313   2.03662  -0.000000133750039   0.000003226542819   0.000002242243215
Si   16.97187   6.10987   6.10987  -0.000000292608729   0.000001614985603   0.000001616467240
Si   19.68737   6.10987   8.82537  -0.000007179616751   0.000000609381296  -0.000000516015307
Si   16.97187   8.82537   8.82537  -0.000000018080454   0.000001761145485   0.000001764884506
Si   19.68737   8.82537   6.10987  -0.000007187457260  -0.000000515919264   0.000000602546395
Si   21.04512   7.46762   7.46762  -0.000000519457692  -0.000001641154164  -0.000001644465123
Si   21.04512  10.18313  10.18313  -0.000004552488768   0.000003631255182   0.000003632497927
Si   18.32963   7.46762  10.18313   0.000004762691353   0.000002432000043  -0.000006693410109
Si   18.32963  10.18313   7.46762   0.000004757339040  -0.000006692383346   0.000002435063424
Si   16.97187   6.10987  11.54087   0.000003331982771   0.000003820386828  -0.000000879637780
Si   19.68737   6.10987  14.25638   0.000002803812165   0.000001223493025   0.000000101167908
Si   16.97187   8.82537  14.25638  -0.000001291055457  -0.000003259499445  -0.000006433766052
Si   19.68737   8.82537  11.54087   0.000002212111862  -0.000000577461653   0.000003092206538
Si   21.04512   7.46762  12.89862   0.000001687211775  -0.000003037724618   0.000000897478731
Si   21.04512  10.18313  15.61412  -0.000004696267735   0.000002386577967   0.000001708071163
Si   18.32963   7.46762  15.61412   0.000004054157791  -0.000005258244618  -0.000002174605654
Si   18.32963  10.18313  12.89862   0.000001177339474   0.000007858427548   0.000001145564834
Si   16.97187   6.10987  16.97187   0.000000438168166  -0.000000635097805   0.000000429926374
Si   19.68737   6.10987  19.68737  -0.000002693748186   0.000006638739076  -0.000002684306124
Si   16.97187   8.82537  19.68737   0.000003103517487  -0.000002211614517   0.000003492304866
Si   19.68737   8.82537  16.97187   0.000003482956801  -0.000002208022408   0.000003097892163
Si   21.04512   7.46762  18.32963  -0.000004540274386  -0.000000848626172  -0.000001378230661
Si   21.04512  10.18313  21.04512  -0.000001766751831  -0.000004589149233  -0.000001764345814
Si   18.32963   7.46762  21.04512  -0.000001379259250  -0.000000847400759  -0.000004539746957
Si   18.32963  10.18313  18.32963  -0.000004011763914   0.000005765441933  -0.000004015017310
Si   16.97187  11.54087   0.67887  -0.000005518933024  -0.000005002218681   0.000005117695123
Si   19.68737  11.54087   3.39437  -0.000002237162170  -0.000003226569379   0.000000141073950
Si   16.97187  14.25638   3.39437   0.000000088588344   0.000003257365526   0.000001623788630
Si   19.68737  14.25638   0.67887   0.000006184424879   0.000005164137340  -0.000002242678496
Si   21.04512  12.89862   2.03662   0.000002825863461  -0.000003287583484  -0.000000455145483
Si   21.04512  15.61412   4.75212  -0.000003741845128  -0.000000294698784   0.000000110537478
Si   18.32963  12.89862   4.75212  -0.000000634374021   0.000001562616032  -0.000001075753987
Si   18.32963  15.61412   2.03662  -0.000000604107589   0.000004495380933  -0.000005005117575
Si   16.97187  11.54087   6.10987   0.000003341605084  -0.000000876697067   0.000003805600162
Si   19.68737  11.54087   8.82537   0.000002199273815   0.000003101079083  -0.000000562236126
Si   16.97187  14.25638   8.82537  -0.000001291364719  -0.000006436233512  -0.000003267950104
Si   19.68737  14.25638   6.10987   0.000002804830204   0.000000097409048   0.000001228369907
Si   21.04512  12.89862   7.46762   0.000001687856146   0.000000894496843  -0.000003040826896
Si   21.04512  15.61412  10.18313  -0.000004688416203   0.000001695939543   0.000002388440132
Si   18.32963  12.89862  10.18313   0.000001175190223   0.000001146193253   0.000007856348258
Si   18.32963  15.61412   7.46762   0.000004054254833  -0.000002169581813  -0.000005257467391
Si   16.97187  11.54087  11.54087   0.000002452230000   0.000003028965866   0.000003017653039
Si   19.68737  11.54087  14.25638  -0.000002006413969   0.000002428411582  -0.000004851929418
Si   16.97187  14.25638  14.25638  -0.000000161995474  -0.000001757181822  -0.000001753500975
Si   19.68737  14.25638  11.54087  -0.000002000157175  -0.000004857482468   0.000002432784742
Si   21.04512  12.89862  12.89862  -0.000000526222616  -0.000000591020179  -0.000000596668724
Si   21.04512  15.61412  15.61412  -0.000001069287345  -0.000001180341558  -0.000001176244554
Si   18.32963  12.89862  15.61412  -0.000005744653300  -0.000004214121048  -0.000002246675974
Si   18.32963  15.61412  12.89862  -0.000005750485828  -0.000002243602533  -0.000004212445671
Si   16.97187  11.54087  16.97187   0.000002299257289  -0.000007474072207   0.000002298868253
Si   19.68737  11.54087  19.68737   0.000001870148928  -0.000005192138523   0.000001868887846
Si   16.97187  14.25638  19.68737  -0.000001801189854   0.000003075028302  -0.000008988041484
Si   19.68737  14.25638  16.97187  -0.000008983385701   0.000003080445187  -0.000001799079582
Si   21.04512  12.89862  18.32963  -0.000003010602662   0.000002139921732   0.000000005272452
Si   21.04512  15.61412  21.04512   0.000003879309625  -0.000006574770768   0.000003883696579
Si   18.32963  12.89862  21.04512   0.000000006651434   0.000002134147224  -0.000003014958275
Si   18.32963  15.61412  18.32963  -0.000000069623658  -0.000004299411185  -0.000000070315993
Si   16.97187  16.97187   0.67887  -0.000002606951636  -0.000002606965587   0.000003464532091
Si   19.68737  16.97187   3.39437  -0.000004149195588  -0.000000696117362  -0.000000658580328
Si   16.97187  19.68737   3.39437  -0.000000696060604  -0.000004149234566  -0.000000658568616
Si   19.68737  19.68737   0.67887   0.000001560520992   0.000001560441525   0.000000008191373
Si   21.04512  18.32963   2.03662   0.000001247318265   0.000004818986270   0.000001210156298
Si   21.04512  21.04512   4.75212   0.000000480295911   0.000000480228329  -0.000001530428478
Si   18.32963  18.32963   4.75212  -0.000000597365255  -0.000000597326889   0.000003536433147
Si   18.32963  21.04512   2.03662   0.000004818951323   0.000001247307617   0.000001210102400
Si   16.97187  16.97187   6.10987   0.000000438579811   0.000000438610078  -0.000000624169604
Si   19.68737  16.97187   8.82537   0.000003493713644   0.000003103313607  -0.000002216965563
Si   16.97187  19.68737   8.82537   0.000003103274580   0.000003493622730  -0.000002217019525
Si   19.68737  19.68737   6.10987  -0.000002688198610  -0.000002688293163   0.000006644934592
Si   21.04512  18.32963   7.46762  -0.000004542348984  -0.000001378933269  -0.000000848739934
Si   21.04512  21.04512  10.18313  -0.000001773580226  -0.000001773504803  -0.000004589232323
Si   18.32963  18.32963  10.18313  -0.000004014453982  -0.000004014512467   0.000005766599106
Si   18.32963  21.04512   7.46762  -0.000001378997668  -0.000004542279845  -0.000000848724972
Si   16.97187  16.97187  11.54087   0.000002301555337   0.000002301540631  -0.000007467496267
Si   19.68737  16.97187  14.25638  -0.000008992268439  -0.000001799724591   0.000003068057388
Si   16.97187  19.68737  14.25638  -0.000001799657846  -0.000008992343148   0.000003068093678
Si   19.68737  19.68737  11.54087   0.000001858859931   0.000001858967846  -0.000005185840457
Si   21.04512  18.32963  12.89862  -0.000003014247555   0.000000014682037   0.000002137334855
Si   21.04512  21.04512  15.61412   0.000003885498482   0.000003885455366  -0.000006583562091
Si   18.32963  18.32963  15.61412  -0.000000077410922  -0.000000077432810  -0.000004295557052
Si   18.32963  21.04512  12.89862   0.000000014736590  -0.000003014292602   0.000002137368119
Si   16.97187  16.97187  16.97187   0.000001386559633   0.000001386625027   0.000001396108838
Si   19.68737  16.97187  19.68737   0.000004995982190  -0.000006174507795   0.000004988095472
Si   16.97187  19.68737  19.68737  -0.000006174456989   0.000004995968335   0.000004988087269
Si   19.68737  19.68737  16.97187   0.000005003785151   0.000005003822342  -0.000006163725510
Si   21.04512  18.32963  18.32963  -0.000008739334430   0.000000301186261   0.000000300121502
Si   21.04512  21.04512  21.04512  -0.000000287852402  -0.000000287846827  -0.000000281676140
Si   18.32963  18.32963  21.04512   0.000000304031927   0.000000304047627  -0.000008743857065
Si   18.32963  21.04512  18.32963   0.000000301281393  -0.000008739358816   0.000000300169460
