384 

Si    0.67887   0.67887   0.67888   0.000003780064896   0.000003780064842  -0.000004943501632
Si    3.39438   0.67887   3.39437  -0.000002077211616  -0.000005614851407   0.000007892037665
Si    0.67887   3.39437   3.39437  -0.000005614851441  -0.000002077211360   0.000007892037665
Si    3.39438   3.39437   0.67888   0.000002232242973   0.000002232242366  -0.000005445776093
Si    4.75212   2.03662   2.03662  -0.000000011718762   0.000000377834452  -0.000000871235863
Si    4.75212   4.75212   4.75213  -0.000002021729047  -0.000002021729262  -0.000003168547474
Si    2.03662   2.03662   4.75213  -0.000002167633313  -0.000002167633670  -0.000003637244237
Si    2.03662   4.75212   2.03662   0.000000377834244  -0.000000011718552  -0.000000871235488
Si    0.67887   0.67887   6.10987  -0.000004899091256  -0.000004899091242   0.000000333512383
Si    3.39438   0.67887   8.82537  -0.000002759450374  -0.000005114970771  -0.000009135324955
Si    0.67887   3.39437   8.82537  -0.000005114970943  -0.000002759450338  -0.000009135324986
Si    3.39438   3.39437   6.10987  -0.000004153420057  -0.000004153420449   0.000000193838261
Si    4.75212   2.03662   7.46762   0.000001267465656  -0.000000900118630   0.000001363966733
Si    4.75212   4.75212  10.18313  -0.000000895794045  -0.000000895794138   0.000001254905048
Si    2.03662   2.03662  10.18313   0.000000066589462   0.000000066589329   0.000000225523980
Si    2.03662   4.75212   7.46762  -0.000000900118821   0.000001267465684   0.000001363967157
Si    0.67887   0.67887  11.54087   0.000003757566659   0.000003757566426   0.000005236437765
Si    3.39438   0.67887  14.25638  -0.000000392859747   0.000007079114221  -0.000000029575322
Si    0.67887   3.39437  14.25638   0.000007079114399  -0.000000392859828  -0.000000029575758
Si    3.39438   3.39437  11.54087   0.000002718407564   0.000002718406926   0.000005988256039
Si    4.75212   2.03662  12.89862   0.000000209474634  -0.000000118202548  -0.000000884199975
Si    4.75212   4.75212  15.61413  -0.000001375912169  -0.000001375912239   0.000004813687966
Si    2.03662   2.03662  15.61413   0.000000043499425   0.000000043499299   0.000002438949997
Si    2.03662   4.75212  12.89862  -0.000000118202927   0.000000209474751  -0.000000884199601
Si    0.67887   6.10987   0.67888   0.000003189403875   0.000001619897513   0.000002412907548
Si    3.39438   6.10987   3.39437   0.000005635915694  -0.000005763794517   0.000003492545544
Si    0.67887   8.82537   3.39437   0.000002211770481   0.000001327122623  -0.000002615805090
Si    3.39438   8.82537   0.67888  -0.000001990646628  -0.000003965351979  -0.000004818326721
Si    4.75212   7.46762   2.03662   0.000002006653614   0.000002568633059   0.000000595870893
Si    4.75212  10.18313   4.75213  -0.000002105335941  -0.000001001261226  -0.000003115685385
Si    2.03662   7.46762   4.75213   0.000003415233028  -0.000000697099869  -0.000006810161180
Si    2.03662  10.18313   2.03662   0.000002104389815   0.000001262486149  -0.000000436827251
Si    0.67887   6.10987   6.10987  -0.000001361122907  -0.000001036634514  -0.000000510909773
Si    3.39438   6.10987   8.82537   0.000007203949310  -0.000005288577704  -0.000002219660294
Si    0.67887   8.82537   8.82537  -0.000000023395003   0.000001437699458   0.000002426070006
Si    3.39438   8.82537   6.10987   0.000000596919417   0.000004613282732  -0.000000323211014
Si    4.75212   7.46762   7.46762   0.000001037058407   0.000001966204514  -0.000002559828886
Si    4.75212  10.18313  10.18313   0.000001848746310   0.000002671575004   0.000000921001461
Si    2.03662   7.46762  10.18313  -0.000002055320785   0.000006387152398  -0.000000250076772
Si    2.03662  10.18313   7.46762  -0.000001910754854   0.000002696169192   0.000001633541456
Si    0.67887   6.10987  11.54087   0.000000087489503   0.000003407792355  -0.000000425858683
Si    3.39438   6.10987  14.25638  -0.000002940643682   0.000002000983583   0.000001111014465
Si    0.67887   8.82537  14.25638   0.000000138405625   0.000001469601601   0.000001037333005
Si    3.39438   8.82537  11.54087   0.000000147880464  -0.000003444691792   0.000003858874367
Si    4.75212   7.46762  12.89862   0.000001130830554  -0.000000432241224   0.000001687387027
Si    4.75212  10.18313  15.61413  -0.000002349535329  -0.000000184929185   0.000002208961371
Si    2.03662   7.46762  15.61413   0.000001687990616  -0.000001468088713   0.000006324340059
Si    2.03662  10.18313  12.89862  -0.000000043267560   0.000003473785083   0.000000471390524
Si    0.67887  11.54087   0.67888  -0.000006918700576   0.000006111799077  -0.000003361591577
Si    3.39438  11.54087   3.39437   0.000005332522341  -0.000002288867799  -0.000003078771704
Si    0.67887  14.25638   3.39437  -0.000002155314185   0.000000711773177   0.000005543873522
Si    3.39438  14.25638   0.67888  -0.000000329801530   0.000000518248353  -0.000002631809685
Si    4.75212  12.89862   2.03662  -0.000000234479890   0.000001157503723   0.000000300933647
Si    4.75212  15.61413   4.75213  -0.000001424313382   0.000000812552586  -0.000003373874894
Si    2.03662  12.89862   4.75213  -0.000005668990306  -0.000000563673133   0.000000868954615
Si    2.03662  15.61413   2.03662   0.000001510085905  -0.000003982459237  -0.000000588947153
Si    0.67887  11.54087   6.10987   0.000001991155714  -0.000003518313731   0.000000137620427
Si    3.39438  11.54087   8.82537   0.000005881970980  -0.000001779451882   0.000002226053411
Si    0.67887  14.25638   8.82537  -0.000003222278731   0.000001260908911  -0.000005794524044
Si    3.39438  14.25638   6.10987   0.000007352165377   0.000005928815527  -0.000000202209921
Si    4.75212  12.89862   7.46762  -0.000006277587050  -0.000002011778502  -0.000002876134252
Si    4.75212  15.61413  10.18313   0.000007656274184  -0.000001764563006   0.000000133428401
Si    2.03662  12.89862  10.18313  -0.000004023871074   0.000005474468660   0.000000748495268
Si    2.03662  15.61413   7.46762  -0.000002784641689  -0.000002365496521  -0.000000309606886
Si    0.67887  11.54087  11.54087  -0.000006353217527   0.000002712949890   0.000004752536453
Si    3.39438  11.54087  14.25638   0.000003808875423  -0.000003175548284  -0.000001515813122
Si    0.67887  14.25638  14.25638   0.000003956098048  -0.000004248386088   0.000000324351376
Si    3.39438  14.25638  11.54087  -0.000000235893020   0.000000430274703   0.000003145010006
Si    4.75212  12.89862  12.89862  -0.000004182747698  -0.000000590868214   0.000000849710012
Si    4.75212  15.61413  15.61413   0.000000379329381  -0.000001195545142   0.000005218662499
Si    2.03662  12.89862  15.61413  -0.000007774831970   0.000000262247842  -0.000000071782492
Si    2.03662  15.61413  12.89862  -0.000002713098389  -0.000002727681809  -0.000000527296040
Si    0.67887  16.97188   0.67888  -0.000000758138986   0.000002485919594  -0.000004554408337
Si    3.39438  16.97188   3.39437   0.000002559779823   0.000002276645215   0.000002444271804
Si    0.67887  19.68738   3.39437   0.000003154909916   0.000002868585576   0.000001081745948
Si    3.39438  19.68738   0.67888  -0.000007102082220  -0.000005992154783  -0.000001180780553
Si    4.75212  18.32963   2.03662  -0.000000875076219  -0.000000749866474  -0.000000968187491
Si    4.75212  21.04512   4.75213  -0.000001915300352   0.000000426758926  -0.000003552679025
Si    2.03662  18.32963   4.75213   0.000004586538762   0.000007183877756  -0.000003018337510
Si    2.03662  21.04512   2.03662   0.000002171590572   0.000000878621424   0.000000233972125
Si    0.67887  16.97188   6.10987  -0.000003480034134  -0.000010277136190   0.000000544851180
Si    3.39438  16.97188   8.82537   0.000002905131840   0.000002559981211  -0.000002081417157
Si    0.67887  19.68738   8.82537   0.000004851960273   0.000001223161571  -0.000001542190168
Si    3.39438  19.68738   6.10987   0.000002046454229  -0.000001075763276  -0.000000627915941
Si    4.75212  18.32963   7.46762  -0.000002559981212  -0.000002905131396   0.000002081417300
Si    4.75212  21.04512  10.18313   0.000010277136344   0.000003480033914  -0.000000544851755
Si    2.03662  18.32963  10.18313   0.000001075763107  -0.000002046453696   0.000000627915703
Si    2.03662  21.04512   7.46762  -0.000001223161613  -0.000004851960090   0.000001542190145
Si    0.67887  16.97188  11.54087  -0.000000426758839   0.000001915300281   0.000003552678879
Si    3.39438  16.97188  14.25638   0.000000749866823   0.000000875076266   0.000000968187601
Si    0.67887  19.68738  14.25638  -0.000000878620960  -0.000002171590598  -0.000000233972002
Si    3.39438  19.68738  11.54087  -0.000007183877554  -0.000004586538934   0.000003018337495
Si    4.75212  18.32963  12.89862  -0.000002276645077  -0.000002559779378  -0.000002444271470
Si    4.75212  21.04512  15.61413  -0.000002485919417   0.000000758139040   0.000004554408516
Si    2.03662  18.32963  15.61413   0.000005992154934   0.000007102082537   0.000001180780095
Si    2.03662  21.04512  12.89862  -0.000002868585659  -0.000003154909852  -0.000001081745953
Si    6.10987   0.67887   0.67888   0.000001619897536   0.000003189403730   0.000002412907821
Si    8.82537   0.67887   3.39437   0.000001327122981   0.000002211770296  -0.000002615805211
Si    6.10987   3.39437   3.39437  -0.000005763794667   0.000005635915679   0.000003492545741
Si    8.82537   3.39437   0.67888  -0.000003965352208  -0.000001990646654  -0.000004818326380
Si   10.18313   2.03662   2.03662   0.000001262485920   0.000002104389912  -0.000000436827459
Si   10.18313   4.75212   4.75213  -0.000001001260867  -0.000002105335795  -0.000003115685471
Si    7.46762   2.03662   4.75213  -0.000000697099822   0.000003415233282  -0.000006810161249
Si    7.46762   4.75212   2.03662   0.000002568632981   0.000002006653476   0.000000595870383
Si    6.10987   0.67887   6.10987  -0.000001036634458  -0.000001361122823  -0.000000510909271
Si    8.82537   0.67887   8.82537   0.000001437699538  -0.000000023394718   0.000002426070035
Si    6.10987   3.39437   8.82537  -0.000005288577692   0.000007203949147  -0.000002219660184
Si    8.82537   3.39437   6.10987   0.000004613282816   0.000000596919080  -0.000000323210541
Si   10.18313   2.03662   7.46762   0.000002696168994  -0.000001910755013   0.000001633541028
Si   10.18313   4.75212  10.18313   0.000002671575511   0.000001848746030   0.000000921001540
Si    7.46762   2.03662  10.18313   0.000006387152234  -0.000002055320958  -0.000000250076770
Si    7.46762   4.75212   7.46762   0.000001966204455   0.000001037058236  -0.000002559829197
Si    6.10987   0.67887  11.54087   0.000003407792540   0.000000087489585  -0.000000425858304
Si    8.82537   0.67887  14.25638   0.000001469601859   0.000000138405454   0.000001037333085
Si    6.10987   3.39437  14.25638   0.000002000983768  -0.000002940643943   0.000001111014555
Si    8.82537   3.39437  11.54087  -0.000003444691753   0.000000147880378   0.000003858874508
Si   10.18313   2.03662  12.89862   0.000003473785059  -0.000000043267428   0.000000471390326
Si   10.18313   4.75212  15.61413  -0.000000184929010  -0.000002349535338   0.000002208961302
Si    7.46762   2.03662  15.61413  -0.000001468088875   0.000001687990864   0.000006324340195
Si    7.46762   4.75212  12.89862  -0.000000432241442   0.000001130830548   0.000001687386595
Si    6.10987   6.10987   0.67888   0.000003857332556   0.000003857332147  -0.000000005646671
Si    8.82537   6.10987   3.39437   0.000008578549706   0.000001191602295  -0.000000040098325
Si    6.10987   8.82537   3.39437   0.000001191602322   0.000008578549816  -0.000000040098683
Si    8.82537   8.82537   0.67888   0.000004665228237   0.000004665228180  -0.000003516746892
Si   10.18313   7.46762   2.03662  -0.000007110935686  -0.000002472992512  -0.000000440849758
Si   10.18313  10.18313   4.75213  -0.000001483776773  -0.000001483776982   0.000001029741920
Si    7.46762   7.46762   4.75213  -0.000003672485198  -0.000003672485236   0.000006753045315
Si    7.46762  10.18313   2.03662  -0.000002472992626  -0.000007110935972  -0.000000440849500
Si    6.10987   6.10987   6.10987  -0.000004832555132  -0.000004832555225   0.000001363473250
Si    8.82537   6.10987   8.82537   0.000007651120819  -0.000000066022660   0.000000790629752
Si    6.10987   8.82537   8.82537  -0.000000066022808   0.000007651121169   0.000000790629601
Si    8.82537   8.82537   6.10987   0.000001977220795   0.000001977220621   0.000000890528711
Si   10.18313   7.46762   7.46762   0.000001813945599   0.000006325869839   0.000005756495264
Si   10.18313  10.18313  10.18313  -0.000001979724887  -0.000001979725128  -0.000001682455696
Si    7.46762   7.46762  10.18313  -0.000005643856491  -0.000005643856639   0.000000362123326
Si    7.46762  10.18313   7.46762   0.000006325869712   0.000001813945374   0.000005756495594
Si    6.10987   6.10987  11.54087   0.000002339459724   0.000002339459482  -0.000002180281990
Si    8.82537   6.10987  14.25638  -0.000005182260516   0.000001549549129  -0.000000901649975
Si    6.10987   8.82537  14.25638   0.000001549549190  -0.000005182260386  -0.000000901650481
Si    8.82537   8.82537  11.54087   0.000004016865667   0.000004016865373   0.000003474616558
Si   10.18313   7.46762  12.89862   0.000000633466322   0.000007341142177  -0.000004960604817
Si   10.18313  10.18313  15.61413  -0.000000711042664  -0.000000711042948  -0.000001295512178
Si    7.46762   7.46762  15.61413  -0.000003715434439  -0.000003715434519  -0.000006872354866
Si    7.46762  10.18313  12.89862   0.000007341141800   0.000000633466181  -0.000004960604668
Si    6.10987  11.54087   0.67888  -0.000005767122949   0.000005756889453  -0.000003143641483
Si    8.82537  11.54087   3.39437   0.000001981285211   0.000001509806831   0.000000920688337
Si    6.10987  14.25638   3.39437  -0.000002675703917  -0.000001432471427   0.000005881378149
Si    8.82537  14.25638   0.67888  -0.000000871348459  -0.000001692803394  -0.000002179482636
Si   10.18313  12.89862   2.03662   0.000000763520223  -0.000002178945303  -0.000000870462967
Si   10.18313  15.61413   4.75213  -0.000008468154894   0.000003922955969  -0.000003034595136
Si    7.46762  12.89862   4.75213   0.000001605812250   0.000000756049206  -0.000001765096234
Si    7.46762  15.61413   2.03662  -0.000005439871602  -0.000001761497718  -0.000000042051363
Si    6.10987  11.54087   6.10987   0.000002271656565  -0.000003800001068  -0.000001303076391
Si    8.82537  11.54087   8.82537   0.000001406856528   0.000002892288391  -0.000001136569053
Si    6.10987  14.25638   8.82537  -0.000002345297148  -0.000002605859311  -0.000006273411319
Si    8.82537  14.25638   6.10987   0.000001041841412   0.000002757448559  -0.000000665193735
Si   10.18313  12.89862   7.46762  -0.000002892288008  -0.000001406856630   0.000001136568752
Si   10.18313  15.61413  10.18313   0.000003800001482  -0.000002271656692   0.000001303076472
Si    7.46762  12.89862  10.18313  -0.000002757448653  -0.000001041841470   0.000000665193873
Si    7.46762  15.61413   7.46762   0.000002605859251   0.000002345297084   0.000006273411307
Si    6.10987  11.54087  11.54087  -0.000003922955632   0.000008468155424   0.000003034595118
Si    8.82537  11.54087  14.25638   0.000002178945374  -0.000000763519967   0.000000870462776
Si    6.10987  14.25638  14.25638   0.000001761498232   0.000005439871411   0.000000042050992
Si    8.82537  14.25638  11.54087  -0.000000756048880  -0.000001605812389   0.000001765096307
Si   10.18313  12.89862  12.89862  -0.000001509806887  -0.000001981284746  -0.000000920688732
Si   10.18313  15.61413  15.61413  -0.000005756889196   0.000005767123138   0.000003143641449
Si    7.46762  12.89862  15.61413   0.000001692803301   0.000000871348684   0.000002179482678
Si    7.46762  15.61413  12.89862   0.000001432471431   0.000002675704022  -0.000005881378186
Si    6.10987  16.97188   0.67888   0.000001195545617  -0.000000379329334  -0.000005218662222
Si    8.82537  16.97188   3.39437   0.000000590868137   0.000004182747700  -0.000000849709736
Si    6.10987  19.68738   3.39437   0.000002727681985   0.000002713098261   0.000000527296247
Si    8.82537  19.68738   0.67888  -0.000000262248101   0.000007774831912   0.000000071782859
Si   10.18313  18.32963   2.03662   0.000003175548329  -0.000003808875325   0.000001515812665
Si   10.18313  21.04512   4.75213  -0.000002712949805   0.000006353217780  -0.000004752536499
Si    7.46762  18.32963   4.75213  -0.000000430274843   0.000000235893276  -0.000003145010406
Si    7.46762  21.04512   2.03662   0.000004248386077  -0.000003956098165  -0.000000324351833
Si    6.10987  16.97188   6.10987   0.000001764563199  -0.000007656273899  -0.000000133428643
Si    8.82537  16.97188   8.82537   0.000002011778082   0.000006277587413   0.000002876134318
Si    6.10987  19.68738   8.82537   0.000002365496509   0.000002784641443   0.000000309607074
Si    8.82537  19.68738   6.10987  -0.000005474468775   0.000004023871139  -0.000000748494874
Si   10.18313  18.32963   7.46762   0.000001779452093  -0.000005881970975  -0.000002226053636
Si   10.18313  21.04512  10.18313   0.000003518314025  -0.000001991155835  -0.000000137620559
Si    7.46762  18.32963  10.18313  -0.000005928815482  -0.000007352165274   0.000000202209720
Si    7.46762  21.04512   7.46762  -0.000001260908737   0.000003222278694   0.000005794523931
Si    6.10987  16.97188  11.54087  -0.000000812552331   0.000001424313544   0.000003373874817
Si    8.82537  16.97188  14.25638  -0.000001157503962   0.000000234479934  -0.000000300933439
Si    6.10987  19.68738  14.25638   0.000003982459419  -0.000001510086058   0.000000588947372
Si    8.82537  19.68738  11.54087   0.000000563672866   0.000005668990255  -0.000000868954083
Si   10.18313  18.32963  12.89862   0.000002288868056  -0.000005332521970   0.000003078771464
Si   10.18313  21.04512  15.61413  -0.000006111799106   0.000006918700794   0.000003361591613
Si    7.46762  18.32963  15.61413  -0.000000518248451   0.000000329801898   0.000002631809798
Si    7.46762  21.04512  12.89862  -0.000000711773294   0.000002155314009  -0.000005543873965
Si   11.54087   0.67887   0.67888   0.000006111799242  -0.000006918700669  -0.000003361591539
Si   14.25638   0.67887   3.39437   0.000000711773357  -0.000002155314120   0.000005543873312
Si   11.54087   3.39437   3.39437  -0.000002288867739   0.000005332522086  -0.000003078771470
Si   14.25638   3.39437   0.67888   0.000000518248490  -0.000000329801707  -0.000002631809658
Si   15.61413   2.03662   2.03662  -0.000003982459102   0.000001510085997  -0.000000588947008
Si   15.61413   4.75212   4.75213   0.000000812552755  -0.000001424313560  -0.000003373874876
Si   12.89862   2.03662   4.75213  -0.000000563673141  -0.000005668990279   0.000000868954603
Si   12.89862   4.75212   2.03662   0.000001157503631  -0.000000234480020   0.000000300933481
Si   11.54087   0.67887   6.10987  -0.000003518313845   0.000001991155819   0.000000137620413
Si   14.25638   0.67887   8.82537   0.000001260908794  -0.000003222278738  -0.000005794524313
Si   11.54087   3.39437   8.82537  -0.000001779451861   0.000005881971076   0.000002226053678
Si   14.25638   3.39437   6.10987   0.000005928815454   0.000007352165381  -0.000000202209890
Si   15.61413   2.03662   7.46762  -0.000002365496269  -0.000002784641626  -0.000000309606797
Si   15.61413   4.75212  10.18313  -0.000001764562963   0.000007656274152   0.000000133428398
Si   12.89862   2.03662  10.18313   0.000005474468627  -0.000004023871040   0.000000748495311
Si   12.89862   4.75212   7.46762  -0.000002011778593  -0.000006277587290  -0.000002876134376
Si   11.54087   0.67887  11.54087   0.000002712949985  -0.000006353217694   0.000004752536386
Si   14.25638   0.67887  14.25638  -0.000004248385897   0.000003956097852   0.000000324351317
Si   11.54087   3.39437  14.25638  -0.000003175548052   0.000003808875251  -0.000001515813066
Si   14.25638   3.39437  11.54087   0.000000430274776  -0.000000235893117   0.000003145010004
Si   15.61413   2.03662  12.89862  -0.000002727681768  -0.000002713098217  -0.000000527295810
Si   15.61413   4.75212  15.61413  -0.000001195545359   0.000000379329575   0.000005218662551
Si   12.89862   2.03662  15.61413   0.000000262247682  -0.000007774831842  -0.000000071782490
Si   12.89862   4.75212  12.89862  -0.000000590868398  -0.000004182747766   0.000000849709790
Si   11.54087   6.10987   0.67888   0.000005756889473  -0.000005767123007  -0.000003143641400
Si   14.25638   6.10987   3.39437  -0.000001432471194  -0.000002675703633   0.000005881378460
Si   11.54087   8.82537   3.39437   0.000001509806897   0.000001981285040   0.000000920688869
Si   14.25638   8.82537   0.67888  -0.000001692803272  -0.000000871348583  -0.000002179482826
Si   15.61413   7.46762   2.03662  -0.000001761497873  -0.000005439871594  -0.000000042051359
Si   15.61413  10.18313   4.75213   0.000003922955954  -0.000008468155087  -0.000003034595392
Si   12.89862   7.46762   4.75213   0.000000756048918   0.000001605812291  -0.000001765096429
Si   12.89862  10.18313   2.03662  -0.000002178945463   0.000000763520303  -0.000000870462990
Si   11.54087   6.10987   6.10987  -0.000003800001230   0.000002271656409  -0.000001303076637
Si   14.25638   6.10987   8.82537  -0.000002605858940  -0.000002345296993  -0.000006273411105
Si   11.54087   8.82537   8.82537   0.000002892288102   0.000001406856641  -0.000001136568728
Si   14.25638   8.82537   6.10987   0.000002757449018   0.000001041841000  -0.000000665193782
Si   15.61413   7.46762   7.46762   0.000002345297026   0.000002605859395   0.000006273411232
Si   15.61413  10.18313  10.18313  -0.000002271656258   0.000003800001008   0.000001303076061
Si   12.89862   7.46762  10.18313  -0.000001041841168  -0.000002757448483   0.000000665193512
Si   12.89862  10.18313   7.46762  -0.000001406856706  -0.000002892287903   0.000001136568723
Si   11.54087   6.10987  11.54087   0.000008468155206  -0.000003922955970   0.000003034595268
Si   14.25638   6.10987  14.25638   0.000005439871861   0.000001761498056   0.000000042051461
Si   11.54087   8.82537  14.25638  -0.000000763519901   0.000002178945442   0.000000870463125
Si   14.25638   8.82537  11.54087  -0.000001605812114  -0.000000756049114   0.000001765096433
Si   15.61413   7.46762  12.89862   0.000002675703723   0.000001432471533  -0.000005881378177
Si   15.61413  10.18313  15.61413   0.000005767123215  -0.000005756889382   0.000003143641432
Si   12.89862   7.46762  15.61413   0.000000871348601   0.000001692803574   0.000002179482412
Si   12.89862  10.18313  12.89862  -0.000001981285120  -0.000001509806811  -0.000000920688890
Si   11.54087  11.54087   0.67888   0.000000711043142   0.000000711042780   0.000001295512268
Si   14.25638  11.54087   3.39437  -0.000007341141756  -0.000000633465976   0.000004960604849
Si   11.54087  14.25638   3.39437  -0.000000633466151  -0.000007341141787   0.000004960604781
Si   14.25638  14.25638   0.67888   0.000003715434789   0.000003715434252   0.000006872354756
Si   15.61413  12.89862   2.03662  -0.000001549549182   0.000005182260309   0.000000901650142
Si   15.61413  15.61413   4.75213  -0.000002339459374  -0.000002339459595   0.000002180281355
Si   12.89862  12.89862   4.75213  -0.000004016865624  -0.000004016865898  -0.000003474616736
Si   12.89862  15.61413   2.03662   0.000005182260130  -0.000001549548983   0.000000901650563
Si   11.54087  11.54087   6.10987   0.000001979725136   0.000001979725146   0.000001682455992
Si   14.25638  11.54087   8.82537  -0.000006325869721  -0.000001813945184  -0.000005756495443
Si   11.54087  14.25638   8.82537  -0.000001813945324  -0.000006325869653  -0.000005756495441
Si   14.25638  14.25638   6.10987   0.000005643856907   0.000005643856469  -0.000000362122694
Si   15.61413  12.89862   7.46762   0.000000066022829  -0.000007651121099  -0.000000790630199
Si   15.61413  15.61413  10.18313   0.000004832555542   0.000004832555464  -0.000001363473449
Si   12.89862  12.89862  10.18313  -0.000001977220879  -0.000001977220982  -0.000000890528687
Si   12.89862  15.61413   7.46762  -0.000007651121303   0.000000066022865  -0.000000790629775
Si   11.54087  11.54087  11.54087   0.000001483777267   0.000001483777067  -0.000001029741705
Si   14.25638  11.54087  14.25638   0.000002472992719   0.000007110935887   0.000000440850133
Si   11.54087  14.25638  14.25638   0.000007110936067   0.000002472992607   0.000000440849708
Si   14.25638  14.25638  11.54087   0.000003672485636   0.000003672484995  -0.000006753044985
Si   15.61413  12.89862  12.89862  -0.000001191602323  -0.000008578549655   0.000000040097944
Si   15.61413  15.61413  15.61413  -0.000003857332097  -0.000003857332176   0.000000005646523
Si   12.89862  12.89862  15.61413  -0.000004665228287  -0.000004665228367   0.000003516746951
Si   12.89862  15.61413  12.89862  -0.000008578550045  -0.000001191602224   0.000000040098252
Si   11.54087  16.97188   0.67888   0.000000184929015   0.000002349535360  -0.000002208961369
Si   14.25638  16.97188   3.39437   0.000000432241468  -0.000001130830502  -0.000001687386733
Si   11.54087  19.68738   3.39437  -0.000003473784833   0.000000043267310  -0.000000471390166
Si   14.25638  19.68738   0.67888   0.000001468088931  -0.000001687990697  -0.000006324340605
Si   15.61413  18.32963   2.03662  -0.000002000983374   0.000002940643759  -0.000001111013842
Si   15.61413  21.04512   4.75213  -0.000003407792457  -0.000000087489540   0.000000425858873
Si   12.89862  18.32963   4.75213   0.000003444691491  -0.000000147880453  -0.000003858874734
Si   12.89862  21.04512   2.03662  -0.000001469601850  -0.000000138405024  -0.000001037332914
Si   11.54087  16.97188   6.10987  -0.000002671575185  -0.000001848746044  -0.000000921001568
Si   14.25638  16.97188   8.82537  -0.000001966204483  -0.000001037058219   0.000002559829198
Si   11.54087  19.68738   8.82537  -0.000002696168902   0.000001910755038  -0.000001633540637
Si   14.25638  19.68738   6.10987  -0.000006387152051   0.000002055320688   0.000000250076567
Si   15.61413  18.32963   7.46762   0.000005288577835  -0.000007203949251   0.000002219660436
Si   15.61413  21.04512  10.18313   0.000001036634805   0.000001361122689   0.000000510909720
Si   12.89862  18.32963  10.18313  -0.000004613283273  -0.000000596919082   0.000000323210128
Si   12.89862  21.04512   7.46762  -0.000001437699525   0.000000023395374  -0.000002426069812
Si   11.54087  16.97188  11.54087   0.000001001261193   0.000002105335822   0.000003115685717
Si   14.25638  16.97188  14.25638  -0.000002568632947  -0.000002006653399  -0.000000595870298
Si   11.54087  19.68738  14.25638  -0.000001262485559  -0.000002104390029   0.000000436827373
Si   14.25638  19.68738  11.54087   0.000000697099729  -0.000003415233300   0.000006810160460
Si   15.61413  18.32963  12.89862   0.000005763794542  -0.000005635915386  -0.000003492545205
Si   15.61413  21.04512  15.61413  -0.000001619897455  -0.000003189404040  -0.000002412907547
Si   12.89862  18.32963  15.61413   0.000003965351922   0.000001990646882   0.000004818326190
Si   12.89862  21.04512  12.89862  -0.000001327122908  -0.000002211770288   0.000002615805475
Si   16.97188   0.67887   0.67888   0.000002485919690  -0.000000758138967  -0.000004554408447
Si   19.68738   0.67887   3.39437   0.000002868585789   0.000003154909562   0.000001081745544
Si   16.97188   3.39437   3.39437   0.000002276644908   0.000002559779581   0.000002444271480
Si   19.68738   3.39437   0.67888  -0.000005992154539  -0.000007102083692  -0.000001180779894
Si   21.04512   2.03662   2.03662   0.000000878620536   0.000002171590671   0.000000233972082
Si   21.04512   4.75212   4.75213   0.000000426759098  -0.000001915300284  -0.000003552678752
Si   18.32963   2.03662   4.75213   0.000007183877703   0.000004586539111  -0.000003018337327
Si   18.32963   4.75212   2.03662  -0.000000749866494  -0.000000875076028  -0.000000968187574
Si   16.97188   0.67887   6.10987  -0.000010277136034  -0.000003480034002   0.000000544851408
Si   19.68738   0.67887   8.82537   0.000001223161462   0.000004851960591  -0.000001542190524
Si   16.97188   3.39437   8.82537   0.000002559981119   0.000002905131376  -0.000002081417376
Si   19.68738   3.39437   6.10987  -0.000001075762887   0.000002046453769  -0.000000627915911
Si   21.04512   2.03662   7.46762  -0.000004851960231  -0.000001223161538   0.000001542190207
Si   21.04512   4.75212  10.18313   0.000003480034377   0.000010277135922  -0.000000544851344
Si   18.32963   2.03662  10.18313  -0.000002046453923   0.000001075762851   0.000000627916078
Si   18.32963   4.75212   7.46762  -0.000002905131488  -0.000002559981149   0.000002081417359
Si   16.97188   0.67887  11.54087   0.000001915300603  -0.000000426758589   0.000003552678723
Si   19.68738   0.67887  14.25638  -0.000002171590671  -0.000000878621048  -0.000000233972347
Si   16.97188   3.39437  14.25638   0.000000875076466   0.000000749866257   0.000000968187116
Si   19.68738   3.39437  11.54087  -0.000004586538703  -0.000007183877804   0.000003018337381
Si   21.04512   2.03662  12.89862  -0.000003154909922  -0.000002868585273  -0.000001081745843
Si   21.04512   4.75212  15.61413   0.000000758139251  -0.000002485919526   0.000004554408495
Si   18.32963   2.03662  15.61413   0.000007102082248   0.000005992155138   0.000001180780316
Si   18.32963   4.75212  12.89862  -0.000002559779490  -0.000002276644802  -0.000002444271468
Si   16.97188   6.10987   0.67888  -0.000000379328998   0.000001195545276  -0.000005218662188
Si   19.68738   6.10987   3.39437   0.000002713098182   0.000002727681787   0.000000527296023
Si   16.97188   8.82537   3.39437   0.000004182747921   0.000000590868234  -0.000000849709478
Si   19.68738   8.82537   0.67888   0.000007774831589  -0.000000262247755   0.000000071782852
Si   21.04512   7.46762   2.03662  -0.000003956097802   0.000004248385900  -0.000000324351700
Si   21.04512  10.18313   4.75213   0.000006353217643  -0.000002712949645  -0.000004752536495
Si   18.32963   7.46762   4.75213   0.000000235893033  -0.000000430274605  -0.000003145010389
Si   18.32963  10.18313   2.03662  -0.000003808875268   0.000003175547892   0.000001515812499
Si   16.97188   6.10987   6.10987  -0.000007656273970   0.000001764563282  -0.000000133428623
Si   19.68738   6.10987   8.82537   0.000002784641234   0.000002365496620   0.000000309606795
Si   16.97188   8.82537   8.82537   0.000006277587283   0.000002011778323   0.000002876134659
Si   19.68738   8.82537   6.10987   0.000004023870976  -0.000005474468578  -0.000000748494891
Si   21.04512   7.46762   7.46762   0.000003222278989  -0.000001260908774   0.000005794524121
Si   21.04512  10.18313  10.18313  -0.000001991156760   0.000003518313987  -0.000000137620674
Si   18.32963   7.46762  10.18313  -0.000007352165401  -0.000005928815374   0.000000202209713
Si   18.32963  10.18313   7.46762  -0.000005881970941   0.000001779451741  -0.000002226053841
Si   16.97188   6.10987  11.54087   0.000001424313767  -0.000000812552604   0.000003373874784
Si   19.68738   6.10987  14.25638  -0.000001510086210   0.000003982459164   0.000000588947255
Si   16.97188   8.82537  14.25638   0.000000234480202  -0.000001157503791  -0.000000300933339
Si   19.68738   8.82537  11.54087   0.000005668989981   0.000000563673084  -0.000000868954155
Si   21.04512   7.46762  12.89862   0.000002155314340  -0.000000711772989  -0.000005543873563
Si   21.04512  10.18313  15.61413   0.000006918700709  -0.000006111799086   0.000003361591615
Si   18.32963   7.46762  15.61413   0.000000329801638  -0.000000518248137   0.000002631809808
Si   18.32963  10.18313  12.89862  -0.000005332522260   0.000002288867680   0.000003078771058
Si   16.97188  11.54087   0.67888   0.000002349535406   0.000000184928899  -0.000002208961097
Si   19.68738  11.54087   3.39437   0.000000043267809  -0.000003473784865  -0.000000471389324
Si   16.97188  14.25638   3.39437  -0.000001130830611   0.000000432241464  -0.000001687386547
Si   19.68738  14.25638   0.67888  -0.000001687990808   0.000001468088942  -0.000006324340194
Si   21.04512  12.89862   2.03662  -0.000000138405130  -0.000001469601741  -0.000001037333158
Si   21.04512  15.61413   4.75213  -0.000000087489145  -0.000003407792269   0.000000425858767
Si   18.32963  12.89862   4.75213  -0.000000147880379   0.000003444691646  -0.000003858874765
Si   18.32963  15.61413   2.03662   0.000002940643706  -0.000002000983498  -0.000001111014363
Si   16.97188  11.54087   6.10987  -0.000001848745976  -0.000002671575099  -0.000000921001033
Si   19.68738  11.54087   8.82537   0.000001910755064  -0.000002696168786  -0.000001633540672
Si   16.97188  14.25638   8.82537  -0.000001037058165  -0.000001966204620   0.000002559829315
Si   19.68738  14.25638   6.10987   0.000002055320742  -0.000006387152373   0.000000250076981
Si   21.04512  12.89862   7.46762   0.000000023395188  -0.000001437699676  -0.000002426070167
Si   21.04512  15.61413  10.18313   0.000001361123219   0.000001036634523   0.000000510909847
Si   18.32963  12.89862  10.18313  -0.000000596919291  -0.000004613283456   0.000000323210168
Si   18.32963  15.61413   7.46762  -0.000007203949295   0.000005288577704   0.000002219660123
Si   16.97188  11.54087  11.54087   0.000002105335998   0.000001001261292   0.000003115686055
Si   19.68738  11.54087  14.25638  -0.000002104389812  -0.000001262485731   0.000000436827466
Si   16.97188  14.25638  14.25638  -0.000002006653243  -0.000002568633265  -0.000000595870207
Si   19.68738  14.25638  11.54087  -0.000003415233275   0.000000697099657   0.000006810160617
Si   21.04512  12.89862  12.89862  -0.000002211770283  -0.000001327122763   0.000002615805254
Si   21.04512  15.61413  15.61413  -0.000003189403962  -0.000001619897462  -0.000002412907640
Si   18.32963  12.89862  15.61413   0.000001990646728   0.000003965352169   0.000004818326324
Si   18.32963  15.61413  12.89862  -0.000005635915609   0.000005763794560  -0.000003492545672
Si   16.97188  16.97188   0.67888   0.000001375912679   0.000001375912241  -0.000004813688054
Si   19.68738  16.97188   3.39437   0.000000118202574  -0.000000209474652   0.000000884199577
Si   16.97188  19.68738   3.39437  -0.000000209474625   0.000000118202700   0.000000884199165
Si   19.68738  19.68738   0.67888  -0.000000043499458  -0.000000043499506  -0.000002438950035
Si   21.04512  18.32963   2.03662  -0.000007079114020   0.000000392859942   0.000000029575717
Si   21.04512  21.04512   4.75213  -0.000003757566290  -0.000003757566450  -0.000005236437521
Si   18.32963  18.32963   4.75213  -0.000002718407112  -0.000002718407156  -0.000005988255677
Si   18.32963  21.04512   2.03662   0.000000392859819  -0.000007079114318   0.000000029575926
Si   16.97188  16.97188   6.10987   0.000000895794435   0.000000895794382  -0.000001254905197
Si   19.68738  16.97188   8.82537   0.000000900118307  -0.000001267465521  -0.000001363967225
Si   16.97188  19.68738   8.82537  -0.000001267465625   0.000000900118674  -0.000001363967386
Si   19.68738  19.68738   6.10987  -0.000000066589550  -0.000000066589707  -0.000000225523960
Si   21.04512  18.32963   7.46762   0.000005114971162   0.000002759450513   0.000009135324799
Si   21.04512  21.04512  10.18313   0.000004899091533   0.000004899091245  -0.000000333512129
Si   18.32963  18.32963  10.18313   0.000004153420478   0.000004153420318  -0.000000193837667
Si   18.32963  21.04512   7.46762   0.000002759450406   0.000005114970978   0.000009135325125
Si   16.97188  16.97188  11.54087   0.000002021729401   0.000002021729144   0.000003168546764
Si   19.68738  16.97188  14.25638  -0.000000377834628   0.000000011718682   0.000000871236000
Si   16.97188  19.68738  14.25638   0.000000011718750  -0.000000377834504   0.000000871235556
Si   19.68738  19.68738  11.54087   0.000002167633396   0.000002167633066   0.000003637244028
Si   21.04512  18.32963  12.89862   0.000005614851677   0.000002077212109  -0.000007892037584
Si   21.04512  21.04512  15.61413  -0.000003780064514  -0.000003780064776   0.000004943501834
Si   18.32963  18.32963  15.61413  -0.000002232242606  -0.000002232242706   0.000005445776030
Si   18.32963  21.04512  12.89862   0.000002077211697   0.000005614851527  -0.000007892037422
