300 

Si    0.00000  -0.00000  -0.00000   0.000012629439577  -0.000013698896647  -0.000013699097625
Si    1.35775   1.35775   1.35775  -0.000004549425818   0.000014187976347   0.000014171049875
Si    2.71550   2.71550   0.00000   0.000012629439574  -0.000013698896660  -0.000013699097614
Si    4.07325   4.07325   1.35775  -0.000004549425827   0.000014187976314   0.000014171049875
Si    5.43100   5.43100   0.00000   0.000012629439578  -0.000013698896654  -0.000013699097617
Si    6.78875   6.78875   1.35775  -0.000004549425824   0.000014187976334   0.000014171049892
Si    8.14650   8.14650   0.00000   0.000012629439568  -0.000013698896632  -0.000013699097602
Si    9.50425   9.50425   1.35775  -0.000004549425816   0.000014187976312   0.000014171049877
Si   10.86200  10.86200   0.00000   0.000012629439572  -0.000013698896641  -0.000013699097629
Si   12.21975  12.21975   1.35775  -0.000004549425823   0.000014187976323   0.000014171049871
Si    2.71550   0.00000   2.71550   0.000012629439566  -0.000013698896646  -0.000013699097605
Si    4.07325   1.35775   4.07325  -0.000004549425809   0.000014187976340   0.000014171049876
Si    5.43100   2.71550   2.71550   0.000012629439584  -0.000013698896637  -0.000013699097631
Si    6.78875   4.07325   4.07325  -0.000004549425809   0.000014187976323   0.000014171049886
Si    8.14650   5.43100   2.71550   0.000012629439566  -0.000013698896626  -0.000013699097620
Si    9.50425   6.78875   4.07325  -0.000004549425802   0.000014187976320   0.000014171049878
Si   10.86200   8.14650   2.71550   0.000012629439570  -0.000013698896637  -0.000013699097608
Si   12.21975   9.50425   4.07325  -0.000004549425810   0.000014187976318   0.000014171049885
Si   13.57750  10.86200   2.71550   0.000012629439555  -0.000013698896637  -0.000013699097605
Si   14.93525  12.21975   4.07325  -0.000004549425809   0.000014187976343   0.000014171049872
Si    5.43100  -0.00000   5.43100   0.000012629439581  -0.000013698896650  -0.000013699097617
Si    6.78875   1.35775   6.78875  -0.000004549425815   0.000014187976320   0.000014171049871
Si    8.14650   2.71550   5.43100   0.000012629439574  -0.000013698896642  -0.000013699097614
Si    9.50425   4.07325   6.78875  -0.000004549425815   0.000014187976348   0.000014171049875
Si   10.86200   5.43100   5.43100   0.000012629439570  -0.000013698896650  -0.000013699097612
Si   12.21975   6.78875   6.78875  -0.000004549425830   0.000014187976334   0.000014171049882
Si   13.57750   8.14650   5.43100   0.000012629439562  -0.000013698896639  -0.000013699097618
Si   14.93525   9.50425   6.78875  -0.000004549425819   0.000014187976314   0.000014171049873
Si   16.29300  10.86200   5.43100   0.000012629439573  -0.000013698896649  -0.000013699097615
Si   17.65075  12.21975   6.78875  -0.000004549425821   0.000014187976321   0.000014171049871
Si    8.14650   0.00000   8.14650   0.000012629439552  -0.000013698896645  -0.000013699097615
Si    9.50425   1.35775   9.50425  -0.000004549425820   0.000014187976328   0.000014171049875
Si   10.86200   2.71550   8.14650   0.000012629439581  -0.000013698896650  -0.000013699097617
Si   12.21975   4.07325   9.50425  -0.000004549425803   0.000014187976314   0.000014171049884
Si   13.57750   5.43100   8.14650   0.000012629439560  -0.000013698896650  -0.000013699097618
Si   14.93525   6.78875   9.50425  -0.000004549425813   0.000014187976335   0.000014171049891
Si   16.29300   8.14650   8.14650   0.000012629439573  -0.000013698896647  -0.000013699097615
Si   17.65075   9.50425   9.50425  -0.000004549425800   0.000014187976318   0.000014171049871
Si   19.00850  10.86200   8.14650   0.000012629439571  -0.000013698896641  -0.000013699097611
Si   20.36625  12.21975   9.50425  -0.000004549425832   0.000014187976327   0.000014171049883
Si   10.86200   0.00000  10.86200   0.000012629439578  -0.000013698896648  -0.000013699097617
Si   12.21975   1.35775  12.21975  -0.000004549425814   0.000014187976321   0.000014171049875
Si   13.57750   2.71550  10.86200   0.000012629439565  -0.000013698896640  -0.000013699097621
Si   14.93525   4.07325  12.21975  -0.000004549425807   0.000014187976331   0.000014171049877
Si   16.29300   5.43100  10.86200   0.000012629439559  -0.000013698896634  -0.000013699097610
Si   17.65075   6.78875  12.21975  -0.000004549425827   0.000014187976321   0.000014171049877
Si   19.00850   8.14650  10.86200   0.000012629439560  -0.000013698896622  -0.000013699097613
Si   20.36625   9.50425  12.21975  -0.000004549425828   0.000014187976318   0.000014171049874
Si   21.72400  10.86200  10.86200   0.000012629439562  -0.000013698896642  -0.000013699097604
Si   23.08175  12.21975  12.21975  -0.000004549425810   0.000014187976327   0.000014171049880
Si    0.00000   2.71550   2.71550   0.000010565265538   0.000001413400441   0.000001400416090
Si    1.35775   4.07325   4.07325   0.000000446677820   0.000009514555641   0.000009527048986
Si    2.71550   5.43100   2.71550   0.000010565265540   0.000001413400436   0.000001400416115
Si    4.07325   6.78875   4.07325   0.000000446677805   0.000009514555606   0.000009527048983
Si    5.43100   8.14650   2.71550   0.000010565265560   0.000001413400432   0.000001400416109
Si    6.78875   9.50425   4.07325   0.000000446677798   0.000009514555606   0.000009527048969
Si    8.14650  10.86200   2.71550   0.000010565265542   0.000001413400437   0.000001400416096
Si    9.50425  12.21975   4.07325   0.000000446677801   0.000009514555630   0.000009527048974
Si   10.86200  13.57750   2.71550   0.000010565265546   0.000001413400446   0.000001400416110
Si   12.21975  14.93525   4.07325   0.000000446677789   0.000009514555623   0.000009527048978
Si    2.71550   2.71550   5.43100   0.000010565265562   0.000001413400438   0.000001400416109
Si    4.07325   4.07325   6.78875   0.000000446677809   0.000009514555618   0.000009527048985
Si    5.43100   5.43100   5.43100   0.000010565265553   0.000001413400437   0.000001400416089
Si    6.78875   6.78875   6.78875   0.000000446677792   0.000009514555648   0.000009527048976
Si    8.14650   8.14650   5.43100   0.000010565265544   0.000001413400452   0.000001400416097
Si    9.50425   9.50425   6.78875   0.000000446677796   0.000009514555650   0.000009527048989
Si   10.86200  10.86200   5.43100   0.000010565265547   0.000001413400432   0.000001400416097
Si   12.21975  12.21975   6.78875   0.000000446677796   0.000009514555639   0.000009527048991
Si   13.57750  13.57750   5.43100   0.000010565265546   0.000001413400429   0.000001400416104
Si   14.93525  14.93525   6.78875   0.000000446677810   0.000009514555636   0.000009527048991
Si    5.43100   2.71550   8.14650   0.000010565265541   0.000001413400457   0.000001400416091
Si    6.78875   4.07325   9.50425   0.000000446677791   0.000009514555637   0.000009527048973
Si    8.14650   5.43100   8.14650   0.000010565265567   0.000001413400434   0.000001400416104
Si    9.50425   6.78875   9.50425   0.000000446677780   0.000009514555628   0.000009527048990
Si   10.86200   8.14650   8.14650   0.000010565265548   0.000001413400436   0.000001400416102
Si   12.21975   9.50425   9.50425   0.000000446677799   0.000009514555642   0.000009527048989
Si   13.57750  10.86200   8.14650   0.000010565265541   0.000001413400453   0.000001400416104
Si   14.93525  12.21975   9.50425   0.000000446677804   0.000009514555613   0.000009527048994
Si   16.29300  13.57750   8.14650   0.000010565265573   0.000001413400454   0.000001400416103
Si   17.65075  14.93525   9.50425   0.000000446677783   0.000009514555625   0.000009527048952
Si    8.14650   2.71550  10.86200   0.000010565265565   0.000001413400452   0.000001400416099
Si    9.50425   4.07325  12.21975   0.000000446677812   0.000009514555629   0.000009527048984
Si   10.86200   5.43100  10.86200   0.000010565265538   0.000001413400451   0.000001400416103
Si   12.21975   6.78875  12.21975   0.000000446677790   0.000009514555622   0.000009527048979
Si   13.57750   8.14650  10.86200   0.000010565265559   0.000001413400442   0.000001400416083
Si   14.93525   9.50425  12.21975   0.000000446677821   0.000009514555632   0.000009527048975
Si   16.29300  10.86200  10.86200   0.000010565265521   0.000001413400445   0.000001400416101
Si   17.65075  12.21975  12.21975   0.000000446677811   0.000009514555627   0.000009527048983
Si   19.00850  13.57750  10.86200   0.000010565265561   0.000001413400429   0.000001400416103
Si   20.36625  14.93525  12.21975   0.000000446677790   0.000009514555615   0.000009527048974
Si   10.86200   2.71550  13.57750   0.000010565265537   0.000001413400433   0.000001400416093
Si   12.21975   4.07325  14.93525   0.000000446677808   0.000009514555630   0.000009527048988
Si   13.57750   5.43100  13.57750   0.000010565265541   0.000001413400438   0.000001400416098
Si   14.93525   6.78875  14.93525   0.000000446677807   0.000009514555635   0.000009527048983
Si   16.29300   8.14650  13.57750   0.000010565265561   0.000001413400455   0.000001400416114
Si   17.65075   9.50425  14.93525   0.000000446677808   0.000009514555632   0.000009527048981
Si   19.00850  10.86200  13.57750   0.000010565265541   0.000001413400459   0.000001400416096
Si   20.36625  12.21975  14.93525   0.000000446677798   0.000009514555664   0.000009527048967
Si   21.72400  13.57750  13.57750   0.000010565265544   0.000001413400448   0.000001400416109
Si   23.08175  14.93525  14.93525   0.000000446677784   0.000009514555629   0.000009527048975
Si    0.00000   5.43100   5.43100   0.000017792567542  -0.000007488533846  -0.000007474618301
Si    1.35775   6.78875   6.78875  -0.000007191399778   0.000007904608854   0.000007908310070
Si    2.71550   8.14650   5.43100   0.000017792567540  -0.000007488533847  -0.000007474618294
Si    4.07325   9.50425   6.78875  -0.000007191399771   0.000007904608895   0.000007908310090
Si    5.43100  10.86200   5.43100   0.000017792567544  -0.000007488533842  -0.000007474618304
Si    6.78875  12.21975   6.78875  -0.000007191399761   0.000007904608878   0.000007908310092
Si    8.14650  13.57750   5.43100   0.000017792567550  -0.000007488533855  -0.000007474618297
Si    9.50425  14.93525   6.78875  -0.000007191399782   0.000007904608849   0.000007908310072
Si   10.86200  16.29300   5.43100   0.000017792567547  -0.000007488533838  -0.000007474618306
Si   12.21975  17.65075   6.78875  -0.000007191399765   0.000007904608865   0.000007908310069
Si    2.71550   5.43100   8.14650   0.000017792567529  -0.000007488533855  -0.000007474618306
Si    4.07325   6.78875   9.50425  -0.000007191399766   0.000007904608873   0.000007908310088
Si    5.43100   8.14650   8.14650   0.000017792567543  -0.000007488533846  -0.000007474618303
Si    6.78875   9.50425   9.50425  -0.000007191399766   0.000007904608869   0.000007908310091
Si    8.14650  10.86200   8.14650   0.000017792567543  -0.000007488533861  -0.000007474618303
Si    9.50425  12.21975   9.50425  -0.000007191399776   0.000007904608868   0.000007908310087
Si   10.86200  13.57750   8.14650   0.000017792567539  -0.000007488533844  -0.000007474618312
Si   12.21975  14.93525   9.50425  -0.000007191399772   0.000007904608865   0.000007908310105
Si   13.57750  16.29300   8.14650   0.000017792567523  -0.000007488533840  -0.000007474618302
Si   14.93525  17.65075   9.50425  -0.000007191399784   0.000007904608861   0.000007908310094
Si    5.43100   5.43100  10.86200   0.000017792567521  -0.000007488533844  -0.000007474618310
Si    6.78875   6.78875  12.21975  -0.000007191399775   0.000007904608863   0.000007908310094
Si    8.14650   8.14650  10.86200   0.000017792567540  -0.000007488533842  -0.000007474618310
Si    9.50425   9.50425  12.21975  -0.000007191399782   0.000007904608854   0.000007908310088
Si   10.86200  10.86200  10.86200   0.000017792567545  -0.000007488533840  -0.000007474618298
Si   12.21975  12.21975  12.21975  -0.000007191399774   0.000007904608859   0.000007908310090
Si   13.57750  13.57750  10.86200   0.000017792567533  -0.000007488533829  -0.000007474618304
Si   14.93525  14.93525  12.21975  -0.000007191399774   0.000007904608856   0.000007908310094
Si   16.29300  16.29300  10.86200   0.000017792567531  -0.000007488533834  -0.000007474618304
Si   17.65075  17.65075  12.21975  -0.000007191399781   0.000007904608868   0.000007908310080
Si    8.14650   5.43100  13.57750   0.000017792567539  -0.000007488533836  -0.000007474618315
Si    9.50425   6.78875  14.93525  -0.000007191399772   0.000007904608894   0.000007908310084
Si   10.86200   8.14650  13.57750   0.000017792567528  -0.000007488533843  -0.000007474618308
Si   12.21975   9.50425  14.93525  -0.000007191399779   0.000007904608855   0.000007908310095
Si   13.57750  10.86200  13.57750   0.000017792567535  -0.000007488533823  -0.000007474618307
Si   14.93525  12.21975  14.93525  -0.000007191399756   0.000007904608855   0.000007908310071
Si   16.29300  13.57750  13.57750   0.000017792567530  -0.000007488533851  -0.000007474618280
Si   17.65075  14.93525  14.93525  -0.000007191399769   0.000007904608880   0.000007908310086
Si   19.00850  16.29300  13.57750   0.000017792567546  -0.000007488533845  -0.000007474618301
Si   20.36625  17.65075  14.93525  -0.000007191399773   0.000007904608877   0.000007908310085
Si   10.86200   5.43100  16.29300   0.000017792567546  -0.000007488533840  -0.000007474618307
Si   12.21975   6.78875  17.65075  -0.000007191399771   0.000007904608857   0.000007908310081
Si   13.57750   8.14650  16.29300   0.000017792567526  -0.000007488533844  -0.000007474618305
Si   14.93525   9.50425  17.65075  -0.000007191399768   0.000007904608879   0.000007908310088
Si   16.29300  10.86200  16.29300   0.000017792567547  -0.000007488533833  -0.000007474618301
Si   17.65075  12.21975  17.65075  -0.000007191399778   0.000007904608849   0.000007908310085
Si   19.00850  13.57750  16.29300   0.000017792567540  -0.000007488533834  -0.000007474618303
Si   20.36625  14.93525  17.65075  -0.000007191399766   0.000007904608851   0.000007908310072
Si   21.72400  16.29300  16.29300   0.000017792567541  -0.000007488533832  -0.000007474618291
Si   23.08175  17.65075  17.65075  -0.000007191399792   0.000007904608876   0.000007908310089
Si    0.00000   8.14650   8.14650   0.000012629439559  -0.000013698896652  -0.000013699097624
Si    1.35775   9.50425   9.50425  -0.000004549425820   0.000014187976337   0.000014171049893
Si    2.71550  10.86200   8.14650   0.000012629439603  -0.000013698896665  -0.000013699097624
Si    4.07325  12.21975   9.50425  -0.000004549425816   0.000014187976316   0.000014171049886
Si    5.43100  13.57750   8.14650   0.000012629439600  -0.000013698896652  -0.000013699097608
Si    6.78875  14.93525   9.50425  -0.000004549425821   0.000014187976308   0.000014171049869
Si    8.14650  16.29300   8.14650   0.000012629439576  -0.000013698896641  -0.000013699097605
Si    9.50425  17.65075   9.50425  -0.000004549425816   0.000014187976332   0.000014171049865
Si   10.86200  19.00850   8.14650   0.000012629439574  -0.000013698896642  -0.000013699097635
Si   12.21975  20.36625   9.50425  -0.000004549425785   0.000014187976344   0.000014171049890
Si    2.71550   8.14650  10.86200   0.000012629439564  -0.000013698896664  -0.000013699097610
Si    4.07325   9.50425  12.21975  -0.000004549425818   0.000014187976322   0.000014171049871
Si    5.43100  10.86200  10.86200   0.000012629439564  -0.000013698896641  -0.000013699097623
Si    6.78875  12.21975  12.21975  -0.000004549425836   0.000014187976315   0.000014171049880
Si    8.14650  13.57750  10.86200   0.000012629439586  -0.000013698896660  -0.000013699097620
Si    9.50425  14.93525  12.21975  -0.000004549425817   0.000014187976316   0.000014171049878
Si   10.86200  16.29300  10.86200   0.000012629439567  -0.000013698896639  -0.000013699097602
Si   12.21975  17.65075  12.21975  -0.000004549425832   0.000014187976314   0.000014171049881
Si   13.57750  19.00850  10.86200   0.000012629439571  -0.000013698896648  -0.000013699097621
Si   14.93525  20.36625  12.21975  -0.000004549425819   0.000014187976326   0.000014171049885
Si    5.43100   8.14650  13.57750   0.000012629439565  -0.000013698896658  -0.000013699097608
Si    6.78875   9.50425  14.93525  -0.000004549425806   0.000014187976323   0.000014171049863
Si    8.14650  10.86200  13.57750   0.000012629439586  -0.000013698896654  -0.000013699097610
Si    9.50425  12.21975  14.93525  -0.000004549425806   0.000014187976317   0.000014171049879
Si   10.86200  13.57750  13.57750   0.000012629439571  -0.000013698896672  -0.000013699097617
Si   12.21975  14.93525  14.93525  -0.000004549425821   0.000014187976340   0.000014171049881
Si   13.57750  16.29300  13.57750   0.000012629439575  -0.000013698896663  -0.000013699097605
Si   14.93525  17.65075  14.93525  -0.000004549425821   0.000014187976312   0.000014171049876
Si   16.29300  19.00850  13.57750   0.000012629439587  -0.000013698896674  -0.000013699097610
Si   17.65075  20.36625  14.93525  -0.000004549425822   0.000014187976334   0.000014171049891
Si    8.14650   8.14650  16.29300   0.000012629439574  -0.000013698896657  -0.000013699097610
Si    9.50425   9.50425  17.65075  -0.000004549425818   0.000014187976321   0.000014171049884
Si   10.86200  10.86200  16.29300   0.000012629439554  -0.000013698896650  -0.000013699097620
Si   12.21975  12.21975  17.65075  -0.000004549425815   0.000014187976314   0.000014171049868
Si   13.57750  13.57750  16.29300   0.000012629439556  -0.000013698896646  -0.000013699097608
Si   14.93525  14.93525  17.65075  -0.000004549425814   0.000014187976307   0.000014171049882
Si   16.29300  16.29300  16.29300   0.000012629439580  -0.000013698896656  -0.000013699097625
Si   17.65075  17.65075  17.65075  -0.000004549425828   0.000014187976319   0.000014171049881
Si   19.00850  19.00850  16.29300   0.000012629439569  -0.000013698896661  -0.000013699097620
Si   20.36625  20.36625  17.65075  -0.000004549425810   0.000014187976332   0.000014171049878
Si   10.86200   8.14650  19.00850   0.000012629439566  -0.000013698896642  -0.000013699097606
Si   12.21975   9.50425  20.36625  -0.000004549425810   0.000014187976317   0.000014171049893
Si   13.57750  10.86200  19.00850   0.000012629439571  -0.000013698896658  -0.000013699097614
Si   14.93525  12.21975  20.36625  -0.000004549425820   0.000014187976342   0.000014171049888
Si   16.29300  13.57750  19.00850   0.000012629439577  -0.000013698896646  -0.000013699097621
Si   17.65075  14.93525  20.36625  -0.000004549425820   0.000014187976330   0.000014171049873
Si   19.00850  16.29300  19.00850   0.000012629439569  -0.000013698896645  -0.000013699097601
Si   20.36625  17.65075  20.36625  -0.000004549425828   0.000014187976319   0.000014171049885
Si   21.72400  19.00850  19.00850   0.000012629439591  -0.000013698896664  -0.000013699097624
Si   23.08175  20.36625  20.36625  -0.000004549425807   0.000014187976292   0.000014171049879
Si    0.00000  10.86200  10.86200   0.000010565265562   0.000001413400436   0.000001400416086
Si    1.35775  12.21975  12.21975   0.000000446677816   0.000009514555645   0.000009527048987
Si    2.71550  13.57750  10.86200   0.000010565265527   0.000001413400428   0.000001400416113
Si    4.07325  14.93525  12.21975   0.000000446677814   0.000009514555621   0.000009527048983
Si    5.43100  16.29300  10.86200   0.000010565265554   0.000001413400446   0.000001400416120
Si    6.78875  17.65075  12.21975   0.000000446677790   0.000009514555616   0.000009527048968
Si    8.14650  19.00850  10.86200   0.000010565265547   0.000001413400438   0.000001400416091
Si    9.50425  20.36625  12.21975   0.000000446677796   0.000009514555625   0.000009527048974
Si   10.86200  21.72400  10.86200   0.000010565265535   0.000001413400433   0.000001400416086
Si   12.21975  23.08175  12.21975   0.000000446677810   0.000009514555628   0.000009527048995
Si    2.71550  10.86200  13.57750   0.000010565265568   0.000001413400452   0.000001400416099
Si    4.07325  12.21975  14.93525   0.000000446677795   0.000009514555637   0.000009527048971
Si    5.43100  13.57750  13.57750   0.000010565265535   0.000001413400457   0.000001400416085
Si    6.78875  14.93525  14.93525   0.000000446677795   0.000009514555633   0.000009527048983
Si    8.14650  16.29300  13.57750   0.000010565265554   0.000001413400453   0.000001400416103
Si    9.50425  17.65075  14.93525   0.000000446677790   0.000009514555641   0.000009527048981
Si   10.86200  19.00850  13.57750   0.000010565265553   0.000001413400451   0.000001400416110
Si   12.21975  20.36625  14.93525   0.000000446677802   0.000009514555644   0.000009527048981
Si   13.57750  21.72400  13.57750   0.000010565265546   0.000001413400443   0.000001400416118
Si   14.93525  23.08175  14.93525   0.000000446677790   0.000009514555630   0.000009527048978
Si    5.43100  10.86200  16.29300   0.000010565265559   0.000001413400433   0.000001400416100
Si    6.78875  12.21975  17.65075   0.000000446677785   0.000009514555615   0.000009527048988
Si    8.14650  13.57750  16.29300   0.000010565265553   0.000001413400452   0.000001400416109
Si    9.50425  14.93525  17.65075   0.000000446677795   0.000009514555624   0.000009527048983
Si   10.86200  16.29300  16.29300   0.000010565265555   0.000001413400440   0.000001400416088
Si   12.21975  17.65075  17.65075   0.000000446677793   0.000009514555620   0.000009527048982
Si   13.57750  19.00850  16.29300   0.000010565265552   0.000001413400453   0.000001400416100
Si   14.93525  20.36625  17.65075   0.000000446677787   0.000009514555623   0.000009527048974
Si   16.29300  21.72400  16.29300   0.000010565265557   0.000001413400442   0.000001400416089
Si   17.65075  23.08175  17.65075   0.000000446677798   0.000009514555635   0.000009527048989
Si    8.14650  10.86200  19.00850   0.000010565265532   0.000001413400445   0.000001400416103
Si    9.50425  12.21975  20.36625   0.000000446677810   0.000009514555617   0.000009527048981
Si   10.86200  13.57750  19.00850   0.000010565265547   0.000001413400438   0.000001400416099
Si   12.21975  14.93525  20.36625   0.000000446677802   0.000009514555619   0.000009527048985
Si   13.57750  16.29300  19.00850   0.000010565265540   0.000001413400458   0.000001400416115
Si   14.93525  17.65075  20.36625   0.000000446677800   0.000009514555616   0.000009527048967
Si   16.29300  19.00850  19.00850   0.000010565265555   0.000001413400442   0.000001400416093
Si   17.65075  20.36625  20.36625   0.000000446677806   0.000009514555628   0.000009527048980
Si   19.00850  21.72400  19.00850   0.000010565265545   0.000001413400442   0.000001400416117
Si   20.36625  23.08175  20.36625   0.000000446677797   0.000009514555643   0.000009527048965
Si   10.86200  10.86200  21.72400   0.000010565265552   0.000001413400447   0.000001400416110
Si   12.21975  12.21975  23.08175   0.000000446677787   0.000009514555630   0.000009527048989
Si   13.57750  13.57750  21.72400   0.000010565265560   0.000001413400443   0.000001400416089
Si   14.93525  14.93525  23.08175   0.000000446677816   0.000009514555622   0.000009527048986
Si   16.29300  16.29300  21.72400   0.000010565265555   0.000001413400449   0.000001400416096
Si   17.65075  17.65075  23.08175   0.000000446677794   0.000009514555634   0.000009527048991
Si   19.00850  19.00850  21.72400   0.000010565265548   0.000001413400464   0.000001400416094
Si   20.36625  20.36625  23.08175   0.000000446677787   0.000009514555630   0.000009527048978
Si   21.72400  21.72400  21.72400   0.000010565265557   0.000001413400439   0.000001400416091
Si   23.08175  23.08175  23.08175   0.000000446677796   0.000009514555641   0.000009527048992
Si    0.00000  13.57750  13.57750   0.000017792567525  -0.000007488533856  -0.000007474618287
Si    1.35775  14.93525  14.93525  -0.000007191399759   0.000007904608871   0.000007908310082
Si    2.71550  16.29300  13.57750   0.000017792567535  -0.000007488533854  -0.000007474618295
Si    4.07325  17.65075  14.93525  -0.000007191399765   0.000007904608876   0.000007908310092
Si    5.43100  19.00850  13.57750   0.000017792567536  -0.000007488533846  -0.000007474618306
Si    6.78875  20.36625  14.93525  -0.000007191399766   0.000007904608861   0.000007908310095
Si    8.14650  21.72400  13.57750   0.000017792567533  -0.000007488533821  -0.000007474618315
Si    9.50425  23.08175  14.93525  -0.000007191399766   0.000007904608864   0.000007908310088
Si   10.86200  24.43950  13.57750   0.000017792567543  -0.000007488533818  -0.000007474618295
Si   12.21975  25.79725  14.93525  -0.000007191399760   0.000007904608873   0.000007908310073
Si    2.71550  13.57750  16.29300   0.000017792567561  -0.000007488533838  -0.000007474618320
Si    4.07325  14.93525  17.65075  -0.000007191399765   0.000007904608882   0.000007908310085
Si    5.43100  16.29300  16.29300   0.000017792567527  -0.000007488533850  -0.000007474618303
Si    6.78875  17.65075  17.65075  -0.000007191399791   0.000007904608874   0.000007908310100
Si    8.14650  19.00850  16.29300   0.000017792567526  -0.000007488533846  -0.000007474618305
Si    9.50425  20.36625  17.65075  -0.000007191399777   0.000007904608847   0.000007908310085
Si   10.86200  21.72400  16.29300   0.000017792567543  -0.000007488533837  -0.000007474618318
Si   12.21975  23.08175  17.65075  -0.000007191399773   0.000007904608877   0.000007908310099
Si   13.57750  24.43950  16.29300   0.000017792567535  -0.000007488533836  -0.000007474618299
Si   14.93525  25.79725  17.65075  -0.000007191399760   0.000007904608852   0.000007908310095
Si    5.43100  13.57750  19.00850   0.000017792567546  -0.000007488533859  -0.000007474618291
Si    6.78875  14.93525  20.36625  -0.000007191399778   0.000007904608881   0.000007908310096
Si    8.14650  16.29300  19.00850   0.000017792567539  -0.000007488533832  -0.000007474618312
Si    9.50425  17.65075  20.36625  -0.000007191399769   0.000007904608855   0.000007908310091
Si   10.86200  19.00850  19.00850   0.000017792567533  -0.000007488533845  -0.000007474618300
Si   12.21975  20.36625  20.36625  -0.000007191399762   0.000007904608882   0.000007908310081
Si   13.57750  21.72400  19.00850   0.000017792567536  -0.000007488533852  -0.000007474618300
Si   14.93525  23.08175  20.36625  -0.000007191399777   0.000007904608870   0.000007908310088
Si   16.29300  24.43950  19.00850   0.000017792567536  -0.000007488533848  -0.000007474618306
Si   17.65075  25.79725  20.36625  -0.000007191399769   0.000007904608878   0.000007908310096
Si    8.14650  13.57750  21.72400   0.000017792567524  -0.000007488533847  -0.000007474618295
Si    9.50425  14.93525  23.08175  -0.000007191399769   0.000007904608873   0.000007908310101
Si   10.86200  16.29300  21.72400   0.000017792567532  -0.000007488533851  -0.000007474618306
Si   12.21975  17.65075  23.08175  -0.000007191399760   0.000007904608878   0.000007908310083
Si   13.57750  19.00850  21.72400   0.000017792567508  -0.000007488533829  -0.000007474618306
Si   14.93525  20.36625  23.08175  -0.000007191399771   0.000007904608863   0.000007908310088
Si   16.29300  21.72400  21.72400   0.000017792567542  -0.000007488533841  -0.000007474618308
Si   17.65075  23.08175  23.08175  -0.000007191399780   0.000007904608887   0.000007908310074
Si   19.00850  24.43950  21.72400   0.000017792567540  -0.000007488533847  -0.000007474618297
Si   20.36625  25.79725  23.08175  -0.000007191399762   0.000007904608859   0.000007908310091
Si   10.86200  13.57750  24.43950   0.000017792567552  -0.000007488533842  -0.000007474618314
Si   12.21975  14.93525  25.79725  -0.000007191399762   0.000007904608855   0.000007908310090
Si   13.57750  16.29300  24.43950   0.000017792567542  -0.000007488533845  -0.000007474618287
Si   14.93525  17.65075  25.79725  -0.000007191399782   0.000007904608879   0.000007908310075
Si   16.29300  19.00850  24.43950   0.000017792567554  -0.000007488533833  -0.000007474618326
Si   17.65075  20.36625  25.79725  -0.000007191399766   0.000007904608851   0.000007908310094
Si   19.00850  21.72400  24.43950   0.000017792567534  -0.000007488533851  -0.000007474618317
Si   20.36625  23.08175  25.79725  -0.000007191399763   0.000007904608856   0.000007908310093
Si   21.72400  24.43950  24.43950   0.000017792567539  -0.000007488533862  -0.000007474618293
Si   23.08175  25.79725  25.79725  -0.000007191399765   0.000007904608856   0.000007908310091
