CRYSTAL
PRIMVEC
  10.862000   0.000000   0.000000
   0.000000  10.862000   0.000000
   0.000000   0.000000  10.862000
PRIMCOORD
  64 1
Si     6.789E-01     6.789E-01     6.789E-01     5.423E-15     0.000E+00     3.321E-31
Si     3.394E+00     6.789E-01     3.394E+00     2.044E-15     0.000E+00     1.252E-31
Si     6.789E-01     3.394E+00     3.394E+00     5.265E-15     0.000E+00     3.224E-31
Si     3.394E+00     3.394E+00     6.789E-01     5.925E-15     0.000E+00     3.628E-31
Si     4.752E+00     2.037E+00     2.037E+00     2.076E-15     0.000E+00     1.271E-31
Si     4.752E+00     4.752E+00     4.752E+00     4.003E-15     0.000E+00     2.451E-31
Si     2.037E+00     2.037E+00     4.752E+00     5.664E-15     0.000E+00     3.468E-31
Si     2.037E+00     4.752E+00     2.037E+00     2.264E-15     0.000E+00     1.386E-31
Si     6.789E-01     6.789E-01     6.110E+00     6.602E-15     0.000E+00     4.042E-31
Si     3.394E+00     6.789E-01     8.825E+00     4.519E-15     0.000E+00     2.767E-31
Si     6.789E-01     3.394E+00     8.825E+00     4.615E-15     0.000E+00     2.826E-31
Si     3.394E+00     3.394E+00     6.110E+00     3.008E-15     0.000E+00     1.842E-31
Si     4.752E+00     2.037E+00     7.468E+00     3.497E-15     0.000E+00     2.141E-31
Si     4.752E+00     4.752E+00     1.018E+01     9.914E-15     0.000E+00    -1.932E-15
Si     2.037E+00     2.037E+00     1.018E+01     4.660E-15     0.000E+00     2.853E-31
Si     2.037E+00     4.752E+00     7.468E+00     7.914E-15     0.000E+00     4.846E-31
Si     6.789E-01     6.110E+00     6.789E-01     2.482E-15     0.000E+00     1.520E-31
Si     3.394E+00     6.110E+00     3.394E+00     6.261E-15     0.000E+00     3.834E-31
Si     6.789E-01     8.825E+00     3.394E+00     3.341E-15     0.000E+00     2.046E-31
Si     3.394E+00     8.825E+00     6.789E-01     4.647E-15     0.000E+00     2.846E-31
Si     4.752E+00     7.468E+00     2.037E+00     1.806E-15     0.000E+00     1.106E-31
Si     4.752E+00     1.018E+01     4.752E+00     4.982E-15     0.000E+00     3.050E-31
Si     2.037E+00     7.468E+00     4.752E+00     3.178E-15     0.000E+00     1.946E-31
Si     2.037E+00     1.018E+01     2.037E+00     2.397E-15     0.000E+00     1.468E-31
Si     6.789E-01     6.110E+00     6.110E+00     5.295E-15     0.000E+00     3.242E-31
Si     3.394E+00     6.110E+00     8.825E+00     5.477E-15     0.000E+00     3.354E-31
Si     6.789E-01     8.825E+00     8.825E+00     4.640E-15     0.000E+00     2.841E-31
Si     3.394E+00     8.825E+00     6.110E+00     5.778E-15     0.000E+00     3.538E-31
Si     4.752E+00     7.468E+00     7.468E+00     7.356E-15     0.000E+00     4.504E-31
Si     4.752E+00     1.018E+01     1.018E+01     3.114E-15     0.000E+00     1.907E-31
Si     2.037E+00     7.468E+00     1.018E+01     4.965E-15     0.000E+00     3.040E-31
Si     2.037E+00     1.018E+01     7.468E+00     2.695E-15     0.000E+00     1.650E-31
Si     6.110E+00     6.789E-01     6.789E-01     2.610E-15     0.000E+00     1.598E-31
Si     8.825E+00     6.789E-01     3.394E+00     5.160E-15     0.000E+00     3.159E-31
Si     6.110E+00     3.394E+00     3.394E+00     3.653E-15     0.000E+00     2.237E-31
Si     8.825E+00     3.394E+00     6.789E-01     3.746E-15     0.000E+00     2.294E-31
Si     1.018E+01     2.037E+00     2.037E+00     5.412E-15     0.000E+00     3.314E-31
Si     1.018E+01     4.752E+00     4.752E+00     1.572E-15     0.000E+00     9.626E-32
Si     7.468E+00     2.037E+00     4.752E+00     3.147E-15     0.000E+00     1.927E-31
Si     7.468E+00     4.752E+00     2.037E+00     6.395E-15     0.000E+00     3.916E-31
Si     6.110E+00     6.789E-01     6.110E+00     5.612E-15     0.000E+00     3.436E-31
Si     8.825E+00     6.789E-01     8.825E+00     3.658E-15     0.000E+00     2.240E-31
Si     6.110E+00     3.394E+00     8.825E+00     6.467E-15     0.000E+00     3.960E-31
Si     8.825E+00     3.394E+00     6.110E+00     6.009E-15     0.000E+00     3.680E-31
Si     1.018E+01     2.037E+00     7.468E+00     4.591E-15     0.000E+00     2.811E-31
Si     1.018E+01     4.752E+00     1.018E+01     7.387E-15     0.000E+00     4.523E-31
Si     7.468E+00     2.037E+00     1.018E+01     5.339E-15     0.000E+00     3.269E-31
Si     7.468E+00     4.752E+00     7.468E+00     3.153E-15     0.000E+00     1.931E-31
Si     6.110E+00     6.110E+00     6.789E-01     4.611E-15     0.000E+00     2.824E-31
Si     8.825E+00     6.110E+00     3.394E+00     5.432E-15     0.000E+00     3.326E-31
Si     6.110E+00     8.825E+00     3.394E+00     4.309E-15     0.000E+00     2.639E-31
Si     8.825E+00     8.825E+00     6.789E-01     4.758E-15     0.000E+00     2.913E-31
Si     1.018E+01     7.468E+00     2.037E+00     7.237E-15     0.000E+00     4.431E-31
Si     1.018E+01     1.018E+01     4.752E+00     4.882E-15     0.000E+00     2.989E-31
Si     7.468E+00     7.468E+00     4.752E+00     5.360E-15     0.000E+00     3.282E-31
Si     7.468E+00     1.018E+01     2.037E+00     4.116E-15     0.000E+00     2.520E-31
Si     6.110E+00     6.110E+00     6.110E+00     5.771E-15     0.000E+00     3.534E-31
Si     8.825E+00     6.110E+00     8.825E+00     3.108E-15     0.000E+00     1.903E-31
Si     6.110E+00     8.825E+00     8.825E+00     3.963E-15     0.000E+00     2.427E-31
Si     8.825E+00     8.825E+00     6.110E+00     4.410E-15     0.000E+00     2.700E-31
Si     1.018E+01     7.468E+00     7.468E+00     5.785E-15     0.000E+00     3.542E-31
Si     1.018E+01     1.018E+01     1.018E+01     3.495E-15     0.000E+00     2.140E-31
Si     7.468E+00     7.468E+00     1.018E+01     4.661E-15     0.000E+00     2.854E-31
Si     7.468E+00     1.018E+01     7.468E+00     4.882E-15     0.000E+00     2.990E-31
