108

C -4.26000 -2.45951 -10.00000
C -1.42000 -2.45951 -10.00000
C -3.55000 -1.22976 -10.00000
C -2.13000 -1.22976 -10.00000
C -4.26000 -2.45951  0.00000
C -1.42000 -2.45951  0.00000
C -3.55000 -1.22976  0.00000
C -2.13000 -1.22976  0.00000
C -4.26000 -2.45951 10.00000
C -1.42000 -2.45951 10.00000
C -3.55000 -1.22976 10.00000
C -2.13000 -1.22976 10.00000
C -4.26000  0.00000 -10.00000
C -1.42000  0.00000 -10.00000
C -3.55000  1.22976 -10.00000
C -2.13000  1.22976 -10.00000
C -4.26000  0.00000  0.00000
C -1.42000  0.00000  0.00000
C -3.55000  1.22976  0.00000
C -2.13000  1.22976  0.00000
C -4.26000  0.00000 10.00000
C -1.42000  0.00000 10.00000
C -3.55000  1.22976 10.00000
C -2.13000  1.22976 10.00000
C -4.26000  2.45951 -10.00000
C -1.42000  2.45951 -10.00000
C -3.55000  3.68927 -10.00000
C -2.13000  3.68927 -10.00000
C -4.26000  2.45951  0.00000
C -1.42000  2.45951  0.00000
C -3.55000  3.68927  0.00000
C -2.13000  3.68927  0.00000
C -4.26000  2.45951 10.00000
C -1.42000  2.45951 10.00000
C -3.55000  3.68927 10.00000
C -2.13000  3.68927 10.00000
C  0.00000 -2.45951 -10.00000
C  2.84000 -2.45951 -10.00000
C  0.71000 -1.22976 -10.00000
C  2.13000 -1.22976 -10.00000
C  0.00000 -2.45951  0.00000
C  2.84000 -2.45951  0.00000
C  0.71000 -1.22976  0.00000
C  2.13000 -1.22976  0.00000
C  0.00000 -2.45951 10.00000
C  2.84000 -2.45951 10.00000
C  0.71000 -1.22976 10.00000
C  2.13000 -1.22976 10.00000
C  0.00000  0.00000 -10.00000
C  2.84000  0.00000 -10.00000
C  0.71000  1.22976 -10.00000
C  2.13000  1.22976 -10.00000
C  0.00000  0.00000  0.00000
C  2.84000  0.00000  0.00000
C  0.71000  1.22976  0.00000
C  2.13000  1.22976  0.00000
C  0.00000  0.00000 10.00000
C  2.84000  0.00000 10.00000
C  0.71000  1.22976 10.00000
C  2.13000  1.22976 10.00000
C  0.00000  2.45951 -10.00000
C  2.84000  2.45951 -10.00000
C  0.71000  3.68927 -10.00000
C  2.13000  3.68927 -10.00000
C  0.00000  2.45951  0.00000
C  2.84000  2.45951  0.00000
C  0.71000  3.68927  0.00000
C  2.13000  3.68927  0.00000
C  0.00000  2.45951 10.00000
C  2.84000  2.45951 10.00000
C  0.71000  3.68927 10.00000
C  2.13000  3.68927 10.00000
C  4.26000 -2.45951 -10.00000
C  7.10000 -2.45951 -10.00000
C  4.97000 -1.22976 -10.00000
C  6.39000 -1.22976 -10.00000
C  4.26000 -2.45951  0.00000
C  7.10000 -2.45951  0.00000
C  4.97000 -1.22976  0.00000
C  6.39000 -1.22976  0.00000
C  4.26000 -2.45951 10.00000
C  7.10000 -2.45951 10.00000
C  4.97000 -1.22976 10.00000
C  6.39000 -1.22976 10.00000
C  4.26000  0.00000 -10.00000
C  7.10000  0.00000 -10.00000
C  4.97000  1.22976 -10.00000
C  6.39000  1.22976 -10.00000
C  4.26000  0.00000  0.00000
C  7.10000  0.00000  0.00000
C  4.97000  1.22976  0.00000
C  6.39000  1.22976  0.00000
C  4.26000  0.00000 10.00000
C  7.10000  0.00000 10.00000
C  4.97000  1.22976 10.00000
C  6.39000  1.22976 10.00000
C  4.26000  2.45951 -10.00000
C  7.10000  2.45951 -10.00000
C  4.97000  3.68927 -10.00000
C  6.39000  3.68927 -10.00000
C  4.26000  2.45951  0.00000
C  7.10000  2.45951  0.00000
C  4.97000  3.68927  0.00000
C  6.39000  3.68927  0.00000
C  4.26000  2.45951 10.00000
C  7.10000  2.45951 10.00000
C  4.97000  3.68927 10.00000
C  6.39000  3.68927 10.00000
