216 

Si    0.72888   0.67888   0.67888   0.013631497229583   0.000002001508723   0.000002001633776
Si    3.39437   0.67888   3.39437  -0.000195062195744   0.000124674060821  -0.000201385158627
Si    0.67888   3.39437   3.39437   0.000433613928526  -0.000118049905553  -0.000118379215562
Si    3.39437   3.39437   0.67888  -0.000195098226725  -0.000201497826508   0.000125084703572
Si    4.75213   2.03662   2.03662   0.000008528812095   0.000027583008424   0.000027703915297
Si    4.75213   4.75213   4.75213   0.000015183944666   0.000008182063991   0.000008179270825
Si    2.03662   2.03662   4.75213   0.000034201425892  -0.000037162271315   0.000036357298889
Si    2.03662   4.75213   2.03662   0.000034100557565   0.000036445483108  -0.000037241416595
Si    0.67888   0.67888   6.10987  -0.000020657478717   0.000002865319146   0.000000639575879
Si    3.39437   0.67888   8.82538  -0.000019862485535   0.000008157645020   0.000008160492003
Si    0.67888   3.39437   8.82538  -0.000005492629489  -0.000008080976621   0.000010810305890
Si    3.39437   3.39437   6.10987  -0.000016814592299   0.000020982214532  -0.000003350428606
Si    4.75213   2.03662   7.46762  -0.000000012481568  -0.000007640595316  -0.000000924032450
Si    4.75213   4.75213  10.18313   0.000003069803436  -0.000019389309376  -0.000004684409091
Si    2.03662   2.03662  10.18313   0.000016305334364   0.000000110291966   0.000002748970339
Si    2.03662   4.75213   7.46762   0.000010341305748  -0.000005955090483   0.000007312152226
Si    0.67888   0.67888  11.54087  -0.000015370085998   0.000008186793451  -0.000007929549694
Si    3.39437   0.67888  14.25638  -0.000189138527484  -0.000112700094984   0.000191716148951
Si    0.67888   3.39437  14.25638   0.000432168683698   0.000113040277165  -0.000117147220258
Si    3.39437   3.39437  11.54087  -0.000022187293527   0.000016445256096   0.000003309574065
Si    4.75213   2.03662  12.89863  -0.000016975839801   0.000054663253118   0.000024688447773
Si    4.75213   4.75213  15.61412  -0.000010845137532  -0.000012843137183  -0.000064391463805
Si    2.03662   2.03662  15.61412  -0.003409351499940  -0.002468379999939   0.002461238057835
Si    2.03662   4.75213  12.89863  -0.000177938707025   0.000057691095885  -0.000051981024202
Si    0.67888   6.10987   0.67888  -0.000020495623263   0.000000650391109   0.000002888493654
Si    3.39437   6.10987   3.39437  -0.000016846214287  -0.000003358715678   0.000020964705652
Si    0.67888   8.82538   3.39437  -0.000005641389020   0.000010755001273  -0.000008079796693
Si    3.39437   8.82538   0.67888  -0.000019774385215   0.000008156367865   0.000008161532153
Si    4.75213   7.46762   2.03662  -0.000000001035512  -0.000000909689207  -0.000007645582150
Si    4.75213  10.18313   4.75213   0.000003190724949  -0.000004692176452  -0.000019381568713
Si    2.03662   7.46762   4.75213   0.000010346891925   0.000007286598510  -0.000005919877550
Si    2.03662  10.18313   2.03662   0.000016281704467   0.000002732348961   0.000000284960114
Si    0.67888   6.10987   6.10987   0.000110657304523  -0.000020536075256  -0.000020567791906
Si    3.39437   6.10987   8.82538  -0.000005688607025   0.000014365612574   0.000004395361736
Si    0.67888   8.82538   8.82538   0.000105434282095   0.000008974838793   0.000008956349136
Si    3.39437   8.82538   6.10987  -0.000005682097549   0.000004382354967   0.000014370265917
Si    4.75213   7.46762   7.46762   0.000008934014133  -0.000012505988685  -0.000012506414036
Si    4.75213  10.18313  10.18313   0.000007894196592   0.000004349419467   0.000004345756273
Si    2.03662   7.46762  10.18313  -0.000061816476539  -0.000005671301935  -0.000001444844997
Si    2.03662  10.18313   7.46762  -0.000061816600316  -0.000001449536461  -0.000005682375500
Si    0.67888   6.10987  11.54087   0.000107992460145   0.000019463748290  -0.000023260118877
Si    3.39437   6.10987  14.25638  -0.000021122630909  -0.000011454025065  -0.000024517713635
Si    0.67888   8.82538  14.25638  -0.000010923522188   0.000000275206890   0.000000788896233
Si    3.39437   8.82538  11.54087  -0.000011783409091   0.000007464297724  -0.000024196572504
Si    4.75213   7.46762  12.89863   0.000009271703855  -0.000005158575761   0.000031224339221
Si    4.75213  10.18313  15.61412   0.000000017289673  -0.000001087928056   0.000005627182420
Si    2.03662   7.46762  15.61412   0.000015406988654  -0.000005623870487  -0.000003170397455
Si    2.03662  10.18313  12.89863   0.000009470760387  -0.000010175494132   0.000015931926954
Si    0.67888  11.54087   0.67888  -0.000015236812867  -0.000007930547039   0.000008162719864
Si    3.39437  11.54087   3.39437  -0.000022169720252   0.000003300606789   0.000016351527941
Si    0.67888  14.25638   3.39437   0.000432189492446  -0.000116811389145   0.000113369819508
Si    3.39437  14.25638   0.67888  -0.000189182608616   0.000191805771193  -0.000113116079613
Si    4.75213  12.89863   2.03662  -0.000016949191902   0.000024687509803   0.000054547348220
Si    4.75213  15.61412   4.75213  -0.000010890252698  -0.000064531463085  -0.000012849531086
Si    2.03662  12.89863   4.75213  -0.000177938740242  -0.000051920243327   0.000057741998151
Si    2.03662  15.61412   2.03662  -0.003409349100859   0.002461149760640  -0.002468475964049
Si    0.67888  11.54087   6.10987   0.000107974784421  -0.000023210350270   0.000019506281913
Si    3.39437  11.54087   8.82538  -0.000011772868843  -0.000024216016120   0.000007445722397
Si    0.67888  14.25638   8.82538  -0.000010757672501   0.000000799484601   0.000000236948918
Si    3.39437  14.25638   6.10987  -0.000021136999539  -0.000024610417702  -0.000011466967472
Si    4.75213  12.89863   7.46762   0.000009168486283   0.000031237154855  -0.000005142364102
Si    4.75213  15.61412  10.18313  -0.000000027808418   0.000005640385193  -0.000001092031930
Si    2.03662  12.89863  10.18313   0.000009465309858   0.000015964958599  -0.000010196806841
Si    2.03662  15.61412   7.46762   0.000015430078932  -0.000003000450344  -0.000005636278785
Si    0.67888  11.54087  11.54087   0.000112513173523   0.000011564902611   0.000011615120689
Si    3.39437  11.54087  14.25638  -0.000016819898095   0.000001357114954  -0.000022980414504
Si    0.67888  14.25638  14.25638   0.000431700075616   0.000108982468473   0.000109328814387
Si    3.39437  14.25638  11.54087  -0.000016823502695  -0.000022977338509   0.000001330147609
Si    4.75213  12.89863  12.89863   0.000015184862687   0.000008131013303   0.000008141442119
Si    4.75213  15.61412  15.61412   0.000009493517901  -0.000035701212278  -0.000035826574444
Si    2.03662  12.89863  15.61412   0.000034991937947  -0.000026419531966   0.000034359910643
Si    2.03662  15.61412  12.89863   0.000035091182622   0.000034276391218  -0.000026327786611
Si    6.10987   0.67888   0.67888  -0.000004684785564   0.000002878081209   0.000002874589318
Si    8.82538   0.67888   3.39437   0.000006440684018   0.000005526342275  -0.000008017291872
Si    6.10987   3.39437   3.39437   0.000002871063998  -0.000014372715086  -0.000014374237034
Si    8.82538   3.39437   0.67888   0.000006456306260  -0.000008012414489   0.000005510746769
Si   10.18313   2.03662   2.03662  -0.000001362446017   0.000002681641289   0.000002708353805
Si   10.18313   4.75213   4.75213   0.000000768102225  -0.000000867681691  -0.000000906724680
Si    7.46762   2.03662   4.75213   0.000000597009786   0.000011294093026   0.000004672508087
Si    7.46762   4.75213   2.03662   0.000000630705716   0.000004674381473   0.000011296005114
Si    6.10987   0.67888   6.10987  -0.000004368344993   0.000028318755611  -0.000014472433026
Si    8.82538   0.67888   8.82538   0.000006832191321   0.000008978095148   0.000008956297516
Si    6.10987   3.39437   8.82538  -0.000000573835944   0.000012235390542   0.000001088408460
Si    8.82538   3.39437   6.10987   0.000005871579120  -0.000004461002183   0.000000857799074
Si   10.18313   2.03662   7.46762  -0.000003953943704  -0.000000884591087  -0.000006380737217
Si   10.18313   4.75213  10.18313   0.000005006286150   0.000011508941074  -0.000007287173606
Si    7.46762   2.03662  10.18313  -0.000011372753507   0.000001941320561   0.000001100561530
Si    7.46762   4.75213   7.46762  -0.000003115481244   0.000004010905130  -0.000015434994832
Si    6.10987   0.67888  11.54087  -0.000005242645727  -0.000018305580781   0.000011585984851
Si    8.82538   0.67888  14.25638   0.000001156214650   0.000005503996569   0.000000726112696
Si    6.10987   3.39437  14.25638   0.000002107894762  -0.000011603963398   0.000004464952762
Si    8.82538   3.39437  11.54087   0.000012132889623  -0.000007487596838  -0.000007134539497
Si   10.18313   2.03662  12.89863   0.000003412343102  -0.000010148883698   0.000009080782832
Si   10.18313   4.75213  15.61412   0.000004303224530   0.000000918246915   0.000007270826553
Si    7.46762   2.03662  15.61412  -0.000003982110990  -0.000003803144558   0.000000064542710
Si    7.46762   4.75213  12.89863  -0.000007359559748   0.000012887882742   0.000005008502673
Si    6.10987   6.10987   0.67888  -0.000004483666976  -0.000014485716135   0.000028283047486
Si    8.82538   6.10987   3.39437   0.000005889497769   0.000000851272261  -0.000004468160675
Si    6.10987   8.82538   3.39437  -0.000000582646396   0.000001093829687   0.000012224441482
Si    8.82538   8.82538   0.67888   0.000006786088377   0.000008974785646   0.000008959541488
Si   10.18313   7.46762   2.03662  -0.000003943498134  -0.000006384870054  -0.000000902274474
Si   10.18313  10.18313   4.75213   0.000005000625707  -0.000007275461340   0.000011533301239
Si    7.46762   7.46762   4.75213  -0.000003120147027  -0.000015418300091   0.000003997016254
Si    7.46762  10.18313   2.03662  -0.000011359600127   0.000001090850731   0.000001958719897
Si    6.10987   6.10987   6.10987  -0.000003926950834   0.000003383820338   0.000003383370565
Si    8.82538   6.10987   8.82538   0.000001963809598   0.000000843206677   0.000002878907486
Si    6.10987   8.82538   8.82538  -0.000000921274849   0.000002889309781   0.000002885036628
Si    8.82538   8.82538   6.10987   0.000001953566187   0.000002852852678   0.000000837836841
Si   10.18313   7.46762   7.46762  -0.000001931129205  -0.000002006850546  -0.000002024921124
Si   10.18313  10.18313  10.18313  -0.000001056039600  -0.000000882583203  -0.000000860329312
Si    7.46762   7.46762  10.18313  -0.000003879772190  -0.000003818532028   0.000000054062431
Si    7.46762  10.18313   7.46762  -0.000003896934523   0.000000070763849  -0.000003809144788
Si    6.10987   6.10987  11.54087  -0.000003809686970   0.000003478731078  -0.000010593161259
Si    8.82538   6.10987  14.25638   0.000010274158646  -0.000001821123031  -0.000001481301711
Si    6.10987   8.82538  14.25638   0.000000293664472   0.000008916193851  -0.000015110978701
Si    8.82538   8.82538  11.54087   0.000007238155142   0.000008177218559  -0.000008129500618
Si   10.18313   7.46762  12.89863   0.000005875113990   0.000004386262421  -0.000001522021904
Si   10.18313  10.18313  15.61412  -0.000003943398227  -0.000000734330031  -0.000006227806777
Si    7.46762   7.46762  15.61412  -0.000013219126180  -0.000010066731186  -0.000010916928216
Si    7.46762  10.18313  12.89863   0.000002147484300   0.000008135028382   0.000007051443187
Si    6.10987  11.54087   0.67888  -0.000005357485249   0.000011595105459  -0.000018268460427
Si    8.82538  11.54087   3.39437   0.000012131704394  -0.000007154208829  -0.000007474116531
Si    6.10987  14.25638   3.39437   0.000002108061627   0.000004485808945  -0.000011589417560
Si    8.82538  14.25638   0.67888   0.000001188956170   0.000000730966903   0.000005536698785
Si   10.18313  12.89863   2.03662   0.000003428608430   0.000009091261008  -0.000010157908900
Si   10.18313  15.61412   4.75213   0.000004287273865   0.000007257528475   0.000000930856658
Si    7.46762  12.89863   4.75213  -0.000007359660858   0.000005059835886   0.000012902200772
Si    7.46762  15.61412   2.03662  -0.000003964674282   0.000000052471227  -0.000003822451047
Si    6.10987  11.54087   6.10987  -0.000003809608777  -0.000010599619972   0.000003465897221
Si    8.82538  11.54087   8.82538   0.000007231161723  -0.000008125165754   0.000008168207387
Si    6.10987  14.25638   8.82538   0.000000302416650  -0.000015125994801   0.000008923817143
Si    8.82538  14.25638   6.10987   0.000010275321639  -0.000001486274492  -0.000001822279491
Si   10.18313  12.89863   7.46762   0.000005880832022  -0.000001499835013   0.000004402271304
Si   10.18313  15.61412  10.18313  -0.000003953754829  -0.000006238932855  -0.000000744870779
Si    7.46762  12.89863  10.18313   0.000002169387356   0.000007020560406   0.000008142017162
Si    7.46762  15.61412   7.46762  -0.000013232401678  -0.000010917843009  -0.000010057978975
Si    6.10987  11.54087  11.54087  -0.000003053124122  -0.000006273041250  -0.000006268310455
Si    8.82538  11.54087  14.25638   0.000005870559780  -0.000004598869595   0.000000710875645
Si    6.10987  14.25638  14.25638   0.000002004427711   0.000011476190202   0.000011482032753
Si    8.82538  14.25638  11.54087   0.000005887116509   0.000000710993919  -0.000004612759285
Si   10.18313  12.89863  12.89863   0.000000770395270   0.000006651425290   0.000006682018835
Si   10.18313  15.61412  15.61412  -0.000002235754964  -0.000005570130090  -0.000005592481727
Si    7.46762  12.89863  15.61412  -0.000004653864411   0.000006355269860  -0.000018588765416
Si    7.46762  15.61412  12.89863  -0.000004670577730  -0.000018577220686   0.000006374277546
Si   11.54087   0.67888   0.67888  -0.000013430614802   0.000008148472336   0.000008152484568
Si   14.25638   0.67888   3.39437  -0.000179302640946   0.000112581918318   0.000182479636290
Si   11.54087   3.39437   3.39437  -0.000006631935056  -0.000003526894967  -0.000003550693252
Si   14.25638   3.39437   0.67888  -0.000179335754423   0.000182550570401   0.000112988501212
Si   15.61412   2.03662   2.03662  -0.003262986980029   0.002166834639503   0.002166947010899
Si   15.61412   4.75213   4.75213  -0.000180887504744  -0.000045690669296  -0.000045774336343
Si   12.89863   2.03662   4.75213  -0.000014360063627  -0.000055144878417   0.000022776014946
Si   12.89863   4.75213   2.03662  -0.000014319681723   0.000022767736479  -0.000055021735165
Si   11.54087   0.67888   6.10987  -0.000006655290733   0.000022729988766   0.000013096739550
Si   14.25638   0.67888   8.82538  -0.000011135300381   0.000002890961865   0.000002884729821
Si   11.54087   3.39437   8.82538  -0.000008759386083  -0.000024312326230   0.000007223307489
Si   14.25638   3.39437   6.10987  -0.000014146450258  -0.000031373778798   0.000011736245736
Si   15.61412   2.03662   7.46762   0.000013584900546  -0.000001241339457  -0.000000010428099
Si   15.61412   4.75213  10.18313   0.000006422350572   0.000011814133545   0.000011218622518
Si   12.89863   2.03662  10.18313   0.000004465232830   0.000009196683387   0.000001799827580
Si   12.89863   4.75213   7.46762   0.000009166369407   0.000031444546618  -0.000012883228496
Si   11.54087   0.67888  11.54087  -0.000012754781049  -0.000010878013579  -0.000022918178781
Si   14.25638   0.67888  14.25638  -0.000178485632773  -0.000102463356134  -0.000185407101376
Si   11.54087   3.39437  14.25638  -0.000001003332949   0.000008819389027  -0.000010828624398
Si   14.25638   3.39437  11.54087  -0.000013387838642  -0.000027760385028  -0.000007716694174
Si   15.61412   2.03662  12.89863   0.000029299338152   0.000040267871354   0.000029996739278
Si   15.61412   4.75213  15.61412   0.000023874973092  -0.000019102131498  -0.000047606527700
Si   12.89863   2.03662  15.61412   0.000005118814042  -0.000027794067090   0.000025945397178
Si   12.89863   4.75213  12.89863   0.000015162347916   0.000008323631649   0.000007996910409
Si   11.54087   6.10987   0.67888  -0.000006777116321   0.000013103426356   0.000022701677765
Si   14.25638   6.10987   3.39437  -0.000014130521320   0.000011722188124  -0.000031300651731
Si   11.54087   8.82538   3.39437  -0.000008768732596   0.000007242235591  -0.000024281459450
Si   14.25638   8.82538   0.67888  -0.000011051587616   0.000002889008763   0.000002886618978
Si   15.61412   7.46762   2.03662   0.000013591706082  -0.000000014859743  -0.000001429357850
Si   15.61412  10.18313   4.75213   0.000006404879709   0.000011201360580   0.000011795772777
Si   12.89863   7.46762   4.75213   0.000009265932474  -0.000012904774093   0.000031433725647
Si   12.89863  10.18313   2.03662   0.000004490361126   0.000001801629893   0.000009191567621
Si   11.54087   6.10987   6.10987  -0.000010947597612  -0.000003424832501  -0.000003413561422
Si   14.25638   6.10987   8.82538  -0.000002618312633  -0.000015197982038   0.000008675232928
Si   11.54087   8.82538   8.82538  -0.000009858296456   0.000008157066875   0.000008161176083
Si   14.25638   8.82538   6.10987  -0.000002628935316   0.000008669038771  -0.000015197299637
Si   15.61412   7.46762   7.46762  -0.000070097861483  -0.000010400382824  -0.000010376438135
Si   15.61412  10.18313  10.18313  -0.000068234285461   0.000001422500126   0.000001417016199
Si   12.89863   7.46762  10.18313   0.000003453048941   0.000001348848988  -0.000003349111634
Si   12.89863  10.18313   7.46762   0.000003470235936  -0.000003348140450   0.000001331216284
Si   11.54087   6.10987  11.54087  -0.000006664768682  -0.000002627926083   0.000000616244691
Si   14.25638   6.10987  14.25638  -0.000014278465980   0.000004845332177   0.000024881044237
Si   11.54087   8.82538  14.25638  -0.000002667129150   0.000004604996067   0.000014455110609
Si   14.25638   8.82538  11.54087  -0.000003504069464   0.000001340252626   0.000012309271298
Si   15.61412   7.46762  12.89863   0.000001137892308  -0.000018484835703  -0.000000747669625
Si   15.61412  10.18313  15.61412   0.000013574510267  -0.000003733843538  -0.000002330932083
Si   12.89863   7.46762  15.61412   0.000005526316467  -0.000009957152043  -0.000017353883897
Si   12.89863  10.18313  12.89863   0.000003189505689   0.000003059093104  -0.000019591645317
Si   11.54087  11.54087   0.67888  -0.000012858982028  -0.000022948949908  -0.000010855165014
Si   14.25638  11.54087   3.39437  -0.000013401712252  -0.000007735924475  -0.000027760524828
Si   11.54087  14.25638   3.39437  -0.000001020611798  -0.000010815636352   0.000008813763461
Si   14.25638  14.25638   0.67888  -0.000178511386752  -0.000185483223844  -0.000102867673779
Si   15.61412  12.89863   2.03662   0.000029149941647   0.000030080630354   0.000040343420165
Si   15.61412  15.61412   4.75213   0.000024040857655  -0.000047527342967  -0.000019001554354
Si   12.89863  12.89863   4.75213   0.000015161990459   0.000007989521665   0.000008324730021
Si   12.89863  15.61412   2.03662   0.000005102264919   0.000025846435600  -0.000027912085841
Si   11.54087  11.54087   6.10987  -0.000006647508764   0.000000630188905  -0.000002632509255
Si   14.25638  11.54087   8.82538  -0.000003493408053   0.000012305640421   0.000001336265312
Si   11.54087  14.25638   8.82538  -0.000002675094109   0.000014461889653   0.000004618371909
Si   14.25638  14.25638   6.10987  -0.000014266229283   0.000024876052664   0.000004830592331
Si   15.61412  12.89863   7.46762   0.000001138208998  -0.000000782875382  -0.000018511769451
Si   15.61412  15.61412  10.18313   0.000013603553736  -0.000002511461122  -0.000003745622024
Si   12.89863  12.89863  10.18313   0.000003073397860  -0.000019596296059   0.000003061866071
Si   12.89863  15.61412   7.46762   0.000005500632844  -0.000017354992197  -0.000009959620744
Si   11.54087  11.54087  11.54087  -0.000011984497068  -0.000004731384297  -0.000004746766841
Si   14.25638  11.54087  14.25638  -0.000014137779144  -0.000018839090299   0.000024175844408
Si   11.54087  14.25638  14.25638  -0.000005601249562  -0.000004638635482  -0.000004618867806
Si   14.25638  14.25638  11.54087  -0.000014151559461   0.000024256989625  -0.000018859880855
Si   15.61412  12.89863  12.89863  -0.000180892686384   0.000063663308627   0.000063710554190
Si   15.61412  15.61412  15.61412  -0.003264902662245  -0.002175711568745  -0.002175811248464
Si   12.89863  12.89863  15.61412  -0.000008193512616  -0.000010909874623   0.000045152466254
Si   12.89863  15.61412  12.89863  -0.000008250868220   0.000045251076349  -0.000010923355023
