360 

Si    0.00000   0.00000   0.00000  -0.000115693754771  -0.000115693754492  -0.000002942809289
Si    1.35775   1.35775   1.35775   0.000114532377196   0.000114532371766  -0.000012706966355
Si    2.71550   2.71550   0.00000  -0.000115693752963  -0.000115693751760  -0.000002942810988
Si    4.07325   4.07325   1.35775   0.000114532376768   0.000114532374022  -0.000012706967525
Si    5.43100   5.43100   0.00000  -0.000115693754691  -0.000115693752450  -0.000002942812876
Si    6.78875   6.78875   1.35775   0.000114532373929   0.000114532372815  -0.000012706966621
Si    8.14650   8.14650   0.00000  -0.000115693754423  -0.000115693754999  -0.000002942810601
Si    9.50425   9.50425   1.35775   0.000114532374813   0.000114532373964  -0.000012706966263
Si   10.86200  10.86200   0.00000  -0.000115693754795  -0.000115693755522  -0.000002942811014
Si   12.21975  12.21975   1.35775   0.000114532375425   0.000114532370402  -0.000012706963404
Si    2.71550   0.00000   2.71550  -0.000102256457838  -0.000117386014380   0.000007307150901
Si    4.07325   1.35775   4.07325   0.000113222308117   0.000126812958171  -0.000006196147467
Si    5.43100   2.71550   2.71550  -0.000102256456186  -0.000117386010002   0.000007307148668
Si    6.78875   4.07325   4.07325   0.000113222305831   0.000126812955610  -0.000006196143733
Si    8.14650   5.43100   2.71550  -0.000102256457375  -0.000117386015974   0.000007307154392
Si    9.50425   6.78875   4.07325   0.000113222308883   0.000126812955620  -0.000006196146902
Si   10.86200   8.14650   2.71550  -0.000102256457097  -0.000117386015452   0.000007307152372
Si   12.21975   9.50425   4.07325   0.000113222306162   0.000126812950295  -0.000006196140614
Si   13.57750  10.86200   2.71550  -0.000102256457675  -0.000117386019094   0.000007307154879
Si   14.93525  12.21975   4.07325   0.000113222306371   0.000126812955470  -0.000006196141095
Si    5.43100   0.00000   5.43100  -0.000117787455188  -0.000119995417487  -0.000000842866846
Si    6.78875   1.35775   6.78875   0.000118222816136   0.000118515855096  -0.000008067331189
Si    8.14650   2.71550   5.43100  -0.000117787452285  -0.000119995421710  -0.000000842871168
Si    9.50425   4.07325   6.78875   0.000119103399470   0.000119398749869  -0.000008067332414
Si   10.86200   5.43100   5.43100  -0.000117787455764  -0.000119995422835  -0.000000842867534
Si   12.21975   6.78875   6.78875   0.000119103399223   0.000119398744317  -0.000008067330715
Si   13.57750   8.14650   5.43100  -0.000117787459505  -0.000119995424235  -0.000000842865182
Si   14.93525   9.50425   6.78875   0.000119103398818   0.000119398742975  -0.000008067330211
Si   16.29300  10.86200   5.43100  -0.000117787457611  -0.000119995423992  -0.000000842868899
Si   17.65075  12.21975   6.78875   0.000119103399016   0.000119398747903  -0.000008067334237
Si    8.14650   0.00000   8.14650  -0.000116576426729  -0.000116576424242  -0.000002942813288
Si    9.50425   1.35775   9.50425   0.000113648636476   0.000113648630896  -0.000012706963875
Si   10.86200   2.71550   8.14650  -0.000116576429530  -0.000116576428596  -0.000002942808893
Si   12.21975   4.07325   9.50425   0.000113648636707   0.000113648631496  -0.000012706964394
Si   13.57750   5.43100   8.14650  -0.000116576428551  -0.000116576427095  -0.000002942810730
Si   14.93525   6.78875   9.50425   0.000113648633452   0.000113648633119  -0.000012706961355
Si   16.29300   8.14650   8.14650  -0.000116569912316  -0.000116569915609  -0.000002942808077
Si   17.65075   9.50425   9.50425   0.000113648636724   0.000113648630774  -0.000012706969557
Si   19.00850  10.86200   8.14650  -0.000116576427842  -0.000116576425838  -0.000002942808835
Si   20.36625  12.21975   9.50425   0.000113648637656   0.000113648635137  -0.000012706967096
Si   10.86200   0.00000  10.86200  -0.000102256454835  -0.000117386016089   0.000007307153774
Si   12.21975   1.35775  12.21975   0.000113222309751   0.000126812953005  -0.000006196138686
Si   13.57750   2.71550  10.86200  -0.000102256455082  -0.000117386017384   0.000007307154915
Si   14.93525   4.07325  12.21975   0.000113222307730   0.000126812958294  -0.000006196144701
Si   16.29300   5.43100  10.86200  -0.000102256459214  -0.000117386017875   0.000007307152960
Si   17.65075   6.78875  12.21975   0.000113222305202   0.000126812951978  -0.000006196141374
Si   19.00850   8.14650  10.86200  -0.000102256457269  -0.000117386013788   0.000007307150553
Si   20.36625   9.50425  12.21975   0.000113222305289   0.000126812958835  -0.000006196146030
Si   21.72400  10.86200  10.86200  -0.000102256458130  -0.000117386008916   0.000007307148149
Si   23.08175  12.21975  12.21975   0.000113222307603   0.000126812950100  -0.000006196137532
Si   13.57750   0.00000  13.57750  -0.000117787458411  -0.000119995423606  -0.000000842865075
Si   14.93525   1.35775  14.93525   0.000119103778833   0.000119399201142  -0.000008067334493
Si   16.29300   2.71550  13.57750  -0.000117787455375  -0.000119995422186  -0.000000842866413
Si   17.65075   4.07325  14.93525   0.000119103778713   0.000119399197237  -0.000008067328054
Si   19.00850   5.43100  13.57750  -0.000117787459634  -0.000119995421899  -0.000000842868760
Si   20.36625   6.78875  14.93525   0.000119103778091   0.000119399199852  -0.000008067333050
Si   21.72400   8.14650  13.57750  -0.000117787456952  -0.000119995420744  -0.000000842869710
Si   23.08175   9.50425  14.93525   0.000119103778384   0.000119399197773  -0.000008067328448
Si   24.43950  10.86200  13.57750  -0.000117787458773  -0.000119995425424  -0.000000842865604
Si   25.79725  12.21975  14.93525   0.000119103776995   0.000119399197033  -0.000008067331103
Si    0.00000   2.71550   2.71550  -0.000117386015480  -0.000102256464029   0.000007307156972
Si    1.35775   4.07325   4.07325   0.000126812960812   0.000113222307559  -0.000006196143812
Si    2.71550   5.43100   2.71550  -0.000117386016999  -0.000102256459947   0.000007307151221
Si    4.07325   6.78875   4.07325   0.000126812957714   0.000113222308250  -0.000006196145569
Si    5.43100   8.14650   2.71550  -0.000117386018786  -0.000102256462238   0.000007307154315
Si    6.78875   9.50425   4.07325   0.000126812958499   0.000113222304934  -0.000006196142830
Si    8.14650  10.86200   2.71550  -0.000117386020060  -0.000102256460463   0.000007307153947
Si    9.50425  12.21975   4.07325   0.000126812957831   0.000113222308028  -0.000006196145226
Si   10.86200  13.57750   2.71550  -0.000117386018074  -0.000102256461418   0.000007307154673
Si   12.21975  14.93525   4.07325   0.000126812957944   0.000113222308249  -0.000006196145585
Si    2.71550   2.71550   5.43100  -0.000115998388366  -0.000115998387127   0.000000122807874
Si    4.07325   4.07325   6.78875   0.000108974086481   0.000108974084638  -0.000015849725180
Si    5.43100   5.43100   5.43100  -0.000115998387390  -0.000115998390493   0.000000122810260
Si    6.78875   6.78875   6.78875   0.000108974084555   0.000108974077808  -0.000015849716919
Si    8.14650   8.14650   5.43100  -0.000115998385736  -0.000115998392133   0.000000122811365
Si    9.50425   9.50425   6.78875   0.000108974085178   0.000108974084084  -0.000015849721716
Si   10.86200  10.86200   5.43100  -0.000115998388104  -0.000115998389328   0.000000122808791
Si   12.21975  12.21975   6.78875   0.000108974084164   0.000108974084207  -0.000015849725533
Si   13.57750  13.57750   5.43100  -0.000115998391385  -0.000115998392287   0.000000122809256
Si   14.93525  14.93525   6.78875   0.000108974081157   0.000108974080040  -0.000015849720635
Si    5.43100   2.71550   8.14650  -0.000120544012589  -0.000111343624002   0.000005846039854
Si    6.78875   4.07325   9.50425   0.000125549149089   0.000112305155356  -0.000002605014083
Si    8.14650   5.43100   8.14650  -0.000120544016768  -0.000111343626018   0.000005846039833
Si    9.50425   6.78875   9.50425   0.000125549146734   0.000112305157033  -0.000002605018218
Si   10.86200   8.14650   8.14650  -0.000120544013091  -0.000111343625448   0.000005846038575
Si   12.21975   9.50425   9.50425   0.000125549147846   0.000112305158302  -0.000002605016217
Si   13.57750  10.86200   8.14650  -0.000120544012597  -0.000111343625673   0.000005846039317
Si   14.93525  12.21975   9.50425   0.000125549149603   0.000112305154907  -0.000002605012816
Si   16.29300  13.57750   8.14650  -0.000120544015076  -0.000111343623287   0.000005846036834
Si   17.65075  14.93525   9.50425   0.000125549146200   0.000112305159182  -0.000002605017841
Si    8.14650   2.71550  10.86200  -0.000117386014639  -0.000102256461365   0.000007307157838
Si    9.50425   4.07325  12.21975   0.000126812934701   0.000113222312670  -0.000006196150535
Si   10.86200   5.43100  10.86200  -0.000117386012779  -0.000102256459511   0.000007307155033
Si   12.21975   6.78875  12.21975   0.000126812960677   0.000113222308674  -0.000006196147738
Si   13.57750   8.14650  10.86200  -0.000117386017095  -0.000102256458231   0.000007307152205
Si   14.93525   9.50425  12.21975   0.000126812957436   0.000113222306355  -0.000006196146717
Si   16.29300  10.86200  10.86200  -0.000117386012844  -0.000102256463649   0.000007307157650
Si   17.65075  12.21975  12.21975   0.000126812960842   0.000113222309583  -0.000006196146416
Si   19.00850  13.57750  10.86200  -0.000117386015425  -0.000102256460467   0.000007307150711
Si   20.36625  14.93525  12.21975   0.000126812957758   0.000113222307537  -0.000006196146274
Si   10.86200   2.71550  13.57750  -0.000115115713214  -0.000115115709186   0.000000122800091
Si   12.21975   4.07325  14.93525   0.000108974085112   0.000108974086889  -0.000015849726733
Si   13.57750   5.43100  13.57750  -0.000115115714097  -0.000115115712347   0.000000122804423
Si   14.93525   6.78875  14.93525   0.000108974086201   0.000108974084816  -0.000015849722495
Si   16.29300   8.14650  13.57750  -0.000115998391257  -0.000115998393224   0.000000122810776
Si   17.65075   9.50425  14.93525   0.000108974083538   0.000108974086627  -0.000015849725643
Si   19.00850  10.86200  13.57750  -0.000115115715832  -0.000115115712219   0.000000122806312
Si   20.36625  12.21975  14.93525   0.000108974086484   0.000108974083473  -0.000015849723392
Si   21.72400  13.57750  13.57750  -0.000115115715221  -0.000115115717280   0.000000122806596
Si   23.08175  14.93525  14.93525   0.000108974066372   0.000108974081524  -0.000015849720942
Si   13.57750   2.71550  16.29300  -0.000120544013213  -0.000111343620377   0.000005846035412
Si   14.93525   4.07325  17.65075   0.000125545664081   0.000112301076560  -0.000002605015916
Si   16.29300   5.43100  16.29300  -0.000120544013177  -0.000111343624532   0.000005846037682
Si   17.65075   6.78875  17.65075   0.000125545663714   0.000112301074463  -0.000002605014918
Si   19.00850   8.14650  16.29300  -0.000120544011983  -0.000111343620859   0.000005846036402
Si   20.36625   9.50425  17.65075   0.000125545663292   0.000112301078451  -0.000002605015117
Si   21.72400  10.86200  16.29300  -0.000120544012412  -0.000111343624769   0.000005846038470
Si   23.08175  12.21975  17.65075   0.000125545663999   0.000112301074382  -0.000002605015152
Si   24.43950  13.57750  16.29300  -0.000120544010726  -0.000111343620451   0.000005846036081
Si   25.79725  14.93525  17.65075   0.000125545663129   0.000112301074183  -0.000002605015073
Si    0.00000   5.43100   5.43100  -0.000119995421921  -0.000117787458652  -0.000000842866971
Si    1.35775   6.78875   6.78875   0.000119398752642   0.000119103399945  -0.000008067330525
Si    2.71550   8.14650   5.43100  -0.000119995422462  -0.000117787454544  -0.000000842868142
Si    4.07325   9.50425   6.78875   0.000119398752642   0.000119103402144  -0.000008067332297
Si    5.43100  10.86200   5.43100  -0.000119995421822  -0.000117787455819  -0.000000842864702
Si    6.78875  12.21975   6.78875   0.000119398754295   0.000119103404102  -0.000008067334758
Si    8.14650  13.57750   5.43100  -0.000119995420706  -0.000117787453030  -0.000000842870342
Si    9.50425  14.93525   6.78875   0.000119398753555   0.000119103398956  -0.000008067330442
Si   10.86200  16.29300   5.43100  -0.000119995423650  -0.000117787456016  -0.000000842866745
Si   12.21975  17.65075   6.78875   0.000119398752631   0.000119103402450  -0.000008067332628
Si    2.71550   5.43100   8.14650  -0.000111343618983  -0.000120544015620   0.000005846039368
Si    4.07325   6.78875   9.50425   0.000112305154899   0.000125549146530  -0.000002605013057
Si    5.43100   8.14650   8.14650  -0.000111343624311  -0.000120544014114   0.000005846035981
Si    6.78875   9.50425   9.50425   0.000112305152969   0.000125549148026  -0.000002605016817
Si    8.14650  10.86200   8.14650  -0.000111343621972  -0.000120544008254   0.000005846030983
Si    9.50425  12.21975   9.50425   0.000112305155955   0.000125549139044  -0.000002605007828
Si   10.86200  13.57750   8.14650  -0.000111343618291  -0.000120544014530   0.000005846040111
Si   12.21975  14.93525   9.50425   0.000112305156415   0.000125549147099  -0.000002605016528
Si   13.57750  16.29300   8.14650  -0.000111343622473  -0.000120544012900   0.000005846038575
Si   14.93525  17.65075   9.50425   0.000112305155424   0.000125549139566  -0.000002605010408
Si    5.43100   5.43100  10.86200  -0.000113051119555  -0.000113051120671   0.000012432085286
Si    6.78875   6.78875  12.21975   0.000122327685904   0.000122327681454   0.000002651873009
Si    8.14650   8.14650  10.86200  -0.000113051119409  -0.000113051115963   0.000012432084304
Si    9.50425   9.50425  12.21975   0.000122327683123   0.000122327679082   0.000002651875030
Si   10.86200  10.86200  10.86200  -0.000113051121073  -0.000113051121271   0.000012432087510
Si   12.21975  12.21975  12.21975   0.000122327682171   0.000122327683238   0.000002651871293
Si   13.57750  13.57750  10.86200  -0.000113051118960  -0.000113051119555   0.000012432086772
Si   14.93525  14.93525  12.21975   0.000122327683098   0.000122327678788   0.000002651875749
Si   16.29300  16.29300  10.86200  -0.000113051120267  -0.000113051120942   0.000012432089127
Si   17.65075  17.65075  12.21975   0.000122327685278   0.000122327682646   0.000002651868880
Si    8.14650   5.43100  13.57750  -0.000119995416384  -0.000117787456781  -0.000000842865070
Si    9.50425   6.78875  14.93525   0.000118515854556   0.000118222815435  -0.000008067333147
Si   10.86200   8.14650  13.57750  -0.000119995413563  -0.000117787453531  -0.000000842864960
Si   12.21975   9.50425  14.93525   0.000118515857576   0.000118222816111  -0.000008067333288
Si   13.57750  10.86200  13.57750  -0.000119995416015  -0.000117787449415  -0.000000842867080
Si   14.93525  12.21975  14.93525   0.000118515857494   0.000118222816166  -0.000008067334580
Si   16.29300  13.57750  13.57750  -0.000119995414071  -0.000117787449985  -0.000000842870807
Si   17.65075  14.93525  14.93525   0.000118515856170   0.000118222811976  -0.000008067329616
Si   19.00850  16.29300  13.57750  -0.000119995419723  -0.000117787451800  -0.000000842866936
Si   20.36625  17.65075  14.93525   0.000118515855089   0.000118222815522  -0.000008067331721
Si   10.86200   5.43100  16.29300  -0.000111343622952  -0.000120544014386   0.000005846041158
Si   12.21975   6.78875  17.65075   0.000112305151052   0.000125549145534  -0.000002605015408
Si   13.57750   8.14650  16.29300  -0.000111343623893  -0.000120544009247   0.000005846032909
Si   14.93525   9.50425  17.65075   0.000112305153394   0.000125549146751  -0.000002605017921
Si   16.29300  10.86200  16.29300  -0.000111343621869  -0.000120544007406   0.000005846034933
Si   17.65075  12.21975  17.65075   0.000112305156232   0.000125549138179  -0.000002605007561
Si   19.00850  13.57750  16.29300  -0.000111343617826  -0.000120544013970   0.000005846040763
Si   20.36625  14.93525  17.65075   0.000112305155401   0.000125549145771  -0.000002605015913
Si   21.72400  16.29300  16.29300  -0.000111343622366  -0.000120544011305   0.000005846039515
Si   23.08175  17.65075  17.65075   0.000112305154084   0.000125549142834  -0.000002605015797
Si   13.57750   5.43100  19.00850  -0.000113051119493  -0.000113051116988   0.000012432082575
Si   14.93525   6.78875  20.36625   0.000122327685014   0.000122327683620   0.000002651873407
Si   16.29300   8.14650  19.00850  -0.000113051118968  -0.000113051115875   0.000012432083514
Si   17.65075   9.50425  20.36625   0.000122327683650   0.000122327679950   0.000002651874944
Si   19.00850  10.86200  19.00850  -0.000113051120240  -0.000113051120560   0.000012432087377
Si   20.36625  12.21975  20.36625   0.000122327681473   0.000122327682479   0.000002651869932
Si   21.72400  13.57750  19.00850  -0.000113047852981  -0.000113047853531   0.000012432086332
Si   23.08175  14.93525  20.36625   0.000122327681177   0.000122327678563   0.000002651873051
Si   24.43950  16.29300  19.00850  -0.000113047852540  -0.000113047854040   0.000012432087452
Si   25.79725  17.65075  20.36625   0.000122327685557   0.000122327680460   0.000002651871922
Si    0.00000   8.14650   8.14650  -0.000117452591331  -0.000117452587716  -0.000002942809615
Si    1.35775   9.50425   9.50425   0.000113648658106   0.000113648628431  -0.000012706960585
Si    2.71550  10.86200   8.14650  -0.000117452591464  -0.000117452589482  -0.000002942810184
Si    4.07325  12.21975   9.50425   0.000113648633393   0.000113648632537  -0.000012706966702
Si    5.43100  13.57750   8.14650  -0.000116576421294  -0.000116576424785  -0.000002942806898
Si    6.78875  14.93525   9.50425   0.000113648636313   0.000113648635541  -0.000012706967103
Si    8.14650  16.29300   8.14650  -0.000116576420994  -0.000116576420690  -0.000002942809023
Si    9.50425  17.65075   9.50425   0.000113648637147   0.000113648632159  -0.000012706964960
Si   10.86200  19.00850   8.14650  -0.000117452590257  -0.000117452585883  -0.000002942812689
Si   12.21975  20.36625   9.50425   0.000113648632888   0.000113648632196  -0.000012706965750
Si    2.71550   8.14650  10.86200  -0.000102256434081  -0.000117386014323   0.000007307152372
Si    4.07325   9.50425  12.21975   0.000113222305318   0.000126812955279  -0.000006196143187
Si    5.43100  10.86200  10.86200  -0.000102256460406  -0.000117386017244   0.000007307155756
Si    6.78875  12.21975  12.21975   0.000113222304883   0.000126812956507  -0.000006196145909
Si    8.14650  13.57750  10.86200  -0.000102256458893  -0.000117386010797   0.000007307147540
Si    9.50425  14.93525  12.21975   0.000113222304031   0.000126812952208  -0.000006196140432
Si   10.86200  16.29300  10.86200  -0.000102256455483  -0.000117386011231   0.000007307149505
Si   12.21975  17.65075  12.21975   0.000113222307490   0.000126812958629  -0.000006196143569
Si   13.57750  19.00850  10.86200  -0.000102256457609  -0.000117386014795   0.000007307154343
Si   14.93525  20.36625  12.21975   0.000113222319311   0.000126812963910  -0.000006196151773
Si    5.43100   8.14650  13.57750  -0.000117787450472  -0.000119995416044  -0.000000842866402
Si    6.78875   9.50425  14.93525   0.000118222820063   0.000118515854204  -0.000008067331971
Si    8.14650  10.86200  13.57750  -0.000117787451709  -0.000119995412829  -0.000000842869422
Si    9.50425  12.21975  14.93525   0.000118222818120   0.000118515851126  -0.000008067328402
Si   10.86200  13.57750  13.57750  -0.000117787453146  -0.000119995413398  -0.000000842867992
Si   12.21975  14.93525  14.93525   0.000118222816912   0.000118515855643  -0.000008067334101
Si   13.57750  16.29300  13.57750  -0.000117787450545  -0.000119995416254  -0.000000842867252
Si   14.93525  17.65075  14.93525   0.000118222815442   0.000118515854855  -0.000008067331958
Si   16.29300  19.00850  13.57750  -0.000117787435187  -0.000119995420887  -0.000000842860961
Si   17.65075  20.36625  14.93525   0.000118222818823   0.000118515857018  -0.000008067332269
Si    8.14650   8.14650  16.29300  -0.000116569915706  -0.000116569913554  -0.000002942810942
Si    9.50425   9.50425  17.65075   0.000113648653086   0.000113648623263  -0.000012706960657
Si   10.86200  10.86200  16.29300  -0.000116569914455  -0.000116569916779  -0.000002942811308
Si   12.21975  12.21975  17.65075   0.000113648628688   0.000113648624867  -0.000012706962212
Si   13.57750  13.57750  16.29300  -0.000116569914166  -0.000116569916728  -0.000002942809101
Si   14.93525  14.93525  17.65075   0.000113648629993   0.000113648629316  -0.000012706966993
Si   16.29300  16.29300  16.29300  -0.000116569912647  -0.000116569913246  -0.000002942810370
Si   17.65075  17.65075  17.65075   0.000113648631771   0.000113648626422  -0.000012706964684
Si   19.00850  19.00850  16.29300  -0.000116569915110  -0.000116569911367  -0.000002942813345
Si   20.36625  20.36625  17.65075   0.000113648627250   0.000113648627716  -0.000012706964971
Si   10.86200   8.14650  19.00850  -0.000102256433714  -0.000117386012717   0.000007307153961
Si   12.21975   9.50425  20.36625   0.000113222305174   0.000126812947297  -0.000006196137308
Si   13.57750  10.86200  19.00850  -0.000102256456157  -0.000117386018665   0.000007307157826
Si   14.93525  12.21975  20.36625   0.000113222306192   0.000126812957882  -0.000006196146636
Si   16.29300  13.57750  19.00850  -0.000102256457102  -0.000117386010513   0.000007307148236
Si   17.65075  14.93525  20.36625   0.000113222304208   0.000126812950628  -0.000006196140290
Si   19.00850  16.29300  19.00850  -0.000102256453780  -0.000117386011537   0.000007307149809
Si   20.36625  17.65075  20.36625   0.000113222307536   0.000126812956872  -0.000006196144010
Si   21.72400  19.00850  19.00850  -0.000102256456475  -0.000117386014803   0.000007307154977
Si   23.08175  20.36625  20.36625   0.000113222318361   0.000126812962538  -0.000006196151720
Si   13.57750   8.14650  21.72400  -0.000117785079137  -0.000119992848160  -0.000000842865120
Si   14.93525   9.50425  23.08175   0.000118222815700   0.000118515850716  -0.000008067334707
Si   16.29300  10.86200  21.72400  -0.000117785076438  -0.000119992844065  -0.000000842869590
Si   17.65075  12.21975  23.08175   0.000118222815507   0.000118515847185  -0.000008067328710
Si   19.00850  13.57750  21.72400  -0.000117785078369  -0.000119992844589  -0.000000842868394
Si   20.36625  14.93525  23.08175   0.000118222814356   0.000118515851781  -0.000008067334809
Si   21.72400  16.29300  21.72400  -0.000117785075103  -0.000119992846145  -0.000000842866770
Si   23.08175  17.65075  23.08175   0.000118222812087   0.000118515851958  -0.000008067332031
Si   24.43950  19.00850  21.72400  -0.000117785060675  -0.000119992851291  -0.000000842861150
Si   25.79725  20.36625  23.08175   0.000118222814430   0.000118515851257  -0.000008067329606
Si    0.00000  10.86200  10.86200  -0.000116509689773  -0.000101381132367   0.000007307153169
Si    1.35775  12.21975  12.21975   0.000126812960188   0.000113222309753  -0.000006196144976
Si    2.71550  13.57750  10.86200  -0.000116509687444  -0.000101381135212   0.000007307157653
Si    4.07325  14.93525  12.21975   0.000126812962953   0.000113222311251  -0.000006196146963
Si    5.43100  16.29300  10.86200  -0.000116509687070  -0.000101381134008   0.000007307152492
Si    6.78875  17.65075  12.21975   0.000126812959891   0.000113222309673  -0.000006196146333
Si    8.14650  19.00850  10.86200  -0.000116509687185  -0.000101381136409   0.000007307155491
Si    9.50425  20.36625  12.21975   0.000126812959125   0.000113222310148  -0.000006196145798
Si   10.86200  21.72400  10.86200  -0.000116509687624  -0.000101381134707   0.000007307154606
Si   12.21975  23.08175  12.21975   0.000126812958604   0.000113222309739  -0.000006196146090
Si    2.71550  10.86200  13.57750  -0.000115115714627  -0.000115115717210   0.000000122807885
Si    4.07325  12.21975  14.93525   0.000108974082870   0.000108974084115  -0.000015849724665
Si    5.43100  13.57750  13.57750  -0.000115115714462  -0.000115115709538   0.000000122805138
Si    6.78875  14.93525  14.93525   0.000108974084801   0.000108974083093  -0.000015849724109
Si    8.14650  16.29300  13.57750  -0.000115115714477  -0.000115115714678   0.000000122810738
Si    9.50425  17.65075  14.93525   0.000108974084492   0.000108974083686  -0.000015849724701
Si   10.86200  19.00850  13.57750  -0.000115115714519  -0.000115115715752   0.000000122808796
Si   12.21975  20.36625  14.93525   0.000108974085711   0.000108974083432  -0.000015849725465
Si   13.57750  21.72400  13.57750  -0.000115115714698  -0.000115115716942   0.000000122809340
Si   14.93525  23.08175  14.93525   0.000108974085783   0.000108974083846  -0.000015849723982
Si    5.43100  10.86200  16.29300  -0.000120544014509  -0.000111343621257   0.000005846036125
Si    6.78875  12.21975  17.65075   0.000125549149680   0.000112305156530  -0.000002605015778
Si    8.14650  13.57750  16.29300  -0.000120544013768  -0.000111343624891   0.000005846038728
Si    9.50425  14.93525  17.65075   0.000125549148314   0.000112305155499  -0.000002605016116
Si   10.86200  16.29300  16.29300  -0.000120544012000  -0.000111343623673   0.000005846039144
Si   12.21975  17.65075  17.65075   0.000125549149413   0.000112305156457  -0.000002605015694
Si   13.57750  19.00850  16.29300  -0.000120544013282  -0.000111343625036   0.000005846038975
Si   14.93525  20.36625  17.65075   0.000125549149548   0.000112305156686  -0.000002605016196
Si   16.29300  21.72400  16.29300  -0.000120544012560  -0.000111343625063   0.000005846039193
Si   17.65075  23.08175  17.65075   0.000125549151143   0.000112305156609  -0.000002605017251
Si    8.14650  10.86200  19.00850  -0.000117386017456  -0.000102256458123   0.000007307152808
Si    9.50425  12.21975  20.36625   0.000126812958726   0.000113222306787  -0.000006196145453
Si   10.86200  13.57750  19.00850  -0.000117386016101  -0.000102256460311   0.000007307155352
Si   12.21975  14.93525  20.36625   0.000126812958465   0.000113222307025  -0.000006196145691
Si   13.57750  16.29300  19.00850  -0.000117386015226  -0.000102256462451   0.000007307155428
Si   14.93525  17.65075  20.36625   0.000126812957611   0.000113222307313  -0.000006196145506
Si   16.29300  19.00850  19.00850  -0.000117386014526  -0.000102256462356   0.000007307154799
Si   17.65075  20.36625  20.36625   0.000126812957388   0.000113222307593  -0.000006196145116
Si   19.00850  21.72400  19.00850  -0.000117386015525  -0.000102256460698   0.000007307154936
Si   20.36625  23.08175  20.36625   0.000126812957108   0.000113222306935  -0.000006196146335
Si   10.86200  10.86200  21.72400  -0.000115998388777  -0.000115998389503   0.000000122806677
Si   12.21975  12.21975  23.08175   0.000108974084352   0.000108974082299  -0.000015849723322
Si   13.57750  13.57750  21.72400  -0.000115998391710  -0.000115998390259   0.000000122810024
Si   14.93525  14.93525  23.08175   0.000108974085777   0.000108974083665  -0.000015849727199
Si   16.29300  16.29300  21.72400  -0.000115998391330  -0.000115998390135   0.000000122810921
Si   17.65075  17.65075  23.08175   0.000108974085374   0.000108974082815  -0.000015849726978
Si   19.00850  19.00850  21.72400  -0.000115998390649  -0.000115998391380   0.000000122808497
Si   20.36625  20.36625  23.08175   0.000108974084997   0.000108974083208  -0.000015849725081
Si   21.72400  21.72400  21.72400  -0.000115998390171  -0.000115998392035   0.000000122808847
Si   23.08175  23.08175  23.08175   0.000108974085196   0.000108974083121  -0.000015849724590
Si   13.57750  10.86200  24.43950  -0.000120544012769  -0.000111343622974   0.000005846038635
Si   14.93525  12.21975  25.79725   0.000125549147889   0.000112305158327  -0.000002605015830
Si   16.29300  13.57750  24.43950  -0.000120544013227  -0.000111343624054   0.000005846038189
Si   17.65075  14.93525  25.79725   0.000125549146940   0.000112305158890  -0.000002605016754
Si   19.00850  16.29300  24.43950  -0.000120544012899  -0.000111343622062   0.000005846038987
Si   20.36625  17.65075  25.79725   0.000125549148532   0.000112305156329  -0.000002605016376
Si   21.72400  19.00850  24.43950  -0.000120544012885  -0.000111343625013   0.000005846039836
Si   23.08175  20.36625  25.79725   0.000125549149524   0.000112305156257  -0.000002605016254
Si   24.43950  21.72400  24.43950  -0.000120544012356  -0.000111343625347   0.000005846039362
Si   25.79725  23.08175  25.79725   0.000125549149334   0.000112305156571  -0.000002605018001
Si    0.00000  13.57750  13.57750  -0.000119995417831  -0.000117787452339  -0.000000842867035
Si    1.35775  14.93525  14.93525   0.000118515853735   0.000118222812988  -0.000008067331743
Si    2.71550  16.29300  13.57750  -0.000119995416594  -0.000117787454642  -0.000000842867020
Si    4.07325  17.65075  14.93525   0.000118515854088   0.000118222815011  -0.000008067332651
Si    5.43100  19.00850  13.57750  -0.000119995418681  -0.000117787451874  -0.000000842867150
Si    6.78875  20.36625  14.93525   0.000118515856007   0.000118222815256  -0.000008067331430
Si    8.14650  21.72400  13.57750  -0.000119995418676  -0.000117787452280  -0.000000842866948
Si    9.50425  23.08175  14.93525   0.000118515855745   0.000118222815004  -0.000008067332334
Si   10.86200  24.43950  13.57750  -0.000119995416966  -0.000117787452831  -0.000000842866965
Si   12.21975  25.79725  14.93525   0.000118515855415   0.000118222814640  -0.000008067332408
Si    2.71550  13.57750  16.29300  -0.000111343596420  -0.000120544008791   0.000005846038026
Si    4.07325  14.93525  17.65075   0.000112301075655   0.000125545657136  -0.000002605014219
Si    5.43100  16.29300  16.29300  -0.000111343620779  -0.000120544013423   0.000005846036772
Si    6.78875  17.65075  17.65075   0.000112305154717   0.000125549144309  -0.000002605013120
Si    8.14650  19.00850  16.29300  -0.000111343620895  -0.000120544012676   0.000005846038432
Si    9.50425  20.36625  17.65075   0.000112301072521   0.000125545659490  -0.000002605013517
Si   10.86200  21.72400  16.29300  -0.000111343620312  -0.000120544011677   0.000005846036850
Si   12.21975  23.08175  17.65075   0.000112301073104   0.000125545660378  -0.000002605014232
Si   13.57750  24.43950  16.29300  -0.000111343622680  -0.000120544011466   0.000005846037271
Si   14.93525  25.79725  17.65075   0.000112301073737   0.000125545664452  -0.000002605019007
Si    5.43100  13.57750  19.00850  -0.000113047854222  -0.000113047853884   0.000012432086813
Si    6.78875  14.93525  20.36625   0.000122327683257   0.000122327680767   0.000002651872535
Si    8.14650  16.29300  19.00850  -0.000113047852733  -0.000113047853014   0.000012432086420
Si    9.50425  17.65075  20.36625   0.000122327682930   0.000122327679789   0.000002651874228
Si   10.86200  19.00850  19.00850  -0.000113047853566  -0.000113047854320   0.000012432086529
Si   12.21975  20.36625  20.36625   0.000122327683708   0.000122327681552   0.000002651873220
Si   13.57750  21.72400  19.00850  -0.000113047852032  -0.000113047853936   0.000012432086829
Si   14.93525  23.08175  20.36625   0.000122327681246   0.000122327684243   0.000002651873811
Si   16.29300  24.43950  19.00850  -0.000113051103844  -0.000113051125396   0.000012432090415
Si   17.65075  25.79725  20.36625   0.000122327683991   0.000122327686113   0.000002651870541
Si    8.14650  13.57750  21.72400  -0.000119995417408  -0.000117787450059  -0.000000842866727
Si    9.50425  14.93525  23.08175   0.000118515853818   0.000118222813126  -0.000008067331364
Si   10.86200  16.29300  21.72400  -0.000119995417772  -0.000117787450339  -0.000000842867082
Si   12.21975  17.65075  23.08175   0.000118515856424   0.000118222811378  -0.000008067329909
Si   13.57750  19.00850  21.72400  -0.000119995418643  -0.000117787450390  -0.000000842867814
Si   14.93525  20.36625  23.08175   0.000118515856380   0.000118222810982  -0.000008067329364
Si   16.29300  21.72400  21.72400  -0.000119995418056  -0.000117787452367  -0.000000842866218
Si   17.65075  23.08175  23.08175   0.000118515854351   0.000118222813069  -0.000008067332525
Si   19.00850  24.43950  21.72400  -0.000119995418611  -0.000117787450406  -0.000000842865806
Si   20.36625  25.79725  23.08175   0.000118515853441   0.000118222814179  -0.000008067332836
Si   10.86200  13.57750  24.43950  -0.000111343594307  -0.000120544006109   0.000005846033574
Si   12.21975  14.93525  25.79725   0.000112300992725   0.000125545559633  -0.000002605010266
Si   13.57750  16.29300  24.43950  -0.000111343617452  -0.000120544011490   0.000005846038622
Si   14.93525  17.65075  25.79725   0.000112300994967   0.000125545563456  -0.000002605011494
Si   16.29300  19.00850  24.43950  -0.000111343616690  -0.000120544012758   0.000005846039563
Si   17.65075  20.36625  25.79725   0.000112300993364   0.000125545569967  -0.000002605014698
Si   19.00850  21.72400  24.43950  -0.000111343620090  -0.000120544010636   0.000005846038225
Si   20.36625  23.08175  25.79725   0.000112300993437   0.000125545567122  -0.000002605014998
Si   21.72400  24.43950  24.43950  -0.000111343620733  -0.000120544011025   0.000005846037005
Si   23.08175  25.79725  25.79725   0.000112300989385   0.000125545569008  -0.000002605016807
Si   13.57750  13.57750  27.15500  -0.000113047857204  -0.000113047856058   0.000012432088291
Si   14.93525  14.93525  28.51275   0.000121443627416   0.000121443629111   0.000002651872832
Si   16.29300  16.29300  27.15500  -0.000113047856923  -0.000113047855857   0.000012432088347
Si   17.65075  17.65075  28.51275   0.000121443628945   0.000121443629242   0.000002651870582
Si   19.00850  19.00850  27.15500  -0.000113047853157  -0.000113047855330   0.000012432086337
Si   20.36625  20.36625  28.51275   0.000121443629986   0.000121443630939   0.000002651873320
Si   21.72400  21.72400  27.15500  -0.000113047854520  -0.000113047855049   0.000012432087199
Si   23.08175  23.08175  28.51275   0.000121443629950   0.000121443629070   0.000002651872703
Si   24.43950  24.43950  27.15500  -0.000113047838927  -0.000113047859228   0.000012432091417
Si   25.79725  25.79725  28.51275   0.000121443629665   0.000121443629938   0.000002651875346
