512 

Si    0.67887   0.67888   0.67887   0.000000287813312   0.000000287813408   0.000000281671419
Si    3.39437   0.67888   3.39437  -0.000000301268407   0.000008739324537  -0.000000300158201
Si    0.67887   3.39438   3.39437   0.000008739324156  -0.000000301268477  -0.000000300158493
Si    3.39437   3.39438   0.67887  -0.000000304039722  -0.000000304039674   0.000008743797340
Si    4.75212   2.03662   2.03662   0.000006174472177  -0.000004995965956  -0.000004988076414
Si    4.75212   4.75212   4.75212  -0.000001386634282  -0.000001386634497  -0.000001396132262
Si    2.03662   2.03662   4.75212  -0.000005003824704  -0.000005003824747   0.000006163735149
Si    2.03662   4.75212   2.03662  -0.000004995966132   0.000006174472214  -0.000004988076575
Si    0.67887   0.67888   6.10987  -0.000003885450424  -0.000003885450019   0.000006583501694
Si    3.39437   0.67888   8.82537  -0.000000014679132   0.000003014259853  -0.000002137387211
Si    0.67887   3.39438   8.82537   0.000003014259524  -0.000000014679330  -0.000002137387246
Si    3.39437   3.39438   6.10987   0.000000077409830   0.000000077410071   0.000004295551868
Si    4.75212   2.03662   7.46762   0.000001799718324   0.000008992304129  -0.000003068041867
Si    4.75212   4.75212  10.18313  -0.000002301551846  -0.000002301551813   0.000007467496862
Si    2.03662   2.03662  10.18313  -0.000001858904590  -0.000001858904442   0.000005185812342
Si    2.03662   4.75212   7.46762   0.000008992304011   0.000001799718537  -0.000003068042255
Si    0.67887   0.67888  11.54087   0.000001773594319   0.000001773594329   0.000004589255024
Si    3.39437   0.67888  14.25638   0.000001378977062   0.000004542325265   0.000000848717929
Si    0.67887   3.39438  14.25638   0.000004542324884   0.000001378977175   0.000000848717977
Si    3.39437   3.39438  11.54087   0.000004014463115   0.000004014463115  -0.000005766532190
Si    4.75212   2.03662  12.89862  -0.000003103358620  -0.000003493681701   0.000002216986736
Si    4.75212   4.75212  15.61412  -0.000000438620438  -0.000000438620531   0.000000624144745
Si    2.03662   2.03662  15.61412   0.000002688313863   0.000002688313966  -0.000006644906525
Si    2.03662   4.75212  12.89862  -0.000003493681818  -0.000003103358409   0.000002216986636
Si    0.67887   0.67888  16.97187  -0.000000480278295  -0.000000480277916   0.000001530422677
Si    3.39437   0.67888  19.68737  -0.000004818928709  -0.000001247308100  -0.000001210086938
Si    0.67887   3.39438  19.68737  -0.000001247308267  -0.000004818928927  -0.000001210086894
Si    3.39437   3.39438  16.97187   0.000000597300982   0.000000597301161  -0.000003536460882
Si    4.75212   2.03662  18.32963   0.000000696082209   0.000004149240204   0.000000658565965
Si    4.75212   4.75212  21.04512   0.000002606993559   0.000002606993946  -0.000003464478603
Si    2.03662   2.03662  21.04512  -0.000001560460640  -0.000001560460136  -0.000000008256705
Si    2.03662   4.75212  18.32963   0.000004149240014   0.000000696082251   0.000000658565829
Si    0.67887   6.10987   0.67887  -0.000003879268435   0.000006574791888  -0.000003883708316
Si    3.39437   6.10987   3.39437   0.000000069612385   0.000004299422330   0.000000070295736
Si    0.67887   8.82537   3.39437   0.000003010590397  -0.000002139938367  -0.000000005256056
Si    3.39437   8.82537   0.67887  -0.000000006602161  -0.000002134162594   0.000003014915728
Si    4.75212   7.46762   2.03662   0.000001801189331  -0.000003075032143   0.000008988065404
Si    4.75212  10.18313   4.75212  -0.000002299230429   0.000007474128332  -0.000002298835729
Si    2.03662   7.46762   4.75212   0.000008983377905  -0.000003080445746   0.000001799113029
Si    2.03662  10.18313   2.03662  -0.000001870110835   0.000005192147173  -0.000001868864138
Si    0.67887   6.10987   6.10987   0.000001069269542   0.000001180339386   0.000001176265342
Si    3.39437   6.10987   8.82537   0.000005750476906   0.000002243556856   0.000004212426958
Si    0.67887   8.82537   8.82537   0.000000526235813   0.000000591011728   0.000000596681365
Si    3.39437   8.82537   6.10987   0.000005744667809   0.000004214145076   0.000002246725769
Si    4.75212   7.46762   7.46762   0.000000162018783   0.000001757191505   0.000001753506688
Si    4.75212  10.18313  10.18313  -0.000002452224754  -0.000003028937090  -0.000003017663350
Si    2.03662   7.46762  10.18313   0.000002000183744   0.000004857484226  -0.000002432705686
Si    2.03662  10.18313   7.46762   0.000002006405414  -0.000002428402563   0.000004851904218
Si    0.67887   6.10987  11.54087   0.000004688456564  -0.000001695924278  -0.000002388513748
Si    3.39437   6.10987  14.25638  -0.000004054284210   0.000002169568367   0.000005257542812
Si    0.67887   8.82537  14.25638  -0.000001687805664  -0.000000894463151   0.000003040899231
Si    3.39437   8.82537  11.54087  -0.000001175222139  -0.000001146116841  -0.000007856383066
Si    4.75212   7.46762  12.89862   0.000001291412869   0.000006436206960   0.000003267942815
Si    4.75212  10.18313  15.61412  -0.000003341609706   0.000000876748980  -0.000003805647856
Si    2.03662   7.46762  15.61412  -0.000002804792158  -0.000000097446384  -0.000001228380977
Si    2.03662  10.18313  12.89862  -0.000002199298874  -0.000003101126772   0.000000562184511
Si    0.67887   6.10987  16.97187   0.000003741848749   0.000000294719283  -0.000000110546949
Si    3.39437   6.10987  19.68737   0.000000604125391  -0.000004495402694   0.000005005118314
Si    0.67887   8.82537  19.68737  -0.000002825876143   0.000003287536305   0.000000455089487
Si    3.39437   8.82537  16.97187   0.000000634343050  -0.000001562562330   0.000001075737987
Si    4.75212   7.46762  18.32963  -0.000000088592537  -0.000003257386756  -0.000001623803839
Si    4.75212  10.18313  21.04512   0.000005518857999   0.000005002139687  -0.000005117722812
Si    2.03662   7.46762  21.04512  -0.000006184441208  -0.000005164164466   0.000002242700448
Si    2.03662  10.18313  18.32963   0.000002237150126   0.000003226597956  -0.000000141079839
Si    0.67887  11.54087   0.67887   0.000001766762607   0.000004589140370   0.000001764350072
Si    3.39437  11.54087   3.39437   0.000004011771203  -0.000005765405205   0.000004015038872
Si    0.67887  14.25638   3.39437   0.000004540235850   0.000000848669149   0.000001378249067
Si    3.39437  14.25638   0.67887   0.000001379242305   0.000000847395455   0.000004539759787
Si    4.75212  12.89862   2.03662  -0.000003103563953   0.000002211627187  -0.000003492393439
Si    4.75212  15.61412   4.75212  -0.000000438215339   0.000000635148354  -0.000000429905017
Si    2.03662  12.89862   4.75212  -0.000003482913066   0.000002208015761  -0.000003097757838
Si    2.03662  15.61412   2.03662   0.000002693812100  -0.000006638762678   0.000002684284305
Si    0.67887  11.54087   6.10987   0.000004696339046  -0.000002386562707  -0.000001708101024
Si    3.39437  11.54087   8.82537  -0.000001177328018  -0.000007858419330  -0.000001145545094
Si    0.67887  14.25638   8.82537  -0.000001687180383   0.000003037772632  -0.000000897475566
Si    3.39437  14.25638   6.10987  -0.000004054158663   0.000005258227764   0.000002174581322
Si    4.75212  12.89862   7.46762   0.000001291072071   0.000003259512071   0.000006433735296
Si    4.75212  15.61412  10.18313  -0.000003331992666  -0.000003820388817   0.000000879596101
Si    2.03662  12.89862  10.18313  -0.000002212104204   0.000000577521678  -0.000003092273136
Si    2.03662  15.61412   7.46762  -0.000002803881841  -0.000001223515384  -0.000000101141217
Si    0.67887  11.54087  11.54087   0.000004552488344  -0.000003631310609  -0.000003632518560
Si    3.39437  11.54087  14.25638  -0.000004757278712   0.000006692414166  -0.000002435056024
Si    0.67887  14.25638  14.25638   0.000000519450299   0.000001641164220   0.000001644452536
Si    3.39437  14.25638  11.54087  -0.000004762688782  -0.000002431996597   0.000006693368845
Si    4.75212  12.89862  12.89862   0.000000018088987  -0.000001761157019  -0.000001764820503
Si    4.75212  15.61412  15.61412   0.000000292596894  -0.000001615059528  -0.000001616514954
Si    2.03662  12.89862  15.61412   0.000007187432729   0.000000515927514  -0.000000602554811
Si    2.03662  15.61412  12.89862   0.000007179698017  -0.000000609404274   0.000000516021311
Si    0.67887  11.54087  16.97187   0.000005125112631  -0.000004997697848  -0.000005524856486
Si    3.39437  11.54087  19.68737   0.000000133759340  -0.000003226461231  -0.000002242237189
Si    0.67887  14.25638  19.68737  -0.000002253176482   0.000005173691870   0.000006187625458
Si    3.39437  14.25638  16.97187   0.000001622613508   0.000003255840934   0.000000093027249
Si    4.75212  12.89862  18.32963  -0.000001073999261   0.000001568283459  -0.000000646404926
Si    4.75212  15.61412  21.04512   0.000000109941777  -0.000000299959743  -0.000003730993547
Si    2.03662  12.89862  21.04512  -0.000000453056088  -0.000003288497365   0.000002835755457
Si    2.03662  15.61412  18.32963  -0.000005010396261   0.000004495539807  -0.000000615365983
Si    0.67887  16.97187   0.67887  -0.000000465015322   0.000001535574747  -0.000000466693823
Si    3.39437  16.97187   3.39437   0.000000594183046  -0.000003535312185   0.000000600007968
Si    0.67887  19.68737   3.39437  -0.000001252983403  -0.000001213779508  -0.000004828715652
Si    3.39437  19.68737   0.67887  -0.000004824508519  -0.000001213760905  -0.000001249850341
Si    4.75212  18.32963   2.03662   0.000000710438550   0.000000649681871   0.000004144322963
Si    4.75212  21.04512   4.75212   0.000002615310801  -0.000003452276754   0.000002605039359
Si    2.03662  18.32963   4.75212   0.000004143363575   0.000000651450560   0.000000701786514
Si    2.03662  21.04512   2.03662  -0.000001574981111  -0.000000004065944  -0.000001562187128
Si    0.67887  16.97187   6.10987   0.000003735162397  -0.000000107908613   0.000000302231677
Si    3.39437  16.97187   8.82537   0.000000636150519   0.000001077002671  -0.000001558138699
Si    0.67887  19.68737   8.82537  -0.000002831996985   0.000000453323255   0.000003282239008
Si    3.39437  19.68737   6.10987   0.000000614785476   0.000005002529017  -0.000004499724623
Si    4.75212  18.32963   7.46762  -0.000000099263860  -0.000001630965287  -0.000003258290823
Si    4.75212  21.04512  10.18313   0.000005522425461  -0.000005124096423   0.000004994668936
Si    2.03662  18.32963  10.18313   0.000002236896784  -0.000000130305598   0.000003228371821
Si    2.03662  21.04512   7.46762  -0.000006180309209   0.000002239087644  -0.000005167269170
Si    0.67887  16.97187  11.54087   0.000005124096414  -0.000005522425539  -0.000004994669005
Si    3.39437  16.97187  14.25638   0.000001630965254   0.000000099263722   0.000003258290991
Si    0.67887  19.68737  14.25638  -0.000002239088026   0.000006180309163   0.000005167269095
Si    3.39437  19.68737  11.54087   0.000000130305354  -0.000002236896974  -0.000003228371580
Si    4.75212  18.32963  12.89862  -0.000001077002803  -0.000000636150892   0.000001558138522
Si    4.75212  21.04512  15.61412   0.000000107908520  -0.000003735162506  -0.000000302231622
Si    2.03662  18.32963  15.61412  -0.000005002529299  -0.000000614785661   0.000004499724718
Si    2.03662  21.04512  12.89862  -0.000000453323523   0.000002831996609  -0.000003282239086
Si    0.67887  16.97187  16.97187   0.000003452276659  -0.000002615310894  -0.000002605039484
Si    3.39437  16.97187  19.68737  -0.000000649681852  -0.000000710438821  -0.000004144322946
Si    0.67887  19.68737  19.68737   0.000000004065476   0.000001574980860   0.000001562187056
Si    3.39437  19.68737  16.97187  -0.000000651450625  -0.000004143363781  -0.000000701786503
Si    4.75212  18.32963  18.32963   0.000003535312174  -0.000000594183439  -0.000000600008123
Si    4.75212  21.04512  21.04512  -0.000001535574770   0.000000465015184   0.000000466693757
Si    2.03662  18.32963  21.04512   0.000001213760675   0.000004824508320   0.000001249850470
Si    2.03662  21.04512  18.32963   0.000001213779480   0.000001252983275   0.000004828715620
Si    6.10988   0.67888   0.67887   0.000006574791644  -0.000003879268270  -0.000003883708407
Si    8.82537   0.67888   3.39437  -0.000002139938501   0.000003010590698  -0.000000005255842
Si    6.10988   3.39438   3.39437   0.000004299421699   0.000000069612511   0.000000070295948
Si    8.82537   3.39438   0.67887  -0.000002134162832  -0.000000006601976   0.000003014915780
Si   10.18313   2.03662   2.03662   0.000005192146994  -0.000001870110761  -0.000001868864175
Si   10.18313   4.75212   4.75212   0.000007474128296  -0.000002299230324  -0.000002298835715
Si    7.46762   2.03662   4.75212  -0.000003080445772   0.000008983377990   0.000001799112809
Si    7.46762   4.75212   2.03662  -0.000003075031708   0.000001801189828   0.000008988065281
Si    6.10988   0.67888   6.10987   0.000001180339380   0.000001069269785   0.000001176265227
Si    8.82537   0.67888   8.82537   0.000000591011214   0.000000526235994   0.000000596681300
Si    6.10988   3.39438   8.82537   0.000002243556681   0.000005750477039   0.000004212427072
Si    8.82537   3.39438   6.10987   0.000004214145007   0.000005744667910   0.000002246726155
Si   10.18313   2.03662   7.46762  -0.000002428402766   0.000002006405713   0.000004851903966
Si   10.18313   4.75212  10.18313  -0.000003028937467  -0.000002452224486  -0.000003017663625
Si    7.46762   2.03662  10.18313   0.000004857484143   0.000002000183853  -0.000002432705932
Si    7.46762   4.75212   7.46762   0.000001757191595   0.000000162019131   0.000001753506678
Si    6.10988   0.67888  11.54087  -0.000001695924304   0.000004688456840  -0.000002388513824
Si    8.82537   0.67888  14.25638  -0.000000894463478  -0.000001687805464   0.000003040899118
Si    6.10988   3.39438  14.25638   0.000002169567976  -0.000004054284277   0.000005257543191
Si    8.82537   3.39438  11.54087  -0.000001146116829  -0.000001175222168  -0.000007856383042
Si   10.18313   2.03662  12.89862  -0.000003101127004  -0.000002199298495   0.000000562184558
Si   10.18313   4.75212  15.61412   0.000000876748741  -0.000003341609510  -0.000003805647913
Si    7.46762   2.03662  15.61412  -0.000000097446742  -0.000002804792014  -0.000001228381183
Si    7.46762   4.75212  12.89862   0.000006436207004   0.000001291413422   0.000003267942576
Si    6.10988   0.67888  16.97187   0.000000294719393   0.000003741849005  -0.000000110547055
Si    8.82537   0.67888  19.68737   0.000003287536198  -0.000002825875868   0.000000455089577
Si    6.10988   3.39438  19.68737  -0.000004495402675   0.000000604125412   0.000005005118291
Si    8.82537   3.39438  16.97187  -0.000001562562381   0.000000634343029   0.000001075738073
Si   10.18313   2.03662  18.32963   0.000003226597674   0.000002237150254  -0.000000141079890
Si   10.18313   4.75212  21.04512   0.000005002139386   0.000005518858246  -0.000005117722982
Si    7.46762   2.03662  21.04512  -0.000005164164470  -0.000006184441156   0.000002242699923
Si    7.46762   4.75212  18.32963  -0.000003257386564  -0.000000088592401  -0.000001623803562
Si    6.10988   6.10987   0.67887   0.000001169480550   0.000001169480665   0.000001074611712
Si    8.82537   6.10987   3.39437   0.000004220014924   0.000002241842121   0.000005740290104
Si    6.10988   8.82537   3.39437   0.000002241842074   0.000004220015406   0.000005740290060
Si    8.82537   8.82537   0.67887   0.000000602638210   0.000000602638551   0.000000532445316
Si   10.18313   7.46762   2.03662  -0.000002429874138   0.000004861991624   0.000001999136008
Si   10.18313  10.18313   4.75212  -0.000003026511598  -0.000003026511627  -0.000002459856143
Si    7.46762   7.46762   4.75212   0.000001746518081   0.000001746517874   0.000000164861654
Si    7.46762  10.18313   2.03662   0.000004861991781  -0.000002429874342   0.000001999136162
Si    6.10988   6.10987   6.10987   0.000002961673518   0.000002961673436   0.000002963076352
Si    8.82537   6.10987   8.82537  -0.000001790023110   0.000000807215497  -0.000001791678997
Si    6.10988   8.82537   8.82537   0.000000807215791  -0.000001790022830  -0.000001791678833
Si    8.82537   8.82537   6.10987  -0.000001788096240  -0.000001788096059   0.000000811706028
Si   10.18313   7.46762   7.46762  -0.000003344854081  -0.000000063454603  -0.000000061697478
Si   10.18313  10.18313  10.18313  -0.000003658622971  -0.000003658622672  -0.000003660445511
Si    7.46762   7.46762  10.18313  -0.000000058082703  -0.000000058082623  -0.000003348129425
Si    7.46762  10.18313   7.46762  -0.000000063454884  -0.000003344853828  -0.000000061697541
Si    6.10988   6.10987  11.54087   0.000004695710918   0.000004695710816   0.000000405185686
Si    8.82537   6.10987  14.25638   0.000000190275469   0.000000467343291   0.000003277445030
Si    6.10988   8.82537  14.25638   0.000000467343257   0.000000190275484   0.000003277445299
Si    8.82537   8.82537  11.54087   0.000003012153432   0.000003012153815   0.000000923271792
Si   10.18313   7.46762  12.89862  -0.000000336832724   0.000003662101223   0.000004568892592
Si   10.18313  10.18313  15.61412  -0.000000862930600  -0.000000862930468  -0.000000235304812
Si    7.46762   7.46762  15.61412   0.000000548484290   0.000000548484487   0.000003155447398
Si    7.46762  10.18313  12.89862   0.000003662101534  -0.000000336832615   0.000004568892616
Si    6.10988   6.10987  16.97187   0.000001635067563   0.000001635067560  -0.000000292034714
Si    8.82537   6.10987  19.68737  -0.000000532773642   0.000000615511693  -0.000007185295543
Si    6.10988   8.82537  19.68737   0.000000615511895  -0.000000532773081  -0.000007185295532
Si    8.82537   8.82537  16.97187   0.000001746536118   0.000001746536381  -0.000000010040055
Si   10.18313   7.46762  18.32963  -0.000006698020811   0.000002429969892   0.000004760983435
Si   10.18313  10.18313  21.04512   0.000003632636860   0.000003632636965  -0.000004560132484
Si    7.46762   7.46762  21.04512  -0.000001640700136  -0.000001640700429  -0.000000510765577
Si    7.46762  10.18313  18.32963   0.000002429969953  -0.000006698020933   0.000004760983584
Si    6.10988  11.54087   0.67887  -0.000001709914850  -0.000002389977726   0.000004698417869
Si    8.82537  11.54087   3.39437  -0.000001147692538  -0.000007860734071  -0.000001184222908
Si    6.10988  14.25638   3.39437   0.000002171872488   0.000005259429824  -0.000004056061674
Si    8.82537  14.25638   0.67887  -0.000000889706402   0.000003042384361  -0.000001688436755
Si   10.18313  12.89862   2.03662  -0.000003105537767   0.000000567515110  -0.000002198401122
Si   10.18313  15.61412   4.75212   0.000000863775091  -0.000003813713793  -0.000003340409527
Si    7.46762  12.89862   4.75212   0.000006448264558   0.000003272674567   0.000001295063355
Si    7.46762  15.61412   2.03662  -0.000000091302614  -0.000001233177544  -0.000002805189311
Si    6.10988  11.54087   6.10987   0.000004703808911   0.000000398659089   0.000004706191098
Si    8.82537  11.54087   8.82537   0.000003008973247   0.000000917700757   0.000003003352355
Si    6.10988  14.25638   8.82537   0.000000475851474   0.000003284337704   0.000000182780645
Si    8.82537  14.25638   6.10987   0.000000185714037   0.000003277793183   0.000000470874376
Si   10.18313  12.89862   7.46762  -0.000000332036698   0.000004567000239   0.000003665348274
Si   10.18313  15.61412  10.18313  -0.000000861955979  -0.000000231410489  -0.000000869785101
Si    7.46762  12.89862  10.18313   0.000003652696266   0.000004574872770  -0.000000335380954
Si    7.46762  15.61412   7.46762   0.000000547847597   0.000003162495227   0.000000548907010
Si    6.10988  11.54087  11.54087   0.000000231410225   0.000000861955878   0.000000869784851
Si    8.82537  11.54087  14.25638  -0.000004567000240   0.000000332036355  -0.000003665348278
Si    6.10988  14.25638  14.25638  -0.000003162495559  -0.000000547847645  -0.000000548906896
Si    8.82537  14.25638  11.54087  -0.000004574873043  -0.000003652696371   0.000000335380766
Si   10.18313  12.89862  12.89862  -0.000000917701005  -0.000003008973059  -0.000003003352302
Si   10.18313  15.61412  15.61412  -0.000000398659050  -0.000004703809067  -0.000004706190936
Si    7.46762  12.89862  15.61412  -0.000003277793384  -0.000000185714044  -0.000000470874177
Si    7.46762  15.61412  12.89862  -0.000003284337442  -0.000000475851219  -0.000000182780602
Si    6.10988  11.54087  16.97187   0.000003813713771  -0.000000863775210   0.000003340409248
Si    8.82537  11.54087  19.68737  -0.000000567515547   0.000003105537591   0.000002198401111
Si    6.10988  14.25638  19.68737   0.000001233177355   0.000000091302688   0.000002805189260
Si    8.82537  14.25638  16.97187  -0.000003272674904  -0.000006448264669  -0.000001295063340
Si   10.18313  12.89862  18.32963   0.000007860733866   0.000001147692679   0.000001184222886
Si   10.18313  15.61412  21.04512   0.000002389977881   0.000001709914627  -0.000004698417977
Si    7.46762  12.89862  21.04512  -0.000003042384126   0.000000889706099   0.000001688436717
Si    7.46762  15.61412  18.32963  -0.000005259429555  -0.000002171872547   0.000004056061848
Si    6.10988  16.97187   0.67887   0.000000299959624  -0.000000109942096   0.000003730993297
Si    8.82537  16.97187   3.39437  -0.000001568283517   0.000001073999091   0.000000646405049
Si    6.10988  19.68737   3.39437  -0.000004495539886   0.000005010396305   0.000000615366220
Si    8.82537  19.68737   0.67887   0.000003288497071   0.000000453056086  -0.000002835755190
Si   10.18313  18.32963   2.03662   0.000003226460928  -0.000000133759372   0.000002242237201
Si   10.18313  21.04512   4.75212   0.000004997697700  -0.000005125113032   0.000005524856392
Si    7.46762  18.32963   4.75212  -0.000003255840913  -0.000001622613556  -0.000000093027618
Si    7.46762  21.04512   2.03662  -0.000005173691864   0.000002253176010  -0.000006187625720
Si    6.10988  16.97187   6.10987   0.000001615059413  -0.000000292596999   0.000001616515021
Si    8.82537  16.97187   8.82537   0.000001761156830  -0.000000018089371   0.000001764820607
Si    6.10988  19.68737   8.82537   0.000000609404416  -0.000007179698182  -0.000000516021264
Si    8.82537  19.68737   6.10987  -0.000000515927599  -0.000007187432807   0.000000602555167
Si   10.18313  18.32963   7.46762  -0.000006692414592   0.000004757278973   0.000002435055610
Si   10.18313  21.04512  10.18313   0.000003631310487  -0.000004552488671   0.000003632518581
Si    7.46762  18.32963  10.18313   0.000002431996974   0.000004762689074  -0.000006693368810
Si    7.46762  21.04512   7.46762  -0.000001641164126  -0.000000519450579  -0.000001644452541
Si    6.10988  16.97187  11.54087   0.000003820388665   0.000003331992289  -0.000000879596129
Si    8.82537  16.97187  14.25638  -0.000003259512437  -0.000001291072152  -0.000006433735075
Si    6.10988  19.68737  14.25638   0.000001223515138   0.000002803881834   0.000000101141260
Si    8.82537  19.68737  11.54087  -0.000000577522084   0.000002212103921   0.000003092272975
Si   10.18313  18.32963  12.89862   0.000007858418960   0.000001177327951   0.000001145544987
Si   10.18313  21.04512  15.61412   0.000002386562792  -0.000004696339434   0.000001708101035
Si    7.46762  18.32963  15.61412  -0.000005258227582   0.000004054158467  -0.000002174581175
Si    7.46762  21.04512  12.89862  -0.000003037772291   0.000001687180140   0.000000897475680
Si    6.10988  16.97187  16.97187  -0.000000635148466   0.000000438215354   0.000000429904878
Si    8.82537  16.97187  19.68737  -0.000002211627696   0.000003103563816   0.000003492393259
Si    6.10988  19.68737  19.68737   0.000006638762659  -0.000002693812000  -0.000002684284101
Si    8.82537  19.68737  16.97187  -0.000002208015876   0.000003482912765   0.000003097758128
Si   10.18313  18.32963  18.32963   0.000005765404933  -0.000004011771167  -0.000004015039239
Si   10.18313  21.04512  21.04512  -0.000004589140596  -0.000001766762834  -0.000001764350180
Si    7.46762  18.32963  21.04512  -0.000000847395286  -0.000001379242507  -0.000004539760022
Si    7.46762  21.04512  18.32963  -0.000000848669417  -0.000004540236299  -0.000001378249238
Si   11.54087   0.67888   0.67887   0.000004589140193   0.000001766762672   0.000001764350094
Si   14.25638   0.67888   3.39437   0.000000848669400   0.000004540236020   0.000001378248836
Si   11.54087   3.39438   3.39437  -0.000005765405629   0.000004011771230   0.000004015039146
Si   14.25638   3.39438   0.67887   0.000000847395501   0.000001379242293   0.000004539759972
Si   15.61412   2.03662   2.03662  -0.000006638762932   0.000002693812239   0.000002684284338
Si   15.61412   4.75212   4.75212   0.000000635148469  -0.000000438215414  -0.000000429905008
Si   12.89862   2.03662   4.75212   0.000002208015508  -0.000003482912662  -0.000003097757772
Si   12.89862   4.75212   2.03662   0.000002211627204  -0.000003103563419  -0.000003492393549
Si   11.54087   0.67888   6.10987  -0.000002386563064   0.000004696339437  -0.000001708100833
Si   14.25638   0.67888   8.82537   0.000003037772624  -0.000001687180055  -0.000000897475709
Si   11.54087   3.39438   8.82537  -0.000007858419619  -0.000001177328116  -0.000001145545195
Si   14.25638   3.39438   6.10987   0.000005258227535  -0.000004054158468   0.000002174581216
Si   15.61412   2.03662   7.46762  -0.000001223515519  -0.000002803881834  -0.000000101141062
Si   15.61412   4.75212  10.18313  -0.000003820389080  -0.000003331992636   0.000000879595770
Si   12.89862   2.03662  10.18313   0.000000577521669  -0.000002212104159  -0.000003092272815
Si   12.89862   4.75212   7.46762   0.000003259512228   0.000001291072129   0.000006433735072
Si   11.54087   0.67888  11.54087  -0.000003631310705   0.000004552488547  -0.000003632518574
Si   14.25638   0.67888  14.25638   0.000001641164207   0.000000519450730   0.000001644452268
Si   11.54087   3.39438  14.25638   0.000006692414018  -0.000004757278950  -0.000002435055768
Si   14.25638   3.39438  11.54087  -0.000002431996605  -0.000004762688787   0.000006693368653
Si   15.61412   2.03662  12.89862  -0.000000609404776   0.000007179697999   0.000000516021442
Si   15.61412   4.75212  15.61412  -0.000001615059486   0.000000292596812  -0.000001616514957
Si   12.89862   2.03662  15.61412   0.000000515927095   0.000007187432983  -0.000000602554872
Si   12.89862   4.75212  12.89862  -0.000001761157174   0.000000018089261  -0.000001764820531
Si   11.54087   0.67888  16.97187  -0.000004997698222   0.000005125112992  -0.000005524856680
Si   14.25638   0.67888  19.68737   0.000005173691956  -0.000002253176219   0.000006187625532
Si   11.54087   3.39438  19.68737  -0.000003226461539   0.000000133759383  -0.000002242237001
Si   14.25638   3.39438  16.97187   0.000003255840767   0.000001622613743   0.000000093027344
Si   15.61412   2.03662  18.32963   0.000004495539754  -0.000005010396439  -0.000000615365780
Si   15.61412   4.75212  21.04512  -0.000000299959766   0.000000109942017  -0.000003730993217
Si   12.89862   2.03662  21.04512  -0.000003288497421  -0.000000453056120   0.000002835755131
Si   12.89862   4.75212  18.32963   0.000001568283425  -0.000001073999099  -0.000000646405072
Si   11.54087   6.10987   0.67887  -0.000002389977961  -0.000001709914653   0.000004698418313
Si   14.25638   6.10987   3.39437   0.000005259429630   0.000002171872711  -0.000004056061799
Si   11.54087   8.82537   3.39437  -0.000007860734416  -0.000001147692464  -0.000001184223083
Si   14.25638   8.82537   0.67887   0.000003042384053  -0.000000889706042  -0.000001688436603
Si   15.61412   7.46762   2.03662  -0.000001233177732  -0.000000091302776  -0.000002805189224
Si   15.61412  10.18313   4.75212  -0.000003813714205   0.000000863775207  -0.000003340409463
Si   12.89862   7.46762   4.75212   0.000003272674430   0.000006448264515   0.000001295063372
Si   12.89862  10.18313   2.03662   0.000000567514982  -0.000003105537711  -0.000002198401251
Si   11.54087   6.10987   6.10987   0.000000398658807   0.000004703809107   0.000004706191077
Si   14.25638   6.10987   8.82537   0.000003284337733   0.000000475851392   0.000000182780750
Si   11.54087   8.82537   8.82537   0.000000917700541   0.000003008973171   0.000003003352296
Si   14.25638   8.82537   6.10987   0.000003277793259   0.000000185714232   0.000000470874333
Si   15.61412   7.46762   7.46762   0.000003162495003   0.000000547847387   0.000000548906991
Si   15.61412  10.18313  10.18313  -0.000000231410682  -0.000000861955740  -0.000000869785257
Si   12.89862   7.46762  10.18313   0.000004574872678   0.000003652696392  -0.000000335380793
Si   12.89862  10.18313   7.46762   0.000004566999973  -0.000000332036404   0.000003665348324
Si   11.54087   6.10987  11.54087   0.000000861955602   0.000000231410664   0.000000869785183
Si   14.25638   6.10987  14.25638  -0.000000547847785  -0.000003162495011  -0.000000548907148
Si   11.54087   8.82537  14.25638   0.000000332036283  -0.000004567000046  -0.000003665348346
Si   14.25638   8.82537  11.54087  -0.000003652696572  -0.000004574872944   0.000000335380932
Si   15.61412   7.46762  12.89862  -0.000000475851638  -0.000003284337694  -0.000000182780705
Si   15.61412  10.18313  15.61412  -0.000004703809163  -0.000000398658873  -0.000004706191171
Si   12.89862   7.46762  15.61412  -0.000000185714418  -0.000003277793323  -0.000000470874298
Si   12.89862  10.18313  12.89862  -0.000003008973430  -0.000000917701015  -0.000003003352384
Si   11.54087   6.10987  16.97187  -0.000000863775348   0.000003813714080   0.000003340409504
Si   14.25638   6.10987  19.68737   0.000000091302411   0.000001233177604   0.000002805189023
Si   11.54087   8.82537  19.68737   0.000003105537302  -0.000000567515226   0.000002198401175
Si   14.25638   8.82537  16.97187  -0.000006448264707  -0.000003272674695  -0.000001295063275
Si   15.61412   7.46762  18.32963  -0.000002171872833  -0.000005259429670   0.000004056061970
Si   15.61412  10.18313  21.04512   0.000001709914559   0.000002389977933  -0.000004698418403
Si   12.89862   7.46762  21.04512   0.000000889705851  -0.000003042384242   0.000001688436848
Si   12.89862  10.18313  18.32963   0.000001147692409   0.000007860733997   0.000001184222987
Si   11.54087  11.54087   0.67887  -0.000003632637046  -0.000003632636993   0.000004560132410
Si   14.25638  11.54087   3.39437  -0.000002429969825   0.000006698020820  -0.000004760983500
Si   11.54087  14.25638   3.39437   0.000006698020436  -0.000002429969719  -0.000004760983453
Si   14.25638  14.25638   0.67887   0.000001640700221   0.000001640700183   0.000000510765847
Si   15.61412  12.89862   2.03662  -0.000000615512062   0.000000532773309   0.000007185295632
Si   15.61412  15.61412   4.75212  -0.000001635067625  -0.000001635067706   0.000000292034624
Si   12.89862  12.89862   4.75212  -0.000001746536493  -0.000001746536384   0.000000010040188
Si   12.89862  15.61412   2.03662   0.000000532773197  -0.000000615511833   0.000007185295516
Si   11.54087  11.54087   6.10987   0.000000862930072   0.000000862930430   0.000000235304938
Si   14.25638  11.54087   8.82537  -0.000003662101274   0.000000336832473  -0.000004568892533
Si   11.54087  14.25638   8.82537   0.000000336832296  -0.000003662101525  -0.000004568892462
Si   14.25638  14.25638   6.10987  -0.000000548484539  -0.000000548484340  -0.000003155447432
Si   15.61412  12.89862   7.46762  -0.000000467343464  -0.000000190275680  -0.000003277445154
Si   15.61412  15.61412  10.18313  -0.000004695711279  -0.000004695710896  -0.000000405185472
Si   12.89862  12.89862  10.18313  -0.000003012153966  -0.000003012153441  -0.000000923271977
Si   12.89862  15.61412   7.46762  -0.000000190275881  -0.000000467343406  -0.000003277445291
Si   11.54087  11.54087  11.54087   0.000003658622574   0.000003658622705   0.000003660445507
Si   14.25638  11.54087  14.25638   0.000000063454740   0.000003344854014   0.000000061697642
Si   11.54087  14.25638  14.25638   0.000003344853607   0.000000063454670   0.000000061697363
Si   14.25638  14.25638  11.54087   0.000000058082727   0.000000058082756   0.000003348129546
Si   15.61412  12.89862  12.89862  -0.000000807216017   0.000001790022939   0.000001791678932
Si   15.61412  15.61412  15.61412  -0.000002961673435  -0.000002961673666  -0.000002963076417
Si   12.89862  12.89862  15.61412   0.000001788095806   0.000001788095744  -0.000000811705891
Si   12.89862  15.61412  12.89862   0.000001790022782  -0.000000807215911   0.000001791678773
Si   11.54087  11.54087  16.97187   0.000003026511265   0.000003026511682   0.000002459855986
Si   14.25638  11.54087  19.68737  -0.000004861991419   0.000002429874170  -0.000001999135919
Si   11.54087  14.25638  19.68737   0.000002429873843  -0.000004861991627  -0.000001999135964
Si   14.25638  14.25638  16.97187  -0.000001746517958  -0.000001746517704  -0.000000164861483
Si   15.61412  12.89862  18.32963  -0.000002241842449  -0.000004220015265  -0.000005740289935
Si   15.61412  15.61412  21.04512  -0.000001169480700  -0.000001169480658  -0.000001074611988
Si   12.89862  12.89862  21.04512  -0.000000602638731  -0.000000602638569  -0.000000532445264
Si   12.89862  15.61412  18.32963  -0.000004220015384  -0.000002241842241  -0.000005740290312
Si   11.54087  16.97187   0.67887  -0.000005002139954  -0.000005518858415   0.000005117722803
Si   14.25638  16.97187   3.39437   0.000003257386623   0.000000088592436   0.000001623803499
Si   11.54087  19.68737   3.39437  -0.000003226598326  -0.000002237150129   0.000000141079960
Si   14.25638  19.68737   0.67887   0.000005164164512   0.000006184440808  -0.000002242700263
Si   15.61412  18.32963   2.03662   0.000004495402386  -0.000000604125526  -0.000005005118331
Si   15.61412  21.04512   4.75212  -0.000000294719420  -0.000003741848719   0.000000110547111
Si   12.89862  18.32963   4.75212   0.000001562562045  -0.000000634343007  -0.000001075737702
Si   12.89862  21.04512   2.03662  -0.000003287536424   0.000002825875941  -0.000000455089584
Si   11.54087  16.97187   6.10987  -0.000000876748958   0.000003341609551   0.000003805648025
Si   14.25638  16.97187   8.82537  -0.000006436207130  -0.000001291413194  -0.000003267942849
Si   11.54087  19.68737   8.82537   0.000003101126567   0.000002199298749  -0.000000562184614
Si   14.25638  19.68737   6.10987   0.000000097446436   0.000002804791896   0.000001228381243
Si   15.61412  18.32963   7.46762  -0.000002169568464   0.000004054284066  -0.000005257543146
Si   15.61412  21.04512  10.18313   0.000001695923857  -0.000004688456830   0.000002388513735
Si   12.89862  18.32963  10.18313   0.000001146116447   0.000001175222172   0.000007856383261
Si   12.89862  21.04512   7.46762   0.000000894463139   0.000001687805293  -0.000003040899122
Si   11.54087  16.97187  11.54087   0.000003028937030   0.000002452224667   0.000003017663500
Si   14.25638  16.97187  14.25638  -0.000001757191686  -0.000000162018563  -0.000001753506772
Si   11.54087  19.68737  14.25638   0.000002428402324  -0.000002006405391  -0.000004851904163
Si   14.25638  19.68737  11.54087  -0.000004857484099  -0.000002000183866   0.000002432705956
Si   15.61412  18.32963  12.89862  -0.000002243557084  -0.000005750477172  -0.000004212427047
Si   15.61412  21.04512  15.61412  -0.000001180339564  -0.000001069269996  -0.000001176265325
Si   12.89862  18.32963  15.61412  -0.000004214145350  -0.000005744667950  -0.000002246725722
Si   12.89862  21.04512  12.89862  -0.000000591011757  -0.000000526236238  -0.000000596681322
Si   11.54087  16.97187  16.97187  -0.000007474128781   0.000002299230256   0.000002298835757
Si   14.25638  16.97187  19.68737   0.000003075031932  -0.000001801189601  -0.000008988065485
Si   11.54087  19.68737  19.68737  -0.000005192147609   0.000001870110842   0.000001868864210
Si   14.25638  19.68737  16.97187   0.000003080445617  -0.000008983378173  -0.000001799112955
Si   15.61412  18.32963  18.32963  -0.000004299422135  -0.000000069612563  -0.000000070295838
Si   15.61412  21.04512  21.04512  -0.000006574791976   0.000003879268349   0.000003883708473
Si   12.89862  18.32963  21.04512   0.000002134162420   0.000000006602283  -0.000003014915453
Si   12.89862  21.04512  18.32963   0.000002139938371  -0.000003010590634   0.000000005256102
Si   16.97187   0.67888   0.67887   0.000001535574291  -0.000000465015036  -0.000000466694176
Si   19.68737   0.67888   3.39437  -0.000001213779743  -0.000001252983338  -0.000004828715575
Si   16.97187   3.39438   3.39437  -0.000003535312766   0.000000594183191   0.000000600008206
Si   19.68737   3.39438   0.67887  -0.000001213761064  -0.000004824508314  -0.000001249850537
Si   21.04512   2.03662   2.03662  -0.000000004065924  -0.000001574980756  -0.000001562187038
Si   21.04512   4.75212   4.75212  -0.000003452276949   0.000002615310905   0.000002605039582
Si   18.32963   2.03662   4.75212   0.000000651450508   0.000004143363965   0.000000701786669
Si   18.32963   4.75212   2.03662   0.000000649682136   0.000000710438986   0.000004144323104
Si   16.97187   0.67888   6.10987  -0.000000107908923   0.000003735162515   0.000000302231405
Si   19.68737   0.67888   8.82537   0.000000453322952  -0.000002831996681   0.000003282238924
Si   16.97187   3.39438   8.82537   0.000001077002438   0.000000636150834  -0.000001558138453
Si   19.68737   3.39438   6.10987   0.000005002528804   0.000000614785521  -0.000004499724683
Si   21.04512   2.03662   7.46762   0.000002239087457  -0.000006180308950  -0.000005167269301
Si   21.04512   4.75212  10.18313  -0.000005124096480   0.000005522425530   0.000004994669361
Si   18.32963   2.03662  10.18313  -0.000000130305441   0.000002236897027   0.000003228371704
Si   18.32963   4.75212   7.46762  -0.000001630965164  -0.000000099263619  -0.000003258290949
Si   16.97187   0.67888  11.54087  -0.000005522425782   0.000005124096631  -0.000004994669473
Si   19.68737   0.67888  14.25638   0.000006180309077  -0.000002239087695   0.000005167269261
Si   16.97187   3.39438  14.25638   0.000000099263503   0.000001630965428   0.000003258291116
Si   19.68737   3.39438  11.54087  -0.000002236897335   0.000000130305696  -0.000003228371737
Si   21.04512   2.03662  12.89862   0.000002831996529  -0.000000453323387  -0.000003282238936
Si   21.04512   4.75212  15.61412  -0.000003735162649   0.000000107908906  -0.000000302231690
Si   18.32963   2.03662  15.61412  -0.000000614785618  -0.000005002529155   0.000004499724696
Si   18.32963   4.75212  12.89862  -0.000000636150752  -0.000001077002637   0.000001558138413
Si   16.97187   0.67888  16.97187  -0.000002615311074   0.000003452276952  -0.000002605039428
Si   19.68737   0.67888  19.68737   0.000001574980973   0.000000004065677   0.000001562187080
Si   16.97187   3.39438  19.68737  -0.000000710438717  -0.000000649681881  -0.000004144323054
Si   19.68737   3.39438  16.97187  -0.000004143363983  -0.000000651450691  -0.000000701786471
Si   21.04512   2.03662  18.32963   0.000001252982975   0.000001213779701   0.000004828715613
Si   21.04512   4.75212  21.04512   0.000000465014930  -0.000001535574538   0.000000466693906
Si   18.32963   2.03662  21.04512   0.000004824508191   0.000001213760782   0.000001249850345
Si   18.32963   4.75212  18.32963  -0.000000594183222   0.000003535312394  -0.000000600008107
Si   16.97187   6.10987   0.67887  -0.000000109942202   0.000000299959397   0.000003730993184
Si   19.68737   6.10987   3.39437   0.000005010396073  -0.000004495539816   0.000000615365991
Si   16.97187   8.82537   3.39437   0.000001073998859  -0.000001568283430   0.000000646405127
Si   19.68737   8.82537   0.67887   0.000000453055686   0.000003288497143  -0.000002835755302
Si   21.04512   7.46762   2.03662   0.000002253175851  -0.000005173692036  -0.000006187625620
Si   21.04512  10.18313   4.75212  -0.000005125112913   0.000004997697804   0.000005524856685
Si   18.32963   7.46762   4.75212  -0.000001622613569  -0.000003255840960  -0.000000093027204
Si   18.32963  10.18313   2.03662  -0.000000133759012   0.000003226461292   0.000002242237144
Si   16.97187   6.10987   6.10987  -0.000000292596910   0.000001615059506   0.000001616514835
Si   19.68737   6.10987   8.82537  -0.000007179698503   0.000000609404674  -0.000000516021603
Si   16.97187   8.82537   8.82537  -0.000000018089253   0.000001761157216   0.000001764820730
Si   19.68737   8.82537   6.10987  -0.000007187433073  -0.000000515927371   0.000000602555150
Si   21.04512   7.46762   7.46762  -0.000000519450994  -0.000001641164152  -0.000001644452630
Si   21.04512  10.18313  10.18313  -0.000004552488754   0.000003631310475   0.000003632518493
Si   18.32963   7.46762  10.18313   0.000004762688982   0.000002431996405  -0.000006693368909
Si   18.32963  10.18313   7.46762   0.000004757278750  -0.000006692414455   0.000002435055621
Si   16.97187   6.10987  11.54087   0.000003331992504   0.000003820388773  -0.000000879596019
Si   19.68737   6.10987  14.25638   0.000002803881779   0.000001223515356   0.000000101141210
Si   16.97187   8.82537  14.25638  -0.000001291072233  -0.000003259512188  -0.000006433734853
Si   19.68737   8.82537  11.54087   0.000002212103845  -0.000000577521700   0.000003092273114
Si   21.04512   7.46762  12.89862   0.000001687179758  -0.000003037772622   0.000000897475720
Si   21.04512  10.18313  15.61412  -0.000004696339594   0.000002386562678   0.000001708100734
Si   18.32963   7.46762  15.61412   0.000004054158515  -0.000005258227581  -0.000002174581597
Si   18.32963  10.18313  12.89862   0.000001177328105   0.000007858419119   0.000001145544894
Si   16.97187   6.10987  16.97187   0.000000438215261  -0.000000635148546   0.000000429905050
Si   19.68737   6.10987  19.68737  -0.000002693812381   0.000006638762567  -0.000002684284244
Si   16.97187   8.82537  19.68737   0.000003103563601  -0.000002211627367   0.000003492393617
Si   19.68737   8.82537  16.97187   0.000003482912576  -0.000002208015560   0.000003097758122
Si   21.04512   7.46762  18.32963  -0.000004540236434  -0.000000848669180  -0.000001378249233
Si   21.04512  10.18313  21.04512  -0.000001766762826  -0.000004589140508  -0.000001764350073
Si   18.32963   7.46762  21.04512  -0.000001379241935  -0.000000847395207  -0.000004539759943
Si   18.32963  10.18313  18.32963  -0.000004011771121   0.000005765405322  -0.000004015039164
Si   16.97187  11.54087   0.67887  -0.000005518858431  -0.000005002139663   0.000005117722720
Si   19.68737  11.54087   3.39437  -0.000002237150467  -0.000003226598113   0.000000141079848
Si   16.97187  14.25638   3.39437   0.000000088592067   0.000003257386550   0.000001623803868
Si   19.68737  14.25638   0.67887   0.000006184440808   0.000005164164460  -0.000002242700222
Si   21.04512  12.89862   2.03662   0.000002825875707  -0.000003287536037  -0.000000455089543
Si   21.04512  15.61412   4.75212  -0.000003741848987  -0.000000294719253   0.000000110547058
Si   18.32963  12.89862   4.75212  -0.000000634343376   0.000001562562215  -0.000001075737941
Si   18.32963  15.61412   2.03662  -0.000000604125504   0.000004495402939  -0.000005005118583
Si   16.97187  11.54087   6.10987   0.000003341609649  -0.000000876748724   0.000003805647948
Si   19.68737  11.54087   8.82537   0.000002199298618   0.000003101126868  -0.000000562184539
Si   16.97187  14.25638   8.82537  -0.000001291413153  -0.000006436207099  -0.000003267942845
Si   19.68737  14.25638   6.10987   0.000002804791849   0.000000097446436   0.000001228381350
Si   21.04512  12.89862   7.46762   0.000001687805022   0.000000894463250  -0.000003040899157
Si   21.04512  15.61412  10.18313  -0.000004688457145   0.000001695924077   0.000002388513568
Si   18.32963  12.89862  10.18313   0.000001175222160   0.000001146116515   0.000007856382749
Si   18.32963  15.61412   7.46762   0.000004054284267  -0.000002169568344  -0.000005257542882
Si   16.97187  11.54087  11.54087   0.000002452224429   0.000003028937159   0.000003017663400
Si   19.68737  11.54087  14.25638  -0.000002006405521   0.000002428402599  -0.000004851903948
Si   16.97187  14.25638  14.25638  -0.000000162019211  -0.000001757191571  -0.000001753506585
Si   19.68737  14.25638  11.54087  -0.000002000184122  -0.000004857483940   0.000002432705991
Si   21.04512  12.89862  12.89862  -0.000000526236422  -0.000000591011664  -0.000000596681345
Si   21.04512  15.61412  15.61412  -0.000001069270021  -0.000001180339453  -0.000001176265298
Si   18.32963  12.89862  15.61412  -0.000005744667989  -0.000004214145249  -0.000002246725911
Si   18.32963  15.61412  12.89862  -0.000005750476698  -0.000002243556598  -0.000004212427178
Si   16.97187  11.54087  16.97187   0.000002299230242  -0.000007474128519   0.000002298835674
Si   19.68737  11.54087  19.68737   0.000001870110316  -0.000005192147424   0.000001868864137
Si   16.97187  14.25638  19.68737  -0.000001801189759   0.000003075032035  -0.000008988065375
Si   19.68737  14.25638  16.97187  -0.000008983378227   0.000003080445705  -0.000001799112551
Si   21.04512  12.89862  18.32963  -0.000003010590869   0.000002139938699   0.000000005255837
Si   21.04512  15.61412  21.04512   0.000003879267965  -0.000006574791699   0.000003883708201
Si   18.32963  12.89862  21.04512   0.000000006602177   0.000002134162575  -0.000003014915708
Si   18.32963  15.61412  18.32963  -0.000000069612452  -0.000004299421792  -0.000000070295873
Si   16.97187  16.97187   0.67887  -0.000002606993944  -0.000002606994069   0.000003464478813
Si   19.68737  16.97187   3.39437  -0.000004149240455  -0.000000696082365  -0.000000658566075
Si   16.97187  19.68737   3.39437  -0.000000696082407  -0.000004149240420  -0.000000658565832
Si   19.68737  19.68737   0.67887   0.000001560460102   0.000001560460446   0.000000008256516
Si   21.04512  18.32963   2.03662   0.000001247307864   0.000004818928649   0.000001210087023
Si   21.04512  21.04512   4.75212   0.000000480277772   0.000000480277896  -0.000001530422583
Si   18.32963  18.32963   4.75212  -0.000000597301224  -0.000000597301001   0.000003536460816
Si   18.32963  21.04512   2.03662   0.000004818928933   0.000001247307962   0.000001210087050
Si   16.97187  16.97187   6.10987   0.000000438620363   0.000000438620344  -0.000000624144848
Si   19.68737  16.97187   8.82537   0.000003493681392   0.000003103358269  -0.000002216986640
Si   16.97187  19.68737   8.82537   0.000003103358490   0.000003493681932  -0.000002216986657
Si   19.68737  19.68737   6.10987  -0.000002688314233  -0.000002688313966   0.000006644906683
Si   21.04512  18.32963   7.46762  -0.000004542325306  -0.000001378976993  -0.000000848718030
Si   21.04512  21.04512  10.18313  -0.000001773594460  -0.000001773594347  -0.000004589255097
Si   18.32963  18.32963  10.18313  -0.000004014463061  -0.000004014463365   0.000005766532436
Si   18.32963  21.04512   7.46762  -0.000001378976963  -0.000004542325379  -0.000000848717870
Si   16.97187  16.97187  11.54087   0.000002301551694   0.000002301551808  -0.000007467497113
Si   19.68737  16.97187  14.25638  -0.000008992304446  -0.000001799718661   0.000003068042056
Si   16.97187  19.68737  14.25638  -0.000001799718707  -0.000008992303980   0.000003068042040
Si   19.68737  19.68737  11.54087   0.000001858904086   0.000001858904445  -0.000005185812284
Si   21.04512  18.32963  12.89862  -0.000003014259820   0.000000014679316   0.000002137387278
Si   21.04512  21.04512  15.61412   0.000003885450095   0.000003885450089  -0.000006583501837
Si   18.32963  18.32963  15.61412  -0.000000077409714  -0.000000077409937  -0.000004295551735
Si   18.32963  21.04512  12.89862   0.000000014679493  -0.000003014260009   0.000002137387439
Si   16.97187  16.97187  16.97187   0.000001386634375   0.000001386634281   0.000001396132227
Si   19.68737  16.97187  19.68737   0.000004995965788  -0.000006174472668   0.000004988076371
Si   16.97187  19.68737  19.68737  -0.000006174472345   0.000004995966072   0.000004988076524
Si   19.68737  19.68737  16.97187   0.000005003824285   0.000005003824461  -0.000006163735025
Si   21.04512  18.32963  18.32963  -0.000008739324628   0.000000301268537   0.000000300158380
Si   21.04512  21.04512  21.04512  -0.000000287813679  -0.000000287813357  -0.000000281671422
Si   18.32963  18.32963  21.04512   0.000000304039772   0.000000304039844  -0.000008743797258
Si   18.32963  21.04512  18.32963   0.000000301268272  -0.000008739324367   0.000000300158312
