216 

Si    0.72888   0.67888   0.67888   0.013631509346051   0.000002001538865   0.000002001681970
Si    3.39437   0.67888   3.39437  -0.000195051437851   0.000124667123561  -0.000201391058778
Si    0.67888   3.39437   3.39437   0.000433617326883  -0.000118057452990  -0.000118386674773
Si    3.39437   3.39437   0.67888  -0.000195087440316  -0.000201503696220   0.000125077768389
Si    4.75213   2.03662   2.03662   0.000008528631536   0.000027576905535   0.000027697798624
Si    4.75213   4.75213   4.75213   0.000015192847718   0.000008179177368   0.000008176395921
Si    2.03662   2.03662   4.75213   0.000034205000990  -0.000037170876989   0.000036346421903
Si    2.03662   4.75213   2.03662   0.000034104096688   0.000036434680603  -0.000037250182482
Si    0.67888   0.67888   6.10987  -0.000020656831856   0.000002851114746   0.000000637517065
Si    3.39437   0.67888   8.82538  -0.000019858618988   0.000008157636766   0.000008160560368
Si    0.67888   3.39437   8.82538  -0.000005489591492  -0.000008086081161   0.000010825660402
Si    3.39437   3.39437   6.10987  -0.000016803952514   0.000020978653620  -0.000003354619070
Si    4.75213   2.03662   7.46762  -0.000000011464664  -0.000007647930046  -0.000000926370769
Si    4.75213   4.75213  10.18313   0.000003061106771  -0.000019405332535  -0.000004677789492
Si    2.03662   2.03662  10.18313   0.000016309510616   0.000000114782175   0.000002757572900
Si    2.03662   4.75213   7.46762   0.000010347318901  -0.000005958346443   0.000007318361797
Si    0.67888   0.67888  11.54087  -0.000015369368928   0.000008201020504  -0.000007927450723
Si    3.39437   0.67888  14.25638  -0.000189127717920  -0.000112693123169   0.000191722143421
Si    0.67888   3.39437  14.25638   0.000432172479758   0.000113041480605  -0.000117148445257
Si    3.39437   3.39437  11.54087  -0.000022182075660   0.000016434555165   0.000003314884841
Si    4.75213   2.03662  12.89863  -0.000016980568900   0.000054662780782   0.000024689444643
Si    4.75213   4.75213  15.61412  -0.000010849821000  -0.000012844169888  -0.000064391139949
Si    2.03662   2.03662  15.61412  -0.003409339546588  -0.002468383504026   0.002461241519447
Si    2.03662   4.75213  12.89863  -0.000177934621878   0.000057687577192  -0.000051977479405
Si    0.67888   6.10987   0.67888  -0.000020494951219   0.000000648288548   0.000002874386957
Si    3.39437   6.10987   3.39437  -0.000016835564299  -0.000003362853169   0.000020961180616
Si    0.67888   8.82538   3.39437  -0.000005638380684   0.000010770332889  -0.000008084878698
Si    3.39437   8.82538   0.67888  -0.000019770571391   0.000008156400887   0.000008161616107
Si    4.75213   7.46762   2.03662   0.000000000057814  -0.000000912031935  -0.000007652975240
Si    4.75213  10.18313   4.75213   0.000003182092832  -0.000004685613628  -0.000019397586019
Si    2.03662   7.46762   4.75213   0.000010352890188   0.000007292890841  -0.000005923184451
Si    2.03662  10.18313   2.03662   0.000016285845124   0.000002740934777   0.000000289449244
Si    0.67888   6.10987   6.10987   0.000110659812735  -0.000020540549370  -0.000020572175899
Si    3.39437   6.10987   8.82538  -0.000005689558217   0.000014359685194   0.000004396951245
Si    0.67888   8.82538   8.82538   0.000105439952014   0.000008974855234   0.000008956350185
Si    3.39437   8.82538   6.10987  -0.000005683146757   0.000004383907938   0.000014364303161
Si    4.75213   7.46762   7.46762   0.000008931418066  -0.000012512599754  -0.000012513057111
Si    4.75213  10.18313  10.18313   0.000007891550147   0.000004356025017   0.000004352410321
Si    2.03662   7.46762  10.18313  -0.000061821388222  -0.000005679339286  -0.000001436738321
Si    2.03662  10.18313   7.46762  -0.000061821502939  -0.000001441511687  -0.000005690368406
Si    0.67888   6.10987  11.54087   0.000107995074488   0.000019459777697  -0.000023256122433
Si    3.39437   6.10987  14.25638  -0.000021117346687  -0.000011459308293  -0.000024506965743
Si    0.67888   8.82538  14.25638  -0.000010920515322   0.000000259911193   0.000000793952755
Si    3.39437   8.82538  11.54087  -0.000011784367291   0.000007462659872  -0.000024190757558
Si    4.75213   7.46762  12.89863   0.000009263026521  -0.000005165225538   0.000031240360576
Si    4.75213  10.18313  15.61412   0.000000018357296  -0.000001085580150   0.000005634569486
Si    2.03662   7.46762  15.61412   0.000015411207567  -0.000005632404316  -0.000003174977511
Si    2.03662  10.18313  12.89863   0.000009476667594  -0.000010181778027   0.000015935186354
Si    0.67888  11.54087   0.67888  -0.000015236112818  -0.000007928429407   0.000008176897517
Si    3.39437  11.54087   3.39437  -0.000022164524511   0.000003305941976   0.000016340693845
Si    0.67888  14.25638   3.39437   0.000432193253875  -0.000116812607335   0.000113371016884
Si    3.39437  14.25638   0.67888  -0.000189171798916   0.000191811643690  -0.000113109060048
Si    4.75213  12.89863   2.03662  -0.000016953975233   0.000024688492866   0.000054546923608
Si    4.75213  15.61412   4.75213  -0.000010895001284  -0.000064531145085  -0.000012850484294
Si    2.03662  12.89863   4.75213  -0.000177934635930  -0.000051916733683   0.000057738468872
Si    2.03662  15.61412   2.03662  -0.003409337037538   0.002461153254933  -0.002468479474893
Si    0.67888  11.54087   6.10987   0.000107977428579  -0.000023206322666   0.000019502261208
Si    3.39437  11.54087   8.82538  -0.000011773895239  -0.000024210013602   0.000007444151390
Si    0.67888  14.25638   8.82538  -0.000010754680092   0.000000804510416   0.000000221547184
Si    3.39437  14.25638   6.10987  -0.000021131791956  -0.000024599572927  -0.000011472282521
Si    4.75213  12.89863   7.46762   0.000009159823864   0.000031253060169  -0.000005149123862
Si    4.75213  15.61412  10.18313  -0.000000026742576   0.000005647744331  -0.000001089674577
Si    2.03662  12.89863  10.18313   0.000009471249579   0.000015968211271  -0.000010203071786
Si    2.03662  15.61412   7.46762   0.000015434211520  -0.000003004959015  -0.000005644876806
Si    0.67888  11.54087  11.54087   0.000112515836469   0.000011569344920   0.000011619516601
Si    3.39437  11.54087  14.25638  -0.000016809203383   0.000001361405288  -0.000022976840128
Si    0.67888  14.25638  14.25638   0.000431703341221   0.000108989962446   0.000109336238972
Si    3.39437  14.25638  11.54087  -0.000016812877630  -0.000022973847297   0.000001334356692
Si    4.75213  12.89863  12.89863   0.000015193727258   0.000008133988600   0.000008144356084
Si    4.75213  15.61412  15.61412   0.000009493314148  -0.000035695107621  -0.000035820536728
Si    2.03662  12.89863  15.61412   0.000034995478066  -0.000026408765273   0.000034368555252
Si    2.03662  15.61412  12.89863   0.000035094743430   0.000034285048391  -0.000026317036674
Si    6.10987   0.67888   0.67888  -0.000004698568914   0.000002878076360   0.000002874552815
Si    8.82538   0.67888   3.39437   0.000006428769699   0.000005528150438  -0.000008023074362
Si    6.10987   3.39437   3.39437   0.000002864189643  -0.000014377776174  -0.000014379353279
Si    8.82538   3.39437   0.67888   0.000006444349357  -0.000008018243715   0.000005512588287
Si   10.18313   2.03662   2.03662  -0.000001373863787   0.000002679765837   0.000002706457650
Si   10.18313   4.75213   4.75213   0.000000758198145  -0.000000877666543  -0.000000916779064
Si    7.46762   2.03662   4.75213   0.000000583955926   0.000011292953803   0.000004668052711
Si    7.46762   4.75213   2.03662   0.000000617573704   0.000004669889829   0.000011294822974
Si    6.10987   0.67888   6.10987  -0.000004384026436   0.000028315181867  -0.000014483942435
Si    8.82538   0.67888   8.82538   0.000006830514978   0.000008978102309   0.000008956331289
Si    6.10987   3.39437   8.82538  -0.000000585694904   0.000012231914414   0.000001088151837
Si    8.82538   3.39437   6.10987   0.000005861123252  -0.000004468196307   0.000000849538769
Si   10.18313   2.03662   7.46762  -0.000003964557913  -0.000000888588651  -0.000006383496514
Si   10.18313   4.75213  10.18313   0.000004998305526   0.000011500835597  -0.000007287305462
Si    7.46762   2.03662  10.18313  -0.000011389488398   0.000001935533011   0.000001104227494
Si    7.46762   4.75213   7.46762  -0.000003131249685   0.000003999896729  -0.000015442400437
Si    6.10987   0.67888  11.54087  -0.000005258478454  -0.000018302101375   0.000011597572313
Si    8.82538   0.67888  14.25638   0.000001144303717   0.000005502201863   0.000000732015296
Si    6.10987   3.39437  14.25638   0.000002084589849  -0.000011612963673   0.000004473970411
Si    8.82538   3.39437  11.54087   0.000012123232903  -0.000007496615144  -0.000007130557245
Si   10.18313   2.03662  12.89863   0.000003404220130  -0.000010155315293   0.000009089033550
Si   10.18313   4.75213  15.61412   0.000004295140003   0.000000909965441   0.000007277322475
Si    7.46762   2.03662  15.61412  -0.000003996612271  -0.000003808305992   0.000000069700017
Si    7.46762   4.75213  12.89863  -0.000007376892542   0.000012881413156   0.000005014864396
Si    6.10987   6.10987   0.67888  -0.000004499403766  -0.000014497207143   0.000028279540084
Si    8.82538   6.10987   3.39437   0.000005879056547   0.000000842985925  -0.000004475447750
Si    6.10987   8.82538   3.39437  -0.000000594440662   0.000001093618239   0.000012220950402
Si    8.82538   8.82538   0.67888   0.000006784424380   0.000008974832388   0.000008959471058
Si   10.18313   7.46762   2.03662  -0.000003954070935  -0.000006387769177  -0.000000906236104
Si   10.18313  10.18313   4.75213   0.000004992755469  -0.000007275548997   0.000011525114291
Si    7.46762   7.46762   4.75213  -0.000003135991078  -0.000015425809563   0.000003986058240
Si    7.46762  10.18313   2.03662  -0.000011376490739   0.000001094576263   0.000001952879164
Si    6.10987   6.10987   6.10987  -0.000003939356811   0.000003375146131   0.000003374729660
Si    8.82538   6.10987   8.82538   0.000001948786931   0.000000834568413   0.000002880345493
Si    6.10987   8.82538   8.82538  -0.000000934116518   0.000002889271934   0.000002884964556
Si    8.82538   8.82538   6.10987   0.000001938442489   0.000002854319279   0.000000829270362
Si   10.18313   7.46762   7.46762  -0.000001933543839  -0.000002011567707  -0.000002029552243
Si   10.18313  10.18313  10.18313  -0.000001058513937  -0.000000877847150  -0.000000855592755
Si    7.46762   7.46762  10.18313  -0.000003892058420  -0.000003823035189   0.000000058662427
Si    7.46762  10.18313   7.46762  -0.000003909279270   0.000000075260318  -0.000003813610074
Si    6.10987   6.10987  11.54087  -0.000003821169374   0.000003472898784  -0.000010587315479
Si    8.82538   6.10987  14.25638   0.000010264498679  -0.000001825151065  -0.000001472238124
Si    6.10987   8.82538  14.25638   0.000000281838158   0.000008916418724  -0.000015107557489
Si    8.82538   8.82538  11.54087   0.000007223152156   0.000008175691724  -0.000008120926918
Si   10.18313   7.46762  12.89863   0.000005867276500   0.000004386425852  -0.000001513947473
Si   10.18313  10.18313  15.61412  -0.000003953977100  -0.000000731564262  -0.000006223703516
Si    7.46762   7.46762  15.61412  -0.000013236036170  -0.000010070429753  -0.000010911076248
Si    7.46762  10.18313  12.89863   0.000002131702110   0.000008142546478   0.000007062468308
Si    6.10987  11.54087   0.67888  -0.000005373169244   0.000011606648116  -0.000018265037059
Si    8.82538  11.54087   3.39437   0.000012122052812  -0.000007150169147  -0.000007483139678
Si    6.10987  14.25638   3.39437   0.000002084854487   0.000004494907686  -0.000011598393263
Si    8.82538  14.25638   0.67888   0.000001177045852   0.000000736871955   0.000005534935988
Si   10.18313  12.89863   2.03662   0.000003420363558   0.000009099497192  -0.000010164313151
Si   10.18313  15.61412   4.75213   0.000004279116124   0.000007263995143   0.000000922454830
Si    7.46762  12.89863   4.75213  -0.000007376965923   0.000005066220656   0.000012895845460
Si    7.46762  15.61412   2.03662  -0.000003979120871   0.000000057532488  -0.000003827705875
Si    6.10987  11.54087   6.10987  -0.000003821070766  -0.000010593659316   0.000003460056858
Si    8.82538  11.54087   8.82538   0.000007216159404  -0.000008116539039   0.000008166652181
Si    6.10987  14.25638   8.82538   0.000000290651832  -0.000015122517966   0.000008924224798
Si    8.82538  14.25638   6.10987   0.000010265622651  -0.000001477232360  -0.000001826327372
Si   10.18313  12.89863   7.46762   0.000005872845236  -0.000001491786066   0.000004402469332
Si   10.18313  15.61412  10.18313  -0.000003964416019  -0.000006234869862  -0.000000742065439
Si    7.46762  12.89863  10.18313   0.000002153629434   0.000007031519975   0.000008149453488
Si    7.46762  15.61412   7.46762  -0.000013249275815  -0.000010912007842  -0.000010061724188
Si    6.10987  11.54087  11.54087  -0.000003065535596  -0.000006264469472  -0.000006259694160
Si    8.82538  11.54087  14.25638   0.000005860157179  -0.000004590617934   0.000000718046232
Si    6.10987  14.25638  14.25638   0.000001997525635   0.000011481301148   0.000011487135876
Si    8.82538  14.25638  11.54087   0.000005876674666   0.000000718215391  -0.000004604468482
Si   10.18313  12.89863  12.89863   0.000000760422213   0.000006661466810   0.000006692073732
Si   10.18313  15.61412  15.61412  -0.000002247227997  -0.000005568211643  -0.000005590630825
Si    7.46762  12.89863  15.61412  -0.000004667058204   0.000006359700473  -0.000018587515563
Si    7.46762  15.61412  12.89863  -0.000004683742937  -0.000018576010627   0.000006378718589
Si   11.54087   0.67888   0.67888  -0.000013440877382   0.000008148482629   0.000008152565047
Si   14.25638   0.67888   3.39437  -0.000179285547489   0.000112575489544   0.000182479148885
Si   11.54087   3.39437   3.39437  -0.000006648029827  -0.000003528492754  -0.000003552196098
Si   14.25638   3.39437   0.67888  -0.000179318740284   0.000182550186273   0.000112982109497
Si   15.61412   2.03662   2.03662  -0.003262972047186   0.002166835198556   0.002166947623006
Si   15.61412   4.75213   4.75213  -0.000180876456099  -0.000045695861772  -0.000045779535236
Si   12.89863   2.03662   4.75213  -0.000014355660560  -0.000055151464452   0.000022767567773
Si   12.89863   4.75213   2.03662  -0.000014315213281   0.000022759343013  -0.000055028354746
Si   11.54087   0.67888   6.10987  -0.000006661638908   0.000022726622409   0.000013098575297
Si   14.25638   0.67888   8.82538  -0.000011120113092   0.000002890928180   0.000002884715671
Si   11.54087   3.39437   8.82538  -0.000008758680630  -0.000024324566997   0.000007223880587
Si   14.25638   3.39437   6.10987  -0.000014130692742  -0.000031372936932   0.000011734796531
Si   15.61412   2.03662   7.46762   0.000013595882492  -0.000001252228029  -0.000000005019624
Si   15.61412   4.75213  10.18313   0.000006436244617   0.000011806047593   0.000011229210026
Si   12.89863   2.03662  10.18313   0.000004478948335   0.000009196857474   0.000001802471329
Si   12.89863   4.75213   7.46762   0.000009174603027   0.000031444551215  -0.000012883656684
Si   11.54087   0.67888  11.54087  -0.000012761153960  -0.000010874676492  -0.000022919993843
Si   14.25638   0.67888  14.25638  -0.000178468545626  -0.000102456933392  -0.000185406652476
Si   11.54087   3.39437  14.25638  -0.000001001993057   0.000008812963982  -0.000010822307321
Si   14.25638   3.39437  11.54087  -0.000013365899558  -0.000027767894727  -0.000007712817562
Si   15.61412   2.03662  12.89863   0.000029307093970   0.000040272312526   0.000029991557164
Si   15.61412   4.75213  15.61412   0.000023882810249  -0.000019096916108  -0.000047610886053
Si   12.89863   2.03662  15.61412   0.000005124052439  -0.000027792176704   0.000025943491137
Si   12.89863   4.75213  12.89863   0.000015183605904   0.000008314625841   0.000008006014950
Si   11.54087   6.10987   0.67888  -0.000006783493867   0.000013105219916   0.000022698299208
Si   14.25638   6.10987   3.39437  -0.000014114817684   0.000011720640513  -0.000031299831174
Si   11.54087   8.82538   3.39437  -0.000008768037478   0.000007242764670  -0.000024293610011
Si   14.25638   8.82538   0.67888  -0.000011036353613   0.000002889013421   0.000002886654373
Si   15.61412   7.46762   2.03662   0.000013602700485  -0.000000009414084  -0.000001440229362
Si   15.61412  10.18313   4.75213   0.000006418777004   0.000011211955160   0.000011787627395
Si   12.89863   7.46762   4.75213   0.000009274056913  -0.000012905230153   0.000031433799934
Si   12.89863  10.18313   2.03662   0.000004504125888   0.000001804399766   0.000009191686999
Si   11.54087   6.10987   6.10987  -0.000010944824368  -0.000003432412380  -0.000003421201512
Si   14.25638   6.10987   8.82538  -0.000002602497017  -0.000015203879035   0.000008677740059
Si   11.54087   8.82538   8.82538  -0.000009853261797   0.000008157072949   0.000008161191905
Si   14.25638   8.82538   6.10987  -0.000002613136782   0.000008671630444  -0.000015203117565
Si   15.61412   7.46762   7.46762  -0.000070092267239  -0.000010398472441  -0.000010374535650
Si   15.61412  10.18313  10.18313  -0.000068228658869   0.000001420480861   0.000001415121193
Si   12.89863   7.46762  10.18313   0.000003470431118   0.000001348106449  -0.000003348373978
Si   12.89863  10.18313   7.46762   0.000003487668518  -0.000003347501476   0.000001330417043
Si   11.54087   6.10987  11.54087  -0.000006661687840  -0.000002633858068   0.000000622239111
Si   14.25638   6.10987  14.25638  -0.000014256607711   0.000004841493558   0.000024888445804
Si   11.54087   8.82538  14.25638  -0.000002666342026   0.000004604369970   0.000014467348209
Si   14.25638   8.82538  11.54087  -0.000003488179255   0.000001337726535   0.000012315112335
Si   15.61412   7.46762  12.89863   0.000001151730852  -0.000018495558414  -0.000000739540184
Si   15.61412  10.18313  15.61412   0.000013585536042  -0.000003739220062  -0.000002320026671
Si   12.89863   7.46762  15.61412   0.000005540054444  -0.000009959889659  -0.000017354079201
Si   12.89863  10.18313  12.89863   0.000003197694466   0.000003059540144  -0.000019591688960
Si   11.54087  11.54087   0.67888  -0.000012865333196  -0.000022950852896  -0.000010851867687
Si   14.25638  11.54087   3.39437  -0.000013379835548  -0.000007732127718  -0.000027767956879
Si   11.54087  14.25638   3.39437  -0.000001019265323  -0.000010809253816   0.000008807437698
Si   14.25638  14.25638   0.67888  -0.000178494352780  -0.000185482759775  -0.000102861297260
Si   15.61412  12.89863   2.03662   0.000029157807656   0.000030075489444   0.000040347840922
Si   15.61412  15.61412   4.75213   0.000024048720526  -0.000047531751524  -0.000018996367323
Si   12.89863  12.89863   4.75213   0.000015183224718   0.000007998554370   0.000008315620744
Si   12.89863  15.61412   2.03662   0.000005107450499   0.000025844568019  -0.000027910269848
Si   11.54087  11.54087   6.10987  -0.000006644433254   0.000000636159770  -0.000002638443227
Si   14.25638  11.54087   8.82538  -0.000003477607511   0.000012311657912   0.000001333721215
Si   11.54087  14.25638   8.82538  -0.000002674305137   0.000014474050232   0.000004617723459
Si   14.25638  14.25638   6.10987  -0.000014244281205   0.000024883446927   0.000004826757771
Si   15.61412  12.89863   7.46762   0.000001152059808  -0.000000774634713  -0.000018522382363
Si   15.61412  15.61412  10.18313   0.000013614582831  -0.000002500644992  -0.000003751027650
Si   12.89863  12.89863  10.18313   0.000003081650858  -0.000019596293364   0.000003062283392
Si   12.89863  15.61412   7.46762   0.000005514403547  -0.000017355151809  -0.000009962264976
Si   11.54087  11.54087  11.54087  -0.000011981756054  -0.000004723868958  -0.000004739219790
Si   14.25638  11.54087  14.25638  -0.000014121992388  -0.000018837560192   0.000024175062429
Si   11.54087  14.25638  14.25638  -0.000005617319680  -0.000004637119481  -0.000004617371346
Si   14.25638  14.25638  11.54087  -0.000014135784203   0.000024256210078  -0.000018858315814
Si   15.61412  12.89863  12.89863  -0.000180881633208   0.000063668639450   0.000063715901439
Si   15.61412  15.61412  15.61412  -0.003264887810527  -0.002175712186575  -0.002175811863540
Si   12.89863  12.89863  15.61412  -0.000008189025449  -0.000010901402917   0.000045159079414
Si   12.89863  15.61412  12.89863  -0.000008246381630   0.000045257644228  -0.000010914831155
