CRYSTAL
PRIMVEC
   0.000000  10.862000  10.862000
  10.862000   0.000000  10.862000
  10.862000  10.862000   0.000000
PRIMCOORD
 128 1
Si     6.789E-01     6.789E-01     6.789E-01     2.665E-15     0.000E+00     1.632E-31
Si     2.037E+00     2.037E+00     2.037E+00     2.220E-15     0.000E+00     1.360E-31
Si     3.394E+00     3.394E+00     6.789E-01     8.882E-16     0.000E+00     5.439E-32
Si     4.752E+00     4.752E+00     2.037E+00     1.776E-15     0.000E+00     1.088E-31
Si     6.110E+00     6.110E+00     6.789E-01     8.882E-16     0.000E+00     5.439E-32
Si     7.468E+00     7.468E+00     2.037E+00     3.553E-15     0.000E+00     2.175E-31
Si     8.825E+00     8.825E+00     6.789E-01     6.217E-15     0.000E+00     3.807E-31
Si     1.018E+01     1.018E+01     2.037E+00     1.776E-15     0.000E+00     1.088E-31
Si     3.394E+00     6.789E-01     3.394E+00     1.776E-15     0.000E+00     1.088E-31
Si     4.752E+00     2.037E+00     4.752E+00     1.332E-15     0.000E+00     8.158E-32
Si     6.110E+00     3.394E+00     3.394E+00     4.441E-15     0.000E+00     2.719E-31
Si     7.468E+00     4.752E+00     4.752E+00     5.329E-15     0.000E+00     3.263E-31
Si     8.825E+00     6.110E+00     3.394E+00     5.329E-15     0.000E+00     3.263E-31
Si     1.018E+01     7.468E+00     4.752E+00     2.665E-15     0.000E+00     1.632E-31
Si     1.154E+01     8.825E+00     3.394E+00     3.553E-15     0.000E+00     2.175E-31
Si     1.290E+01     1.018E+01     4.752E+00     6.217E-15     0.000E+00     3.807E-31
Si     6.110E+00     6.789E-01     6.110E+00     1.776E-15     0.000E+00     1.088E-31
Si     7.468E+00     2.037E+00     7.468E+00     3.997E-15     0.000E+00     2.447E-31
Si     8.825E+00     3.394E+00     6.110E+00     2.665E-15     0.000E+00     1.632E-31
Si     1.018E+01     4.752E+00     7.468E+00     1.332E-15     0.000E+00     8.158E-32
Si     1.154E+01     6.110E+00     6.110E+00     1.776E-15     0.000E+00     1.088E-31
Si     1.290E+01     7.468E+00     7.468E+00     5.329E-15     0.000E+00     3.263E-31
Si     1.426E+01     8.825E+00     6.110E+00     3.553E-15     0.000E+00     2.175E-31
Si     1.561E+01     1.018E+01     7.468E+00     5.329E-15     0.000E+00     3.263E-31
Si     8.825E+00     6.789E-01     8.825E+00     8.882E-16     0.000E+00     5.439E-32
Si     1.018E+01     2.037E+00     1.018E+01     3.109E-15     0.000E+00     1.903E-31
Si     1.154E+01     3.394E+00     8.825E+00     1.776E-15     0.000E+00     1.088E-31
Si     1.290E+01     4.752E+00     1.018E+01     4.441E-16     0.000E+00     2.719E-32
Si     1.426E+01     6.110E+00     8.825E+00     2.665E-15     0.000E+00     1.632E-31
Si     1.561E+01     7.468E+00     1.018E+01     3.997E-15     0.000E+00     2.447E-31
Si     1.697E+01     8.825E+00     8.825E+00     5.329E-15     0.000E+00     3.263E-31
Si     1.833E+01     1.018E+01     1.018E+01     4.441E-15     0.000E+00     2.719E-31
Si     6.789E-01     3.394E+00     3.394E+00     9.770E-15     0.000E+00     5.982E-31
Si     2.037E+00     4.752E+00     4.752E+00     8.882E-16     0.000E+00     5.439E-32
Si     3.394E+00     6.110E+00     3.394E+00     5.329E-15     0.000E+00     3.263E-31
Si     4.752E+00     7.468E+00     4.752E+00     7.994E-15     0.000E+00     4.895E-31
Si     6.110E+00     8.825E+00     3.394E+00     8.882E-16     0.000E+00     5.439E-32
Si     7.468E+00     1.018E+01     4.752E+00     3.109E-15     0.000E+00     1.903E-31
Si     8.825E+00     1.154E+01     3.394E+00     5.329E-15     0.000E+00     3.263E-31
Si     1.018E+01     1.290E+01     4.752E+00     5.773E-15     0.000E+00     3.535E-31
Si     3.394E+00     3.394E+00     6.110E+00     4.441E-15     0.000E+00     2.719E-31
Si     4.752E+00     4.752E+00     7.468E+00     6.217E-15     0.000E+00     3.807E-31
Si     6.110E+00     6.110E+00     6.110E+00     7.994E-15     0.000E+00     4.895E-31
Si     7.468E+00     7.468E+00     7.468E+00     1.776E-15     0.000E+00     1.088E-31
Si     8.825E+00     8.825E+00     6.110E+00     4.441E-15     0.000E+00     2.719E-31
Si     1.018E+01     1.018E+01     7.468E+00     5.773E-15     0.000E+00     3.535E-31
Si     1.154E+01     1.154E+01     6.110E+00     5.329E-15     0.000E+00     3.263E-31
Si     1.290E+01     1.290E+01     7.468E+00     4.885E-15     0.000E+00     2.991E-31
Si     6.110E+00     3.394E+00     8.825E+00     4.441E-15     0.000E+00     2.719E-31
Si     7.468E+00     4.752E+00     1.018E+01     3.997E-15     0.000E+00     2.447E-31
Si     8.825E+00     6.110E+00     8.825E+00     3.553E-15     0.000E+00     2.175E-31
Si     1.018E+01     7.468E+00     1.018E+01     3.553E-15     0.000E+00     2.175E-31
Si     1.154E+01     8.825E+00     8.825E+00     4.441E-15     0.000E+00     2.719E-31
Si     1.290E+01     1.018E+01     1.018E+01     1.332E-15     0.000E+00     8.158E-32
Si     1.426E+01     1.154E+01     8.825E+00     5.329E-15     0.000E+00     3.263E-31
Si     1.561E+01     1.290E+01     1.018E+01     5.773E-15     0.000E+00     3.535E-31
Si     8.825E+00     3.394E+00     1.154E+01     7.105E-15     0.000E+00     4.351E-31
Si     1.018E+01     4.752E+00     1.290E+01     6.217E-15     0.000E+00     3.807E-31
Si     1.154E+01     6.110E+00     1.154E+01     3.553E-15     0.000E+00     2.175E-31
Si     1.290E+01     7.468E+00     1.290E+01     1.776E-15     0.000E+00     1.088E-31
Si     1.426E+01     8.825E+00     1.154E+01     4.441E-15     0.000E+00     2.719E-31
Si     1.561E+01     1.018E+01     1.290E+01     1.332E-15     0.000E+00     8.158E-32
Si     1.697E+01     1.154E+01     1.154E+01     8.882E-16     0.000E+00     5.439E-32
Si     1.833E+01     1.290E+01     1.290E+01     7.105E-15     0.000E+00     4.351E-31
Si     6.789E-01     6.110E+00     6.110E+00     8.882E-16     0.000E+00     5.439E-32
Si     2.037E+00     7.468E+00     7.468E+00     3.109E-15     0.000E+00     1.903E-31
Si     3.394E+00     8.825E+00     6.110E+00     3.553E-15     0.000E+00     2.175E-31
Si     4.752E+00     1.018E+01     7.468E+00     7.550E-15     0.000E+00     4.623E-31
Si     6.110E+00     1.154E+01     6.110E+00     7.994E-15     0.000E+00     4.895E-31
Si     7.468E+00     1.290E+01     7.468E+00     1.776E-15     0.000E+00     1.088E-31
Si     8.825E+00     1.426E+01     6.110E+00     8.882E-16     0.000E+00     5.439E-32
Si     1.018E+01     1.561E+01     7.468E+00     2.220E-15     0.000E+00     1.360E-31
Si     3.394E+00     6.110E+00     8.825E+00     5.329E-15     0.000E+00     3.263E-31
Si     4.752E+00     7.468E+00     1.018E+01     2.220E-15     0.000E+00     1.360E-31
Si     6.110E+00     8.825E+00     8.825E+00     5.329E-15     0.000E+00     3.263E-31
Si     7.468E+00     1.018E+01     1.018E+01     5.773E-15     0.000E+00     3.535E-31
Si     8.825E+00     1.154E+01     8.825E+00     8.882E-16     0.000E+00     5.439E-32
Si     1.018E+01     1.290E+01     1.018E+01     2.220E-15     0.000E+00     1.360E-31
Si     1.154E+01     1.426E+01     8.825E+00     6.217E-15     0.000E+00     3.807E-31
Si     1.290E+01     1.561E+01     1.018E+01     7.550E-15     0.000E+00     4.623E-31
Si     6.110E+00     6.110E+00     1.154E+01     5.329E-15     0.000E+00     3.263E-31
Si     7.468E+00     7.468E+00     1.290E+01     4.885E-15     0.000E+00     2.991E-31
Si     8.825E+00     8.825E+00     1.154E+01     3.553E-15     0.000E+00     2.175E-31
Si     1.018E+01     1.018E+01     1.290E+01     1.776E-15     0.000E+00     1.088E-31
Si     1.154E+01     1.154E+01     1.154E+01     8.882E-16     0.000E+00     5.439E-32
Si     1.290E+01     1.290E+01     1.290E+01     1.776E-15     0.000E+00     1.088E-31
Si     1.426E+01     1.426E+01     1.154E+01     4.925E-16     0.000E+00     1.242E-14
Si     1.561E+01     1.561E+01     1.290E+01     8.438E-15     0.000E+00     5.167E-31
Si     8.825E+00     6.110E+00     1.426E+01     3.553E-15     0.000E+00     2.175E-31
Si     1.018E+01     7.468E+00     1.561E+01     3.997E-15     0.000E+00     2.447E-31
Si     1.154E+01     8.825E+00     1.426E+01     4.441E-15     0.000E+00     2.719E-31
Si     1.290E+01     1.018E+01     1.561E+01     5.773E-15     0.000E+00     3.535E-31
Si     1.426E+01     1.154E+01     1.426E+01     2.665E-15     0.000E+00     1.632E-31
Si     1.561E+01     1.290E+01     1.561E+01     8.438E-15     0.000E+00     5.167E-31
Si     1.697E+01     1.426E+01     1.426E+01     5.329E-15     0.000E+00     3.263E-31
Si     1.833E+01     1.561E+01     1.561E+01     9.326E-15     0.000E+00     5.710E-31
Si     6.789E-01     8.825E+00     8.825E+00     3.553E-15     0.000E+00     2.175E-31
Si     2.037E+00     1.018E+01     1.018E+01     2.220E-15     0.000E+00     1.360E-31
Si     3.394E+00     1.154E+01     8.825E+00     6.217E-15     0.000E+00     3.807E-31
Si     4.752E+00     1.290E+01     1.018E+01     4.885E-15     0.000E+00     2.991E-31
Si     6.110E+00     1.426E+01     8.825E+00     2.665E-15     0.000E+00     1.632E-31
Si     7.468E+00     1.561E+01     1.018E+01     5.329E-15     0.000E+00     3.263E-31
Si     8.825E+00     1.697E+01     8.825E+00     3.553E-15     0.000E+00     2.175E-31
Si     1.018E+01     1.833E+01     1.018E+01     4.441E-16     0.000E+00     2.719E-32
Si     3.394E+00     8.825E+00     1.154E+01     4.441E-15     0.000E+00     2.719E-31
Si     4.752E+00     1.018E+01     1.290E+01     2.220E-15     0.000E+00     1.360E-31
Si     6.110E+00     1.154E+01     1.154E+01     3.553E-15     0.000E+00     2.175E-31
Si     7.468E+00     1.290E+01     1.290E+01     3.997E-15     0.000E+00     2.447E-31
Si     8.825E+00     1.426E+01     1.154E+01     2.665E-15     0.000E+00     1.632E-31
Si     1.018E+01     1.561E+01     1.290E+01     2.220E-15     0.000E+00     1.360E-31
Si     1.154E+01     1.697E+01     1.154E+01     5.329E-15     0.000E+00     3.263E-31
Si     1.290E+01     1.833E+01     1.290E+01     7.550E-15     0.000E+00     4.623E-31
Si     6.110E+00     8.825E+00     1.426E+01     2.665E-15     0.000E+00     1.632E-31
Si     7.468E+00     1.018E+01     1.561E+01     2.220E-15     0.000E+00     1.360E-31
Si     8.825E+00     1.154E+01     1.426E+01     1.776E-15     0.000E+00     1.088E-31
Si     1.018E+01     1.290E+01     1.561E+01     4.885E-15     0.000E+00     2.991E-31
Si     1.154E+01     1.426E+01     1.426E+01     8.882E-16     0.000E+00     5.439E-32
Si     1.290E+01     1.561E+01     1.561E+01     3.997E-15     0.000E+00     2.447E-31
Si     1.426E+01     1.697E+01     1.426E+01     2.665E-15     0.000E+00     1.632E-31
Si     1.561E+01     1.833E+01     1.561E+01     1.332E-15     0.000E+00     8.158E-32
Si     8.825E+00     8.825E+00     1.697E+01     5.329E-15     0.000E+00     3.263E-31
Si     1.018E+01     1.018E+01     1.833E+01     7.550E-15     0.000E+00     4.623E-31
Si     1.154E+01     1.154E+01     1.697E+01     5.329E-15     0.000E+00     3.263E-31
Si     1.290E+01     1.290E+01     1.833E+01     8.882E-16     0.000E+00     5.439E-32
Si     1.426E+01     1.426E+01     1.697E+01     1.776E-15     0.000E+00     1.088E-31
Si     1.561E+01     1.561E+01     1.833E+01     4.441E-15     0.000E+00     2.719E-31
Si     1.697E+01     1.697E+01     1.697E+01     2.665E-15     0.000E+00     1.632E-31
Si     1.833E+01     1.833E+01     1.833E+01     4.441E-15     0.000E+00     2.719E-31
