216 

Si    0.67888   0.67888   0.67888   0.000006062395490   0.000006062394063   0.000006045496875
Si    3.39437   0.67888   3.39437  -0.000006062392717   0.000006062394269  -0.000006045496891
Si    0.67888   3.39437   3.39437   0.000006062395576  -0.000006062393888  -0.000006045496856
Si    3.39437   3.39437   0.67888  -0.000006062392717  -0.000006062394159   0.000006045497008
Si    4.75213   2.03662   2.03662   0.000008387535061   0.000000000000042  -0.000000000000060
Si    4.75213   4.75213   4.75213   0.000004937320961   0.000004937319909   0.000004941504743
Si    2.03662   2.03662   4.75213   0.000000000000628   0.000000000000005   0.000008392743345
Si    2.03662   4.75213   2.03662   0.000000000000400   0.000008387533479   0.000000000000191
Si    0.67888   0.67888   6.10987   0.000002760029114   0.000002760028049   0.000000195459377
Si    3.39437   0.67888   8.82538  -0.000004937318516   0.000004937319558   0.000004941504461
Si    0.67888   3.39437   8.82538   0.000004937320692  -0.000004937319719   0.000004941504607
Si    3.39437   3.39437   6.10987  -0.000002760026930  -0.000002760028262   0.000000195459427
Si    4.75213   2.03662   7.46762   0.000002774837167   0.000000200102682  -0.000002771120289
Si    4.75213   4.75213  10.18313   0.000002760029224   0.000002760028028  -0.000000195459446
Si    2.03662   2.03662  10.18313   0.000000000000362   0.000000000000103   0.000000000000217
Si    2.03662   4.75213   7.46762   0.000000200103206   0.000002774836006  -0.000002771120348
Si    0.67888   0.67888  11.54087   0.000004937320701   0.000004937319672  -0.000004941504720
Si    3.39437   0.67888  14.25638  -0.000002760026649   0.000002760028114  -0.000000195459461
Si    0.67888   3.39437  14.25638   0.000002760029200  -0.000002760027999  -0.000000195459414
Si    3.39437   3.39437  11.54087  -0.000004937318352  -0.000004937319499  -0.000004941504520
Si    4.75213   2.03662  12.89863   0.000002774836786  -0.000000200102480   0.000002771120195
Si    4.75213   4.75213  15.61412   0.000006062395471   0.000006062394222  -0.000006045496827
Si    2.03662   2.03662  15.61412   0.000000000000328   0.000000000000107  -0.000008392743244
Si    2.03662   4.75213  12.89863  -0.000000200102159   0.000002774835653   0.000002771120039
Si    0.67888   6.10987   0.67888   0.000002774836942   0.000000200102709   0.000002771120078
Si    3.39437   6.10987   3.39437  -0.000002774834508   0.000000200102568  -0.000002771120213
Si    0.67888   8.82538   3.39437   0.000004937320828   0.000004937319825  -0.000004941504533
Si    3.39437   8.82538   0.67888  -0.000004937318486   0.000004937319585   0.000004941504301
Si    4.75213   7.46762   2.03662   0.000002760029286  -0.000002760028161   0.000000195459377
Si    4.75213  10.18313   4.75213   0.000002774836917  -0.000000200102540   0.000002771119694
Si    2.03662   7.46762   4.75213   0.000000200103090  -0.000002774835806   0.000002771119991
Si    2.03662  10.18313   2.03662   0.000000000000344  -0.000000000000024  -0.000000000000000
Si    0.67888   6.10987   6.10987   0.000008387534914  -0.000000000000018   0.000000000000189
Si    3.39437   6.10987   8.82538  -0.000002774834516  -0.000000200102463   0.000002771120396
Si    0.67888   8.82538   8.82538   0.000006062395445   0.000006062394196   0.000006045496511
Si    3.39437   8.82538   6.10987  -0.000002760026804   0.000002760028201  -0.000000195459392
Si    4.75213   7.46762   7.46762   0.000004937320844  -0.000004937319942  -0.000004941504746
Si    4.75213  10.18313  10.18313   0.000008387534878  -0.000000000000026  -0.000000000000077
Si    2.03662   7.46762  10.18313   0.000000000000334  -0.000008387533812   0.000000000000005
Si    2.03662  10.18313   7.46762   0.000000000000258  -0.000000000000144  -0.000008392742850
Si    0.67888   6.10987  11.54087   0.000002774836894  -0.000000200102466  -0.000002771120181
Si    3.39437   6.10987  14.25638  -0.000008387532174  -0.000000000000027   0.000000000000133
Si    0.67888   8.82538  14.25638   0.000002760029355   0.000002760028062   0.000000195459483
Si    3.39437   8.82538  11.54087  -0.000006062392850   0.000006062394118  -0.000006045496615
Si    4.75213   7.46762  12.89863   0.000006062395470  -0.000006062394033   0.000006045496678
Si    4.75213  10.18313  15.61412   0.000002774836986   0.000000200102250  -0.000002771120098
Si    2.03662   7.46762  15.61412  -0.000000200102076  -0.000002774835682  -0.000002771120120
Si    2.03662  10.18313  12.89863   0.000000000000292  -0.000000000000069   0.000008392742979
Si    0.67888  11.54087   0.67888   0.000004937320982  -0.000004937319815   0.000004941504467
Si    3.39437  11.54087   3.39437  -0.000004937318405  -0.000004937319502  -0.000004941504192
Si    0.67888  14.25638   3.39437   0.000002774836915  -0.000000200102609  -0.000002771120000
Si    3.39437  14.25638   0.67888  -0.000002774834293  -0.000000200102737   0.000002771120170
Si    4.75213  12.89863   2.03662   0.000002760029146   0.000002760028047  -0.000000195459403
Si    4.75213  15.61412   4.75213   0.000006062395629  -0.000006062394218   0.000006045496741
Si    2.03662  12.89863   4.75213  -0.000000200102060   0.000002774835663   0.000002771120190
Si    2.03662  15.61412   2.03662   0.000000000000329  -0.000008387533471  -0.000000000000118
Si    0.67888  11.54087   6.10987   0.000002760029244  -0.000002760027876  -0.000000195459465
Si    3.39437  11.54087   8.82538  -0.000006062392849  -0.000006062394195   0.000006045496640
Si    0.67888  14.25638   8.82538   0.000002774836758   0.000000200102550   0.000002771120246
Si    3.39437  14.25638   6.10987  -0.000008387532321   0.000000000000030  -0.000000000000190
Si    4.75213  12.89863   7.46762   0.000006062395485   0.000006062394087  -0.000006045496492
Si    4.75213  15.61412  10.18313   0.000002760029271  -0.000002760028201   0.000000195459429
Si    2.03662  12.89863  10.18313   0.000000000000510   0.000008387533618  -0.000000000000028
Si    2.03662  15.61412   7.46762  -0.000000200102070  -0.000002774835900  -0.000002771120278
Si    0.67888  11.54087  11.54087   0.000006062395461  -0.000006062394282  -0.000006045496721
Si    3.39437  11.54087  14.25638  -0.000002760026841  -0.000002760027929   0.000000195459541
Si    0.67888  14.25638  14.25638   0.000008387534654   0.000000000000088  -0.000000000000157
Si    3.39437  14.25638  11.54087  -0.000002774834572   0.000000200102421  -0.000002771120196
Si    4.75213  12.89863  12.89863   0.000004937320981   0.000004937319695   0.000004941504477
Si    4.75213  15.61412  15.61412   0.000004937321011  -0.000004937319660  -0.000004941504519
Si    2.03662  12.89863  15.61412   0.000000200103252   0.000002774835481  -0.000002771119904
Si    2.03662  15.61412  12.89863   0.000000200103180  -0.000002774835786   0.000002771120212
Si    6.10987   0.67888   0.67888   0.000000200102943   0.000002774835870   0.000002771120008
Si    8.82538   0.67888   3.39437   0.000004937321180   0.000004937319904  -0.000004941504483
Si    6.10987   3.39437   3.39437   0.000000200102951  -0.000002774835871  -0.000002771120248
Si    8.82538   3.39437   0.67888   0.000004937321007  -0.000004937319759   0.000004941504488
Si   10.18313   2.03662   2.03662   0.000000000000058  -0.000000000000176   0.000000000000115
Si   10.18313   4.75213   4.75213  -0.000000200101773   0.000002774835577   0.000002771120065
Si    7.46762   2.03662   4.75213  -0.000002774834482   0.000000200102594   0.000002771120178
Si    7.46762   4.75213   2.03662  -0.000002760026874   0.000002760028183   0.000000195459246
Si    6.10987   0.67888   6.10987   0.000000000000519   0.000008387533357   0.000000000000099
Si    8.82538   0.67888   8.82538   0.000006062395330   0.000006062393963   0.000006045496658
Si    6.10987   3.39437   8.82538  -0.000000200102041  -0.000002774835741   0.000002771120337
Si    8.82538   3.39437   6.10987   0.000002760029202  -0.000002760028111  -0.000000195459598
Si   10.18313   2.03662   7.46762   0.000000000000621   0.000000000000066  -0.000008392742827
Si   10.18313   4.75213  10.18313   0.000000000000602   0.000008387533375   0.000000000000006
Si    7.46762   2.03662  10.18313  -0.000008387532197   0.000000000000131  -0.000000000000048
Si    7.46762   4.75213   7.46762  -0.000004937318480   0.000004937319397  -0.000004941504380
Si    6.10987   0.67888  11.54087  -0.000000200101757   0.000002774835845  -0.000002771120060
Si    8.82538   0.67888  14.25638   0.000002760029186   0.000002760028232   0.000000195459449
Si    6.10987   3.39437  14.25638   0.000000000000448  -0.000008387533457  -0.000000000000062
Si    8.82538   3.39437  11.54087   0.000006062395215  -0.000006062394242  -0.000006045496659
Si   10.18313   2.03662  12.89863   0.000000000000435  -0.000000000000170   0.000008392742922
Si   10.18313   4.75213  15.61412   0.000000200102920   0.000002774835764  -0.000002771120218
Si    7.46762   2.03662  15.61412  -0.000002774834367  -0.000000200102810  -0.000002771119961
Si    7.46762   4.75213  12.89863  -0.000006062392569   0.000006062394096   0.000006045496810
Si    6.10987   6.10987   0.67888   0.000000000000518   0.000000000000116   0.000008392743162
Si    8.82538   6.10987   3.39437   0.000002774836826  -0.000000200102425  -0.000002771119874
Si    6.10987   8.82538   3.39437  -0.000000200101939   0.000002774835940  -0.000002771120157
Si    8.82538   8.82538   0.67888   0.000006062395190   0.000006062394348   0.000006045496779
Si   10.18313   7.46762   2.03662   0.000000000000509  -0.000008387533746  -0.000000000000179
Si   10.18313  10.18313   4.75213   0.000000000000486   0.000000000000222   0.000008392743214
Si    7.46762   7.46762   4.75213  -0.000004937318326  -0.000004937319615   0.000004941504397
Si    7.46762  10.18313   2.03662  -0.000008387532458  -0.000000000000225   0.000000000000055
Si    6.10987   6.10987   6.10987   0.000000000000339   0.000000000000125  -0.000000000000110
Si    8.82538   6.10987   8.82538   0.000002774836792   0.000000200102541   0.000002771120194
Si    6.10987   8.82538   8.82538   0.000000200102901   0.000002774835601   0.000002771120348
Si    8.82538   8.82538   6.10987   0.000002760029075   0.000002760027805   0.000000195459350
Si   10.18313   7.46762   7.46762  -0.000000200101855  -0.000002774835576  -0.000002771120236
Si   10.18313  10.18313  10.18313   0.000000000000180   0.000000000000067   0.000000000000059
Si    7.46762   7.46762  10.18313  -0.000002760026606  -0.000002760027922  -0.000000195459338
Si    7.46762  10.18313   7.46762  -0.000002774834354  -0.000000200102257  -0.000002771120407
Si    6.10987   6.10987  11.54087   0.000000000000230  -0.000000000000153  -0.000008392743216
Si    8.82538   6.10987  14.25638   0.000008387534850  -0.000000000000027  -0.000000000000020
Si    6.10987   8.82538  14.25638   0.000000000000446   0.000008387533856   0.000000000000040
Si    8.82538   8.82538  11.54087   0.000004937320997   0.000004937319567  -0.000004941504851
Si   10.18313   7.46762  12.89863   0.000000200102904  -0.000002774835809   0.000002771120218
Si   10.18313  10.18313  15.61412   0.000000000000546  -0.000000000000035  -0.000008392743081
Si    7.46762   7.46762  15.61412  -0.000006062392823  -0.000006062394323  -0.000006045496639
Si    7.46762  10.18313  12.89863  -0.000002774834684   0.000000200102248   0.000002771120316
Si    6.10987  11.54087   0.67888  -0.000000200101839  -0.000002774835767   0.000002771120122
Si    8.82538  11.54087   3.39437   0.000006062395377  -0.000006062394112  -0.000006045496898
Si    6.10987  14.25638   3.39437   0.000000000000586   0.000000000000082  -0.000008392742982
Si    8.82538  14.25638   0.67888   0.000002774837040   0.000000200102390   0.000002771120182
Si   10.18313  12.89863   2.03662   0.000000000000360   0.000008387533772   0.000000000000024
Si   10.18313  15.61412   4.75213   0.000000200102981  -0.000002774835747   0.000002771119875
Si    7.46762  12.89863   4.75213  -0.000006062392702   0.000006062394209   0.000006045496591
Si    7.46762  15.61412   2.03662  -0.000002760026925  -0.000002760028197  -0.000000195459437
Si    6.10987  11.54087   6.10987   0.000000000000505  -0.000008387533541   0.000000000000087
Si    8.82538  11.54087   8.82538   0.000004937321007  -0.000004937319606   0.000004941504728
Si    6.10987  14.25638   8.82538   0.000000000000537   0.000000000000178   0.000008392742702
Si    8.82538  14.25638   6.10987   0.000008387534833   0.000000000000052   0.000000000000205
Si   10.18313  12.89863   7.46762   0.000000200102884   0.000002774835620  -0.000002771120358
Si   10.18313  15.61412  10.18313   0.000000000000531  -0.000008387533506  -0.000000000000067
Si    7.46762  12.89863  10.18313  -0.000002760026785   0.000002760027907   0.000000195459597
Si    7.46762  15.61412   7.46762  -0.000006062392904  -0.000006062393974  -0.000006045496635
Si    6.10987  11.54087  11.54087   0.000000200102944  -0.000002774835425  -0.000002771119998
Si    8.82538  11.54087  14.25638   0.000002760029344  -0.000002760027854  -0.000000195459344
Si    6.10987  14.25638  14.25638   0.000000000000369  -0.000000000000022   0.000000000000031
Si    8.82538  14.25638  11.54087   0.000002774837001  -0.000000200102520  -0.000002771120201
Si   10.18313  12.89863  12.89863  -0.000000200101793   0.000002774835836   0.000002771120318
Si   10.18313  15.61412  15.61412  -0.000000200102016  -0.000002774836032  -0.000002771120326
Si    7.46762  12.89863  15.61412  -0.000004937318468   0.000004937319651  -0.000004941504357
Si    7.46762  15.61412  12.89863  -0.000004937318445  -0.000004937319559   0.000004941504392
Si   11.54087   0.67888   0.67888  -0.000004937318508   0.000004937319748   0.000004941504323
Si   14.25638   0.67888   3.39437  -0.000000200102158   0.000002774835860  -0.000002771119982
Si   11.54087   3.39437   3.39437  -0.000004937318654  -0.000004937319414  -0.000004941504290
Si   14.25638   3.39437   0.67888  -0.000000200102115  -0.000002774835755   0.000002771120121
Si   15.61412   2.03662   2.03662  -0.000008387532432  -0.000000000000035  -0.000000000000050
Si   15.61412   4.75213   4.75213  -0.000006062393041   0.000006062394150   0.000006045496602
Si   12.89863   2.03662   4.75213   0.000002774837181  -0.000000200102679   0.000002771120086
Si   12.89863   4.75213   2.03662   0.000002760029262   0.000002760028007  -0.000000195459419
Si   11.54087   0.67888   6.10987  -0.000002760026789   0.000002760028205  -0.000000195459483
Si   14.25638   0.67888   8.82538   0.000000200103158   0.000002774835905   0.000002771120383
Si   11.54087   3.39437   8.82538  -0.000006062392852  -0.000006062394176   0.000006045496586
Si   14.25638   3.39437   6.10987   0.000000000000591  -0.000008387533567  -0.000000000000009
Si   15.61412   2.03662   7.46762  -0.000002774834547  -0.000000200102645  -0.000002771120251
Si   15.61412   4.75213  10.18313  -0.000002760026688   0.000002760028260   0.000000195459555
Si   12.89863   2.03662  10.18313   0.000008387534620  -0.000000000000176  -0.000000000000097
Si   12.89863   4.75213   7.46762   0.000006062395364   0.000006062394152  -0.000006045496525
Si   11.54087   0.67888  11.54087  -0.000006062392757   0.000006062394322  -0.000006045496645
Si   14.25638   0.67888  14.25638   0.000000000000458   0.000008387533596   0.000000000000109
Si   11.54087   3.39437  14.25638  -0.000002760026777  -0.000002760028129   0.000000195459567
Si   14.25638   3.39437  11.54087   0.000000200103186  -0.000002774835718  -0.000002771120102
Si   15.61412   2.03662  12.89863  -0.000002774834430   0.000000200102739   0.000002771120185
Si   15.61412   4.75213  15.61412  -0.000004937318277   0.000004937319386  -0.000004941504510
Si   12.89863   2.03662  15.61412   0.000002774837061   0.000000200102580  -0.000002771120220
Si   12.89863   4.75213  12.89863   0.000004937320844   0.000004937319795   0.000004941504646
Si   11.54087   6.10987   0.67888  -0.000002774834447  -0.000000200102531   0.000002771120322
Si   14.25638   6.10987   3.39437   0.000000000000628   0.000000000000035  -0.000008392743039
Si   11.54087   8.82538   3.39437  -0.000006062392757   0.000006062394274  -0.000006045496843
Si   14.25638   8.82538   0.67888   0.000000200103212   0.000002774835468   0.000002771119941
Si   15.61412   7.46762   2.03662  -0.000002760026646  -0.000002760028031  -0.000000195459407
Si   15.61412  10.18313   4.75213  -0.000002774834218   0.000000200102273   0.000002771120132
Si   12.89863   7.46762   4.75213   0.000006062395454  -0.000006062394107   0.000006045496810
Si   12.89863  10.18313   2.03662   0.000008387534557   0.000000000000050  -0.000000000000070
Si   11.54087   6.10987   6.10987  -0.000008387532325  -0.000000000000085  -0.000000000000037
Si   14.25638   6.10987   8.82538   0.000000000000480   0.000000000000052   0.000008392743048
Si   11.54087   8.82538   8.82538  -0.000004937318424   0.000004937319426   0.000004941504571
Si   14.25638   8.82538   6.10987   0.000000000000628   0.000008387533616   0.000000000000181
Si   15.61412   7.46762   7.46762  -0.000006062392914  -0.000006062394120  -0.000006045496667
Si   15.61412  10.18313  10.18313  -0.000008387532240   0.000000000000053   0.000000000000036
Si   12.89863   7.46762  10.18313   0.000002760029534  -0.000002760028123   0.000000195459327
Si   12.89863  10.18313   7.46762   0.000002774837067   0.000000200102415  -0.000002771120265
Si   11.54087   6.10987  11.54087  -0.000002774834326   0.000000200102607  -0.000002771120239
Si   14.25638   6.10987  14.25638   0.000000000000360   0.000000000000213  -0.000000000000073
Si   11.54087   8.82538  14.25638  -0.000002760026926   0.000002760028227  -0.000000195459698
Si   14.25638   8.82538  11.54087  -0.000000200102155   0.000002774835669  -0.000002771120158
Si   15.61412   7.46762  12.89863  -0.000004937318326  -0.000004937319681   0.000004941504365
Si   15.61412  10.18313  15.61412  -0.000002774834587  -0.000000200102389  -0.000002771120182
Si   12.89863   7.46762  15.61412   0.000004937321152  -0.000004937320009  -0.000004941504418
Si   12.89863  10.18313  12.89863   0.000002774837191  -0.000000200102307   0.000002771120212
Si   11.54087  11.54087   0.67888  -0.000006062392735  -0.000006062394125   0.000006045496868
Si   14.25638  11.54087   3.39437   0.000000200103080  -0.000002774835642  -0.000002771120032
Si   11.54087  14.25638   3.39437  -0.000002774834445   0.000000200102547  -0.000002771120214
Si   14.25638  14.25638   0.67888   0.000000000000398   0.000000000000029   0.000008392743037
Si   15.61412  12.89863   2.03662  -0.000002760026780   0.000002760028055   0.000000195459336
Si   15.61412  15.61412   4.75213  -0.000004937318268  -0.000004937319385   0.000004941504485
Si   12.89863  12.89863   4.75213   0.000004937320808   0.000004937319794   0.000004941504708
Si   12.89863  15.61412   2.03662   0.000002760029376  -0.000002760028191   0.000000195459581
Si   11.54087  11.54087   6.10987  -0.000002760026660  -0.000002760027988   0.000000195459389
Si   14.25638  11.54087   8.82538  -0.000000200102116  -0.000002774835784   0.000002771120287
Si   11.54087  14.25638   8.82538  -0.000002774834496  -0.000000200102496   0.000002771120314
Si   14.25638  14.25638   6.10987   0.000000000000088  -0.000000000000109  -0.000000000000043
Si   15.61412  12.89863   7.46762  -0.000004937318016   0.000004937319673  -0.000004941504315
Si   15.61412  15.61412  10.18313  -0.000002760026898  -0.000002760028247  -0.000000195459594
Si   12.89863  12.89863  10.18313   0.000002760029412   0.000002760028039  -0.000000195459303
Si   12.89863  15.61412   7.46762   0.000004937320953  -0.000004937319745  -0.000004941504660
Si   11.54087  11.54087  11.54087  -0.000004937318491  -0.000004937319475  -0.000004941504534
Si   14.25638  11.54087  14.25638   0.000000000000496  -0.000008387533671  -0.000000000000080
Si   11.54087  14.25638  14.25638  -0.000008387532472   0.000000000000061   0.000000000000109
Si   14.25638  14.25638  11.54087   0.000000000000463   0.000000000000073  -0.000008392743310
Si   15.61412  12.89863  12.89863  -0.000006062392858   0.000006062393928   0.000006045496778
Si   15.61412  15.61412  15.61412  -0.000006062392720  -0.000006062394096  -0.000006045496689
Si   12.89863  12.89863  15.61412   0.000006062395360   0.000006062394164  -0.000006045496788
Si   12.89863  15.61412  12.89863   0.000006062395221  -0.000006062394301   0.000006045496605
