216 

Si    0.67888   0.67888   0.67888   0.000009230650247   0.000009230650286   0.000009212822717
Si    3.39437   0.67888   3.39437  -0.000009230650355   0.000009230650380  -0.000009212822821
Si    0.67888   3.39437   3.39437   0.000009230650262  -0.000009230650298  -0.000009212822722
Si    3.39437   3.39437   0.67888  -0.000009230650348  -0.000009230650394   0.000009212822819
Si    4.75213   2.03662   2.03662   0.000007339841122  -0.000000000000009   0.000000000000013
Si    4.75213   4.75213   4.75213   0.000008381558124   0.000008381558235   0.000008385471885
Si    2.03662   2.03662   4.75213  -0.000000000000056   0.000000000000129   0.000007347272532
Si    2.03662   4.75213   2.03662  -0.000000000000071   0.000007339841071   0.000000000000128
Si    0.67888   0.67888   6.10987   0.000003092513369   0.000003092513562   0.000000875645287
Si    3.39437   0.67888   8.82538  -0.000008381558223   0.000008381558267   0.000008385471864
Si    0.67888   3.39437   8.82538   0.000008381558137  -0.000008381558126   0.000008385471757
Si    3.39437   3.39437   6.10987  -0.000003092513477  -0.000003092513325   0.000000875645304
Si    4.75213   2.03662   7.46762   0.000003110689357   0.000000880662737  -0.000003106557868
Si    4.75213   4.75213  10.18313   0.000003092513417   0.000003092513430  -0.000000875645436
Si    2.03662   2.03662  10.18313  -0.000000000000036   0.000000000000022   0.000000000000014
Si    2.03662   4.75213   7.46762   0.000000880662582   0.000003110689435  -0.000003106557937
Si    0.67888   0.67888  11.54087   0.000008381558128   0.000008381558145  -0.000008385471745
Si    3.39437   0.67888  14.25638  -0.000003092513495   0.000003092513347  -0.000000875645306
Si    0.67888   3.39437  14.25638   0.000003092513356  -0.000003092513559  -0.000000875645310
Si    3.39437   3.39437  11.54087  -0.000008381558235  -0.000008381558265  -0.000008385471890
Si    4.75213   2.03662  12.89863   0.000003110689346  -0.000000880662716   0.000003106557865
Si    4.75213   4.75213  15.61412   0.000009230650286   0.000009230650206  -0.000009212822698
Si    2.03662   2.03662  15.61412  -0.000000000000078  -0.000000000000116  -0.000007347272529
Si    2.03662   4.75213  12.89863  -0.000000880662667   0.000003110689304   0.000003106557810
Si    0.67888   6.10987   0.67888   0.000003110689291   0.000000880662561   0.000003106557949
Si    3.39437   6.10987   3.39437  -0.000003110689388   0.000000880662559  -0.000003106557717
Si    0.67888   8.82538   3.39437   0.000008381558093   0.000008381558111  -0.000008385471743
Si    3.39437   8.82538   0.67888  -0.000008381558204   0.000008381558228   0.000008385471880
Si    4.75213   7.46762   2.03662   0.000003092513455  -0.000003092513487   0.000000875645439
Si    4.75213  10.18313   4.75213   0.000003110689395  -0.000000880662729   0.000003106557912
Si    2.03662   7.46762   4.75213   0.000000880662591  -0.000003110689478   0.000003106557981
Si    2.03662  10.18313   2.03662  -0.000000000000043  -0.000000000000004   0.000000000000043
Si    0.67888   6.10987   6.10987   0.000007339841093  -0.000000000000021   0.000000000000018
Si    3.39437   6.10987   8.82538  -0.000003110689409  -0.000000880662623   0.000003106557744
Si    0.67888   8.82538   8.82538   0.000009230650278   0.000009230650244   0.000009212822704
Si    3.39437   8.82538   6.10987  -0.000003092513473   0.000003092513301  -0.000000875645271
Si    4.75213   7.46762   7.46762   0.000008381558136  -0.000008381558268  -0.000008385471862
Si    4.75213  10.18313  10.18313   0.000007339841108  -0.000000000000003  -0.000000000000046
Si    2.03662   7.46762  10.18313  -0.000000000000046  -0.000007339841155  -0.000000000000149
Si    2.03662  10.18313   7.46762  -0.000000000000038  -0.000000000000132  -0.000007347272521
Si    0.67888   6.10987  11.54087   0.000003110689307  -0.000000880662643  -0.000003106557967
Si    3.39437   6.10987  14.25638  -0.000007339841207  -0.000000000000048  -0.000000000000024
Si    0.67888   8.82538  14.25638   0.000003092513348   0.000003092513499   0.000000875645283
Si    3.39437   8.82538  11.54087  -0.000009230650344   0.000009230650335  -0.000009212822862
Si    4.75213   7.46762  12.89863   0.000009230650288  -0.000009230650293   0.000009212822673
Si    4.75213  10.18313  15.61412   0.000003110689382   0.000000880662725  -0.000003106557868
Si    2.03662   7.46762  15.61412  -0.000000880662668  -0.000003110689388  -0.000003106557838
Si    2.03662  10.18313  12.89863  -0.000000000000069   0.000000000000116   0.000007347272490
Si    0.67888  11.54087   0.67888   0.000008381558078  -0.000008381558101   0.000008385471761
Si    3.39437  11.54087   3.39437  -0.000008381558197  -0.000008381558224  -0.000008385471855
Si    0.67888  14.25638   3.39437   0.000003110689278  -0.000000880662546  -0.000003106557966
Si    3.39437  14.25638   0.67888  -0.000003110689399  -0.000000880662564   0.000003106557754
Si    4.75213  12.89863   2.03662   0.000003092513468   0.000003092513481  -0.000000875645395
Si    4.75213  15.61412   4.75213   0.000009230650290  -0.000009230650222   0.000009212822713
Si    2.03662  12.89863   4.75213  -0.000000880662653   0.000003110689355   0.000003106557846
Si    2.03662  15.61412   2.03662  -0.000000000000058  -0.000007339841086  -0.000000000000106
Si    0.67888  11.54087   6.10987   0.000003092513361  -0.000003092513524  -0.000000875645282
Si    3.39437  11.54087   8.82538  -0.000009230650333  -0.000009230650365   0.000009212822810
Si    0.67888  14.25638   8.82538   0.000003110689309   0.000000880662631   0.000003106557956
Si    3.39437  14.25638   6.10987  -0.000007339841188   0.000000000000029   0.000000000000004
Si    4.75213  12.89863   7.46762   0.000009230650293   0.000009230650253  -0.000009212822704
Si    4.75213  15.61412  10.18313   0.000003092513412  -0.000003092513422   0.000000875645414
Si    2.03662  12.89863  10.18313  -0.000000000000056   0.000007339841137   0.000000000000111
Si    2.03662  15.61412   7.46762  -0.000000880662662  -0.000003110689307  -0.000003106557833
Si    0.67888  11.54087  11.54087   0.000009230650268  -0.000009230650255  -0.000009212822736
Si    3.39437  11.54087  14.25638  -0.000003092513477  -0.000003092513305   0.000000875645272
Si    0.67888  14.25638  14.25638   0.000007339841064   0.000000000000059  -0.000000000000005
Si    3.39437  14.25638  11.54087  -0.000003110689394   0.000000880662632  -0.000003106557758
Si    4.75213  12.89863  12.89863   0.000008381558136   0.000008381558279   0.000008385471851
Si    4.75213  15.61412  15.61412   0.000008381558154  -0.000008381558196  -0.000008385471859
Si    2.03662  12.89863  15.61412   0.000000880662571   0.000003110689489  -0.000003106557949
Si    2.03662  15.61412  12.89863   0.000000880662573  -0.000003110689407   0.000003106557924
Si    6.10987   0.67888   0.67888   0.000000880662651   0.000003110689351   0.000003106557845
Si    8.82538   0.67888   3.39437   0.000008381558184   0.000008381558274  -0.000008385471939
Si    6.10987   3.39437   3.39437   0.000000880662648  -0.000003110689364  -0.000003106557835
Si    8.82538   3.39437   0.67888   0.000008381558168  -0.000008381558305   0.000008385471925
Si   10.18313   2.03662   2.03662  -0.000000000000114  -0.000000000000008   0.000000000000000
Si   10.18313   4.75213   4.75213  -0.000000880662680   0.000003110689398   0.000003106557868
Si    7.46762   2.03662   4.75213  -0.000003110689421   0.000000880662727   0.000003106557802
Si    7.46762   4.75213   2.03662  -0.000003092513458   0.000003092513381   0.000000875645434
Si    6.10987   0.67888   6.10987  -0.000000000000035   0.000007339841264  -0.000000000000035
Si    8.82538   0.67888   8.82538   0.000009230650228   0.000009230650370   0.000009212822815
Si    6.10987   3.39437   8.82538  -0.000000880662678  -0.000003110689324   0.000003106557806
Si    8.82538   3.39437   6.10987   0.000003092513390  -0.000003092513360  -0.000000875645367
Si   10.18313   2.03662   7.46762  -0.000000000000043   0.000000000000102  -0.000007347272582
Si   10.18313   4.75213  10.18313  -0.000000000000053   0.000007339841139  -0.000000000000109
Si    7.46762   2.03662  10.18313  -0.000007339841203   0.000000000000011   0.000000000000012
Si    7.46762   4.75213   7.46762  -0.000008381558241   0.000008381558236  -0.000008385471873
Si    6.10987   0.67888  11.54087  -0.000000880662656   0.000003110689350  -0.000003106557824
Si    8.82538   0.67888  14.25638   0.000003092513417   0.000003092513355   0.000000875645363
Si    6.10987   3.39437  14.25638  -0.000000000000015  -0.000007339841265   0.000000000000017
Si    8.82538   3.39437  11.54087   0.000009230650224  -0.000009230650392  -0.000009212822818
Si   10.18313   2.03662  12.89863  -0.000000000000037  -0.000000000000121   0.000007347272587
Si   10.18313   4.75213  15.61412   0.000000880662605   0.000003110689273  -0.000003106557762
Si    7.46762   2.03662  15.61412  -0.000003110689398  -0.000000880662717  -0.000003106557798
Si    7.46762   4.75213  12.89863  -0.000009230650376   0.000009230650225   0.000009212822701
Si    6.10987   6.10987   0.67888   0.000000000000009  -0.000000000000046   0.000007347272667
Si    8.82538   6.10987   3.39437   0.000003110689357  -0.000000880662671  -0.000003106557792
Si    6.10987   8.82538   3.39437  -0.000000880662626   0.000003110689306  -0.000003106557797
Si    8.82538   8.82538   0.67888   0.000009230650251   0.000009230650368   0.000009212822859
Si   10.18313   7.46762   2.03662  -0.000000000000037  -0.000007339841168   0.000000000000110
Si   10.18313  10.18313   4.75213  -0.000000000000054  -0.000000000000102   0.000007347272541
Si    7.46762   7.46762   4.75213  -0.000008381558221  -0.000008381558246   0.000008385471880
Si    7.46762  10.18313   2.03662  -0.000007339841131   0.000000000000004   0.000000000000015
Si    6.10987   6.10987   6.10987  -0.000000000000052  -0.000000000000018   0.000000000000000
Si    8.82538   6.10987   8.82538   0.000003110689313   0.000000880662646   0.000003106557764
Si    6.10987   8.82538   8.82538   0.000000880662616   0.000003110689330   0.000003106557820
Si    8.82538   8.82538   6.10987   0.000003092513400   0.000003092513346   0.000000875645328
Si   10.18313   7.46762   7.46762  -0.000000880662671  -0.000003110689404  -0.000003106557912
Si   10.18313  10.18313  10.18313  -0.000000000000115   0.000000000000002  -0.000000000000018
Si    7.46762   7.46762  10.18313  -0.000003092513490  -0.000003092513410  -0.000000875645446
Si    7.46762  10.18313   7.46762  -0.000003110689395  -0.000000880662737  -0.000003106557835
Si    6.10987   6.10987  11.54087  -0.000000000000054  -0.000000000000009  -0.000007347272670
Si    8.82538   6.10987  14.25638   0.000007339841106  -0.000000000000026   0.000000000000018
Si    6.10987   8.82538  14.25638  -0.000000000000017   0.000007339841236  -0.000000000000022
Si    8.82538   8.82538  11.54087   0.000008381558151   0.000008381558278  -0.000008385471923
Si   10.18313   7.46762  12.89863   0.000000880662592  -0.000003110689305   0.000003106557805
Si   10.18313  10.18313  15.61412  -0.000000000000046   0.000000000000125  -0.000007347272525
Si    7.46762   7.46762  15.61412  -0.000009230650347  -0.000009230650274  -0.000009212822672
Si    7.46762  10.18313  12.89863  -0.000003110689399   0.000000880662721   0.000003106557827
Si    6.10987  11.54087   0.67888  -0.000000880662599  -0.000003110689292   0.000003106557843
Si    8.82538  11.54087   3.39437   0.000009230650262  -0.000009230650360  -0.000009212822835
Si    6.10987  14.25638   3.39437   0.000000000000008   0.000000000000041  -0.000007347272655
Si    8.82538  14.25638   0.67888   0.000003110689361   0.000000880662660   0.000003106557797
Si   10.18313  12.89863   2.03662  -0.000000000000042   0.000007339841183  -0.000000000000100
Si   10.18313  15.61412   4.75213   0.000000880662589  -0.000003110689281   0.000003106557758
Si    7.46762  12.89863   4.75213  -0.000009230650348   0.000009230650264   0.000009212822698
Si    7.46762  15.61412   2.03662  -0.000003092513443  -0.000003092513386  -0.000000875645406
Si    6.10987  11.54087   6.10987  -0.000000000000013  -0.000007339841248   0.000000000000005
Si    8.82538  11.54087   8.82538   0.000008381558137  -0.000008381558279   0.000008385471892
Si    6.10987  14.25638   8.82538  -0.000000000000042   0.000000000000006   0.000007347272646
Si    8.82538  14.25638   6.10987   0.000007339841097  -0.000000000000006  -0.000000000000035
Si   10.18313  12.89863   7.46762   0.000000880662570   0.000003110689300  -0.000003106557827
Si   10.18313  15.61412  10.18313  -0.000000000000043  -0.000007339841145   0.000000000000124
Si    7.46762  12.89863  10.18313  -0.000003092513478   0.000003092513409   0.000000875645419
Si    7.46762  15.61412   7.46762  -0.000009230650379  -0.000009230650257  -0.000009212822718
Si    6.10987  11.54087  11.54087   0.000000880662647  -0.000003110689333  -0.000003106557874
Si    8.82538  11.54087  14.25638   0.000003092513425  -0.000003092513327  -0.000000875645317
Si    6.10987  14.25638  14.25638  -0.000000000000045   0.000000000000033  -0.000000000000001
Si    8.82538  14.25638  11.54087   0.000003110689356  -0.000000880662628  -0.000003106557777
Si   10.18313  12.89863  12.89863  -0.000000880662669   0.000003110689437   0.000003106557911
Si   10.18313  15.61412  15.61412  -0.000000880662649  -0.000003110689379  -0.000003106557872
Si    7.46762  12.89863  15.61412  -0.000008381558178   0.000008381558268  -0.000008385471841
Si    7.46762  15.61412  12.89863  -0.000008381558219  -0.000008381558220   0.000008385471885
Si   11.54087   0.67888   0.67888  -0.000008381558237   0.000008381558147   0.000008385471792
Si   14.25638   0.67888   3.39437  -0.000000880662699   0.000003110689421  -0.000003106557942
Si   11.54087   3.39437   3.39437  -0.000008381558251  -0.000008381558173  -0.000008385471811
Si   14.25638   3.39437   0.67888  -0.000000880662700  -0.000003110689458   0.000003106557908
Si   15.61412   2.03662   2.03662  -0.000007339841230   0.000000000000007  -0.000000000000004
Si   15.61412   4.75213   4.75213  -0.000009230650383   0.000009230650336   0.000009212822829
Si   12.89863   2.03662   4.75213   0.000003110689282  -0.000000880662534   0.000003106557832
Si   12.89863   4.75213   2.03662   0.000003092513338   0.000003092513405  -0.000000875645213
Si   11.54087   0.67888   6.10987  -0.000003092513494   0.000003092513554  -0.000000875645387
Si   14.25638   0.67888   8.82538   0.000000880662566   0.000003110689413   0.000003106557902
Si   11.54087   3.39437   8.82538  -0.000009230650397  -0.000009230650244   0.000009212822697
Si   14.25638   3.39437   6.10987  -0.000000000000046  -0.000007339841039  -0.000000000000034
Si   15.61412   2.03662   7.46762  -0.000003110689422  -0.000000880662522  -0.000003106557906
Si   15.61412   4.75213  10.18313  -0.000003092513487   0.000003092513450   0.000000875645224
Si   12.89863   2.03662  10.18313   0.000007339841104   0.000000000000000   0.000000000000026
Si   12.89863   4.75213   7.46762   0.000009230650258   0.000009230650379  -0.000009212822850
Si   11.54087   0.67888  11.54087  -0.000009230650393   0.000009230650249  -0.000009212822665
Si   14.25638   0.67888  14.25638  -0.000000000000069   0.000007339841042   0.000000000000028
Si   11.54087   3.39437  14.25638  -0.000003092513481  -0.000003092513579   0.000000875645364
Si   14.25638   3.39437  11.54087   0.000000880662558  -0.000003110689427  -0.000003106557868
Si   15.61412   2.03662  12.89863  -0.000003110689439   0.000000880662527   0.000003106557909
Si   15.61412   4.75213  15.61412  -0.000008381558277   0.000008381558111  -0.000008385471786
Si   12.89863   2.03662  15.61412   0.000003110689283   0.000000880662513  -0.000003106557847
Si   12.89863   4.75213  12.89863   0.000008381558154   0.000008381558135   0.000008385471809
Si   11.54087   6.10987   0.67888  -0.000003110689421  -0.000000880662680   0.000003106557979
Si   14.25638   6.10987   3.39437  -0.000000000000083  -0.000000000000042  -0.000007347272434
Si   11.54087   8.82538   3.39437  -0.000009230650415   0.000009230650258  -0.000009212822706
Si   14.25638   8.82538   0.67888   0.000000880662499   0.000003110689382   0.000003106557910
Si   15.61412   7.46762   2.03662  -0.000003092513535  -0.000003092513499  -0.000000875645205
Si   15.61412  10.18313   4.75213  -0.000003110689459   0.000000880662526   0.000003106557903
Si   12.89863   7.46762   4.75213   0.000009230650222  -0.000009230650386   0.000009212822827
Si   12.89863  10.18313   2.03662   0.000007339841059   0.000000000000014   0.000000000000015
Si   11.54087   6.10987   6.10987  -0.000007339841187  -0.000000000000007  -0.000000000000021
Si   14.25638   6.10987   8.82538  -0.000000000000054  -0.000000000000006   0.000007347272424
Si   11.54087   8.82538   8.82538  -0.000008381558266   0.000008381558159   0.000008385471761
Si   14.25638   8.82538   6.10987  -0.000000000000078   0.000007339841016   0.000000000000007
Si   15.61412   7.46762   7.46762  -0.000009230650373  -0.000009230650393  -0.000009212822813
Si   15.61412  10.18313  10.18313  -0.000007339841205   0.000000000000002  -0.000000000000001
Si   12.89863   7.46762  10.18313   0.000003092513365  -0.000003092513456   0.000000875645206
Si   12.89863  10.18313   7.46762   0.000003110689267   0.000000880662517  -0.000003106557882
Si   11.54087   6.10987  11.54087  -0.000003110689424   0.000000880662618  -0.000003106557970
Si   14.25638   6.10987  14.25638  -0.000000000000082  -0.000000000000057   0.000000000000013
Si   11.54087   8.82538  14.25638  -0.000003092513502   0.000003092513543  -0.000000875645322
Si   14.25638   8.82538  11.54087  -0.000000880662672   0.000003110689396  -0.000003106557921
Si   15.61412   7.46762  12.89863  -0.000008381558256  -0.000008381558177   0.000008385471767
Si   15.61412  10.18313  15.61412  -0.000003110689491  -0.000000880662515  -0.000003106557885
Si   12.89863   7.46762  15.61412   0.000008381558140  -0.000008381558185  -0.000008385471780
Si   12.89863  10.18313  12.89863   0.000003110689288  -0.000000880662512   0.000003106557877
Si   11.54087  11.54087   0.67888  -0.000009230650403  -0.000009230650213   0.000009212822717
Si   14.25638  11.54087   3.39437   0.000000880662494  -0.000003110689385  -0.000003106557909
Si   11.54087  14.25638   3.39437  -0.000003110689422   0.000000880662659  -0.000003106558001
Si   14.25638  14.25638   0.67888  -0.000000000000110   0.000000000000051   0.000007347272439
Si   15.61412  12.89863   2.03662  -0.000003092513541   0.000003092513498   0.000000875645230
Si   15.61412  15.61412   4.75213  -0.000008381558269  -0.000008381558123   0.000008385471766
Si   12.89863  12.89863   4.75213   0.000008381558128   0.000008381558178   0.000008385471760
Si   12.89863  15.61412   2.03662   0.000003092513334  -0.000003092513408   0.000000875645215
Si   11.54087  11.54087   6.10987  -0.000003092513509  -0.000003092513536   0.000000875645317
Si   14.25638  11.54087   8.82538  -0.000000880662671  -0.000003110689395   0.000003106557894
Si   11.54087  14.25638   8.82538  -0.000003110689414  -0.000000880662646   0.000003106557968
Si   14.25638  14.25638   6.10987  -0.000000000000087   0.000000000000018  -0.000000000000028
Si   15.61412  12.89863   7.46762  -0.000008381558254   0.000008381558153  -0.000008385471778
Si   15.61412  15.61412  10.18313  -0.000003092513504  -0.000003092513439  -0.000000875645199
Si   12.89863  12.89863  10.18313   0.000003092513359   0.000003092513448  -0.000000875645214
Si   12.89863  15.61412   7.46762   0.000008381558136  -0.000008381558154  -0.000008385471814
Si   11.54087  11.54087  11.54087  -0.000008381558244  -0.000008381558150  -0.000008385471779
Si   14.25638  11.54087  14.25638  -0.000000000000092  -0.000007339841006   0.000000000000002
Si   11.54087  14.25638  14.25638  -0.000007339841181   0.000000000000034   0.000000000000037
Si   14.25638  14.25638  11.54087  -0.000000000000070   0.000000000000017  -0.000007347272413
Si   15.61412  12.89863  12.89863  -0.000009230650403   0.000009230650391   0.000009212822810
Si   15.61412  15.61412  15.61412  -0.000009230650416  -0.000009230650306  -0.000009212822815
Si   12.89863  12.89863  15.61412   0.000009230650229   0.000009230650417  -0.000009212822820
Si   12.89863  15.61412  12.89863   0.000009230650250  -0.000009230650362   0.000009212822859
