1620

C -15.45975 -11.28777 -16.17587
C -16.63970 -10.55922 -15.72814
C -16.17340 -9.35086 -15.01671
C -14.71712 -9.36217 -15.01734
C -14.26803 -10.57718 -15.72893
C -16.21253 -14.58327 -15.01960
C -16.65882 -13.36899 -15.73089
C -15.46907 -12.66197 -16.17801
C -14.29023 -13.38629 -15.72899
C -14.75245 -14.59292 -15.01741
C -18.94116 -11.94661 -13.38546
C -18.48842 -10.76690 -14.10383
C -17.78134 -11.22831 -15.31304
C -17.78870 -12.68434 -15.31378
C -18.50467 -13.13456 -14.10443
C -16.85294 -8.92820 -11.51194
C -16.12468 -8.49462 -12.69960
C -16.84847 -8.93266 -13.88104
C -18.06212 -9.63718 -13.42738
C -18.06394 -9.63790 -11.97206
C -12.82864 -9.67584 -11.97202
C -12.83107 -9.67512 -13.42866
C -14.03410 -8.95146 -13.88170
C -14.75176 -8.50156 -12.70094
C -14.03560 -8.95640 -11.51591
C -12.43997 -13.17957 -14.10599
C -13.14911 -12.72002 -15.31402
C -13.13718 -11.26375 -15.31311
C -12.42382 -10.81370 -14.10273
C -11.98828 -11.99997 -13.38503
C -16.21230 -14.58581 -10.38038
C -16.66235 -13.36996 -9.66836
C -15.46988 -12.65903 -9.22094
C -14.28854 -13.38763 -9.66859
C -14.75599 -14.59765 -10.38125
C -18.10043 -14.27391 -13.42633
C -18.09703 -14.27271 -11.96983
C -16.89414 -14.99686 -11.51675
C -16.17545 -15.44594 -12.69664
C -16.89031 -14.99150 -13.88111
C -18.48881 -10.76883 -11.29151
C -17.77982 -11.22764 -10.08403
C -17.79282 -12.68318 -10.08503
C -18.50569 -13.13451 -11.29586
C -18.94021 -11.94857 -12.01338
C -14.71422 -9.36757 -10.37825
C -14.26878 -10.57971 -9.66652
C -15.45947 -11.28443 -9.21910
C -16.63834 -10.56184 -9.66922
C -16.17691 -9.35303 -10.37706
C -11.98656 -12.00165 -12.01301
C -12.43904 -13.18095 -11.29518
C -13.14655 -12.71871 -10.08474
C -13.13888 -11.26333 -10.08409
C -12.42313 -10.81421 -11.29303
C -14.07685 -15.01759 -13.88359
C -14.80281 -15.45482 -12.69865
C -14.08055 -15.01574 -11.51726
C -12.86620 -14.31124 -11.97176
C -12.86415 -14.31095 -13.42670
C -15.45975 -11.28777 -4.17587
C -16.63970 -10.55922 -3.72814
C -16.17340 -9.35086 -3.01671
C -14.71712 -9.36217 -3.01734
C -14.26803 -10.57718 -3.72893
C -16.21253 -14.58327 -3.01960
C -16.65882 -13.36899 -3.73089
C -15.46907 -12.66197 -4.17801
C -14.29023 -13.38629 -3.72899
C -14.75245 -14.59292 -3.01741
C -18.94116 -11.94661 -1.38546
C -18.48842 -10.76690 -2.10383
C -17.78134 -11.22831 -3.31304
C -17.78870 -12.68434 -3.31378
C -18.50467 -13.13456 -2.10443
C -16.85294 -8.92820  0.48806
C -16.12468 -8.49462 -0.69960
C -16.84847 -8.93266 -1.88104
C -18.06212 -9.63718 -1.42738
C -18.06394 -9.63790  0.02794
C -12.82864 -9.67584  0.02798
C -12.83107 -9.67512 -1.42866
C -14.03410 -8.95146 -1.88170
C -14.75176 -8.50156 -0.70094
C -14.03560 -8.95640  0.48409
C -12.43997 -13.17957 -2.10599
C -13.14911 -12.72002 -3.31402
C -13.13718 -11.26375 -3.31311
C -12.42382 -10.81370 -2.10273
C -11.98828 -11.99997 -1.38503
C -16.21230 -14.58581  1.61962
C -16.66235 -13.36996  2.33164
C -15.46988 -12.65903  2.77906
C -14.28854 -13.38763  2.33141
C -14.75599 -14.59765  1.61875
C -18.10043 -14.27391 -1.42633
C -18.09703 -14.27271  0.03017
C -16.89414 -14.99686  0.48325
C -16.17545 -15.44594 -0.69664
C -16.89031 -14.99150 -1.88111
C -18.48881 -10.76883  0.70849
C -17.77982 -11.22764  1.91597
C -17.79282 -12.68318  1.91497
C -18.50569 -13.13451  0.70414
C -18.94021 -11.94857 -0.01338
C -14.71422 -9.36757  1.62175
C -14.26878 -10.57971  2.33348
C -15.45947 -11.28443  2.78090
C -16.63834 -10.56184  2.33078
C -16.17691 -9.35303  1.62294
C -11.98656 -12.00165 -0.01301
C -12.43904 -13.18095  0.70482
C -13.14655 -12.71871  1.91526
C -13.13888 -11.26333  1.91591
C -12.42313 -10.81421  0.70697
C -14.07685 -15.01759 -1.88359
C -14.80281 -15.45482 -0.69865
C -14.08055 -15.01574  0.48274
C -12.86620 -14.31124  0.02824
C -12.86415 -14.31095 -1.42670
C -15.45975 -11.28777  7.82413
C -16.63970 -10.55922  8.27186
C -16.17340 -9.35086  8.98329
C -14.71712 -9.36217  8.98266
C -14.26803 -10.57718  8.27107
C -16.21253 -14.58327  8.98040
C -16.65882 -13.36899  8.26911
C -15.46907 -12.66197  7.82199
C -14.29023 -13.38629  8.27101
C -14.75245 -14.59292  8.98259
C -18.94116 -11.94661 10.61454
C -18.48842 -10.76690  9.89617
C -17.78134 -11.22831  8.68696
C -17.78870 -12.68434  8.68622
C -18.50467 -13.13456  9.89557
C -16.85294 -8.92820 12.48806
C -16.12468 -8.49462 11.30040
C -16.84847 -8.93266 10.11896
C -18.06212 -9.63718 10.57262
C -18.06394 -9.63790 12.02794
C -12.82864 -9.67584 12.02798
C -12.83107 -9.67512 10.57134
C -14.03410 -8.95146 10.11830
C -14.75176 -8.50156 11.29906
C -14.03560 -8.95640 12.48409
C -12.43997 -13.17957  9.89401
C -13.14911 -12.72002  8.68598
C -13.13718 -11.26375  8.68689
C -12.42382 -10.81370  9.89727
C -11.98828 -11.99997 10.61497
C -16.21230 -14.58581 13.61962
C -16.66235 -13.36996 14.33164
C -15.46988 -12.65903 14.77906
C -14.28854 -13.38763 14.33141
C -14.75599 -14.59765 13.61875
C -18.10043 -14.27391 10.57367
C -18.09703 -14.27271 12.03017
C -16.89414 -14.99686 12.48325
C -16.17545 -15.44594 11.30336
C -16.89031 -14.99150 10.11889
C -18.48881 -10.76883 12.70849
C -17.77982 -11.22764 13.91597
C -17.79282 -12.68318 13.91497
C -18.50569 -13.13451 12.70414
C -18.94021 -11.94857 11.98662
C -14.71422 -9.36757 13.62175
C -14.26878 -10.57971 14.33348
C -15.45947 -11.28443 14.78090
C -16.63834 -10.56184 14.33078
C -16.17691 -9.35303 13.62294
C -11.98656 -12.00165 11.98699
C -12.43904 -13.18095 12.70482
C -13.14655 -12.71871 13.91526
C -13.13888 -11.26333 13.91591
C -12.42313 -10.81421 12.70697
C -14.07685 -15.01759 10.11641
C -14.80281 -15.45482 11.30135
C -14.08055 -15.01574 12.48274
C -12.86620 -14.31124 12.02824
C -12.86415 -14.31095 10.57330
C -15.45975  0.71223 -16.17587
C -16.63970  1.44078 -15.72814
C -16.17340  2.64914 -15.01671
C -14.71712  2.63783 -15.01734
C -14.26803  1.42282 -15.72893
C -16.21253 -2.58327 -15.01960
C -16.65882 -1.36899 -15.73089
C -15.46907 -0.66197 -16.17801
C -14.29023 -1.38629 -15.72899
C -14.75245 -2.59292 -15.01741
C -18.94116  0.05339 -13.38546
C -18.48842  1.23310 -14.10383
C -17.78134  0.77169 -15.31304
C -17.78870 -0.68434 -15.31378
C -18.50467 -1.13456 -14.10443
C -16.85294  3.07180 -11.51194
C -16.12468  3.50538 -12.69960
C -16.84847  3.06734 -13.88104
C -18.06212  2.36282 -13.42738
C -18.06394  2.36210 -11.97206
C -12.82864  2.32416 -11.97202
C -12.83107  2.32488 -13.42866
C -14.03410  3.04854 -13.88170
C -14.75176  3.49844 -12.70094
C -14.03560  3.04360 -11.51591
C -12.43997 -1.17957 -14.10599
C -13.14911 -0.72002 -15.31402
C -13.13718  0.73625 -15.31311
C -12.42382  1.18630 -14.10273
C -11.98828  0.00003 -13.38503
C -16.21230 -2.58581 -10.38038
C -16.66235 -1.36996 -9.66836
C -15.46988 -0.65903 -9.22094
C -14.28854 -1.38763 -9.66859
C -14.75599 -2.59765 -10.38125
C -18.10043 -2.27391 -13.42633
C -18.09703 -2.27271 -11.96983
C -16.89414 -2.99686 -11.51675
C -16.17545 -3.44594 -12.69664
C -16.89031 -2.99150 -13.88111
C -18.48881  1.23117 -11.29151
C -17.77982  0.77236 -10.08403
C -17.79282 -0.68318 -10.08503
C -18.50569 -1.13451 -11.29586
C -18.94021  0.05143 -12.01338
C -14.71422  2.63243 -10.37825
C -14.26878  1.42029 -9.66652
C -15.45947  0.71557 -9.21910
C -16.63834  1.43816 -9.66922
C -16.17691  2.64697 -10.37706
C -11.98656 -0.00165 -12.01301
C -12.43904 -1.18095 -11.29518
C -13.14655 -0.71871 -10.08474
C -13.13888  0.73667 -10.08409
C -12.42313  1.18579 -11.29303
C -14.07685 -3.01759 -13.88359
C -14.80281 -3.45482 -12.69865
C -14.08055 -3.01574 -11.51726
C -12.86620 -2.31124 -11.97176
C -12.86415 -2.31095 -13.42670
C -15.45975  0.71223 -4.17587
C -16.63970  1.44078 -3.72814
C -16.17340  2.64914 -3.01671
C -14.71712  2.63783 -3.01734
C -14.26803  1.42282 -3.72893
C -16.21253 -2.58327 -3.01960
C -16.65882 -1.36899 -3.73089
C -15.46907 -0.66197 -4.17801
C -14.29023 -1.38629 -3.72899
C -14.75245 -2.59292 -3.01741
C -18.94116  0.05339 -1.38546
C -18.48842  1.23310 -2.10383
C -17.78134  0.77169 -3.31304
C -17.78870 -0.68434 -3.31378
C -18.50467 -1.13456 -2.10443
C -16.85294  3.07180  0.48806
C -16.12468  3.50538 -0.69960
C -16.84847  3.06734 -1.88104
C -18.06212  2.36282 -1.42738
C -18.06394  2.36210  0.02794
C -12.82864  2.32416  0.02798
C -12.83107  2.32488 -1.42866
C -14.03410  3.04854 -1.88170
C -14.75176  3.49844 -0.70094
C -14.03560  3.04360  0.48409
C -12.43997 -1.17957 -2.10599
C -13.14911 -0.72002 -3.31402
C -13.13718  0.73625 -3.31311
C -12.42382  1.18630 -2.10273
C -11.98828  0.00003 -1.38503
C -16.21230 -2.58581  1.61962
C -16.66235 -1.36996  2.33164
C -15.46988 -0.65903  2.77906
C -14.28854 -1.38763  2.33141
C -14.75599 -2.59765  1.61875
C -18.10043 -2.27391 -1.42633
C -18.09703 -2.27271  0.03017
C -16.89414 -2.99686  0.48325
C -16.17545 -3.44594 -0.69664
C -16.89031 -2.99150 -1.88111
C -18.48881  1.23117  0.70849
C -17.77982  0.77236  1.91597
C -17.79282 -0.68318  1.91497
C -18.50569 -1.13451  0.70414
C -18.94021  0.05143 -0.01338
C -14.71422  2.63243  1.62175
C -14.26878  1.42029  2.33348
C -15.45947  0.71557  2.78090
C -16.63834  1.43816  2.33078
C -16.17691  2.64697  1.62294
C -11.98656 -0.00165 -0.01301
C -12.43904 -1.18095  0.70482
C -13.14655 -0.71871  1.91526
C -13.13888  0.73667  1.91591
C -12.42313  1.18579  0.70697
C -14.07685 -3.01759 -1.88359
C -14.80281 -3.45482 -0.69865
C -14.08055 -3.01574  0.48274
C -12.86620 -2.31124  0.02824
C -12.86415 -2.31095 -1.42670
C -15.45975  0.71223  7.82413
C -16.63970  1.44078  8.27186
C -16.17340  2.64914  8.98329
C -14.71712  2.63783  8.98266
C -14.26803  1.42282  8.27107
C -16.21253 -2.58327  8.98040
C -16.65882 -1.36899  8.26911
C -15.46907 -0.66197  7.82199
C -14.29023 -1.38629  8.27101
C -14.75245 -2.59292  8.98259
C -18.94116  0.05339 10.61454
C -18.48842  1.23310  9.89617
C -17.78134  0.77169  8.68696
C -17.78870 -0.68434  8.68622
C -18.50467 -1.13456  9.89557
C -16.85294  3.07180 12.48806
C -16.12468  3.50538 11.30040
C -16.84847  3.06734 10.11896
C -18.06212  2.36282 10.57262
C -18.06394  2.36210 12.02794
C -12.82864  2.32416 12.02798
C -12.83107  2.32488 10.57134
C -14.03410  3.04854 10.11830
C -14.75176  3.49844 11.29906
C -14.03560  3.04360 12.48409
C -12.43997 -1.17957  9.89401
C -13.14911 -0.72002  8.68598
C -13.13718  0.73625  8.68689
C -12.42382  1.18630  9.89727
C -11.98828  0.00003 10.61497
C -16.21230 -2.58581 13.61962
C -16.66235 -1.36996 14.33164
C -15.46988 -0.65903 14.77906
C -14.28854 -1.38763 14.33141
C -14.75599 -2.59765 13.61875
C -18.10043 -2.27391 10.57367
C -18.09703 -2.27271 12.03017
C -16.89414 -2.99686 12.48325
C -16.17545 -3.44594 11.30336
C -16.89031 -2.99150 10.11889
C -18.48881  1.23117 12.70849
C -17.77982  0.77236 13.91597
C -17.79282 -0.68318 13.91497
C -18.50569 -1.13451 12.70414
C -18.94021  0.05143 11.98662
C -14.71422  2.63243 13.62175
C -14.26878  1.42029 14.33348
C -15.45947  0.71557 14.78090
C -16.63834  1.43816 14.33078
C -16.17691  2.64697 13.62294
C -11.98656 -0.00165 11.98699
C -12.43904 -1.18095 12.70482
C -13.14655 -0.71871 13.91526
C -13.13888  0.73667 13.91591
C -12.42313  1.18579 12.70697
C -14.07685 -3.01759 10.11641
C -14.80281 -3.45482 11.30135
C -14.08055 -3.01574 12.48274
C -12.86620 -2.31124 12.02824
C -12.86415 -2.31095 10.57330
C -15.45975 12.71223 -16.17587
C -16.63970 13.44078 -15.72814
C -16.17340 14.64914 -15.01671
C -14.71712 14.63783 -15.01734
C -14.26803 13.42282 -15.72893
C -16.21253  9.41673 -15.01960
C -16.65882 10.63101 -15.73089
C -15.46907 11.33803 -16.17801
C -14.29023 10.61371 -15.72899
C -14.75245  9.40708 -15.01741
C -18.94116 12.05339 -13.38546
C -18.48842 13.23310 -14.10383
C -17.78134 12.77169 -15.31304
C -17.78870 11.31566 -15.31378
C -18.50467 10.86544 -14.10443
C -16.85294 15.07180 -11.51194
C -16.12468 15.50538 -12.69960
C -16.84847 15.06734 -13.88104
C -18.06212 14.36282 -13.42738
C -18.06394 14.36210 -11.97206
C -12.82864 14.32416 -11.97202
C -12.83107 14.32488 -13.42866
C -14.03410 15.04854 -13.88170
C -14.75176 15.49844 -12.70094
C -14.03560 15.04360 -11.51591
C -12.43997 10.82043 -14.10599
C -13.14911 11.27998 -15.31402
C -13.13718 12.73625 -15.31311
C -12.42382 13.18630 -14.10273
C -11.98828 12.00003 -13.38503
C -16.21230  9.41419 -10.38038
C -16.66235 10.63004 -9.66836
C -15.46988 11.34097 -9.22094
C -14.28854 10.61237 -9.66859
C -14.75599  9.40235 -10.38125
C -18.10043  9.72609 -13.42633
C -18.09703  9.72729 -11.96983
C -16.89414  9.00314 -11.51675
C -16.17545  8.55406 -12.69664
C -16.89031  9.00850 -13.88111
C -18.48881 13.23117 -11.29151
C -17.77982 12.77236 -10.08403
C -17.79282 11.31682 -10.08503
C -18.50569 10.86549 -11.29586
C -18.94021 12.05143 -12.01338
C -14.71422 14.63243 -10.37825
C -14.26878 13.42029 -9.66652
C -15.45947 12.71557 -9.21910
C -16.63834 13.43816 -9.66922
C -16.17691 14.64697 -10.37706
C -11.98656 11.99835 -12.01301
C -12.43904 10.81905 -11.29518
C -13.14655 11.28129 -10.08474
C -13.13888 12.73667 -10.08409
C -12.42313 13.18579 -11.29303
C -14.07685  8.98241 -13.88359
C -14.80281  8.54518 -12.69865
C -14.08055  8.98426 -11.51726
C -12.86620  9.68876 -11.97176
C -12.86415  9.68905 -13.42670
C -15.45975 12.71223 -4.17587
C -16.63970 13.44078 -3.72814
C -16.17340 14.64914 -3.01671
C -14.71712 14.63783 -3.01734
C -14.26803 13.42282 -3.72893
C -16.21253  9.41673 -3.01960
C -16.65882 10.63101 -3.73089
C -15.46907 11.33803 -4.17801
C -14.29023 10.61371 -3.72899
C -14.75245  9.40708 -3.01741
C -18.94116 12.05339 -1.38546
C -18.48842 13.23310 -2.10383
C -17.78134 12.77169 -3.31304
C -17.78870 11.31566 -3.31378
C -18.50467 10.86544 -2.10443
C -16.85294 15.07180  0.48806
C -16.12468 15.50538 -0.69960
C -16.84847 15.06734 -1.88104
C -18.06212 14.36282 -1.42738
C -18.06394 14.36210  0.02794
C -12.82864 14.32416  0.02798
C -12.83107 14.32488 -1.42866
C -14.03410 15.04854 -1.88170
C -14.75176 15.49844 -0.70094
C -14.03560 15.04360  0.48409
C -12.43997 10.82043 -2.10599
C -13.14911 11.27998 -3.31402
C -13.13718 12.73625 -3.31311
C -12.42382 13.18630 -2.10273
C -11.98828 12.00003 -1.38503
C -16.21230  9.41419  1.61962
C -16.66235 10.63004  2.33164
C -15.46988 11.34097  2.77906
C -14.28854 10.61237  2.33141
C -14.75599  9.40235  1.61875
C -18.10043  9.72609 -1.42633
C -18.09703  9.72729  0.03017
C -16.89414  9.00314  0.48325
C -16.17545  8.55406 -0.69664
C -16.89031  9.00850 -1.88111
C -18.48881 13.23117  0.70849
C -17.77982 12.77236  1.91597
C -17.79282 11.31682  1.91497
C -18.50569 10.86549  0.70414
C -18.94021 12.05143 -0.01338
C -14.71422 14.63243  1.62175
C -14.26878 13.42029  2.33348
C -15.45947 12.71557  2.78090
C -16.63834 13.43816  2.33078
C -16.17691 14.64697  1.62294
C -11.98656 11.99835 -0.01301
C -12.43904 10.81905  0.70482
C -13.14655 11.28129  1.91526
C -13.13888 12.73667  1.91591
C -12.42313 13.18579  0.70697
C -14.07685  8.98241 -1.88359
C -14.80281  8.54518 -0.69865
C -14.08055  8.98426  0.48274
C -12.86620  9.68876  0.02824
C -12.86415  9.68905 -1.42670
C -15.45975 12.71223  7.82413
C -16.63970 13.44078  8.27186
C -16.17340 14.64914  8.98329
C -14.71712 14.63783  8.98266
C -14.26803 13.42282  8.27107
C -16.21253  9.41673  8.98040
C -16.65882 10.63101  8.26911
C -15.46907 11.33803  7.82199
C -14.29023 10.61371  8.27101
C -14.75245  9.40708  8.98259
C -18.94116 12.05339 10.61454
C -18.48842 13.23310  9.89617
C -17.78134 12.77169  8.68696
C -17.78870 11.31566  8.68622
C -18.50467 10.86544  9.89557
C -16.85294 15.07180 12.48806
C -16.12468 15.50538 11.30040
C -16.84847 15.06734 10.11896
C -18.06212 14.36282 10.57262
C -18.06394 14.36210 12.02794
C -12.82864 14.32416 12.02798
C -12.83107 14.32488 10.57134
C -14.03410 15.04854 10.11830
C -14.75176 15.49844 11.29906
C -14.03560 15.04360 12.48409
C -12.43997 10.82043  9.89401
C -13.14911 11.27998  8.68598
C -13.13718 12.73625  8.68689
C -12.42382 13.18630  9.89727
C -11.98828 12.00003 10.61497
C -16.21230  9.41419 13.61962
C -16.66235 10.63004 14.33164
C -15.46988 11.34097 14.77906
C -14.28854 10.61237 14.33141
C -14.75599  9.40235 13.61875
C -18.10043  9.72609 10.57367
C -18.09703  9.72729 12.03017
C -16.89414  9.00314 12.48325
C -16.17545  8.55406 11.30336
C -16.89031  9.00850 10.11889
C -18.48881 13.23117 12.70849
C -17.77982 12.77236 13.91597
C -17.79282 11.31682 13.91497
C -18.50569 10.86549 12.70414
C -18.94021 12.05143 11.98662
C -14.71422 14.63243 13.62175
C -14.26878 13.42029 14.33348
C -15.45947 12.71557 14.78090
C -16.63834 13.43816 14.33078
C -16.17691 14.64697 13.62294
C -11.98656 11.99835 11.98699
C -12.43904 10.81905 12.70482
C -13.14655 11.28129 13.91526
C -13.13888 12.73667 13.91591
C -12.42313 13.18579 12.70697
C -14.07685  8.98241 10.11641
C -14.80281  8.54518 11.30135
C -14.08055  8.98426 12.48274
C -12.86620  9.68876 12.02824
C -12.86415  9.68905 10.57330
C -3.45975 -11.28777 -16.17587
C -4.63970 -10.55922 -15.72814
C -4.17340 -9.35086 -15.01671
C -2.71712 -9.36217 -15.01734
C -2.26803 -10.57718 -15.72893
C -4.21253 -14.58327 -15.01960
C -4.65882 -13.36899 -15.73089
C -3.46907 -12.66197 -16.17801
C -2.29023 -13.38629 -15.72899
C -2.75245 -14.59292 -15.01741
C -6.94116 -11.94661 -13.38546
C -6.48842 -10.76690 -14.10383
C -5.78134 -11.22831 -15.31304
C -5.78870 -12.68434 -15.31378
C -6.50467 -13.13456 -14.10443
C -4.85294 -8.92820 -11.51194
C -4.12468 -8.49462 -12.69960
C -4.84847 -8.93266 -13.88104
C -6.06212 -9.63718 -13.42738
C -6.06394 -9.63790 -11.97206
C -0.82864 -9.67584 -11.97202
C -0.83107 -9.67512 -13.42866
C -2.03410 -8.95146 -13.88170
C -2.75176 -8.50156 -12.70094
C -2.03560 -8.95640 -11.51591
C -0.43997 -13.17957 -14.10599
C -1.14911 -12.72002 -15.31402
C -1.13718 -11.26375 -15.31311
C -0.42382 -10.81370 -14.10273
C  0.01172 -11.99997 -13.38503
C -4.21230 -14.58581 -10.38038
C -4.66235 -13.36996 -9.66836
C -3.46988 -12.65903 -9.22094
C -2.28854 -13.38763 -9.66859
C -2.75599 -14.59765 -10.38125
C -6.10043 -14.27391 -13.42633
C -6.09703 -14.27271 -11.96983
C -4.89414 -14.99686 -11.51675
C -4.17545 -15.44594 -12.69664
C -4.89031 -14.99150 -13.88111
C -6.48881 -10.76883 -11.29151
C -5.77982 -11.22764 -10.08403
C -5.79282 -12.68318 -10.08503
C -6.50569 -13.13451 -11.29586
C -6.94021 -11.94857 -12.01338
C -2.71422 -9.36757 -10.37825
C -2.26878 -10.57971 -9.66652
C -3.45947 -11.28443 -9.21910
C -4.63834 -10.56184 -9.66922
C -4.17691 -9.35303 -10.37706
C  0.01344 -12.00165 -12.01301
C -0.43904 -13.18095 -11.29518
C -1.14655 -12.71871 -10.08474
C -1.13888 -11.26333 -10.08409
C -0.42313 -10.81421 -11.29303
C -2.07685 -15.01759 -13.88359
C -2.80281 -15.45482 -12.69865
C -2.08055 -15.01574 -11.51726
C -0.86620 -14.31124 -11.97176
C -0.86415 -14.31095 -13.42670
C -3.45975 -11.28777 -4.17587
C -4.63970 -10.55922 -3.72814
C -4.17340 -9.35086 -3.01671
C -2.71712 -9.36217 -3.01734
C -2.26803 -10.57718 -3.72893
C -4.21253 -14.58327 -3.01960
C -4.65882 -13.36899 -3.73089
C -3.46907 -12.66197 -4.17801
C -2.29023 -13.38629 -3.72899
C -2.75245 -14.59292 -3.01741
C -6.94116 -11.94661 -1.38546
C -6.48842 -10.76690 -2.10383
C -5.78134 -11.22831 -3.31304
C -5.78870 -12.68434 -3.31378
C -6.50467 -13.13456 -2.10443
C -4.85294 -8.92820  0.48806
C -4.12468 -8.49462 -0.69960
C -4.84847 -8.93266 -1.88104
C -6.06212 -9.63718 -1.42738
C -6.06394 -9.63790  0.02794
C -0.82864 -9.67584  0.02798
C -0.83107 -9.67512 -1.42866
C -2.03410 -8.95146 -1.88170
C -2.75176 -8.50156 -0.70094
C -2.03560 -8.95640  0.48409
C -0.43997 -13.17957 -2.10599
C -1.14911 -12.72002 -3.31402
C -1.13718 -11.26375 -3.31311
C -0.42382 -10.81370 -2.10273
C  0.01172 -11.99997 -1.38503
C -4.21230 -14.58581  1.61962
C -4.66235 -13.36996  2.33164
C -3.46988 -12.65903  2.77906
C -2.28854 -13.38763  2.33141
C -2.75599 -14.59765  1.61875
C -6.10043 -14.27391 -1.42633
C -6.09703 -14.27271  0.03017
C -4.89414 -14.99686  0.48325
C -4.17545 -15.44594 -0.69664
C -4.89031 -14.99150 -1.88111
C -6.48881 -10.76883  0.70849
C -5.77982 -11.22764  1.91597
C -5.79282 -12.68318  1.91497
C -6.50569 -13.13451  0.70414
C -6.94021 -11.94857 -0.01338
C -2.71422 -9.36757  1.62175
C -2.26878 -10.57971  2.33348
C -3.45947 -11.28443  2.78090
C -4.63834 -10.56184  2.33078
C -4.17691 -9.35303  1.62294
C  0.01344 -12.00165 -0.01301
C -0.43904 -13.18095  0.70482
C -1.14655 -12.71871  1.91526
C -1.13888 -11.26333  1.91591
C -0.42313 -10.81421  0.70697
C -2.07685 -15.01759 -1.88359
C -2.80281 -15.45482 -0.69865
C -2.08055 -15.01574  0.48274
C -0.86620 -14.31124  0.02824
C -0.86415 -14.31095 -1.42670
C -3.45975 -11.28777  7.82413
C -4.63970 -10.55922  8.27186
C -4.17340 -9.35086  8.98329
C -2.71712 -9.36217  8.98266
C -2.26803 -10.57718  8.27107
C -4.21253 -14.58327  8.98040
C -4.65882 -13.36899  8.26911
C -3.46907 -12.66197  7.82199
C -2.29023 -13.38629  8.27101
C -2.75245 -14.59292  8.98259
C -6.94116 -11.94661 10.61454
C -6.48842 -10.76690  9.89617
C -5.78134 -11.22831  8.68696
C -5.78870 -12.68434  8.68622
C -6.50467 -13.13456  9.89557
C -4.85294 -8.92820 12.48806
C -4.12468 -8.49462 11.30040
C -4.84847 -8.93266 10.11896
C -6.06212 -9.63718 10.57262
C -6.06394 -9.63790 12.02794
C -0.82864 -9.67584 12.02798
C -0.83107 -9.67512 10.57134
C -2.03410 -8.95146 10.11830
C -2.75176 -8.50156 11.29906
C -2.03560 -8.95640 12.48409
C -0.43997 -13.17957  9.89401
C -1.14911 -12.72002  8.68598
C -1.13718 -11.26375  8.68689
C -0.42382 -10.81370  9.89727
C  0.01172 -11.99997 10.61497
C -4.21230 -14.58581 13.61962
C -4.66235 -13.36996 14.33164
C -3.46988 -12.65903 14.77906
C -2.28854 -13.38763 14.33141
C -2.75599 -14.59765 13.61875
C -6.10043 -14.27391 10.57367
C -6.09703 -14.27271 12.03017
C -4.89414 -14.99686 12.48325
C -4.17545 -15.44594 11.30336
C -4.89031 -14.99150 10.11889
C -6.48881 -10.76883 12.70849
C -5.77982 -11.22764 13.91597
C -5.79282 -12.68318 13.91497
C -6.50569 -13.13451 12.70414
C -6.94021 -11.94857 11.98662
C -2.71422 -9.36757 13.62175
C -2.26878 -10.57971 14.33348
C -3.45947 -11.28443 14.78090
C -4.63834 -10.56184 14.33078
C -4.17691 -9.35303 13.62294
C  0.01344 -12.00165 11.98699
C -0.43904 -13.18095 12.70482
C -1.14655 -12.71871 13.91526
C -1.13888 -11.26333 13.91591
C -0.42313 -10.81421 12.70697
C -2.07685 -15.01759 10.11641
C -2.80281 -15.45482 11.30135
C -2.08055 -15.01574 12.48274
C -0.86620 -14.31124 12.02824
C -0.86415 -14.31095 10.57330
C -3.45975  0.71223 -16.17587
C -4.63970  1.44078 -15.72814
C -4.17340  2.64914 -15.01671
C -2.71712  2.63783 -15.01734
C -2.26803  1.42282 -15.72893
C -4.21253 -2.58327 -15.01960
C -4.65882 -1.36899 -15.73089
C -3.46907 -0.66197 -16.17801
C -2.29023 -1.38629 -15.72899
C -2.75245 -2.59292 -15.01741
C -6.94116  0.05339 -13.38546
C -6.48842  1.23310 -14.10383
C -5.78134  0.77169 -15.31304
C -5.78870 -0.68434 -15.31378
C -6.50467 -1.13456 -14.10443
C -4.85294  3.07180 -11.51194
C -4.12468  3.50538 -12.69960
C -4.84847  3.06734 -13.88104
C -6.06212  2.36282 -13.42738
C -6.06394  2.36210 -11.97206
C -0.82864  2.32416 -11.97202
C -0.83107  2.32488 -13.42866
C -2.03410  3.04854 -13.88170
C -2.75176  3.49844 -12.70094
C -2.03560  3.04360 -11.51591
C -0.43997 -1.17957 -14.10599
C -1.14911 -0.72002 -15.31402
C -1.13718  0.73625 -15.31311
C -0.42382  1.18630 -14.10273
C  0.01172  0.00003 -13.38503
C -4.21230 -2.58581 -10.38038
C -4.66235 -1.36996 -9.66836
C -3.46988 -0.65903 -9.22094
C -2.28854 -1.38763 -9.66859
C -2.75599 -2.59765 -10.38125
C -6.10043 -2.27391 -13.42633
C -6.09703 -2.27271 -11.96983
C -4.89414 -2.99686 -11.51675
C -4.17545 -3.44594 -12.69664
C -4.89031 -2.99150 -13.88111
C -6.48881  1.23117 -11.29151
C -5.77982  0.77236 -10.08403
C -5.79282 -0.68318 -10.08503
C -6.50569 -1.13451 -11.29586
C -6.94021  0.05143 -12.01338
C -2.71422  2.63243 -10.37825
C -2.26878  1.42029 -9.66652
C -3.45947  0.71557 -9.21910
C -4.63834  1.43816 -9.66922
C -4.17691  2.64697 -10.37706
C  0.01344 -0.00165 -12.01301
C -0.43904 -1.18095 -11.29518
C -1.14655 -0.71871 -10.08474
C -1.13888  0.73667 -10.08409
C -0.42313  1.18579 -11.29303
C -2.07685 -3.01759 -13.88359
C -2.80281 -3.45482 -12.69865
C -2.08055 -3.01574 -11.51726
C -0.86620 -2.31124 -11.97176
C -0.86415 -2.31095 -13.42670
C -3.45975  0.71223 -4.17587
C -4.63970  1.44078 -3.72814
C -4.17340  2.64914 -3.01671
C -2.71712  2.63783 -3.01734
C -2.26803  1.42282 -3.72893
C -4.21253 -2.58327 -3.01960
C -4.65882 -1.36899 -3.73089
C -3.46907 -0.66197 -4.17801
C -2.29023 -1.38629 -3.72899
C -2.75245 -2.59292 -3.01741
C -6.94116  0.05339 -1.38546
C -6.48842  1.23310 -2.10383
C -5.78134  0.77169 -3.31304
C -5.78870 -0.68434 -3.31378
C -6.50467 -1.13456 -2.10443
C -4.85294  3.07180  0.48806
C -4.12468  3.50538 -0.69960
C -4.84847  3.06734 -1.88104
C -6.06212  2.36282 -1.42738
C -6.06394  2.36210  0.02794
C -0.82864  2.32416  0.02798
C -0.83107  2.32488 -1.42866
C -2.03410  3.04854 -1.88170
C -2.75176  3.49844 -0.70094
C -2.03560  3.04360  0.48409
C -0.43997 -1.17957 -2.10599
C -1.14911 -0.72002 -3.31402
C -1.13718  0.73625 -3.31311
C -0.42382  1.18630 -2.10273
C  0.01172  0.00003 -1.38503
C -4.21230 -2.58581  1.61962
C -4.66235 -1.36996  2.33164
C -3.46988 -0.65903  2.77906
C -2.28854 -1.38763  2.33141
C -2.75599 -2.59765  1.61875
C -6.10043 -2.27391 -1.42633
C -6.09703 -2.27271  0.03017
C -4.89414 -2.99686  0.48325
C -4.17545 -3.44594 -0.69664
C -4.89031 -2.99150 -1.88111
C -6.48881  1.23117  0.70849
C -5.77982  0.77236  1.91597
C -5.79282 -0.68318  1.91497
C -6.50569 -1.13451  0.70414
C -6.94021  0.05143 -0.01338
C -2.71422  2.63243  1.62175
C -2.26878  1.42029  2.33348
C -3.45947  0.71557  2.78090
C -4.63834  1.43816  2.33078
C -4.17691  2.64697  1.62294
C  0.01344 -0.00165 -0.01301
C -0.43904 -1.18095  0.70482
C -1.14655 -0.71871  1.91526
C -1.13888  0.73667  1.91591
C -0.42313  1.18579  0.70697
C -2.07685 -3.01759 -1.88359
C -2.80281 -3.45482 -0.69865
C -2.08055 -3.01574  0.48274
C -0.86620 -2.31124  0.02824
C -0.86415 -2.31095 -1.42670
C -3.45975  0.71223  7.82413
C -4.63970  1.44078  8.27186
C -4.17340  2.64914  8.98329
C -2.71712  2.63783  8.98266
C -2.26803  1.42282  8.27107
C -4.21253 -2.58327  8.98040
C -4.65882 -1.36899  8.26911
C -3.46907 -0.66197  7.82199
C -2.29023 -1.38629  8.27101
C -2.75245 -2.59292  8.98259
C -6.94116  0.05339 10.61454
C -6.48842  1.23310  9.89617
C -5.78134  0.77169  8.68696
C -5.78870 -0.68434  8.68622
C -6.50467 -1.13456  9.89557
C -4.85294  3.07180 12.48806
C -4.12468  3.50538 11.30040
C -4.84847  3.06734 10.11896
C -6.06212  2.36282 10.57262
C -6.06394  2.36210 12.02794
C -0.82864  2.32416 12.02798
C -0.83107  2.32488 10.57134
C -2.03410  3.04854 10.11830
C -2.75176  3.49844 11.29906
C -2.03560  3.04360 12.48409
C -0.43997 -1.17957  9.89401
C -1.14911 -0.72002  8.68598
C -1.13718  0.73625  8.68689
C -0.42382  1.18630  9.89727
C  0.01172  0.00003 10.61497
C -4.21230 -2.58581 13.61962
C -4.66235 -1.36996 14.33164
C -3.46988 -0.65903 14.77906
C -2.28854 -1.38763 14.33141
C -2.75599 -2.59765 13.61875
C -6.10043 -2.27391 10.57367
C -6.09703 -2.27271 12.03017
C -4.89414 -2.99686 12.48325
C -4.17545 -3.44594 11.30336
C -4.89031 -2.99150 10.11889
C -6.48881  1.23117 12.70849
C -5.77982  0.77236 13.91597
C -5.79282 -0.68318 13.91497
C -6.50569 -1.13451 12.70414
C -6.94021  0.05143 11.98662
C -2.71422  2.63243 13.62175
C -2.26878  1.42029 14.33348
C -3.45947  0.71557 14.78090
C -4.63834  1.43816 14.33078
C -4.17691  2.64697 13.62294
C  0.01344 -0.00165 11.98699
C -0.43904 -1.18095 12.70482
C -1.14655 -0.71871 13.91526
C -1.13888  0.73667 13.91591
C -0.42313  1.18579 12.70697
C -2.07685 -3.01759 10.11641
C -2.80281 -3.45482 11.30135
C -2.08055 -3.01574 12.48274
C -0.86620 -2.31124 12.02824
C -0.86415 -2.31095 10.57330
C -3.45975 12.71223 -16.17587
C -4.63970 13.44078 -15.72814
C -4.17340 14.64914 -15.01671
C -2.71712 14.63783 -15.01734
C -2.26803 13.42282 -15.72893
C -4.21253  9.41673 -15.01960
C -4.65882 10.63101 -15.73089
C -3.46907 11.33803 -16.17801
C -2.29023 10.61371 -15.72899
C -2.75245  9.40708 -15.01741
C -6.94116 12.05339 -13.38546
C -6.48842 13.23310 -14.10383
C -5.78134 12.77169 -15.31304
C -5.78870 11.31566 -15.31378
C -6.50467 10.86544 -14.10443
C -4.85294 15.07180 -11.51194
C -4.12468 15.50538 -12.69960
C -4.84847 15.06734 -13.88104
C -6.06212 14.36282 -13.42738
C -6.06394 14.36210 -11.97206
C -0.82864 14.32416 -11.97202
C -0.83107 14.32488 -13.42866
C -2.03410 15.04854 -13.88170
C -2.75176 15.49844 -12.70094
C -2.03560 15.04360 -11.51591
C -0.43997 10.82043 -14.10599
C -1.14911 11.27998 -15.31402
C -1.13718 12.73625 -15.31311
C -0.42382 13.18630 -14.10273
C  0.01172 12.00003 -13.38503
C -4.21230  9.41419 -10.38038
C -4.66235 10.63004 -9.66836
C -3.46988 11.34097 -9.22094
C -2.28854 10.61237 -9.66859
C -2.75599  9.40235 -10.38125
C -6.10043  9.72609 -13.42633
C -6.09703  9.72729 -11.96983
C -4.89414  9.00314 -11.51675
C -4.17545  8.55406 -12.69664
C -4.89031  9.00850 -13.88111
C -6.48881 13.23117 -11.29151
C -5.77982 12.77236 -10.08403
C -5.79282 11.31682 -10.08503
C -6.50569 10.86549 -11.29586
C -6.94021 12.05143 -12.01338
C -2.71422 14.63243 -10.37825
C -2.26878 13.42029 -9.66652
C -3.45947 12.71557 -9.21910
C -4.63834 13.43816 -9.66922
C -4.17691 14.64697 -10.37706
C  0.01344 11.99835 -12.01301
C -0.43904 10.81905 -11.29518
C -1.14655 11.28129 -10.08474
C -1.13888 12.73667 -10.08409
C -0.42313 13.18579 -11.29303
C -2.07685  8.98241 -13.88359
C -2.80281  8.54518 -12.69865
C -2.08055  8.98426 -11.51726
C -0.86620  9.68876 -11.97176
C -0.86415  9.68905 -13.42670
C -3.45975 12.71223 -4.17587
C -4.63970 13.44078 -3.72814
C -4.17340 14.64914 -3.01671
C -2.71712 14.63783 -3.01734
C -2.26803 13.42282 -3.72893
C -4.21253  9.41673 -3.01960
C -4.65882 10.63101 -3.73089
C -3.46907 11.33803 -4.17801
C -2.29023 10.61371 -3.72899
C -2.75245  9.40708 -3.01741
C -6.94116 12.05339 -1.38546
C -6.48842 13.23310 -2.10383
C -5.78134 12.77169 -3.31304
C -5.78870 11.31566 -3.31378
C -6.50467 10.86544 -2.10443
C -4.85294 15.07180  0.48806
C -4.12468 15.50538 -0.69960
C -4.84847 15.06734 -1.88104
C -6.06212 14.36282 -1.42738
C -6.06394 14.36210  0.02794
C -0.82864 14.32416  0.02798
C -0.83107 14.32488 -1.42866
C -2.03410 15.04854 -1.88170
C -2.75176 15.49844 -0.70094
C -2.03560 15.04360  0.48409
C -0.43997 10.82043 -2.10599
C -1.14911 11.27998 -3.31402
C -1.13718 12.73625 -3.31311
C -0.42382 13.18630 -2.10273
C  0.01172 12.00003 -1.38503
C -4.21230  9.41419  1.61962
C -4.66235 10.63004  2.33164
C -3.46988 11.34097  2.77906
C -2.28854 10.61237  2.33141
C -2.75599  9.40235  1.61875
C -6.10043  9.72609 -1.42633
C -6.09703  9.72729  0.03017
C -4.89414  9.00314  0.48325
C -4.17545  8.55406 -0.69664
C -4.89031  9.00850 -1.88111
C -6.48881 13.23117  0.70849
C -5.77982 12.77236  1.91597
C -5.79282 11.31682  1.91497
C -6.50569 10.86549  0.70414
C -6.94021 12.05143 -0.01338
C -2.71422 14.63243  1.62175
C -2.26878 13.42029  2.33348
C -3.45947 12.71557  2.78090
C -4.63834 13.43816  2.33078
C -4.17691 14.64697  1.62294
C  0.01344 11.99835 -0.01301
C -0.43904 10.81905  0.70482
C -1.14655 11.28129  1.91526
C -1.13888 12.73667  1.91591
C -0.42313 13.18579  0.70697
C -2.07685  8.98241 -1.88359
C -2.80281  8.54518 -0.69865
C -2.08055  8.98426  0.48274
C -0.86620  9.68876  0.02824
C -0.86415  9.68905 -1.42670
C -3.45975 12.71223  7.82413
C -4.63970 13.44078  8.27186
C -4.17340 14.64914  8.98329
C -2.71712 14.63783  8.98266
C -2.26803 13.42282  8.27107
C -4.21253  9.41673  8.98040
C -4.65882 10.63101  8.26911
C -3.46907 11.33803  7.82199
C -2.29023 10.61371  8.27101
C -2.75245  9.40708  8.98259
C -6.94116 12.05339 10.61454
C -6.48842 13.23310  9.89617
C -5.78134 12.77169  8.68696
C -5.78870 11.31566  8.68622
C -6.50467 10.86544  9.89557
C -4.85294 15.07180 12.48806
C -4.12468 15.50538 11.30040
C -4.84847 15.06734 10.11896
C -6.06212 14.36282 10.57262
C -6.06394 14.36210 12.02794
C -0.82864 14.32416 12.02798
C -0.83107 14.32488 10.57134
C -2.03410 15.04854 10.11830
C -2.75176 15.49844 11.29906
C -2.03560 15.04360 12.48409
C -0.43997 10.82043  9.89401
C -1.14911 11.27998  8.68598
C -1.13718 12.73625  8.68689
C -0.42382 13.18630  9.89727
C  0.01172 12.00003 10.61497
C -4.21230  9.41419 13.61962
C -4.66235 10.63004 14.33164
C -3.46988 11.34097 14.77906
C -2.28854 10.61237 14.33141
C -2.75599  9.40235 13.61875
C -6.10043  9.72609 10.57367
C -6.09703  9.72729 12.03017
C -4.89414  9.00314 12.48325
C -4.17545  8.55406 11.30336
C -4.89031  9.00850 10.11889
C -6.48881 13.23117 12.70849
C -5.77982 12.77236 13.91597
C -5.79282 11.31682 13.91497
C -6.50569 10.86549 12.70414
C -6.94021 12.05143 11.98662
C -2.71422 14.63243 13.62175
C -2.26878 13.42029 14.33348
C -3.45947 12.71557 14.78090
C -4.63834 13.43816 14.33078
C -4.17691 14.64697 13.62294
C  0.01344 11.99835 11.98699
C -0.43904 10.81905 12.70482
C -1.14655 11.28129 13.91526
C -1.13888 12.73667 13.91591
C -0.42313 13.18579 12.70697
C -2.07685  8.98241 10.11641
C -2.80281  8.54518 11.30135
C -2.08055  8.98426 12.48274
C -0.86620  9.68876 12.02824
C -0.86415  9.68905 10.57330
C  8.54025 -11.28777 -16.17587
C  7.36030 -10.55922 -15.72814
C  7.82660 -9.35086 -15.01671
C  9.28288 -9.36217 -15.01734
C  9.73197 -10.57718 -15.72893
C  7.78747 -14.58327 -15.01960
C  7.34118 -13.36899 -15.73089
C  8.53093 -12.66197 -16.17801
C  9.70977 -13.38629 -15.72899
C  9.24755 -14.59292 -15.01741
C  5.05884 -11.94661 -13.38546
C  5.51158 -10.76690 -14.10383
C  6.21866 -11.22831 -15.31304
C  6.21130 -12.68434 -15.31378
C  5.49533 -13.13456 -14.10443
C  7.14706 -8.92820 -11.51194
C  7.87532 -8.49462 -12.69960
C  7.15153 -8.93266 -13.88104
C  5.93788 -9.63718 -13.42738
C  5.93606 -9.63790 -11.97206
C 11.17136 -9.67584 -11.97202
C 11.16893 -9.67512 -13.42866
C  9.96590 -8.95146 -13.88170
C  9.24824 -8.50156 -12.70094
C  9.96440 -8.95640 -11.51591
C 11.56003 -13.17957 -14.10599
C 10.85089 -12.72002 -15.31402
C 10.86282 -11.26375 -15.31311
C 11.57618 -10.81370 -14.10273
C 12.01172 -11.99997 -13.38503
C  7.78770 -14.58581 -10.38038
C  7.33765 -13.36996 -9.66836
C  8.53012 -12.65903 -9.22094
C  9.71146 -13.38763 -9.66859
C  9.24401 -14.59765 -10.38125
C  5.89957 -14.27391 -13.42633
C  5.90297 -14.27271 -11.96983
C  7.10586 -14.99686 -11.51675
C  7.82455 -15.44594 -12.69664
C  7.10969 -14.99150 -13.88111
C  5.51119 -10.76883 -11.29151
C  6.22018 -11.22764 -10.08403
C  6.20718 -12.68318 -10.08503
C  5.49431 -13.13451 -11.29586
C  5.05979 -11.94857 -12.01338
C  9.28578 -9.36757 -10.37825
C  9.73122 -10.57971 -9.66652
C  8.54053 -11.28443 -9.21910
C  7.36166 -10.56184 -9.66922
C  7.82309 -9.35303 -10.37706
C 12.01344 -12.00165 -12.01301
C 11.56096 -13.18095 -11.29518
C 10.85345 -12.71871 -10.08474
C 10.86112 -11.26333 -10.08409
C 11.57687 -10.81421 -11.29303
C  9.92315 -15.01759 -13.88359
C  9.19719 -15.45482 -12.69865
C  9.91945 -15.01574 -11.51726
C 11.13380 -14.31124 -11.97176
C 11.13585 -14.31095 -13.42670
C  8.54025 -11.28777 -4.17587
C  7.36030 -10.55922 -3.72814
C  7.82660 -9.35086 -3.01671
C  9.28288 -9.36217 -3.01734
C  9.73197 -10.57718 -3.72893
C  7.78747 -14.58327 -3.01960
C  7.34118 -13.36899 -3.73089
C  8.53093 -12.66197 -4.17801
C  9.70977 -13.38629 -3.72899
C  9.24755 -14.59292 -3.01741
C  5.05884 -11.94661 -1.38546
C  5.51158 -10.76690 -2.10383
C  6.21866 -11.22831 -3.31304
C  6.21130 -12.68434 -3.31378
C  5.49533 -13.13456 -2.10443
C  7.14706 -8.92820  0.48806
C  7.87532 -8.49462 -0.69960
C  7.15153 -8.93266 -1.88104
C  5.93788 -9.63718 -1.42738
C  5.93606 -9.63790  0.02794
C 11.17136 -9.67584  0.02798
C 11.16893 -9.67512 -1.42866
C  9.96590 -8.95146 -1.88170
C  9.24824 -8.50156 -0.70094
C  9.96440 -8.95640  0.48409
C 11.56003 -13.17957 -2.10599
C 10.85089 -12.72002 -3.31402
C 10.86282 -11.26375 -3.31311
C 11.57618 -10.81370 -2.10273
C 12.01172 -11.99997 -1.38503
C  7.78770 -14.58581  1.61962
C  7.33765 -13.36996  2.33164
C  8.53012 -12.65903  2.77906
C  9.71146 -13.38763  2.33141
C  9.24401 -14.59765  1.61875
C  5.89957 -14.27391 -1.42633
C  5.90297 -14.27271  0.03017
C  7.10586 -14.99686  0.48325
C  7.82455 -15.44594 -0.69664
C  7.10969 -14.99150 -1.88111
C  5.51119 -10.76883  0.70849
C  6.22018 -11.22764  1.91597
C  6.20718 -12.68318  1.91497
C  5.49431 -13.13451  0.70414
C  5.05979 -11.94857 -0.01338
C  9.28578 -9.36757  1.62175
C  9.73122 -10.57971  2.33348
C  8.54053 -11.28443  2.78090
C  7.36166 -10.56184  2.33078
C  7.82309 -9.35303  1.62294
C 12.01344 -12.00165 -0.01301
C 11.56096 -13.18095  0.70482
C 10.85345 -12.71871  1.91526
C 10.86112 -11.26333  1.91591
C 11.57687 -10.81421  0.70697
C  9.92315 -15.01759 -1.88359
C  9.19719 -15.45482 -0.69865
C  9.91945 -15.01574  0.48274
C 11.13380 -14.31124  0.02824
C 11.13585 -14.31095 -1.42670
C  8.54025 -11.28777  7.82413
C  7.36030 -10.55922  8.27186
C  7.82660 -9.35086  8.98329
C  9.28288 -9.36217  8.98266
C  9.73197 -10.57718  8.27107
C  7.78747 -14.58327  8.98040
C  7.34118 -13.36899  8.26911
C  8.53093 -12.66197  7.82199
C  9.70977 -13.38629  8.27101
C  9.24755 -14.59292  8.98259
C  5.05884 -11.94661 10.61454
C  5.51158 -10.76690  9.89617
C  6.21866 -11.22831  8.68696
C  6.21130 -12.68434  8.68622
C  5.49533 -13.13456  9.89557
C  7.14706 -8.92820 12.48806
C  7.87532 -8.49462 11.30040
C  7.15153 -8.93266 10.11896
C  5.93788 -9.63718 10.57262
C  5.93606 -9.63790 12.02794
C 11.17136 -9.67584 12.02798
C 11.16893 -9.67512 10.57134
C  9.96590 -8.95146 10.11830
C  9.24824 -8.50156 11.29906
C  9.96440 -8.95640 12.48409
C 11.56003 -13.17957  9.89401
C 10.85089 -12.72002  8.68598
C 10.86282 -11.26375  8.68689
C 11.57618 -10.81370  9.89727
C 12.01172 -11.99997 10.61497
C  7.78770 -14.58581 13.61962
C  7.33765 -13.36996 14.33164
C  8.53012 -12.65903 14.77906
C  9.71146 -13.38763 14.33141
C  9.24401 -14.59765 13.61875
C  5.89957 -14.27391 10.57367
C  5.90297 -14.27271 12.03017
C  7.10586 -14.99686 12.48325
C  7.82455 -15.44594 11.30336
C  7.10969 -14.99150 10.11889
C  5.51119 -10.76883 12.70849
C  6.22018 -11.22764 13.91597
C  6.20718 -12.68318 13.91497
C  5.49431 -13.13451 12.70414
C  5.05979 -11.94857 11.98662
C  9.28578 -9.36757 13.62175
C  9.73122 -10.57971 14.33348
C  8.54053 -11.28443 14.78090
C  7.36166 -10.56184 14.33078
C  7.82309 -9.35303 13.62294
C 12.01344 -12.00165 11.98699
C 11.56096 -13.18095 12.70482
C 10.85345 -12.71871 13.91526
C 10.86112 -11.26333 13.91591
C 11.57687 -10.81421 12.70697
C  9.92315 -15.01759 10.11641
C  9.19719 -15.45482 11.30135
C  9.91945 -15.01574 12.48274
C 11.13380 -14.31124 12.02824
C 11.13585 -14.31095 10.57330
C  8.54025  0.71223 -16.17587
C  7.36030  1.44078 -15.72814
C  7.82660  2.64914 -15.01671
C  9.28288  2.63783 -15.01734
C  9.73197  1.42282 -15.72893
C  7.78747 -2.58327 -15.01960
C  7.34118 -1.36899 -15.73089
C  8.53093 -0.66197 -16.17801
C  9.70977 -1.38629 -15.72899
C  9.24755 -2.59292 -15.01741
C  5.05884  0.05339 -13.38546
C  5.51158  1.23310 -14.10383
C  6.21866  0.77169 -15.31304
C  6.21130 -0.68434 -15.31378
C  5.49533 -1.13456 -14.10443
C  7.14706  3.07180 -11.51194
C  7.87532  3.50538 -12.69960
C  7.15153  3.06734 -13.88104
C  5.93788  2.36282 -13.42738
C  5.93606  2.36210 -11.97206
C 11.17136  2.32416 -11.97202
C 11.16893  2.32488 -13.42866
C  9.96590  3.04854 -13.88170
C  9.24824  3.49844 -12.70094
C  9.96440  3.04360 -11.51591
C 11.56003 -1.17957 -14.10599
C 10.85089 -0.72002 -15.31402
C 10.86282  0.73625 -15.31311
C 11.57618  1.18630 -14.10273
C 12.01172  0.00003 -13.38503
C  7.78770 -2.58581 -10.38038
C  7.33765 -1.36996 -9.66836
C  8.53012 -0.65903 -9.22094
C  9.71146 -1.38763 -9.66859
C  9.24401 -2.59765 -10.38125
C  5.89957 -2.27391 -13.42633
C  5.90297 -2.27271 -11.96983
C  7.10586 -2.99686 -11.51675
C  7.82455 -3.44594 -12.69664
C  7.10969 -2.99150 -13.88111
C  5.51119  1.23117 -11.29151
C  6.22018  0.77236 -10.08403
C  6.20718 -0.68318 -10.08503
C  5.49431 -1.13451 -11.29586
C  5.05979  0.05143 -12.01338
C  9.28578  2.63243 -10.37825
C  9.73122  1.42029 -9.66652
C  8.54053  0.71557 -9.21910
C  7.36166  1.43816 -9.66922
C  7.82309  2.64697 -10.37706
C 12.01344 -0.00165 -12.01301
C 11.56096 -1.18095 -11.29518
C 10.85345 -0.71871 -10.08474
C 10.86112  0.73667 -10.08409
C 11.57687  1.18579 -11.29303
C  9.92315 -3.01759 -13.88359
C  9.19719 -3.45482 -12.69865
C  9.91945 -3.01574 -11.51726
C 11.13380 -2.31124 -11.97176
C 11.13585 -2.31095 -13.42670
C  8.54025  0.71223 -4.17587
C  7.36030  1.44078 -3.72814
C  7.82660  2.64914 -3.01671
C  9.28288  2.63783 -3.01734
C  9.73197  1.42282 -3.72893
C  7.78747 -2.58327 -3.01960
C  7.34118 -1.36899 -3.73089
C  8.53093 -0.66197 -4.17801
C  9.70977 -1.38629 -3.72899
C  9.24755 -2.59292 -3.01741
C  5.05884  0.05339 -1.38546
C  5.51158  1.23310 -2.10383
C  6.21866  0.77169 -3.31304
C  6.21130 -0.68434 -3.31378
C  5.49533 -1.13456 -2.10443
C  7.14706  3.07180  0.48806
C  7.87532  3.50538 -0.69960
C  7.15153  3.06734 -1.88104
C  5.93788  2.36282 -1.42738
C  5.93606  2.36210  0.02794
C 11.17136  2.32416  0.02798
C 11.16893  2.32488 -1.42866
C  9.96590  3.04854 -1.88170
C  9.24824  3.49844 -0.70094
C  9.96440  3.04360  0.48409
C 11.56003 -1.17957 -2.10599
C 10.85089 -0.72002 -3.31402
C 10.86282  0.73625 -3.31311
C 11.57618  1.18630 -2.10273
C 12.01172  0.00003 -1.38503
C  7.78770 -2.58581  1.61962
C  7.33765 -1.36996  2.33164
C  8.53012 -0.65903  2.77906
C  9.71146 -1.38763  2.33141
C  9.24401 -2.59765  1.61875
C  5.89957 -2.27391 -1.42633
C  5.90297 -2.27271  0.03017
C  7.10586 -2.99686  0.48325
C  7.82455 -3.44594 -0.69664
C  7.10969 -2.99150 -1.88111
C  5.51119  1.23117  0.70849
C  6.22018  0.77236  1.91597
C  6.20718 -0.68318  1.91497
C  5.49431 -1.13451  0.70414
C  5.05979  0.05143 -0.01338
C  9.28578  2.63243  1.62175
C  9.73122  1.42029  2.33348
C  8.54053  0.71557  2.78090
C  7.36166  1.43816  2.33078
C  7.82309  2.64697  1.62294
C 12.01344 -0.00165 -0.01301
C 11.56096 -1.18095  0.70482
C 10.85345 -0.71871  1.91526
C 10.86112  0.73667  1.91591
C 11.57687  1.18579  0.70697
C  9.92315 -3.01759 -1.88359
C  9.19719 -3.45482 -0.69865
C  9.91945 -3.01574  0.48274
C 11.13380 -2.31124  0.02824
C 11.13585 -2.31095 -1.42670
C  8.54025  0.71223  7.82413
C  7.36030  1.44078  8.27186
C  7.82660  2.64914  8.98329
C  9.28288  2.63783  8.98266
C  9.73197  1.42282  8.27107
C  7.78747 -2.58327  8.98040
C  7.34118 -1.36899  8.26911
C  8.53093 -0.66197  7.82199
C  9.70977 -1.38629  8.27101
C  9.24755 -2.59292  8.98259
C  5.05884  0.05339 10.61454
C  5.51158  1.23310  9.89617
C  6.21866  0.77169  8.68696
C  6.21130 -0.68434  8.68622
C  5.49533 -1.13456  9.89557
C  7.14706  3.07180 12.48806
C  7.87532  3.50538 11.30040
C  7.15153  3.06734 10.11896
C  5.93788  2.36282 10.57262
C  5.93606  2.36210 12.02794
C 11.17136  2.32416 12.02798
C 11.16893  2.32488 10.57134
C  9.96590  3.04854 10.11830
C  9.24824  3.49844 11.29906
C  9.96440  3.04360 12.48409
C 11.56003 -1.17957  9.89401
C 10.85089 -0.72002  8.68598
C 10.86282  0.73625  8.68689
C 11.57618  1.18630  9.89727
C 12.01172  0.00003 10.61497
C  7.78770 -2.58581 13.61962
C  7.33765 -1.36996 14.33164
C  8.53012 -0.65903 14.77906
C  9.71146 -1.38763 14.33141
C  9.24401 -2.59765 13.61875
C  5.89957 -2.27391 10.57367
C  5.90297 -2.27271 12.03017
C  7.10586 -2.99686 12.48325
C  7.82455 -3.44594 11.30336
C  7.10969 -2.99150 10.11889
C  5.51119  1.23117 12.70849
C  6.22018  0.77236 13.91597
C  6.20718 -0.68318 13.91497
C  5.49431 -1.13451 12.70414
C  5.05979  0.05143 11.98662
C  9.28578  2.63243 13.62175
C  9.73122  1.42029 14.33348
C  8.54053  0.71557 14.78090
C  7.36166  1.43816 14.33078
C  7.82309  2.64697 13.62294
C 12.01344 -0.00165 11.98699
C 11.56096 -1.18095 12.70482
C 10.85345 -0.71871 13.91526
C 10.86112  0.73667 13.91591
C 11.57687  1.18579 12.70697
C  9.92315 -3.01759 10.11641
C  9.19719 -3.45482 11.30135
C  9.91945 -3.01574 12.48274
C 11.13380 -2.31124 12.02824
C 11.13585 -2.31095 10.57330
C  8.54025 12.71223 -16.17587
C  7.36030 13.44078 -15.72814
C  7.82660 14.64914 -15.01671
C  9.28288 14.63783 -15.01734
C  9.73197 13.42282 -15.72893
C  7.78747  9.41673 -15.01960
C  7.34118 10.63101 -15.73089
C  8.53093 11.33803 -16.17801
C  9.70977 10.61371 -15.72899
C  9.24755  9.40708 -15.01741
C  5.05884 12.05339 -13.38546
C  5.51158 13.23310 -14.10383
C  6.21866 12.77169 -15.31304
C  6.21130 11.31566 -15.31378
C  5.49533 10.86544 -14.10443
C  7.14706 15.07180 -11.51194
C  7.87532 15.50538 -12.69960
C  7.15153 15.06734 -13.88104
C  5.93788 14.36282 -13.42738
C  5.93606 14.36210 -11.97206
C 11.17136 14.32416 -11.97202
C 11.16893 14.32488 -13.42866
C  9.96590 15.04854 -13.88170
C  9.24824 15.49844 -12.70094
C  9.96440 15.04360 -11.51591
C 11.56003 10.82043 -14.10599
C 10.85089 11.27998 -15.31402
C 10.86282 12.73625 -15.31311
C 11.57618 13.18630 -14.10273
C 12.01172 12.00003 -13.38503
C  7.78770  9.41419 -10.38038
C  7.33765 10.63004 -9.66836
C  8.53012 11.34097 -9.22094
C  9.71146 10.61237 -9.66859
C  9.24401  9.40235 -10.38125
C  5.89957  9.72609 -13.42633
C  5.90297  9.72729 -11.96983
C  7.10586  9.00314 -11.51675
C  7.82455  8.55406 -12.69664
C  7.10969  9.00850 -13.88111
C  5.51119 13.23117 -11.29151
C  6.22018 12.77236 -10.08403
C  6.20718 11.31682 -10.08503
C  5.49431 10.86549 -11.29586
C  5.05979 12.05143 -12.01338
C  9.28578 14.63243 -10.37825
C  9.73122 13.42029 -9.66652
C  8.54053 12.71557 -9.21910
C  7.36166 13.43816 -9.66922
C  7.82309 14.64697 -10.37706
C 12.01344 11.99835 -12.01301
C 11.56096 10.81905 -11.29518
C 10.85345 11.28129 -10.08474
C 10.86112 12.73667 -10.08409
C 11.57687 13.18579 -11.29303
C  9.92315  8.98241 -13.88359
C  9.19719  8.54518 -12.69865
C  9.91945  8.98426 -11.51726
C 11.13380  9.68876 -11.97176
C 11.13585  9.68905 -13.42670
C  8.54025 12.71223 -4.17587
C  7.36030 13.44078 -3.72814
C  7.82660 14.64914 -3.01671
C  9.28288 14.63783 -3.01734
C  9.73197 13.42282 -3.72893
C  7.78747  9.41673 -3.01960
C  7.34118 10.63101 -3.73089
C  8.53093 11.33803 -4.17801
C  9.70977 10.61371 -3.72899
C  9.24755  9.40708 -3.01741
C  5.05884 12.05339 -1.38546
C  5.51158 13.23310 -2.10383
C  6.21866 12.77169 -3.31304
C  6.21130 11.31566 -3.31378
C  5.49533 10.86544 -2.10443
C  7.14706 15.07180  0.48806
C  7.87532 15.50538 -0.69960
C  7.15153 15.06734 -1.88104
C  5.93788 14.36282 -1.42738
C  5.93606 14.36210  0.02794
C 11.17136 14.32416  0.02798
C 11.16893 14.32488 -1.42866
C  9.96590 15.04854 -1.88170
C  9.24824 15.49844 -0.70094
C  9.96440 15.04360  0.48409
C 11.56003 10.82043 -2.10599
C 10.85089 11.27998 -3.31402
C 10.86282 12.73625 -3.31311
C 11.57618 13.18630 -2.10273
C 12.01172 12.00003 -1.38503
C  7.78770  9.41419  1.61962
C  7.33765 10.63004  2.33164
C  8.53012 11.34097  2.77906
C  9.71146 10.61237  2.33141
C  9.24401  9.40235  1.61875
C  5.89957  9.72609 -1.42633
C  5.90297  9.72729  0.03017
C  7.10586  9.00314  0.48325
C  7.82455  8.55406 -0.69664
C  7.10969  9.00850 -1.88111
C  5.51119 13.23117  0.70849
C  6.22018 12.77236  1.91597
C  6.20718 11.31682  1.91497
C  5.49431 10.86549  0.70414
C  5.05979 12.05143 -0.01338
C  9.28578 14.63243  1.62175
C  9.73122 13.42029  2.33348
C  8.54053 12.71557  2.78090
C  7.36166 13.43816  2.33078
C  7.82309 14.64697  1.62294
C 12.01344 11.99835 -0.01301
C 11.56096 10.81905  0.70482
C 10.85345 11.28129  1.91526
C 10.86112 12.73667  1.91591
C 11.57687 13.18579  0.70697
C  9.92315  8.98241 -1.88359
C  9.19719  8.54518 -0.69865
C  9.91945  8.98426  0.48274
C 11.13380  9.68876  0.02824
C 11.13585  9.68905 -1.42670
C  8.54025 12.71223  7.82413
C  7.36030 13.44078  8.27186
C  7.82660 14.64914  8.98329
C  9.28288 14.63783  8.98266
C  9.73197 13.42282  8.27107
C  7.78747  9.41673  8.98040
C  7.34118 10.63101  8.26911
C  8.53093 11.33803  7.82199
C  9.70977 10.61371  8.27101
C  9.24755  9.40708  8.98259
C  5.05884 12.05339 10.61454
C  5.51158 13.23310  9.89617
C  6.21866 12.77169  8.68696
C  6.21130 11.31566  8.68622
C  5.49533 10.86544  9.89557
C  7.14706 15.07180 12.48806
C  7.87532 15.50538 11.30040
C  7.15153 15.06734 10.11896
C  5.93788 14.36282 10.57262
C  5.93606 14.36210 12.02794
C 11.17136 14.32416 12.02798
C 11.16893 14.32488 10.57134
C  9.96590 15.04854 10.11830
C  9.24824 15.49844 11.29906
C  9.96440 15.04360 12.48409
C 11.56003 10.82043  9.89401
C 10.85089 11.27998  8.68598
C 10.86282 12.73625  8.68689
C 11.57618 13.18630  9.89727
C 12.01172 12.00003 10.61497
C  7.78770  9.41419 13.61962
C  7.33765 10.63004 14.33164
C  8.53012 11.34097 14.77906
C  9.71146 10.61237 14.33141
C  9.24401  9.40235 13.61875
C  5.89957  9.72609 10.57367
C  5.90297  9.72729 12.03017
C  7.10586  9.00314 12.48325
C  7.82455  8.55406 11.30336
C  7.10969  9.00850 10.11889
C  5.51119 13.23117 12.70849
C  6.22018 12.77236 13.91597
C  6.20718 11.31682 13.91497
C  5.49431 10.86549 12.70414
C  5.05979 12.05143 11.98662
C  9.28578 14.63243 13.62175
C  9.73122 13.42029 14.33348
C  8.54053 12.71557 14.78090
C  7.36166 13.43816 14.33078
C  7.82309 14.64697 13.62294
C 12.01344 11.99835 11.98699
C 11.56096 10.81905 12.70482
C 10.85345 11.28129 13.91526
C 10.86112 12.73667 13.91591
C 11.57687 13.18579 12.70697
C  9.92315  8.98241 10.11641
C  9.19719  8.54518 11.30135
C  9.91945  8.98426 12.48274
C 11.13380  9.68876 12.02824
C 11.13585  9.68905 10.57330
