10 

C   -0.55502  -0.05167   0.35409   0.013213617355593  -0.035526076213783   0.017644855953031
C    0.81500  -0.46585  -0.13783   0.101173026818667   0.025619533666161  -0.006010510662504
O    0.86860  -1.67958  -0.73136   0.157481082186914   0.099501152454908   0.015955313404486
N   -0.89697   1.28481  -0.17674  -0.013730506898840   0.060478002033247   0.073697546902753
H   -1.33580  -0.76012   0.00834   0.044347729080082   0.048585573284948   0.022292380987029
H   -0.54756  -0.10941   1.46450  -0.004696083446404   0.009474162036693  -0.075939460319125
O    1.87096   0.13365  -0.04595  -0.183595201311698  -0.133906146047285  -0.028370824403541
H    1.75863  -1.86736  -1.01311  -0.132090727849479   0.021931521149933   0.038657845606070
H   -1.77844   1.56501   0.19676   0.094313691484557  -0.028617534754764  -0.034154804006353
H   -0.19940   1.95052   0.08130  -0.076865423871911  -0.067873886046894  -0.023520741159943
