384 

Si    0.67887   0.67887   0.67888   0.000003848085995   0.000003694695425  -0.000004881327350
Si    3.39438   0.67887   3.39437  -0.000001968760132  -0.000005602228456   0.000008045761377
Si    0.67887   3.39437   3.39437  -0.000005546717208  -0.000002077578070   0.000007962323744
Si    3.39438   3.39437   0.67888   0.000002195284729   0.000002244743136  -0.000005438599142
Si    4.75212   2.03662   2.03662   0.000000051259922   0.000000303544292  -0.000000713223363
Si    4.75212   4.75212   4.75213  -0.000001927723759  -0.000002076157808  -0.000003136752281
Si    2.03662   2.03662   4.75213  -0.000002059188907  -0.000002212947702  -0.000003523794606
Si    2.03662   4.75212   2.03662   0.000000398391969  -0.000000002393175  -0.000000855910301
Si    0.67887   0.67887   6.10987  -0.000004830488358  -0.000005028098905   0.000000500669361
Si    3.39438   0.67887   8.82537  -0.000002714108795  -0.000005264042078  -0.000009221104650
Si    0.67887   3.39437   8.82537  -0.000005104317437  -0.000002802234573  -0.000009090850323
Si    3.39438   3.39437   6.10987  -0.000004142072133  -0.000004288424530   0.000000167128459
Si    4.75212   2.03662   7.46762   0.000001289278865  -0.000001094108262   0.000001359843660
Si    4.75212   4.75212  10.18313  -0.000000861943833  -0.000000981332913   0.000001380086287
Si    2.03662   2.03662  10.18313   0.000000054746136   0.000000020152898   0.000000095660432
Si    2.03662   4.75212   7.46762  -0.000000939138423   0.000001309102604   0.000001414543610
Si    0.67887   0.67887  11.54087   0.000003694203992   0.000003768321122   0.000004998325724
Si    3.39438   0.67887  14.25638  -0.000000257696619   0.000007028955254  -0.000000071314044
Si    0.67887   3.39437  14.25638   0.000007083313145  -0.000000207214158  -0.000000134082763
Si    3.39438   3.39437  11.54087   0.000002857544738   0.000002770052574   0.000005925761209
Si    4.75212   2.03662  12.89862   0.000000390257963  -0.000000081245982  -0.000001017502398
Si    4.75212   4.75212  15.61413  -0.000001407304385  -0.000001313370313   0.000004693127086
Si    2.03662   2.03662  15.61413   0.000000138371972   0.000000083237462   0.000002477255202
Si    2.03662   4.75212  12.89862  -0.000000131397359   0.000000280750966  -0.000000935024159
Si    0.67887   6.10987   0.67888   0.000003250447148   0.000001769151160   0.000002337315765
Si    3.39438   6.10987   3.39437   0.000005647374763  -0.000005719468844   0.000003542479926
Si    0.67887   8.82537   3.39437   0.000002195714253   0.000001477028424  -0.000002635088862
Si    3.39438   8.82537   0.67888  -0.000002107317861  -0.000003893938609  -0.000004866304515
Si    4.75212   7.46762   2.03662   0.000001981972530   0.000002621128348   0.000000622914937
Si    4.75212  10.18313   4.75213  -0.000002128579787  -0.000000872228725  -0.000002966396790
Si    2.03662   7.46762   4.75213   0.000003413384308  -0.000000588321566  -0.000006700130053
Si    2.03662  10.18313   2.03662   0.000001984740886   0.000001339023671  -0.000000468654359
Si    0.67887   6.10987   6.10987  -0.000001348869160  -0.000000941087988  -0.000000418580577
Si    3.39438   6.10987   8.82537   0.000007102190464  -0.000005196623628  -0.000002200019055
Si    0.67887   8.82537   8.82537  -0.000000048524142   0.000001565051833   0.000002318441228
Si    3.39438   8.82537   6.10987   0.000000611715301   0.000004748258949  -0.000000234657336
Si    4.75212   7.46762   7.46762   0.000000981641557   0.000002159943576  -0.000002586107140
Si    4.75212  10.18313  10.18313   0.000001764427192   0.000002721806775   0.000000845123230
Si    2.03662   7.46762  10.18313  -0.000002046957069   0.000006418912924  -0.000000371316717
Si    2.03662  10.18313   7.46762  -0.000001937802281   0.000002832099715   0.000001669258500
Si    0.67887   6.10987  11.54087  -0.000000021471136   0.000003357497899  -0.000000451856681
Si    3.39438   6.10987  14.25638  -0.000002912730726   0.000002020063279   0.000001058798686
Si    0.67887   8.82537  14.25638   0.000000115196209   0.000001499813878   0.000001155651870
Si    3.39438   8.82537  11.54087   0.000000185471042  -0.000003359106159   0.000003806565748
Si    4.75212   7.46762  12.89862   0.000001140360455  -0.000000434648116   0.000001676091894
Si    4.75212  10.18313  15.61413  -0.000002476966511  -0.000000214156471   0.000002179248093
Si    2.03662   7.46762  15.61413   0.000001626697953  -0.000001362170488   0.000006331545290
Si    2.03662  10.18313  12.89862   0.000000017402986   0.000003558382475   0.000000473964872
Si    0.67887  11.54087   0.67888  -0.000006948703585   0.000006088278540  -0.000003316555872
Si    3.39438  11.54087   3.39437   0.000005324660662  -0.000002131072705  -0.000002953788046
Si    0.67887  14.25638   3.39437  -0.000002114027671   0.000000676778191   0.000005641252449
Si    3.39438  14.25638   0.67888  -0.000000440148562   0.000000508653125  -0.000002452244322
Si    4.75212  12.89862   2.03662  -0.000000315920118   0.000001194321288   0.000000533553100
Si    4.75212  15.61413   4.75213  -0.000001367897351   0.000000788769630  -0.000003243415330
Si    2.03662  12.89862   4.75213  -0.000005619187417  -0.000000479604174   0.000000964965696
Si    2.03662  15.61413   2.03662   0.000001531162806  -0.000004090168170  -0.000000453379654
Si    0.67887  11.54087   6.10987   0.000002015111373  -0.000003427543619   0.000000257335292
Si    3.39438  11.54087   8.82537   0.000005761285320  -0.000001706248966   0.000002132909365
Si    0.67887  14.25638   8.82537  -0.000003172376616   0.000001227191862  -0.000005783500569
Si    3.39438  14.25638   6.10987   0.000007379411449   0.000005966823810  -0.000000177456341
Si    4.75212  12.89862   7.46762  -0.000006395219997  -0.000001908880488  -0.000002986543773
Si    4.75212  15.61413  10.18313   0.000007583778205  -0.000001762682916  -0.000000048372695
Si    2.03662  12.89862  10.18313  -0.000004139799119   0.000005533699712   0.000000602590745
Si    2.03662  15.61413   7.46762  -0.000002742514799  -0.000002324202810  -0.000000300795321
Si    0.67887  11.54087  11.54087  -0.000006406156319   0.000002904555104   0.000004581004305
Si    3.39438  11.54087  14.25638   0.000003707802436  -0.000003250263075  -0.000001552311822
Si    0.67887  14.25638  14.25638   0.000003884078138  -0.000004294727884   0.000000214075426
Si    3.39438  14.25638  11.54087  -0.000000362887171   0.000000427329876   0.000002977819606
Si    4.75212  12.89862  12.89862  -0.000004231703812  -0.000000609582180   0.000000713940031
Si    4.75212  15.61413  15.61413   0.000000338375525  -0.000001104804323   0.000005219491266
Si    2.03662  12.89862  15.61413  -0.000007898368025   0.000000199123235  -0.000000018823694
Si    2.03662  15.61413  12.89862  -0.000002819726782  -0.000002833143953  -0.000000686959825
Si    0.67887  16.97188   0.67888  -0.000000693609427   0.000002425107028  -0.000004506757074
Si    3.39438  16.97188   3.39437   0.000002639576866   0.000002140402349   0.000002635269615
Si    0.67887  19.68738   3.39437   0.000003180914510   0.000002771200474   0.000001204750636
Si    3.39438  19.68738   0.67888  -0.000007105970377  -0.000006070793847  -0.000001184967963
Si    4.75212  18.32963   2.03662  -0.000000805144538  -0.000000859743714  -0.000000847944793
Si    4.75212  21.04512   4.75213  -0.000001788226905   0.000000387587951  -0.000003374507900
Si    2.03662  18.32963   4.75213   0.000004645324257   0.000007048171360  -0.000002766477964
Si    2.03662  21.04512   2.03662   0.000002202373262   0.000000815213826   0.000000251967360
Si    0.67887  16.97188   6.10987  -0.000003403850192  -0.000010300137871   0.000000700273556
Si    3.39438  16.97188   8.82537   0.000002825425060   0.000002571398875  -0.000002263110712
Si    0.67887  19.68738   8.82537   0.000004883863182   0.000001108739775  -0.000001699048091
Si    3.39438  19.68738   6.10987   0.000002111146070  -0.000001211704319  -0.000000423052651
Si    4.75212  18.32963   7.46762  -0.000002646689377  -0.000002932193693   0.000002028113256
Si    4.75212  21.04512  10.18313   0.000010336004989   0.000003422176573  -0.000000687810171
Si    2.03662  18.32963  10.18313   0.000001069184564  -0.000002139184446   0.000000310422996
Si    2.03662  21.04512   7.46762  -0.000001204914950  -0.000004988420378   0.000001595593979
Si    0.67887  16.97188  11.54087  -0.000000512534127   0.000001724496641   0.000003347357178
Si    3.39438  16.97188  14.25638   0.000000797360647   0.000000860505240   0.000000956605974
Si    0.67887  19.68738  14.25638  -0.000000891588921  -0.000002259859695  -0.000000166829729
Si    3.39438  19.68738  11.54087  -0.000007045332474  -0.000004611654182   0.000002828932269
Si    4.75212  18.32963  12.89862  -0.000002141301234  -0.000002541695281  -0.000002509362706
Si    4.75212  21.04512  15.61413  -0.000002429883074   0.000000690297422   0.000004486391771
Si    2.03662  18.32963  15.61413   0.000006015623113   0.000007076667438   0.000001234508007
Si    2.03662  21.04512  12.89862  -0.000002760033176  -0.000003215794113  -0.000001158968607
Si    6.10987   0.67887   0.67888   0.000001735112761   0.000003151706020   0.000002487701328
Si    8.82537   0.67887   3.39437   0.000001276506108   0.000002168884265  -0.000002560420713
Si    6.10987   3.39437   3.39437  -0.000005642975819   0.000005547954112   0.000003642649803
Si    8.82537   3.39437   0.67888  -0.000003871199888  -0.000002082804397  -0.000004704818597
Si   10.18313   2.03662   2.03662   0.000001208055180   0.000002084613603  -0.000000403746920
Si   10.18313   4.75212   4.75213  -0.000001107422115  -0.000002177606726  -0.000003095544758
Si    7.46762   2.03662   4.75213  -0.000000658240048   0.000003372490728  -0.000006801106366
Si    7.46762   4.75212   2.03662   0.000002693113993   0.000001925196336   0.000000779432572
Si    6.10987   0.67887   6.10987  -0.000001036719914  -0.000001508217453  -0.000000496719964
Si    8.82537   0.67887   8.82537   0.000001583024812  -0.000000071488460   0.000002424257592
Si    6.10987   3.39437   8.82537  -0.000005195779369   0.000007066384203  -0.000002114688359
Si    8.82537   3.39437   6.10987   0.000004611168878   0.000000580487552  -0.000000352622164
Si   10.18313   2.03662   7.46762   0.000002750778914  -0.000002073551766   0.000001769432298
Si   10.18313   4.75212  10.18313   0.000002679756963   0.000001691370646   0.000000943847163
Si    7.46762   2.03662  10.18313   0.000006440232404  -0.000002102582296  -0.000000225979586
Si    7.46762   4.75212   7.46762   0.000002092011384   0.000000969144615  -0.000002623844450
Si    6.10987   0.67887  11.54087   0.000003507576612   0.000000101252763  -0.000000498474993
Si    8.82537   0.67887  14.25638   0.000001473069891   0.000000122162367   0.000000961531450
Si    6.10987   3.39437  14.25638   0.000002016927409  -0.000002958340526   0.000000888891029
Si    8.82537   3.39437  11.54087  -0.000003413288294   0.000000053918370   0.000003768772505
Si   10.18313   2.03662  12.89862   0.000003496924846  -0.000000037239081   0.000000299084353
Si   10.18313   4.75212  15.61413  -0.000000114699888  -0.000002356963273   0.000002193638727
Si    7.46762   2.03662  15.61413  -0.000001386836409   0.000001603433681   0.000006287407845
Si    7.46762   4.75212  12.89862  -0.000000463610008   0.000001065885395   0.000001551303013
Si    6.10987   6.10987   0.67888   0.000003820457879   0.000003909646593  -0.000000025988431
Si    8.82537   6.10987   3.39437   0.000008581843836   0.000001020036175   0.000000085242976
Si    6.10987   8.82537   3.39437   0.000001128263657   0.000008641388841   0.000000099443009
Si    8.82537   8.82537   0.67888   0.000004762343572   0.000004686405601  -0.000003561215136
Si   10.18313   7.46762   2.03662  -0.000007041749659  -0.000002512522143  -0.000000490795792
Si   10.18313  10.18313   4.75213  -0.000001571237620  -0.000001450876477   0.000001130821184
Si    7.46762   7.46762   4.75213  -0.000003711996894  -0.000003729895680   0.000006869094741
Si    7.46762  10.18313   2.03662  -0.000002512275328  -0.000007000814375  -0.000000383971376
Si    6.10987   6.10987   6.10987  -0.000004721935046  -0.000004796035906   0.000001288471212
Si    8.82537   6.10987   8.82537   0.000007682685984  -0.000000142195107   0.000000779751184
Si    6.10987   8.82537   8.82537  -0.000000151714438   0.000007742497721   0.000000708875645
Si    8.82537   8.82537   6.10987   0.000001906902300   0.000001971382641   0.000000968196712
Si   10.18313   7.46762   7.46762   0.000001828343240   0.000006302993168   0.000005760324832
Si   10.18313  10.18313  10.18313  -0.000001910269114  -0.000001905497604  -0.000001844010383
Si    7.46762   7.46762  10.18313  -0.000005634197432  -0.000005662236875   0.000000377094174
Si    7.46762  10.18313   7.46762   0.000006240939992   0.000001816577191   0.000005718730253
Si    6.10987   6.10987  11.54087   0.000002346737450   0.000002243761874  -0.000002136540020
Si    8.82537   6.10987  14.25638  -0.000005123364374   0.000001549107746  -0.000001010008350
Si    6.10987   8.82537  14.25638   0.000001479491902  -0.000005209053983  -0.000000981101167
Si    8.82537   8.82537  11.54087   0.000003964320645   0.000003962581815   0.000003418779240
Si   10.18313   7.46762  12.89862   0.000000633621633   0.000007211568172  -0.000004946519554
Si   10.18313  10.18313  15.61413  -0.000000646973066  -0.000000778485090  -0.000001207115672
Si    7.46762   7.46762  15.61413  -0.000003715045319  -0.000003708247897  -0.000006948136692
Si    7.46762  10.18313  12.89862   0.000007251285502   0.000000616865377  -0.000005011375185
Si    6.10987  11.54087   0.67888  -0.000005787328656   0.000005780412250  -0.000003033486189
Si    8.82537  11.54087   3.39437   0.000001872331304   0.000001689638510   0.000000955077698
Si    6.10987  14.25638   3.39437  -0.000002652568442  -0.000001348997935   0.000006145669376
Si    8.82537  14.25638   0.67888  -0.000000824575901  -0.000001673978304  -0.000001959696304
Si   10.18313  12.89862   2.03662   0.000000669637753  -0.000002037045708  -0.000000807968147
Si   10.18313  15.61413   4.75213  -0.000008669811146   0.000004008795862  -0.000003023821903
Si    7.46762  12.89862   4.75213   0.000001489018042   0.000000982373294  -0.000001751344767
Si    7.46762  15.61413   2.03662  -0.000005394179621  -0.000001733571630   0.000000287487817
Si    6.10987  11.54087   6.10987   0.000002119074788  -0.000003712081356  -0.000001340748890
Si    8.82537  11.54087   8.82537   0.000001489622945   0.000002911782300  -0.000001171665768
Si    6.10987  14.25638   8.82537  -0.000002483919987  -0.000002517894736  -0.000006412310767
Si    8.82537  14.25638   6.10987   0.000000896553335   0.000002928758495  -0.000000795327141
Si   10.18313  12.89862   7.46762  -0.000002861490562  -0.000001395901853   0.000001192083606
Si   10.18313  15.61413  10.18313   0.000003825487684  -0.000002204444777   0.000001217903604
Si    7.46762  12.89862  10.18313  -0.000002791813512  -0.000000990653786   0.000000612751497
Si    7.46762  15.61413   7.46762   0.000002503638052   0.000002415386731   0.000006079186985
Si    6.10987  11.54087  11.54087  -0.000004015420423   0.000008474989077   0.000002967084200
Si    8.82537  11.54087  14.25638   0.000002132558437  -0.000000767042056   0.000000882205396
Si    6.10987  14.25638  14.25638   0.000001724256280   0.000005482278498  -0.000000052508950
Si    8.82537  14.25638  11.54087  -0.000000760285818  -0.000001550057369   0.000001658300831
Si   10.18313  12.89862  12.89862  -0.000001531310927  -0.000001905256426  -0.000001029895018
Si   10.18313  15.61413  15.61413  -0.000005709755666   0.000005824475814   0.000003218678170
Si    7.46762  12.89862  15.61413   0.000001701896713   0.000000841422251   0.000002227469611
Si    7.46762  15.61413  12.89862   0.000001402299923   0.000002773487402  -0.000006004584470
Si    6.10987  16.97188   0.67888   0.000001166912759  -0.000000334888224  -0.000005091640960
Si    8.82537  16.97188   3.39437   0.000000495090447   0.000004088264318  -0.000000646601216
Si    6.10987  19.68738   3.39437   0.000002813949084   0.000002643437062   0.000000737874173
Si    8.82537  19.68738   0.67888  -0.000000155039880   0.000007813772331   0.000000123535387
Si   10.18313  18.32963   2.03662   0.000003166625824  -0.000003761210778   0.000001589944831
Si   10.18313  21.04512   4.75213  -0.000002825833197   0.000006260903220  -0.000004621250624
Si    7.46762  18.32963   4.75213  -0.000000440211128   0.000000125837962  -0.000003049369093
Si    7.46762  21.04512   2.03662   0.000004347029201  -0.000003938247206  -0.000000190312670
Si    6.10987  16.97188   6.10987   0.000001753328035  -0.000007715718651  -0.000000185375807
Si    8.82537  16.97188   8.82537   0.000002032901216   0.000006381821104   0.000002771366736
Si    6.10987  19.68738   8.82537   0.000002317486475   0.000002782645757   0.000000214901685
Si    8.82537  19.68738   6.10987  -0.000005452496118   0.000003994146815  -0.000000687933430
Si   10.18313  18.32963   7.46762   0.000001850761681  -0.000005800074785  -0.000002257170738
Si   10.18313  21.04512  10.18313   0.000003572863398  -0.000001887721264  -0.000000369916688
Si    7.46762  18.32963  10.18313  -0.000005940974403  -0.000007302028402   0.000000145313063
Si    7.46762  21.04512   7.46762  -0.000001233197113   0.000003157528922   0.000005773875854
Si    6.10987  16.97188  11.54087  -0.000000793675424   0.000001505373800   0.000003303130722
Si    8.82537  16.97188  14.25638  -0.000001175514262   0.000000363570108  -0.000000381155569
Si    6.10987  19.68738  14.25638   0.000004042631121  -0.000001539985652   0.000000465473966
Si    8.82537  19.68738  11.54087   0.000000478655288   0.000005674345507  -0.000000954736980
Si   10.18313  18.32963  12.89862   0.000002201107165  -0.000005315852136   0.000003026980493
Si   10.18313  21.04512  15.61413  -0.000005993651262   0.000006882882616   0.000003439814578
Si    7.46762  18.32963  15.61413  -0.000000511383967   0.000000379984060   0.000002570455870
Si    7.46762  21.04512  12.89862  -0.000000735326507   0.000002137631377  -0.000005657570088
Si   11.54087   0.67887   0.67888   0.000006152143572  -0.000007037903030  -0.000003409800454
Si   14.25638   0.67887   3.39437   0.000000718071069  -0.000002115435613   0.000005503154824
Si   11.54087   3.39437   3.39437  -0.000002381948566   0.000005324978263  -0.000003063688765
Si   14.25638   3.39437   0.67888   0.000000416882942  -0.000000439265221  -0.000002657565408
Si   15.61413   2.03662   2.03662  -0.000004084903598   0.000001411152829  -0.000000557808342
Si   15.61413   4.75212   4.75213   0.000000786208397  -0.000001389711867  -0.000003295535430
Si   12.89862   2.03662   4.75213  -0.000000601754830  -0.000005654921719   0.000000954633455
Si   12.89862   4.75212   2.03662   0.000001058532706  -0.000000286676245   0.000000309407849
Si   11.54087   0.67887   6.10987  -0.000003616518413   0.000001918876588   0.000000396921367
Si   14.25638   0.67887   8.82537   0.000001102372126  -0.000003271427007  -0.000005734505208
Si   11.54087   3.39437   8.82537  -0.000001781266293   0.000005679583918   0.000002280001341
Si   14.25638   3.39437   6.10987   0.000005852553859   0.000007337901287  -0.000000095890397
Si   15.61413   2.03662   7.46762  -0.000002516253529  -0.000002835649353  -0.000000185660353
Si   15.61413   4.75212  10.18313  -0.000001740352751   0.000007530298332   0.000000245795495
Si   12.89862   2.03662  10.18313   0.000005388688691  -0.000004136532831   0.000000664112524
Si   12.89862   4.75212   7.46762  -0.000002005687850  -0.000006333344644  -0.000002841110393
Si   11.54087   0.67887  11.54087   0.000002737476407  -0.000006268249283   0.000004543089995
Si   14.25638   0.67887  14.25638  -0.000004361512393   0.000003912486385   0.000000312430935
Si   11.54087   3.39437  14.25638  -0.000003153956749   0.000003772031466  -0.000001616278014
Si   14.25638   3.39437  11.54087   0.000000493606993  -0.000000284726955   0.000003110588833
Si   15.61413   2.03662  12.89862  -0.000002718234519  -0.000002629305768  -0.000000684657172
Si   15.61413   4.75212  15.61413  -0.000001227795791   0.000000421287619   0.000004999671655
Si   12.89862   2.03662  15.61413   0.000000262655738  -0.000007911770472  -0.000000081673717
Si   12.89862   4.75212  12.89862  -0.000000567535175  -0.000004246490451   0.000000776432840
Si   11.54087   6.10987   0.67888   0.000005739424820  -0.000005757869250  -0.000003159468887
Si   14.25638   6.10987   3.39437  -0.000001449696518  -0.000002659581845   0.000005991665963
Si   11.54087   8.82537   3.39437   0.000001525784322   0.000001909356941   0.000000865328842
Si   14.25638   8.82537   0.67888  -0.000001714675611  -0.000000811229617  -0.000002241242727
Si   15.61413   7.46762   2.03662  -0.000001740953051  -0.000005351016776  -0.000000012897028
Si   15.61413  10.18313   4.75213   0.000004071894310  -0.000008413336254  -0.000002983761778
Si   12.89862   7.46762   4.75213   0.000000806048507   0.000001524234968  -0.000001661502608
Si   12.89862  10.18313   2.03662  -0.000002132057627   0.000000763848828  -0.000001011514235
Si   11.54087   6.10987   6.10987  -0.000003783840616   0.000002219995992  -0.000001253925928
Si   14.25638   6.10987   8.82537  -0.000002651186627  -0.000002383260527  -0.000006304304897
Si   11.54087   8.82537   8.82537   0.000002944361876   0.000001499674030  -0.000001180692375
Si   14.25638   8.82537   6.10987   0.000002847845612   0.000001005165922  -0.000000556603278
Si   15.61413   7.46762   7.46762   0.000002304900450   0.000002669941988   0.000006233508272
Si   15.61413  10.18313  10.18313  -0.000002225153897   0.000003871118598   0.000001186874488
Si   12.89862   7.46762  10.18313  -0.000001004952233  -0.000002761078478   0.000000585017542
Si   12.89862  10.18313   7.46762  -0.000001382289038  -0.000002869636905   0.000001296069477
Si   11.54087   6.10987  11.54087   0.000008453704654  -0.000004055589632   0.000003042296694
Si   14.25638   6.10987  14.25638   0.000005516262782   0.000001735462685  -0.000000045003167
Si   11.54087   8.82537  14.25638  -0.000000684013468   0.000002096896724   0.000000976748607
Si   14.25638   8.82537  11.54087  -0.000001577498418  -0.000000751896894   0.000001714003696
Si   15.61413   7.46762  12.89862   0.000002790686079   0.000001318624916  -0.000005870019487
Si   15.61413  10.18313  15.61413   0.000005745218975  -0.000005793000394   0.000003181013465
Si   12.89862   7.46762  15.61413   0.000000835618013   0.000001748575201   0.000002146976804
Si   12.89862  10.18313  12.89862  -0.000001903994087  -0.000001571746333  -0.000000925709042
Si   11.54087  11.54087   0.67888   0.000000763673560   0.000000669349581   0.000001288762989
Si   14.25638  11.54087   3.39437  -0.000007169388562  -0.000000565348606   0.000004964868740
Si   11.54087  14.25638   3.39437  -0.000000747732561  -0.000007228117761   0.000004994807483
Si   14.25638  14.25638   0.67888   0.000003678869954   0.000003706656575   0.000006909994075
Si   15.61413  12.89862   2.03662  -0.000001505010402   0.000005130024613   0.000001030538711
Si   15.61413  15.61413   4.75213  -0.000002229371758  -0.000002311262896   0.000002341990765
Si   12.89862  12.89862   4.75213  -0.000003930118910  -0.000003885230224  -0.000003399769093
Si   12.89862  15.61413   2.03662   0.000005131662835  -0.000001543629184   0.000000965508533
Si   11.54087  11.54087   6.10987   0.000001950498104   0.000002052401444   0.000001878197503
Si   14.25638  11.54087   8.82537  -0.000006305340952  -0.000001796681317  -0.000005763675014
Si   11.54087  14.25638   8.82537  -0.000001786375203  -0.000006311681875  -0.000005773919358
Si   14.25638  14.25638   6.10987   0.000005762518807   0.000005732201849  -0.000000310718972
Si   15.61413  12.89862   7.46762   0.000000145375344  -0.000007598131051  -0.000000789267299
Si   15.61413  15.61413  10.18313   0.000004859959901   0.000004786774510  -0.000001400848577
Si   12.89862  12.89862  10.18313  -0.000001957055115  -0.000001974896584  -0.000001035170272
Si   12.89862  15.61413   7.46762  -0.000007597405908   0.000000240315624  -0.000000780247155
Si   11.54087  11.54087  11.54087   0.000001514900196   0.000001519792172  -0.000001252174329
Si   14.25638  11.54087  14.25638   0.000002487835550   0.000007046628893   0.000000486711703
Si   11.54087  14.25638  14.25638   0.000007134184626   0.000002538206149   0.000000443446619
Si   14.25638  14.25638  11.54087   0.000003800253402   0.000003725568754  -0.000006883755698
Si   15.61413  12.89862  12.89862  -0.000001035615778  -0.000008465481655  -0.000000109024228
Si   15.61413  15.61413  15.61413  -0.000003897746410  -0.000003838845075  -0.000000059227150
Si   12.89862  12.89862  15.61413  -0.000004636333422  -0.000004680996232   0.000003600584785
Si   12.89862  15.61413  12.89862  -0.000008523386169  -0.000001161555766  -0.000000055765979
Si   11.54087  16.97188   0.67888   0.000000140570179   0.000002420393022  -0.000002158883086
Si   14.25638  16.97188   3.39437   0.000000471005868  -0.000001145333267  -0.000001509751762
Si   11.54087  19.68738   3.39437  -0.000003628877413  -0.000000004347522  -0.000000434918326
Si   14.25638  19.68738   0.67888   0.000001293652250  -0.000001594714435  -0.000006422604325
Si   15.61413  18.32963   2.03662  -0.000002037792180   0.000002877269193  -0.000000994028819
Si   15.61413  21.04512   4.75213  -0.000003352485305  -0.000000179360104   0.000000549947596
Si   12.89862  18.32963   4.75213   0.000003411754752  -0.000000225807341  -0.000003610917804
Si   12.89862  21.04512   2.03662  -0.000001550710745  -0.000000118287845  -0.000001214711365
Si   11.54087  16.97188   6.10987  -0.000002667158995  -0.000001700821389  -0.000000816158173
Si   14.25638  16.97188   8.82537  -0.000002039569655  -0.000000945494186   0.000002429539218
Si   11.54087  19.68738   8.82537  -0.000002641699832   0.000001969634073  -0.000001789833609
Si   14.25638  19.68738   6.10987  -0.000006414256240   0.000001887755946   0.000000460232642
Si   15.61413  18.32963   7.46762   0.000005192926800  -0.000007219934502   0.000002170081603
Si   15.61413  21.04512  10.18313   0.000000957011400   0.000001369769715   0.000000453850547
Si   12.89862  18.32963  10.18313  -0.000004613266234  -0.000000539047110   0.000000063924187
Si   12.89862  21.04512   7.46762  -0.000001576851596  -0.000000068911234  -0.000002224147756
Si   11.54087  16.97188  11.54087   0.000000992658241   0.000002125477761   0.000002951925793
Si   14.25638  16.97188  14.25638  -0.000002527747710  -0.000001988527688  -0.000000652517658
Si   11.54087  19.68738  14.25638  -0.000001225135059  -0.000002022277379   0.000000565735497
Si   14.25638  19.68738  11.54087   0.000000687666901  -0.000003346686729   0.000006661573864
Si   15.61413  18.32963  12.89862   0.000005777266023  -0.000005641597033  -0.000003581486043
Si   15.61413  21.04512  15.61413  -0.000001864052072  -0.000003152166198  -0.000002443116029
Si   12.89862  18.32963  15.61413   0.000003909356107   0.000002154033413   0.000004864690601
Si   12.89862  21.04512  12.89862  -0.000001285363944  -0.000002132204021   0.000002600042803
Si   16.97188   0.67887   0.67888   0.000002334893239  -0.000000758014603  -0.000004500832868
Si   19.68738   0.67887   3.39437   0.000002792613097   0.000003117971668   0.000001169262740
Si   16.97188   3.39437   3.39437   0.000002229544418   0.000002514671074   0.000002554198413
Si   19.68738   3.39437   0.67888  -0.000006006289272  -0.000007104638323  -0.000001164303137
Si   21.04512   2.03662   2.03662   0.000000898929227   0.000002164947758   0.000000332798288
Si   21.04512   4.75212   4.75213   0.000000411535399  -0.000001870276051  -0.000003488468725
Si   18.32963   2.03662   4.75213   0.000007125199355   0.000004549892702  -0.000003033138067
Si   18.32963   4.75212   2.03662  -0.000000784217005  -0.000000853047983  -0.000000843570261
Si   16.97188   0.67887   6.10987  -0.000010350176451  -0.000003622238388   0.000000572829988
Si   19.68738   0.67887   8.82537   0.000001286265305   0.000004677103712  -0.000001457999707
Si   16.97188   3.39437   8.82537   0.000002465671916   0.000002892445758  -0.000001889420469
Si   19.68738   3.39437   6.10987  -0.000001081951043   0.000002096685562  -0.000000619081368
Si   21.04512   2.03662   7.46762  -0.000004737784983  -0.000001363636729   0.000001627100815
Si   21.04512   4.75212  10.18313   0.000003418230623   0.000010329994869  -0.000000467633539
Si   18.32963   2.03662  10.18313  -0.000002139471830   0.000001067739638   0.000000781970615
Si   18.32963   4.75212   7.46762  -0.000002922101421  -0.000002483170726   0.000002133900356
Si   16.97188   0.67887  11.54087   0.000001895065569  -0.000000348225902   0.000003465762190
Si   19.68738   0.67887  14.25638  -0.000002286927798  -0.000000873251038  -0.000000412740390
Si   16.97188   3.39437  14.25638   0.000000783046366   0.000000815615441   0.000000694084389
Si   19.68738   3.39437  11.54087  -0.000004695797272  -0.000007123571241   0.000002982271367
Si   21.04512   2.03662  12.89862  -0.000003302980860  -0.000002775952747  -0.000001301116583
Si   21.04512   4.75212  15.61413   0.000000816714489  -0.000002335131777   0.000004397954836
Si   18.32963   2.03662  15.61413   0.000006991569006   0.000006008550383   0.000001055931180
Si   18.32963   4.75212  12.89862  -0.000002656127727  -0.000002186046702  -0.000002610372174
Si   16.97188   6.10987   0.67888  -0.000000450200277   0.000001313143794  -0.000005319851738
Si   19.68738   6.10987   3.39437   0.000002683440310   0.000002787929043   0.000000668843371
Si   16.97188   8.82537   3.39437   0.000004180882724   0.000000689085251  -0.000000755058350
Si   19.68738   8.82537   0.67888   0.000007878111606  -0.000000091198462   0.000000018417336
Si   21.04512   7.46762   2.03662  -0.000003884633830   0.000004445484424  -0.000000354779490
Si   21.04512  10.18313   4.75213   0.000006358518187  -0.000002583166338  -0.000004691134538
Si   18.32963   7.46762   4.75213   0.000000183518729  -0.000000356773323  -0.000003069398744
Si   18.32963  10.18313   2.03662  -0.000003761029818   0.000003302999048   0.000001554648773
Si   16.97188   6.10987   6.10987  -0.000007688786000   0.000001832584747  -0.000000135969533
Si   19.68738   6.10987   8.82537   0.000002788311723   0.000002419200238   0.000000416251529
Si   16.97188   8.82537   8.82537   0.000006324298720   0.000002142792283   0.000002862249618
Si   19.68738   8.82537   6.10987   0.000004035469251  -0.000005345212982  -0.000000650397415
Si   21.04512   7.46762   7.46762   0.000003258216457  -0.000001124412205   0.000005850986183
Si   21.04512  10.18313  10.18313  -0.000002034544297   0.000003697118703  -0.000000303784586
Si   18.32963   7.46762  10.18313  -0.000007275515295  -0.000005924827218   0.000000309802299
Si   18.32963  10.18313   7.46762  -0.000005834181247   0.000001848059590  -0.000002198093362
Si   16.97188   6.10987  11.54087   0.000001521271594  -0.000000897906193   0.000003487948459
Si   19.68738   6.10987  14.25638  -0.000001555431412   0.000004124649253   0.000000349243685
Si   16.97188   8.82537  14.25638   0.000000337758950  -0.000001263989975  -0.000000369033590
Si   19.68738   8.82537  11.54087   0.000005540185698   0.000000544059055  -0.000000876578522
Si   21.04512   7.46762  12.89862   0.000001970991504  -0.000000792102705  -0.000005537570271
Si   21.04512  10.18313  15.61413   0.000006931045658  -0.000006100573317   0.000003453523644
Si   18.32963   7.46762  15.61413   0.000000320949070  -0.000000428094890   0.000002411548059
Si   18.32963  10.18313  12.89862  -0.000005246164099   0.000002283170540   0.000002997742402
Si   16.97188  11.54087   0.67888   0.000002419479851   0.000000135835056  -0.000002113588664
Si   19.68738  11.54087   3.39437   0.000000068250914  -0.000003378003407  -0.000000446176870
Si   16.97188  14.25638   3.39437  -0.000000993956544   0.000000440570891  -0.000001468605989
Si   19.68738  14.25638   0.67888  -0.000001584181099   0.000001314092146  -0.000006200262186
Si   21.04512  12.89862   2.03662  -0.000000143428544  -0.000001501555919  -0.000000965864628
Si   21.04512  15.61413   4.75213  -0.000000150586598  -0.000003471616368   0.000000538384324
Si   18.32963  12.89862   4.75213  -0.000000136482151   0.000003561909827  -0.000003841280784
Si   18.32963  15.61413   2.03662   0.000002967887209  -0.000002128604211  -0.000000817493302
Si   16.97188  11.54087   6.10987  -0.000001809645182  -0.000002599177778  -0.000000900163762
Si   19.68738  11.54087   8.82537   0.000001992818113  -0.000002671291912  -0.000001600564526
Si   16.97188  14.25638   8.82537  -0.000001027385845  -0.000001991750113   0.000002538212331
Si   19.68738  14.25638   6.10987   0.000002026696435  -0.000006308053249   0.000000192713598
Si   21.04512  12.89862   7.46762   0.000000138440898  -0.000001459866791  -0.000002366420480
Si   21.04512  15.61413  10.18313   0.000001446938284   0.000000985416069   0.000000488628625
Si   18.32963  12.89862  10.18313  -0.000000538155153  -0.000004612697159   0.000000365232032
Si   18.32963  15.61413   7.46762  -0.000007198717642   0.000005303025895   0.000002084859205
Si   16.97188  11.54087  11.54087   0.000002252143057   0.000001112894981   0.000002998230029
Si   19.68738  11.54087  14.25638  -0.000002105496675  -0.000001235956711   0.000000373010237
Si   16.97188  14.25638  14.25638  -0.000001967413063  -0.000002576183899  -0.000000831080975
Si   19.68738  14.25638  11.54087  -0.000003376089575   0.000000624285822   0.000006753600154
Si   21.04512  12.89862  12.89862  -0.000002257576876  -0.000001242399139   0.000002456312406
Si   21.04512  15.61413  15.61413  -0.000003114563734  -0.000001728799573  -0.000002480003853
Si   18.32963  12.89862  15.61413   0.000002108936278   0.000003872017844   0.000004782507699
Si   18.32963  15.61413  12.89862  -0.000005604467432   0.000005684087110  -0.000003660159097
Si   16.97188  16.97188   0.67888   0.000001295613947   0.000001352519516  -0.000004759593453
Si   19.68738  16.97188   3.39437   0.000000064839187  -0.000000388845931   0.000001160466996
Si   16.97188  19.68738   3.39437  -0.000000240960178   0.000000049070872   0.000001092681828
Si   19.68738  19.68738   0.67888   0.000000032134062  -0.000000079055001  -0.000002451241721
Si   21.04512  18.32963   2.03662  -0.000006985996744   0.000000322952996   0.000000098441447
Si   21.04512  21.04512   4.75213  -0.000003728595912  -0.000003865061446  -0.000005024717970
Si   18.32963  18.32963   4.75213  -0.000002774413449  -0.000002877696302  -0.000005761844147
Si   18.32963  21.04512   2.03662   0.000000329496840  -0.000007062516229   0.000000159260147
Si   16.97188  16.97188   6.10987   0.000000942930126   0.000000852967586  -0.000001280231608
Si   19.68738  16.97188   8.82537   0.000000989669065  -0.000001234725789  -0.000001426277202
Si   16.97188  19.68738   8.82537  -0.000001256129105   0.000000880701130  -0.000001414354396
Si   19.68738  19.68738   6.10987  -0.000000075617097  -0.000000214546813  -0.000000074189077
Si   21.04512  18.32963   7.46762   0.000005170907885   0.000002731270913   0.000009181498601
Si   21.04512  21.04512  10.18313   0.000004818482707   0.000004844832845  -0.000000537471501
Si   18.32963  18.32963  10.18313   0.000004232846270   0.000004190768638  -0.000000258920168
Si   18.32963  21.04512   7.46762   0.000002773043417   0.000004903427702   0.000009209017782
Si   16.97188  16.97188  11.54087   0.000002050600454   0.000001959610222   0.000003125212418
Si   19.68738  16.97188  14.25638  -0.000000354464662  -0.000000026115235   0.000000670117438
Si   16.97188  19.68738  14.25638  -0.000000060767142  -0.000000435815041   0.000000724482071
Si   19.68738  19.68738  11.54087   0.000002078282955   0.000002090917645   0.000003450001458
Si   21.04512  18.32963  12.89862   0.000005488647008   0.000001921081256  -0.000008009066218
Si   21.04512  21.04512  15.61413  -0.000003739240418  -0.000003942783230   0.000004964288940
Si   18.32963  18.32963  15.61413  -0.000002225907867  -0.000002273129592   0.000005316594132
Si   18.32963  21.04512  12.89862   0.000002017945687   0.000005625135082  -0.000008111993715
