216 

Si    0.67888   0.67888   0.67888   0.000008999707151   0.000008999707074   0.000008981271706
Si    3.39437   0.67888   3.39437  -0.000008999706875   0.000008999707001  -0.000008981271631
Si    0.67888   3.39437   3.39437   0.000008999707096  -0.000008999706964  -0.000008981271686
Si    3.39437   3.39437   0.67888  -0.000008999706851  -0.000008999706892   0.000008981271520
Si    4.75213   2.03662   2.03662   0.000007115123251   0.000000000000047  -0.000000000000067
Si    4.75213   4.75213   4.75213   0.000008153982429   0.000008153982295   0.000008157473712
Si    2.03662   2.03662   4.75213   0.000000000000134   0.000000000000083   0.000007121902099
Si    2.03662   4.75213   2.03662   0.000000000000145   0.000007115123284  -0.000000000000023
Si    0.67888   0.67888   6.10987   0.000002866728846   0.000002866728829   0.000000874880963
Si    3.39437   0.67888   8.82538  -0.000008153982304   0.000008153982414   0.000008157473863
Si    0.67888   3.39437   8.82538   0.000008153982477  -0.000008153982444   0.000008157473872
Si    3.39437   3.39437   6.10987  -0.000002866728723  -0.000002866728866   0.000000874880922
Si    4.75213   2.03662   7.46762   0.000002884640390   0.000000879957588  -0.000002880198795
Si    4.75213   4.75213  10.18313   0.000002866728683   0.000002866728619  -0.000000874880584
Si    2.03662   2.03662  10.18313   0.000000000000068  -0.000000000000006   0.000000000000001
Si    2.03662   4.75213   7.46762   0.000000879957736   0.000002884640293  -0.000002880198778
Si    0.67888   0.67888  11.54087   0.000008153982520   0.000008153982445  -0.000008157473944
Si    3.39437   0.67888  14.25638  -0.000002866728527   0.000002866728887  -0.000000874880989
Si    0.67888   3.39437  14.25638   0.000002866729040  -0.000002866728718  -0.000000874880907
Si    3.39437   3.39437  11.54087  -0.000008153982282  -0.000008153982392  -0.000008157473754
Si    4.75213   2.03662  12.89863   0.000002884640418  -0.000000879957625   0.000002880198907
Si    4.75213   4.75213  15.61412   0.000008999707055   0.000008999707080  -0.000008981271815
Si    2.03662   2.03662  15.61412   0.000000000000249   0.000000000000091  -0.000007121902090
Si    2.03662   4.75213  12.89863  -0.000000879957491   0.000002884640324   0.000002880198825
Si    0.67888   6.10987   0.67888   0.000002884640517   0.000000879957793   0.000002880198907
Si    3.39437   6.10987   3.39437  -0.000002884640331   0.000000879957722  -0.000002880199090
Si    0.67888   8.82538   3.39437   0.000008153982339   0.000008153982423  -0.000008157473818
Si    3.39437   8.82538   0.67888  -0.000008153982351   0.000008153982317   0.000008157473638
Si    4.75213   7.46762   2.03662   0.000002866728742  -0.000002866728832   0.000000874880589
Si    4.75213  10.18313   4.75213   0.000002884640294  -0.000000879957615   0.000002880198808
Si    2.03662   7.46762   4.75213   0.000000879957662  -0.000002884640312   0.000002880198869
Si    2.03662  10.18313   2.03662  -0.000000000000086  -0.000000000000101  -0.000000000000066
Si    0.67888   6.10987   6.10987   0.000007115123185   0.000000000000048   0.000000000000042
Si    3.39437   6.10987   8.82538  -0.000002884640423  -0.000000879957851   0.000002880199063
Si    0.67888   8.82538   8.82538   0.000008999706925   0.000008999707067   0.000008981271773
Si    3.39437   8.82538   6.10987  -0.000002866728892   0.000002866728773  -0.000000874880876
Si    4.75213   7.46762   7.46762   0.000008153982269  -0.000008153982464  -0.000008157473696
Si    4.75213  10.18313  10.18313   0.000007115122999   0.000000000000046   0.000000000000134
Si    2.03662   7.46762  10.18313  -0.000000000000047  -0.000007115123227   0.000000000000101
Si    2.03662  10.18313   7.46762  -0.000000000000143  -0.000000000000038  -0.000007121901946
Si    0.67888   6.10987  11.54087   0.000002884640522  -0.000000879957633  -0.000002880198985
Si    3.39437   6.10987  14.25638  -0.000007115123024  -0.000000000000008  -0.000000000000051
Si    0.67888   8.82538  14.25638   0.000002866728876   0.000002866728809   0.000000874880746
Si    3.39437   8.82538  11.54087  -0.000008999707118   0.000008999706909  -0.000008981271524
Si    4.75213   7.46762  12.89863   0.000008999706937  -0.000008999707168   0.000008981271869
Si    4.75213  10.18313  15.61412   0.000002884640364   0.000000879957569  -0.000002880198975
Si    2.03662   7.46762  15.61412  -0.000000879957555  -0.000002884640277  -0.000002880198876
Si    2.03662  10.18313  12.89863   0.000000000000006  -0.000000000000062   0.000007121901993
Si    0.67888  11.54087   0.67888   0.000008153982376  -0.000008153982610   0.000008157473770
Si    3.39437  11.54087   3.39437  -0.000008153982366  -0.000008153982445  -0.000008157473795
Si    0.67888  14.25638   3.39437   0.000002884640409  -0.000000879957789  -0.000002880198881
Si    3.39437  14.25638   0.67888  -0.000002884640163  -0.000000879957774   0.000002880198900
Si    4.75213  12.89863   2.03662   0.000002866728881   0.000002866728785  -0.000000874880838
Si    4.75213  15.61412   4.75213   0.000008999707133  -0.000008999706979   0.000008981271795
Si    2.03662  12.89863   4.75213  -0.000000879957682   0.000002884640251   0.000002880198880
Si    2.03662  15.61412   2.03662   0.000000000000185  -0.000007115123143  -0.000000000000041
Si    0.67888  11.54087   6.10987   0.000002866728717  -0.000002866728872  -0.000000874880713
Si    3.39437  11.54087   8.82538  -0.000008999707127  -0.000008999706883   0.000008981271749
Si    0.67888  14.25638   8.82538   0.000002884640394   0.000000879957697   0.000002880199043
Si    3.39437  14.25638   6.10987  -0.000007115123037   0.000000000000061   0.000000000000108
Si    4.75213  12.89863   7.46762   0.000008999707018   0.000008999707242  -0.000008981271676
Si    4.75213  15.61412  10.18313   0.000002866728822  -0.000002866728673   0.000000874880791
Si    2.03662  12.89863  10.18313  -0.000000000000021   0.000007115123207   0.000000000000019
Si    2.03662  15.61412   7.46762  -0.000000879957615  -0.000002884640237  -0.000002880198713
Si    0.67888  11.54087  11.54087   0.000008999706976  -0.000008999707104  -0.000008981271757
Si    3.39437  11.54087  14.25638  -0.000002866728718  -0.000002866728880   0.000000874880844
Si    0.67888  14.25638  14.25638   0.000007115123269  -0.000000000000082  -0.000000000000139
Si    3.39437  14.25638  11.54087  -0.000002884640243   0.000000879957846  -0.000002880198972
Si    4.75213  12.89863  12.89863   0.000008153982482   0.000008153982428   0.000008157473721
Si    4.75213  15.61412  15.61412   0.000008153982589  -0.000008153982300  -0.000008157473830
Si    2.03662  12.89863  15.61412   0.000000879957828   0.000002884640222  -0.000002880198996
Si    2.03662  15.61412  12.89863   0.000000879957890  -0.000002884640309   0.000002880198739
Si    6.10987   0.67888   0.67888   0.000000879957734   0.000002884640359   0.000002880198784
Si    8.82538   0.67888   3.39437   0.000008153982359   0.000008153982188  -0.000008157473618
Si    6.10987   3.39437   3.39437   0.000000879957642  -0.000002884640369  -0.000002880198985
Si    8.82538   3.39437   0.67888   0.000008153982246  -0.000008153982273   0.000008157473563
Si   10.18313   2.03662   2.03662  -0.000000000000033  -0.000000000000078   0.000000000000004
Si   10.18313   4.75213   4.75213  -0.000000879957637   0.000002884640335   0.000002880198920
Si    7.46762   2.03662   4.75213  -0.000002884640349   0.000000879957615   0.000002880199046
Si    7.46762   4.75213   2.03662  -0.000002866728835   0.000002866728840   0.000000874880673
Si    6.10987   0.67888   6.10987   0.000000000000086   0.000007115123086   0.000000000000055
Si    8.82538   0.67888   8.82538   0.000008999706997   0.000008999706860   0.000008981271697
Si    6.10987   3.39437   8.82538  -0.000000879957738  -0.000002884640494   0.000002880198990
Si    8.82538   3.39437   6.10987   0.000002866728754  -0.000002866728892  -0.000000874880677
Si   10.18313   2.03662   7.46762   0.000000000000033  -0.000000000000228  -0.000007121901945
Si   10.18313   4.75213  10.18313   0.000000000000023   0.000007115123024   0.000000000000095
Si    7.46762   2.03662  10.18313  -0.000007115123240  -0.000000000000116   0.000000000000089
Si    7.46762   4.75213   7.46762  -0.000008153982343   0.000008153982218  -0.000008157473764
Si    6.10987   0.67888  11.54087  -0.000000879957643   0.000002884640353  -0.000002880198906
Si    8.82538   0.67888  14.25638   0.000002866728638   0.000002866728688   0.000000874880637
Si    6.10987   3.39437  14.25638   0.000000000000010  -0.000007115123135  -0.000000000000024
Si    8.82538   3.39437  11.54087   0.000008999706901  -0.000008999707136  -0.000008981271606
Si   10.18313   2.03662  12.89863  -0.000000000000134  -0.000000000000010   0.000007121901931
Si   10.18313   4.75213  15.61412   0.000000879957547   0.000002884640486  -0.000002880199042
Si    7.46762   2.03662  15.61412  -0.000002884640441  -0.000000879957713  -0.000002880199081
Si    7.46762   4.75213  12.89863  -0.000008999707137   0.000008999706902   0.000008981271775
Si    6.10987   6.10987   0.67888  -0.000000000000009  -0.000000000000051   0.000007121901802
Si    8.82538   6.10987   3.39437   0.000002884640343  -0.000000879957620  -0.000002880198986
Si    6.10987   8.82538   3.39437  -0.000000879957677   0.000002884640303  -0.000002880199040
Si    8.82538   8.82538   0.67888   0.000008999707045   0.000008999707024   0.000008981271618
Si   10.18313   7.46762   2.03662   0.000000000000092  -0.000007115123110  -0.000000000000163
Si   10.18313  10.18313   4.75213   0.000000000000183   0.000000000000181   0.000007121901891
Si    7.46762   7.46762   4.75213  -0.000008153982286  -0.000008153982470   0.000008157473626
Si    7.46762  10.18313   2.03662  -0.000007115123113   0.000000000000031  -0.000000000000145
Si    6.10987   6.10987   6.10987   0.000000000000007  -0.000000000000152  -0.000000000000044
Si    8.82538   6.10987   8.82538   0.000002884640378   0.000000879957425   0.000002880198953
Si    6.10987   8.82538   8.82538   0.000000879957557   0.000002884640304   0.000002880199001
Si    8.82538   8.82538   6.10987   0.000002866728917   0.000002866728819   0.000000874880596
Si   10.18313   7.46762   7.46762  -0.000000879957484  -0.000002884640386  -0.000002880199042
Si   10.18313  10.18313  10.18313   0.000000000000278   0.000000000000185   0.000000000000078
Si    7.46762   7.46762  10.18313  -0.000002866728844  -0.000002866728973  -0.000000874880653
Si    7.46762  10.18313   7.46762  -0.000002884640288  -0.000000879957553  -0.000002880199069
Si    6.10987   6.10987  11.54087  -0.000000000000070  -0.000000000000133  -0.000007121901749
Si    8.82538   6.10987  14.25638   0.000007115123085  -0.000000000000039   0.000000000000073
Si    6.10987   8.82538  14.25638  -0.000000000000022   0.000007115123049   0.000000000000065
Si    8.82538   8.82538  11.54087   0.000008153982395   0.000008153982292  -0.000008157473439
Si   10.18313   7.46762  12.89863   0.000000879957698  -0.000002884640418   0.000002880199131
Si   10.18313  10.18313  15.61412   0.000000000000063  -0.000000000000018  -0.000007121901959
Si    7.46762   7.46762  15.61412  -0.000008999707049  -0.000008999707059  -0.000008981271714
Si    7.46762  10.18313  12.89863  -0.000002884640346   0.000000879957764   0.000002880199163
Si    6.10987  11.54087   0.67888  -0.000000879957606  -0.000002884640295   0.000002880198819
Si    8.82538  11.54087   3.39437   0.000008999707153  -0.000008999706866  -0.000008981271737
Si    6.10987  14.25638   3.39437   0.000000000000155   0.000000000000088  -0.000007121901970
Si    8.82538  14.25638   0.67888   0.000002884640362   0.000000879957594   0.000002880198825
Si   10.18313  12.89863   2.03662   0.000000000000041   0.000007115123141   0.000000000000081
Si   10.18313  15.61412   4.75213   0.000000879957654  -0.000002884640534   0.000002880199105
Si    7.46762  12.89863   4.75213  -0.000008999706866   0.000008999707132   0.000008981271637
Si    7.46762  15.61412   2.03662  -0.000002866728700  -0.000002866728876  -0.000000874880831
Si    6.10987  11.54087   6.10987   0.000000000000097  -0.000007115122969  -0.000000000000016
Si    8.82538  11.54087   8.82538   0.000008153982513  -0.000008153982030   0.000008157473639
Si    6.10987  14.25638   8.82538   0.000000000000093   0.000000000000164   0.000007121902028
Si    8.82538  14.25638   6.10987   0.000007115123307   0.000000000000096   0.000000000000010
Si   10.18313  12.89863   7.46762   0.000000879957797   0.000002884640612  -0.000002880199003
Si   10.18313  15.61412  10.18313   0.000000000000007  -0.000007115123147  -0.000000000000089
Si    7.46762  12.89863  10.18313  -0.000002866728703   0.000002866729120   0.000000874880885
Si    7.46762  15.61412   7.46762  -0.000008999706923  -0.000008999706931  -0.000008981271609
Si    6.10987  11.54087  11.54087   0.000000879957652  -0.000002884640189  -0.000002880198737
Si    8.82538  11.54087  14.25638   0.000002866728778  -0.000002866728645  -0.000000874880643
Si    6.10987  14.25638  14.25638   0.000000000000148   0.000000000000073  -0.000000000000032
Si    8.82538  14.25638  11.54087   0.000002884640360  -0.000000879957500  -0.000002880198878
Si   10.18313  12.89863  12.89863  -0.000000879957665   0.000002884640483   0.000002880199003
Si   10.18313  15.61412  15.61412  -0.000000879957808  -0.000002884640478  -0.000002880198993
Si    7.46762  12.89863  15.61412  -0.000008153982238   0.000008153982459  -0.000008157473826
Si    7.46762  15.61412  12.89863  -0.000008153982315  -0.000008153982379   0.000008157473773
Si   11.54087   0.67888   0.67888  -0.000008153982429   0.000008153982284   0.000008157473746
Si   14.25638   0.67888   3.39437  -0.000000879957663   0.000002884640309  -0.000002880198778
Si   11.54087   3.39437   3.39437  -0.000008153982317  -0.000008153982382  -0.000008157473684
Si   14.25638   3.39437   0.67888  -0.000000879957575  -0.000002884640252   0.000002880198933
Si   15.61412   2.03662   2.03662  -0.000007115123035   0.000000000000087   0.000000000000044
Si   15.61412   4.75213   4.75213  -0.000008999706895   0.000008999707032   0.000008981271699
Si   12.89863   2.03662   4.75213   0.000002884640388  -0.000000879957709   0.000002880199055
Si   12.89863   4.75213   2.03662   0.000002866728854   0.000002866728898  -0.000000874880739
Si   11.54087   0.67888   6.10987  -0.000002866728777   0.000002866728646  -0.000000874880677
Si   14.25638   0.67888   8.82538   0.000000879957794   0.000002884640390   0.000002880199025
Si   11.54087   3.39437   8.82538  -0.000008999706889  -0.000008999707134   0.000008981271685
Si   14.25638   3.39437   6.10987   0.000000000000093  -0.000007115123202   0.000000000000182
Si   15.61412   2.03662   7.46762  -0.000002884640251  -0.000000879957745  -0.000002880198732
Si   15.61412   4.75213  10.18313  -0.000002866728577   0.000002866728701   0.000000874880796
Si   12.89863   2.03662  10.18313   0.000007115123312  -0.000000000000101  -0.000000000000100
Si   12.89863   4.75213   7.46762   0.000008999707144   0.000008999706922  -0.000008981271637
Si   11.54087   0.67888  11.54087  -0.000008999707009   0.000008999706866  -0.000008981271766
Si   14.25638   0.67888  14.25638   0.000000000000043   0.000007115123158  -0.000000000000202
Si   11.54087   3.39437  14.25638  -0.000002866728862  -0.000002866728763   0.000000874880732
Si   14.25638   3.39437  11.54087   0.000000879957890  -0.000002884640473  -0.000002880199118
Si   15.61412   2.03662  12.89863  -0.000002884640177   0.000000879957747   0.000002880198672
Si   15.61412   4.75213  15.61412  -0.000008153982160   0.000008153982515  -0.000008157473762
Si   12.89863   2.03662  15.61412   0.000002884640357   0.000000879957650  -0.000002880198996
Si   12.89863   4.75213  12.89863   0.000008153982379   0.000008153982384   0.000008157473655
Si   11.54087   6.10987   0.67888  -0.000002884640342  -0.000000879957553   0.000002880198908
Si   14.25638   6.10987   3.39437   0.000000000000107   0.000000000000225  -0.000007121902009
Si   11.54087   8.82538   3.39437  -0.000008999706802   0.000008999707112  -0.000008981271696
Si   14.25638   8.82538   0.67888   0.000000879957799   0.000002884640497   0.000002880199010
Si   15.61412   7.46762   2.03662  -0.000002866728673  -0.000002866728582  -0.000000874880828
Si   15.61412  10.18313   4.75213  -0.000002884640382   0.000000879957677   0.000002880198882
Si   12.89863   7.46762   4.75213   0.000008999707145  -0.000008999706875   0.000008981271613
Si   12.89863  10.18313   2.03662   0.000007115123330   0.000000000000017   0.000000000000022
Si   11.54087   6.10987   6.10987  -0.000007115123091   0.000000000000018  -0.000000000000016
Si   14.25638   6.10987   8.82538   0.000000000000184  -0.000000000000024   0.000007121902037
Si   11.54087   8.82538   8.82538  -0.000008153982038   0.000008153982478   0.000008157473738
Si   14.25638   8.82538   6.10987   0.000000000000129   0.000007115123310  -0.000000000000102
Si   15.61412   7.46762   7.46762  -0.000008999706894  -0.000008999706878  -0.000008981271580
Si   15.61412  10.18313  10.18313  -0.000007115123071   0.000000000000013   0.000000000000031
Si   12.89863   7.46762  10.18313   0.000002866729049  -0.000002866728721   0.000000874880732
Si   12.89863  10.18313   7.46762   0.000002884640590   0.000000879957751  -0.000002880198968
Si   11.54087   6.10987  11.54087  -0.000002884640258   0.000000879957642  -0.000002880198834
Si   14.25638   6.10987  14.25638   0.000000000000142   0.000000000000145  -0.000000000000029
Si   11.54087   8.82538  14.25638  -0.000002866728695   0.000002866728819  -0.000000874880690
Si   14.25638   8.82538  11.54087  -0.000000879957462   0.000002884640436  -0.000002880198939
Si   15.61412   7.46762  12.89863  -0.000008153982178  -0.000008153982265   0.000008157473729
Si   15.61412  10.18313  15.61412  -0.000002884640293  -0.000000879957793  -0.000002880198856
Si   12.89863   7.46762  15.61412   0.000008153982415  -0.000008153982190  -0.000008157473677
Si   12.89863  10.18313  12.89863   0.000002884640558  -0.000000879957580   0.000002880198983
Si   11.54087  11.54087   0.67888  -0.000008999706927  -0.000008999706997   0.000008981271645
Si   14.25638  11.54087   3.39437   0.000000879957721  -0.000002884640565  -0.000002880198973
Si   11.54087  14.25638   3.39437  -0.000002884640382   0.000000879957574  -0.000002880198836
Si   14.25638  14.25638   0.67888  -0.000000000000044  -0.000000000000240   0.000007121902040
Si   15.61412  12.89863   2.03662  -0.000002866728775   0.000002866728522   0.000000874880851
Si   15.61412  15.61412   4.75213  -0.000008153982341  -0.000008153982408   0.000008157473884
Si   12.89863  12.89863   4.75213   0.000008153982311   0.000008153982256   0.000008157473788
Si   12.89863  15.61412   2.03662   0.000002866728719  -0.000002866728919   0.000000874880820
Si   11.54087  11.54087   6.10987  -0.000002866728588  -0.000002866728636   0.000000874880712
Si   14.25638  11.54087   8.82538  -0.000000879957543  -0.000002884640320   0.000002880198900
Si   11.54087  14.25638   8.82538  -0.000002884640298  -0.000000879957641   0.000002880198880
Si   14.25638  14.25638   6.10987  -0.000000000000046  -0.000000000000072   0.000000000000121
Si   15.61412  12.89863   7.46762  -0.000008153982389   0.000008153982315  -0.000008157473644
Si   15.61412  15.61412  10.18313  -0.000002866728670  -0.000002866728732  -0.000000874880895
Si   12.89863  12.89863  10.18313   0.000002866728892   0.000002866728836  -0.000000874880767
Si   12.89863  15.61412   7.46762   0.000008153982313  -0.000008153982405  -0.000008157473628
Si   11.54087  11.54087  11.54087  -0.000008153982175  -0.000008153982293  -0.000008157473748
Si   14.25638  11.54087  14.25638   0.000000000000046  -0.000007115123335   0.000000000000015
Si   11.54087  14.25638  14.25638  -0.000007115123351  -0.000000000000089  -0.000000000000066
Si   14.25638  14.25638  11.54087   0.000000000000034   0.000000000000003  -0.000007121902175
Si   15.61412  12.89863  12.89863  -0.000008999706942   0.000008999706832   0.000008981271494
Si   15.61412  15.61412  15.61412  -0.000008999706889  -0.000008999707005  -0.000008981271708
Si   12.89863  12.89863  15.61412   0.000008999706945   0.000008999706840  -0.000008981271620
Si   12.89863  15.61412  12.89863   0.000008999706954  -0.000008999707047   0.000008981271495
