64 

Si    0.67888   0.67888   0.67888  -0.000000346423067  -0.000000346423173  -0.000000346410705
Si    3.39437   0.67888   3.39437  -0.000000479999613  -0.000001000917584  -0.000000479995803
Si    0.67888   3.39437   3.39437  -0.000001000917652  -0.000000479999587  -0.000000479995868
Si    3.39437   3.39437   0.67888  -0.000000480005107  -0.000000480005176  -0.000001000921075
Si    4.75212   2.03662   2.03662   0.000001000917692   0.000000479999117   0.000000479995686
Si    4.75212   4.75212   4.75212   0.000000346423270   0.000000346422740   0.000000346410517
Si    2.03663   2.03662   4.75212   0.000000480005510   0.000000480005346   0.000001000921230
Si    2.03663   4.75212   2.03662   0.000000479998998   0.000001000917927   0.000000479995912
Si    0.67888   0.67888   6.10987  -0.000000346423010  -0.000000346423137  -0.000000346410576
Si    3.39437   0.67888   8.82537  -0.000000479998918  -0.000001000918262  -0.000000479995502
Si    0.67888   3.39437   8.82537  -0.000001000917534  -0.000000479998953  -0.000000479995869
Si    3.39437   3.39437   6.10987  -0.000000480005311  -0.000000480005642  -0.000001000921209
Si    4.75212   2.03662   7.46762   0.000001000917427   0.000000479999333   0.000000479995517
Si    4.75212   4.75212  10.18313   0.000000346422982   0.000000346423121   0.000000346410615
Si    2.03663   2.03662  10.18313   0.000000480005379   0.000000480005431   0.000001000920848
Si    2.03663   4.75212   7.46762   0.000000479999213   0.000001000917546   0.000000479996083
Si    0.67888   6.10987   0.67888  -0.000000346423033  -0.000000346423381  -0.000000346410447
Si    3.39437   6.10987   3.39437  -0.000000479998801  -0.000001000917507  -0.000000479996197
Si    0.67888   8.82537   3.39437  -0.000001000917537  -0.000000479999216  -0.000000479995350
Si    3.39437   8.82537   0.67888  -0.000000480005174  -0.000000480005178  -0.000001000921149
Si    4.75212   7.46762   2.03662   0.000001000917459   0.000000479998993   0.000000479996060
Si    4.75212  10.18313   4.75212   0.000000346423199   0.000000346423114   0.000000346410416
Si    2.03663   7.46762   4.75212   0.000000480004994   0.000000480005254   0.000001000920699
Si    2.03663  10.18313   2.03662   0.000000479999706   0.000001000917716   0.000000479995797
Si    0.67888   6.10987   6.10987  -0.000000346422827  -0.000000346422928  -0.000000346410429
Si    3.39437   6.10987   8.82537  -0.000000479999324  -0.000001000917806  -0.000000479995808
Si    0.67888   8.82537   8.82537  -0.000001000917945  -0.000000479998672  -0.000000479995787
Si    3.39437   8.82537   6.10987  -0.000000480005238  -0.000000480005498  -0.000001000920747
Si    4.75212   7.46762   7.46762   0.000001000917659   0.000000479999528   0.000000479996085
Si    4.75212  10.18313  10.18313   0.000000346422574   0.000000346423297   0.000000346410324
Si    2.03663   7.46762  10.18313   0.000000480005747   0.000000480005272   0.000001000920985
Si    2.03663  10.18313   7.46762   0.000000479999056   0.000001000917972   0.000000479995701
Si    6.10987   0.67888   0.67888  -0.000000346422849  -0.000000346422910  -0.000000346410448
Si    8.82537   0.67888   3.39437  -0.000000479999307  -0.000001000917797  -0.000000479995789
Si    6.10987   3.39437   3.39437  -0.000001000917946  -0.000000479998681  -0.000000479995769
Si    8.82537   3.39437   0.67888  -0.000000480005227  -0.000000480005498  -0.000001000920744
Si   10.18313   2.03662   2.03662   0.000001000917673   0.000000479999537   0.000000479996098
Si   10.18313   4.75212   4.75212   0.000000346422570   0.000000346423266   0.000000346410360
Si    7.46762   2.03662   4.75212   0.000000480005724   0.000000480005284   0.000001000920998
Si    7.46762   4.75212   2.03662   0.000000479999037   0.000001000917917   0.000000479995691
Si    6.10987   0.67888   6.10987  -0.000000346423037  -0.000000346423328  -0.000000346410424
Si    8.82537   0.67888   8.82537  -0.000000479998777  -0.000001000917476  -0.000000479996221
Si    6.10987   3.39437   8.82537  -0.000001000917534  -0.000000479999223  -0.000000479995353
Si    8.82537   3.39437   6.10987  -0.000000480005136  -0.000000480005179  -0.000001000921159
Si   10.18313   2.03662   7.46762   0.000001000917454   0.000000479998995   0.000000479996066
Si   10.18313   4.75212  10.18313   0.000000346423210   0.000000346423099   0.000000346410396
Si    7.46762   2.03662  10.18313   0.000000480004983   0.000000480005274   0.000001000920669
Si    7.46762   4.75212   7.46762   0.000000479999700   0.000001000917689   0.000000479995819
Si    6.10987   6.10987   0.67888  -0.000000346423017  -0.000000346423180  -0.000000346410611
Si    8.82537   6.10987   3.39437  -0.000000479998907  -0.000001000918287  -0.000000479995492
Si    6.10987   8.82537   3.39437  -0.000001000917555  -0.000000479998962  -0.000000479995865
Si    8.82537   8.82537   0.67888  -0.000000480005295  -0.000000480005646  -0.000001000921233
Si   10.18313   7.46762   2.03662   0.000001000917450   0.000000479999336   0.000000479995526
Si   10.18313  10.18313   4.75212   0.000000346422979   0.000000346423132   0.000000346410633
Si    7.46762   7.46762   4.75212   0.000000480005362   0.000000480005449   0.000001000920902
Si    7.46762  10.18313   2.03662   0.000000479999215   0.000001000917583   0.000000479996098
Si    6.10987   6.10987   6.10987  -0.000000346423063  -0.000000346423175  -0.000000346410700
Si    8.82537   6.10987   8.82537  -0.000000479999618  -0.000001000917593  -0.000000479995803
Si    6.10987   8.82537   8.82537  -0.000001000917651  -0.000000479999579  -0.000000479995869
Si    8.82537   8.82537   6.10987  -0.000000480005114  -0.000000480005153  -0.000001000921069
Si   10.18313   7.46762   7.46762   0.000001000917703   0.000000479999088   0.000000479995689
Si   10.18313  10.18313  10.18313   0.000000346423277   0.000000346422774   0.000000346410523
Si    7.46762   7.46762  10.18313   0.000000480005513   0.000000480005340   0.000001000921197
Si    7.46762  10.18313   7.46762   0.000000479999014   0.000001000917939   0.000000479995914
