384 

Si    0.67887   0.67887   0.67888   0.000003780022360   0.000003780073733  -0.000004943502764
Si    3.39438   0.67887   3.39437  -0.000002077003001  -0.000005614837875   0.000007892234399
Si    0.67887   3.39437   3.39437  -0.000005614822095  -0.000002077113036   0.000007892258676
Si    3.39438   3.39437   0.67888   0.000002232278680   0.000002232233588  -0.000005445612101
Si    4.75212   2.03662   2.03662  -0.000000011582790   0.000000377722446  -0.000000871083797
Si    4.75212   4.75212   4.75213  -0.000002021901006  -0.000002021819022  -0.000003168324577
Si    2.03662   2.03662   4.75213  -0.000002167496334  -0.000002167529081  -0.000003637068925
Si    2.03662   4.75212   2.03662   0.000000377819971  -0.000000011530904  -0.000000871022543
Si    0.67887   0.67887   6.10987  -0.000004898998787  -0.000004899010392   0.000000333602664
Si    3.39438   0.67887   8.82537  -0.000002759298421  -0.000005115075704  -0.000009135615643
Si    0.67887   3.39437   8.82537  -0.000005115000001  -0.000002759508494  -0.000009135617291
Si    3.39438   3.39437   6.10987  -0.000004153410199  -0.000004153406858   0.000000193822931
Si    4.75212   2.03662   7.46762   0.000001267500911  -0.000000900293868   0.000001363848932
Si    4.75212   4.75212  10.18313  -0.000000895611970  -0.000000895673208   0.000001254840541
Si    2.03662   2.03662  10.18313   0.000000066617212   0.000000066434366   0.000000225257938
Si    2.03662   4.75212   7.46762  -0.000000900078825   0.000001267556792   0.000001363710984
Si    0.67887   0.67887  11.54087   0.000003757443993   0.000003757325826   0.000005236336730
Si    3.39438   0.67887  14.25638  -0.000000392642607   0.000007078876964  -0.000000029632676
Si    0.67887   3.39437  14.25638   0.000007079134855  -0.000000392874142  -0.000000029511787
Si    3.39438   3.39437  11.54087   0.000002718615536   0.000002718422915   0.000005988165987
Si    4.75212   2.03662  12.89862   0.000000209847742  -0.000000118440569  -0.000000884221787
Si    4.75212   4.75212  15.61413  -0.000001375958485  -0.000001375877630   0.000004813702623
Si    2.03662   2.03662  15.61413   0.000000043472813   0.000000043364364   0.000002438973388
Si    2.03662   4.75212  12.89862  -0.000000118173026   0.000000209722923  -0.000000884210414
Si    0.67887   6.10987   0.67888   0.000003189368914   0.000001620349858   0.000002412960149
Si    3.39438   6.10987   3.39437   0.000005635650888  -0.000005763811878   0.000003492751193
Si    0.67887   8.82537   3.39437   0.000002211806063   0.000001327207098  -0.000002615784773
Si    3.39438   8.82537   0.67888  -0.000001991086104  -0.000003965007798  -0.000004818318209
Si    4.75212   7.46762   2.03662   0.000002006565652   0.000002568780854   0.000000596062377
Si    4.75212  10.18313   4.75213  -0.000002105568128  -0.000001001183767  -0.000003115567224
Si    2.03662   7.46762   4.75213   0.000003415003054  -0.000000697067597  -0.000006810049201
Si    2.03662  10.18313   2.03662   0.000002104287744   0.000001262570890  -0.000000436918971
Si    0.67887   6.10987   6.10987  -0.000001361017023  -0.000001036489003  -0.000000511008143
Si    3.39438   6.10987   8.82537   0.000007203988912  -0.000005288312620  -0.000002219859217
Si    0.67887   8.82537   8.82537  -0.000000023445394   0.000001437869705   0.000002426036899
Si    3.39438   8.82537   6.10987   0.000000596798871   0.000004613360732  -0.000000322940111
Si    4.75212   7.46762   7.46762   0.000001036932903   0.000001966342439  -0.000002559824133
Si    4.75212  10.18313  10.18313   0.000001848531849   0.000002671505637   0.000000921052275
Si    2.03662   7.46762  10.18313  -0.000002055426728   0.000006387488399  -0.000000250132061
Si    2.03662  10.18313   7.46762  -0.000001910871264   0.000002696136680   0.000001633627784
Si    0.67887   6.10987  11.54087   0.000000087424306   0.000003408390832  -0.000000425990184
Si    3.39438   6.10987  14.25638  -0.000002940744095   0.000002001208224   0.000001110924341
Si    0.67887   8.82537  14.25638   0.000000138402860   0.000001469811655   0.000001037269711
Si    3.39438   8.82537  11.54087   0.000000147839121  -0.000003444462983   0.000003858777870
Si    4.75212   7.46762  12.89862   0.000001130731868  -0.000000431894405   0.000001687190625
Si    4.75212  10.18313  15.61413  -0.000002349994349  -0.000000184704981   0.000002208851404
Si    2.03662   7.46762  15.61413   0.000001687684474  -0.000001467716356   0.000006324365945
Si    2.03662  10.18313  12.89862  -0.000000043411566   0.000003473975167   0.000000471499414
Si    0.67887  11.54087   0.67888  -0.000006918459697   0.000006111870460  -0.000003361685547
Si    3.39438  11.54087   3.39437   0.000005332216318  -0.000002288773202  -0.000003078797268
Si    0.67887  14.25638   3.39437  -0.000002155211305   0.000000711400180   0.000005543897416
Si    3.39438  14.25638   0.67888  -0.000000329978130   0.000000518170362  -0.000002631828452
Si    4.75212  12.89862   2.03662  -0.000000234822893   0.000001157490869   0.000000300939946
Si    4.75212  15.61413   4.75213  -0.000001424321006   0.000000812451546  -0.000003373912899
Si    2.03662  12.89862   4.75213  -0.000005669117106  -0.000000563829614   0.000000868905500
Si    2.03662  15.61413   2.03662   0.000001510162574  -0.000003982924976  -0.000000588965507
Si    0.67887  11.54087   6.10987   0.000001991082738  -0.000003518350229   0.000000137676245
Si    3.39438  11.54087   8.82537   0.000005881753652  -0.000001779609335   0.000002226088400
Si    0.67887  14.25638   8.82537  -0.000003222377844   0.000001260699295  -0.000005794456339
Si    3.39438  14.25638   6.10987   0.000007352116825   0.000005928553081  -0.000000202144012
Si    4.75212  12.89862   7.46762  -0.000006277743302  -0.000002011835494  -0.000002876211186
Si    4.75212  15.61413  10.18313   0.000007656146637  -0.000001764529347   0.000000133498801
Si    2.03662  12.89862  10.18313  -0.000004024110010   0.000005474367929   0.000000748538359
Si    2.03662  15.61413   7.46762  -0.000002784761754  -0.000002365697145  -0.000000309530404
Si    0.67887  11.54087  11.54087  -0.000006353287323   0.000002712978018   0.000004752485680
Si    3.39438  11.54087  14.25638   0.000003808486565  -0.000003175504149  -0.000001515843059
Si    0.67887  14.25638  14.25638   0.000003956203910  -0.000004248653138   0.000000324315707
Si    3.39438  14.25638  11.54087  -0.000000236175615   0.000000430284475   0.000003145153965
Si    4.75212  12.89862  12.89862  -0.000004183038431  -0.000000590887066   0.000000849752811
Si    4.75212  15.61413  15.61413   0.000000379258100  -0.000001195480723   0.000005218487911
Si    2.03662  12.89862  15.61413  -0.000007774953375   0.000000261955535  -0.000000071892122
Si    2.03662  15.61413  12.89862  -0.000002712985005  -0.000002727884366  -0.000000527451619
Si    0.67887  16.97188   0.67888  -0.000000757919091   0.000002485611857  -0.000004554533138
Si    3.39438  16.97188   3.39437   0.000002559962376   0.000002276488921   0.000002444165819
Si    0.67887  19.68738   3.39437   0.000003155138646   0.000002868776048   0.000001081840861
Si    3.39438  19.68738   0.67888  -0.000007101767625  -0.000005992260180  -0.000001180840997
Si    4.75212  18.32963   2.03662  -0.000000874949147  -0.000000749837073  -0.000000968261216
Si    4.75212  21.04512   4.75213  -0.000001915050418   0.000000426878096  -0.000003552617597
Si    2.03662  18.32963   4.75213   0.000004586751854   0.000007183903903  -0.000003018106403
Si    2.03662  21.04512   2.03662   0.000002171753891   0.000000878712269   0.000000234070473
Si    0.67887  16.97188   6.10987  -0.000003479968024  -0.000010277410318   0.000000545060696
Si    3.39438  16.97188   8.82537   0.000002905107002   0.000002560009509  -0.000002081243423
Si    0.67887  19.68738   8.82537   0.000004852047491   0.000001223146526  -0.000001542161656
Si    3.39438  19.68738   6.10987   0.000002046521354  -0.000001075627562  -0.000000627724993
Si    4.75212  18.32963   7.46762  -0.000002559999981  -0.000002904984826   0.000002081506462
Si    4.75212  21.04512  10.18313   0.000010277474096   0.000003479882502  -0.000000544995181
Si    2.03662  18.32963  10.18313   0.000001075868051  -0.000002046561248   0.000000627871742
Si    2.03662  21.04512   7.46762  -0.000001223023126  -0.000004852009373   0.000001542235010
Si    0.67887  16.97188  11.54087  -0.000000426667005   0.000001915027400   0.000003552579003
Si    3.39438  16.97188  14.25638   0.000000750072106   0.000000874943516   0.000000968116349
Si    0.67887  19.68738  14.25638  -0.000000878544048  -0.000002171626843  -0.000000234228182
Si    3.39438  19.68738  11.54087  -0.000007183782006  -0.000004586587389   0.000003018341796
Si    4.75212  18.32963  12.89862  -0.000002276552908  -0.000002559831100  -0.000002444200604
Si    4.75212  21.04512  15.61413  -0.000002485627411   0.000000758008275   0.000004554310152
Si    2.03662  18.32963  15.61413   0.000005992434382   0.000007101939176   0.000001180601614
Si    2.03662  21.04512  12.89862  -0.000002868550910  -0.000003155179451  -0.000001081782749
Si    6.10987   0.67887   0.67888   0.000001620094270   0.000003189199154   0.000002412944201
Si    8.82537   0.67887   3.39437   0.000001326972469   0.000002211681796  -0.000002615742885
Si    6.10987   3.39437   3.39437  -0.000005763707141   0.000005635675649   0.000003492638937
Si    8.82537   3.39437   0.67888  -0.000003965112310  -0.000001991018707  -0.000004818129867
Si   10.18313   2.03662   2.03662   0.000001262545249   0.000002104276703  -0.000000436784606
Si   10.18313   4.75212   4.75213  -0.000001001128960  -0.000002105678454  -0.000003115534856
Si    7.46762   2.03662   4.75213  -0.000000696941718   0.000003414913436  -0.000006810120086
Si    7.46762   4.75212   2.03662   0.000002568674034   0.000002006415125   0.000000596096482
Si    6.10987   0.67887   6.10987  -0.000001036477675  -0.000001361221507  -0.000000510780715
Si    8.82537   0.67887   8.82537   0.000001437561030  -0.000000023535733   0.000002426166075
Si    6.10987   3.39437   8.82537  -0.000005288489898   0.000007203863341  -0.000002219771893
Si    8.82537   3.39437   6.10987   0.000004613449299   0.000000596654881  -0.000000323165971
Si   10.18313   2.03662   7.46762   0.000002696158368  -0.000001910893305   0.000001633445353
Si   10.18313   4.75212  10.18313   0.000002671678306   0.000001848602784   0.000000920898832
Si    7.46762   2.03662  10.18313   0.000006387369415  -0.000002055681656  -0.000000250134602
Si    7.46762   4.75212   7.46762   0.000001966226683   0.000001037013212  -0.000002559779356
Si    6.10987   0.67887  11.54087   0.000003408110233   0.000000087219221  -0.000000425919078
Si    8.82537   0.67887  14.25638   0.000001469658043   0.000000138254015   0.000001037227466
Si    6.10987   3.39437  14.25638   0.000002001055446  -0.000002940960806   0.000001110817394
Si    8.82537   3.39437  11.54087  -0.000003444597049   0.000000147535587   0.000003858761755
Si   10.18313   2.03662  12.89862   0.000003473976357  -0.000000043495126   0.000000471323790
Si   10.18313   4.75212  15.61413  -0.000000184499435  -0.000002349807611   0.000002208932912
Si    7.46762   2.03662  15.61413  -0.000001467980735   0.000001687574854   0.000006324326667
Si    7.46762   4.75212  12.89862  -0.000000432171976   0.000001130709164   0.000001687263697
Si    6.10987   6.10987   0.67888   0.000003857317857   0.000003857441865  -0.000000005580158
Si    8.82537   6.10987   3.39437   0.000008578517552   0.000001191445095  -0.000000040067781
Si    6.10987   8.82537   3.39437   0.000001191396241   0.000008578477949  -0.000000040008289
Si    8.82537   8.82537   0.67888   0.000004665262864   0.000004665241376  -0.000003516818838
Si   10.18313   7.46762   2.03662  -0.000007110832769  -0.000002472989835  -0.000000440817920
Si   10.18313  10.18313   4.75213  -0.000001483579628  -0.000001483760796   0.000001029752272
Si    7.46762   7.46762   4.75213  -0.000003672686706  -0.000003672520771   0.000006753192067
Si    7.46762  10.18313   2.03662  -0.000002473094174  -0.000007110867370  -0.000000440825259
Si    6.10987   6.10987   6.10987  -0.000004832712887  -0.000004832513345   0.000001363597656
Si    8.82537   6.10987   8.82537   0.000007651028456  -0.000000066051544   0.000000790491145
Si    6.10987   8.82537   8.82537  -0.000000066328316   0.000007651001512   0.000000790771262
Si    8.82537   8.82537   6.10987   0.000001977087804   0.000001977074671   0.000000890665810
Si   10.18313   7.46762   7.46762   0.000001813851524   0.000006325686825   0.000005756599369
Si   10.18313  10.18313  10.18313  -0.000001979680996  -0.000001979943553  -0.000001682483050
Si    7.46762   7.46762  10.18313  -0.000005644099223  -0.000005643813392   0.000000362027697
Si    7.46762  10.18313   7.46762   0.000006325589108   0.000001813868937   0.000005756574041
Si    6.10987   6.10987  11.54087   0.000002339349263   0.000002339677111  -0.000002180560598
Si    8.82537   6.10987  14.25638  -0.000005182160850   0.000001549646866  -0.000000901755735
Si    6.10987   8.82537  14.25638   0.000001549468540  -0.000005182218999  -0.000000901942683
Si    8.82537   8.82537  11.54087   0.000004016725404   0.000004016730379   0.000003474572426
Si   10.18313   7.46762  12.89862   0.000000633412934   0.000007341084422  -0.000004960673789
Si   10.18313  10.18313  15.61413  -0.000000711039297  -0.000000711138629  -0.000001295511153
Si    7.46762   7.46762  15.61413  -0.000003715437058  -0.000003715350598  -0.000006872513341
Si    7.46762  10.18313  12.89862   0.000007340867882   0.000000633406398  -0.000004960703648
Si    6.10987  11.54087   0.67888  -0.000005767383273   0.000005756981658  -0.000003143634107
Si    8.82537  11.54087   3.39437   0.000001981296747   0.000001510030915   0.000000920556282
Si    6.10987  14.25638   3.39437  -0.000002675836115  -0.000001432483167   0.000005881455566
Si    8.82537  14.25638   0.67888  -0.000000871591935  -0.000001692678687  -0.000002179532765
Si   10.18313  12.89862   2.03662   0.000000763397906  -0.000002178989348  -0.000000870265789
Si   10.18313  15.61413   4.75213  -0.000008468215174   0.000003922990261  -0.000003034640049
Si    7.46762  12.89862   4.75213   0.000001605610683   0.000000756186743  -0.000001765000705
Si    7.46762  15.61413   2.03662  -0.000005439933525  -0.000001761402847  -0.000000042104973
Si    6.10987  11.54087   6.10987   0.000002271342977  -0.000003799855365  -0.000001302965538
Si    8.82537  11.54087   8.82537   0.000001406706275   0.000002892279021  -0.000001136596781
Si    6.10987  14.25638   8.82537  -0.000002345425500  -0.000002605807251  -0.000006273550162
Si    8.82537  14.25638   6.10987   0.000001041657648   0.000002757520297  -0.000000665177284
Si   10.18313  12.89862   7.46762  -0.000002892398052  -0.000001406757783   0.000001136459879
Si   10.18313  15.61413  10.18313   0.000003799873044  -0.000002271489242   0.000001303022287
Si    7.46762  12.89862  10.18313  -0.000002757681113  -0.000001041780087   0.000000665214470
Si    7.46762  15.61413   7.46762   0.000002605720979   0.000002345313902   0.000006273464824
Si    6.10987  11.54087  11.54087  -0.000003923343984   0.000008467993063   0.000003034615571
Si    8.82537  11.54087  14.25638   0.000002178868224  -0.000000763425756   0.000000870401291
Si    6.10987  14.25638  14.25638   0.000001761292099   0.000005440019457   0.000000041961151
Si    8.82537  14.25638  11.54087  -0.000000756326127  -0.000001605776348   0.000001765143759
Si   10.18313  12.89862  12.89862  -0.000001510010680  -0.000001981413112  -0.000000920645798
Si   10.18313  15.61413  15.61413  -0.000005757220758   0.000005767289937   0.000003143593562
Si    7.46762  12.89862  15.61413   0.000001692658249   0.000000871509196   0.000002179443460
Si    7.46762  15.61413  12.89862   0.000001432154950   0.000002675740235  -0.000005881249915
Si    6.10987  16.97188   0.67888   0.000001195447511  -0.000000379310562  -0.000005218772621
Si    8.82537  16.97188   3.39437   0.000000590764516   0.000004182861265  -0.000000849737588
Si    6.10987  19.68738   3.39437   0.000002727885896   0.000002713269915   0.000000527319713
Si    8.82537  19.68738   0.67888  -0.000000262273445   0.000007775029691   0.000000071772879
Si   10.18313  18.32963   2.03662   0.000003175416218  -0.000003808573717   0.000001515840819
Si   10.18313  21.04512   4.75213  -0.000002713041154   0.000006353357270  -0.000004752445388
Si    7.46762  18.32963   4.75213  -0.000000430361998   0.000000236144116  -0.000003145048622
Si    7.46762  21.04512   2.03662   0.000004248452052  -0.000003955962635  -0.000000324222264
Si    6.10987  16.97188   6.10987   0.000001764560546  -0.000007656255854  -0.000000133394390
Si    8.82537  16.97188   8.82537   0.000002011655855   0.000006277807623   0.000002876122544
Si    6.10987  19.68738   8.82537   0.000002365661760   0.000002784951437   0.000000309714241
Si    8.82537  19.68738   6.10987  -0.000005474556604   0.000004024170781  -0.000000748434160
Si   10.18313  18.32963   7.46762   0.000001779451108  -0.000005881625424  -0.000002226020806
Si   10.18313  21.04512  10.18313   0.000003518267059  -0.000001991009961  -0.000000137558532
Si    7.46762  18.32963  10.18313  -0.000005928905191  -0.000007351830446   0.000000202174759
Si    7.46762  21.04512   7.46762  -0.000001260874125   0.000003222413649   0.000005794585025
Si    6.10987  16.97188  11.54087  -0.000000812758600   0.000001424366058   0.000003373989017
Si    8.82537  16.97188  14.25638  -0.000001157763057   0.000000234641292  -0.000000300685068
Si    6.10987  19.68738  14.25638   0.000003982519605  -0.000001510091452   0.000000588890496
Si    8.82537  19.68738  11.54087   0.000000563523499   0.000005669447580  -0.000000869088471
Si   10.18313  18.32963  12.89862   0.000002288961271  -0.000005332140413   0.000003078782961
Si   10.18313  21.04512  15.61413  -0.000006111770830   0.000006918817320   0.000003361552676
Si    7.46762  18.32963  15.61413  -0.000000518324464   0.000000329823839   0.000002631695295
Si    7.46762  21.04512  12.89862  -0.000000711712733   0.000002155356865  -0.000005544065471
Si   11.54087   0.67887   0.67888   0.000006111953181  -0.000006918707880  -0.000003361679596
Si   14.25638   0.67887   3.39437   0.000000711536851  -0.000002155210059   0.000005543852778
Si   11.54087   3.39437   3.39437  -0.000002288831699   0.000005332259811  -0.000003078771527
Si   14.25638   3.39437   0.67888   0.000000518140664  -0.000000330028876  -0.000002631857110
Si   15.61413   2.03662   2.03662  -0.000003982698086   0.000001509965500  -0.000000589012568
Si   15.61413   4.75212   4.75213   0.000000812489146  -0.000001424607579  -0.000003373834113
Si   12.89862   2.03662   4.75213  -0.000000563680178  -0.000005669177827   0.000000869018627
Si   12.89862   4.75212   2.03662   0.000001157497820  -0.000000234721588   0.000000300811501
Si   11.54087   0.67887   6.10987  -0.000003518274498   0.000001991215056   0.000000137690499
Si   14.25638   0.67887   8.82537   0.000001260991290  -0.000003222505422  -0.000005794472874
Si   11.54087   3.39437   8.82537  -0.000001779361498   0.000005881792999   0.000002225961531
Si   14.25638   3.39437   6.10987   0.000005928806267   0.000007352035914  -0.000000202136187
Si   15.61413   2.03662   7.46762  -0.000002365502013  -0.000002784935957  -0.000000309476675
Si   15.61413   4.75212  10.18313  -0.000001764669854   0.000007656132677   0.000000133432405
Si   12.89862   2.03662  10.18313   0.000005474588182  -0.000004024171226   0.000000748635841
Si   12.89862   4.75212   7.46762  -0.000002011721275  -0.000006277793809  -0.000002876065470
Si   11.54087   0.67887  11.54087   0.000002713155414  -0.000006353252777   0.000004752461518
Si   14.25638   0.67887  14.25638  -0.000004248405754   0.000003955958475   0.000000324040036
Si   11.54087   3.39437  14.25638  -0.000003175243547   0.000003808549130  -0.000001515712241
Si   14.25638   3.39437  11.54087   0.000000430361910  -0.000000236071716   0.000003145092650
Si   15.61413   2.03662  12.89862  -0.000002727948036  -0.000002713241888  -0.000000527472660
Si   15.61413   4.75212  15.61413  -0.000001195649909   0.000000379260744   0.000005218416136
Si   12.89862   2.03662  15.61413   0.000000262184867  -0.000007774844208  -0.000000071853201
Si   12.89862   4.75212  12.89862  -0.000000590604845  -0.000004182949156   0.000000849753031
Si   11.54087   6.10987   0.67888   0.000005757123399  -0.000005767422971  -0.000003143726482
Si   14.25638   6.10987   3.39437  -0.000001432526390  -0.000002675824720   0.000005881441986
Si   11.54087   8.82537   3.39437   0.000001509910829   0.000001981233459   0.000000920722717
Si   14.25638   8.82537   0.67888  -0.000001692652101  -0.000000871366955  -0.000002179537553
Si   15.61413   7.46762   2.03662  -0.000001761458444  -0.000005439768549  -0.000000042160451
Si   15.61413  10.18313   4.75213   0.000003922990480  -0.000008468184230  -0.000003034490178
Si   12.89862   7.46762   4.75213   0.000000756101209   0.000001605730845  -0.000001765132889
Si   12.89862  10.18313   2.03662  -0.000002178805970   0.000000763555226  -0.000000870490642
Si   11.54087   6.10987   6.10987  -0.000003799884879   0.000002271327131  -0.000001303018164
Si   14.25638   6.10987   8.82537  -0.000002605722233  -0.000002345380872  -0.000006273294108
Si   11.54087   8.82537   8.82537   0.000002892363533   0.000001406749149  -0.000001136422837
Si   14.25638   8.82537   6.10987   0.000002757558387   0.000001041892235  -0.000000665016888
Si   15.61413   7.46762   7.46762   0.000002345248910   0.000002605843651   0.000006273730122
Si   15.61413  10.18313  10.18313  -0.000002271531228   0.000003799880300   0.000001303109333
Si   12.89862   7.46762  10.18313  -0.000001041596904  -0.000002757628114   0.000000665275062
Si   12.89862  10.18313   7.46762  -0.000001406605052  -0.000002892345620   0.000001136583098
Si   11.54087   6.10987  11.54087   0.000008468412186  -0.000003923021537   0.000003034512555
Si   14.25638   6.10987  14.25638   0.000005439938291   0.000001761311197   0.000000041909154
Si   11.54087   8.82537  14.25638  -0.000000763409491   0.000002178828104   0.000000870500886
Si   14.25638   8.82537  11.54087  -0.000001605649322  -0.000000756183746   0.000001765097400
Si   15.61413   7.46762  12.89862   0.000002675680407   0.000001432382400  -0.000005881450018
Si   15.61413  10.18313  15.61413   0.000005767204396  -0.000005756979092   0.000003143501614
Si   12.89862   7.46762  15.61413   0.000000871555479   0.000001692638343   0.000002179296979
Si   12.89862  10.18313  12.89862  -0.000001981002908  -0.000001509916150  -0.000000920808332
Si   11.54087  11.54087   0.67888   0.000000711088463   0.000000710901737   0.000001295575306
Si   14.25638  11.54087   3.39437  -0.000007341191620  -0.000000633471527   0.000004960670284
Si   11.54087  14.25638   3.39437  -0.000000633465105  -0.000007341204708   0.000004960757077
Si   14.25638  14.25638   0.67888   0.000003715543184   0.000003715357193   0.000006872314075
Si   15.61413  12.89862   2.03662  -0.000001549469721   0.000005182204725   0.000000901694249
Si   15.61413  15.61413   4.75213  -0.000002339539106  -0.000002339560028   0.000002180494168
Si   12.89862  12.89862   4.75213  -0.000004016878126  -0.000004016861629  -0.000003474653969
Si   12.89862  15.61413   2.03662   0.000005182400666  -0.000001549486199   0.000000901849773
Si   11.54087  11.54087   6.10987   0.000001979879555   0.000001979778861   0.000001682330463
Si   14.25638  11.54087   8.82537  -0.000006325685184  -0.000001813917642  -0.000005756454164
Si   11.54087  14.25638   8.82537  -0.000001813766328  -0.000006325737997  -0.000005756561134
Si   14.25638  14.25638   6.10987   0.000005644015407   0.000005643877343  -0.000000361974070
Si   15.61413  12.89862   7.46762   0.000000066184078  -0.000007651006381  -0.000000790538916
Si   15.61413  15.61413  10.18313   0.000004832641846   0.000004832550373  -0.000001363648583
Si   12.89862  12.89862  10.18313  -0.000001976816193  -0.000001977215951  -0.000000890565464
Si   12.89862  15.61413   7.46762  -0.000007650876178   0.000000066075272  -0.000000790534476
Si   11.54087  11.54087  11.54087   0.000001483968627   0.000001483631186  -0.000001029686588
Si   14.25638  11.54087  14.25638   0.000002473205131   0.000007110863736   0.000000440780636
Si   11.54087  14.25638  14.25638   0.000007111018487   0.000002473044095   0.000000440876505
Si   14.25638  14.25638  11.54087   0.000003672716744   0.000003672429603  -0.000006753229481
Si   15.61413  12.89862  12.89862  -0.000001191400749  -0.000008578593244   0.000000040055266
Si   15.61413  15.61413  15.61413  -0.000003857356365  -0.000003857462100   0.000000005548267
Si   12.89862  12.89862  15.61413  -0.000004665064283  -0.000004665315142   0.000003516671974
Si   12.89862  15.61413  12.89862  -0.000008578405539  -0.000001191431636   0.000000040019215
Si   11.54087  16.97188   0.67888   0.000000184892413   0.000002349927671  -0.000002208994588
Si   14.25638  16.97188   3.39437   0.000000432063732  -0.000001130886637  -0.000001687375462
Si   11.54087  19.68738   3.39437  -0.000003473829279   0.000000043378201  -0.000000471336416
Si   14.25638  19.68738   0.67888   0.000001467856322  -0.000001687696334  -0.000006324573061
Si   15.61413  18.32963   2.03662  -0.000002001324959   0.000002940799428  -0.000001111101875
Si   15.61413  21.04512   4.75213  -0.000003408032423  -0.000000087182529   0.000000426192364
Si   12.89862  18.32963   4.75213   0.000003444518353  -0.000000147708365  -0.000003858765126
Si   12.89862  21.04512   2.03662  -0.000001469638371  -0.000000138103258  -0.000001037421484
Si   11.54087  16.97188   6.10987  -0.000002671505118  -0.000001848482855  -0.000000921019993
Si   14.25638  16.97188   8.82537  -0.000001966013932  -0.000001036866219   0.000002559795610
Si   11.54087  19.68738   8.82537  -0.000002696016657   0.000001911018447  -0.000001633419882
Si   14.25638  19.68738   6.10987  -0.000006387214604   0.000002055714323   0.000000250454477
Si   15.61413  18.32963   7.46762   0.000005288425655  -0.000007203753937   0.000002220032070
Si   15.61413  21.04512  10.18313   0.000001036434388   0.000001361118241   0.000000510798654
Si   12.89862  18.32963  10.18313  -0.000004613119506  -0.000000596504004   0.000000323214619
Si   12.89862  21.04512   7.46762  -0.000001437470420   0.000000023494556  -0.000002425919248
Si   11.54087  16.97188  11.54087   0.000001001443777   0.000002105738917   0.000003115649407
Si   14.25638  16.97188  14.25638  -0.000002568649895  -0.000002006324767  -0.000000596094024
Si   11.54087  19.68738  14.25638  -0.000001262347328  -0.000002104153780   0.000000436769603
Si   14.25638  19.68738  11.54087   0.000000697124023  -0.000003414869614   0.000006810141956
Si   15.61413  18.32963  12.89862   0.000005763645402  -0.000005635536189  -0.000003492768375
Si   15.61413  21.04512  15.61413  -0.000001620218530  -0.000003189204457  -0.000002413196404
Si   12.89862  18.32963  15.61413   0.000003965302619   0.000001991046297   0.000004818250153
Si   12.89862  21.04512  12.89862  -0.000001326826384  -0.000002211624405   0.000002615686442
Si   16.97188   0.67887   0.67888   0.000002485681099  -0.000000757943404  -0.000004554499232
Si   19.68738   0.67887   3.39437   0.000002868578127   0.000003155124879   0.000001081898555
Si   16.97188   3.39437   3.39437   0.000002276573540   0.000002559740136   0.000002444360812
Si   19.68738   3.39437   0.67888  -0.000005992331157  -0.000007102061846  -0.000001180655011
Si   21.04512   2.03662   2.03662   0.000000878540473   0.000002171642972   0.000000234061838
Si   21.04512   4.75212   4.75213   0.000000426854623  -0.000001915135373  -0.000003552583447
Si   18.32963   2.03662   4.75213   0.000007183776295   0.000004586599586  -0.000003018214452
Si   18.32963   4.75212   2.03662  -0.000000749903164  -0.000000875068710  -0.000000968077026
Si   16.97188   0.67887   6.10987  -0.000010277513930  -0.000003479987102   0.000000545144156
Si   19.68738   0.67887   8.82537   0.000001222932019   0.000004851896651  -0.000001542055956
Si   16.97188   3.39437   8.82537   0.000002559824243   0.000002904921793  -0.000002081350911
Si   19.68738   3.39437   6.10987  -0.000001075746431   0.000002046367599  -0.000000627891602
Si   21.04512   2.03662   7.46762  -0.000004851951307  -0.000001223106358   0.000001542178714
Si   21.04512   4.75212  10.18313   0.000003479880974   0.000010277321294  -0.000000545045073
Si   18.32963   2.03662  10.18313  -0.000002046734946   0.000001075675826   0.000000627844247
Si   18.32963   4.75212   7.46762  -0.000002905247764  -0.000002560096860   0.000002081489869
Si   16.97188   0.67887  11.54087   0.000001914942243  -0.000000426748470   0.000003552666039
Si   19.68738   0.67887  14.25638  -0.000002171765245  -0.000000878703879  -0.000000234060243
Si   16.97188   3.39437  14.25638   0.000000874765809   0.000000749879478   0.000000968029940
Si   19.68738   3.39437  11.54087  -0.000004586864748  -0.000007184024611   0.000003018149657
Si   21.04512   2.03662  12.89862  -0.000003155067210  -0.000002868757547  -0.000001081863277
Si   21.04512   4.75212  15.61413   0.000000758100294  -0.000002485590990   0.000004554501074
Si   18.32963   2.03662  15.61413   0.000007101796488   0.000005992131621   0.000001180788865
Si   18.32963   4.75212  12.89862  -0.000002560195720  -0.000002276623553  -0.000002444383520
Si   16.97188   6.10987   0.67888  -0.000000379336103   0.000001195547074  -0.000005218746927
Si   19.68738   6.10987   3.39437   0.000002713137793   0.000002727856081   0.000000527379215
Si   16.97188   8.82537   3.39437   0.000004182962329   0.000000590942574  -0.000000849838163
Si   19.68738   8.82537   0.67888   0.000007775009802  -0.000000262242527   0.000000071776516
Si   21.04512   7.46762   2.03662  -0.000003955981746   0.000004248602126  -0.000000324378265
Si   21.04512  10.18313   4.75213   0.000006353407565  -0.000002712835874  -0.000004752432935
Si   18.32963   7.46762   4.75213   0.000000236136357  -0.000000430249308  -0.000003145129735
Si   18.32963  10.18313   2.03662  -0.000003808697113   0.000003175458269   0.000001515830043
Si   16.97188   6.10987   6.10987  -0.000007656309547   0.000001764452277  -0.000000133304916
Si   19.68738   6.10987   8.82537   0.000002784701847   0.000002365765057   0.000000309748060
Si   16.97188   8.82537   8.82537   0.000006277565336   0.000002011812428   0.000002876165634
Si   19.68738   8.82537   6.10987   0.000004024239679  -0.000005474326347  -0.000000748341794
Si   21.04512   7.46762   7.46762   0.000003222423456  -0.000001260558974   0.000005794537062
Si   21.04512  10.18313  10.18313  -0.000001991025862   0.000003518439752  -0.000000137688088
Si   18.32963   7.46762  10.18313  -0.000007352047291  -0.000005928745101   0.000000202222086
Si   18.32963  10.18313   7.46762  -0.000005881696430   0.000001779625686  -0.000002225900776
Si   16.97188   6.10987  11.54087   0.000001424177146  -0.000000812598244   0.000003373941825
Si   19.68738   6.10987  14.25638  -0.000001510115920   0.000003982846109   0.000000589011631
Si   16.97188   8.82537  14.25638   0.000000234500251  -0.000001157477602  -0.000000301064396
Si   19.68738   8.82537  11.54087   0.000005669226132   0.000000563721198  -0.000000869007677
Si   21.04512   7.46762  12.89862   0.000002155336142  -0.000000711347084  -0.000005543931820
Si   21.04512  10.18313  15.61413   0.000006918882459  -0.000006111805716   0.000003361445781
Si   18.32963   7.46762  15.61413   0.000000329928126  -0.000000518215236   0.000002631766765
Si   18.32963  10.18313  12.89862  -0.000005332415970   0.000002288914483   0.000003078706536
Si   16.97188  11.54087   0.67888   0.000002349682620   0.000000184855947  -0.000002209056429
Si   19.68738  11.54087   3.39437   0.000000043454282  -0.000003473816375  -0.000000471283251
Si   16.97188  14.25638   3.39437  -0.000001130795583   0.000000432006426  -0.000001687297141
Si   19.68738  14.25638   0.67888  -0.000001687668027   0.000001467719758  -0.000006324334613
Si   21.04512  12.89862   2.03662  -0.000000138160528  -0.000001469608605  -0.000001037249642
Si   21.04512  15.61413   4.75213  -0.000000087349161  -0.000003408251872   0.000000426007576
Si   18.32963  12.89862   4.75213  -0.000000147682520   0.000003444526219  -0.000003858691704
Si   18.32963  15.61413   2.03662   0.000002940781339  -0.000002001445033  -0.000001110898319
Si   16.97188  11.54087   6.10987  -0.000001848487841  -0.000002671465070  -0.000000920886965
Si   19.68738  11.54087   8.82537   0.000001910994001  -0.000002696182786  -0.000001633518105
Si   16.97188  14.25638   8.82537  -0.000001037039230  -0.000001966193081   0.000002559851201
Si   19.68738  14.25638   6.10987   0.000002055506391  -0.000006387452697   0.000000250254542
Si   21.04512  12.89862   7.46762   0.000000023474257  -0.000001437883861  -0.000002426000682
Si   21.04512  15.61413  10.18313   0.000001361216221   0.000001036383332   0.000000510928541
Si   18.32963  12.89862  10.18313  -0.000000596609777  -0.000004613380269   0.000000323199103
Si   18.32963  15.61413   7.46762  -0.000007203958749   0.000005288503984   0.000002219786517
Si   16.97188  11.54087  11.54087   0.000002105485287   0.000001001163663   0.000003115615954
Si   19.68738  11.54087  14.25638  -0.000002104177102  -0.000001262497978   0.000000436735253
Si   16.97188  14.25638  14.25638  -0.000002006629516  -0.000002568899003  -0.000000596057687
Si   19.68738  14.25638  11.54087  -0.000003415020514   0.000000696877229   0.000006809955671
Si   21.04512  12.89862  12.89862  -0.000002211599020  -0.000001327359605   0.000002615679532
Si   21.04512  15.61413  15.61413  -0.000003189087565  -0.000001620296348  -0.000002413066000
Si   18.32963  12.89862  15.61413   0.000001990796909   0.000003965109605   0.000004818167112
Si   18.32963  15.61413  12.89862  -0.000005635833694   0.000005763633327  -0.000003492819692
Si   16.97188  16.97188   0.67888   0.000001375596577   0.000001375915693  -0.000004813868150
Si   19.68738  16.97188   3.39437   0.000000118309952  -0.000000209803890   0.000000884391381
Si   16.97188  19.68738   3.39437  -0.000000209740181   0.000000118598732   0.000000884324844
Si   19.68738  19.68738   0.67888  -0.000000043428904  -0.000000043262490  -0.000002439128655
Si   21.04512  18.32963   2.03662  -0.000007078933110   0.000000392855159   0.000000029557880
Si   21.04512  21.04512   4.75213  -0.000003757411342  -0.000003757261709  -0.000005236239694
Si   18.32963  18.32963   4.75213  -0.000002718402643  -0.000002718482686  -0.000005987887396
Si   18.32963  21.04512   2.03662   0.000000392651366  -0.000007078744856   0.000000029562239
Si   16.97188  16.97188   6.10987   0.000000895807341   0.000000895628310  -0.000001254512689
Si   19.68738  16.97188   8.82537   0.000000900009175  -0.000001267499119  -0.000001363892350
Si   16.97188  19.68738   8.82537  -0.000001267679790   0.000000900350563  -0.000001363801798
Si   19.68738  19.68738   6.10987  -0.000000066704385  -0.000000066546483  -0.000000225215177
Si   21.04512  18.32963   7.46762   0.000005114958360   0.000002759371657   0.000009135659167
Si   21.04512  21.04512  10.18313   0.000004898934101   0.000004899025340  -0.000000333538493
Si   18.32963  18.32963  10.18313   0.000004153274087   0.000004153496470  -0.000000193887880
Si   18.32963  21.04512   7.46762   0.000002759089054   0.000005115052653   0.000009135630045
Si   16.97188  16.97188  11.54087   0.000002021770182   0.000002021864244   0.000003168209936
Si   19.68738  16.97188  14.25638  -0.000000377678136   0.000000011551391   0.000000870967403
Si   16.97188  19.68738  14.25638   0.000000011339266  -0.000000377582826   0.000000870941366
Si   19.68738  19.68738  11.54087   0.000002167539283   0.000002167607885   0.000003637041447
Si   21.04512  18.32963  12.89862   0.000005614885339   0.000002077182145  -0.000007892311134
Si   21.04512  21.04512  15.61413  -0.000003780049318  -0.000003779914313   0.000004943388610
Si   18.32963  18.32963  15.61413  -0.000002232375670  -0.000002232144675   0.000005445491428
Si   18.32963  21.04512  12.89862   0.000002076945099   0.000005614891985  -0.000007892241167
