CRYSTAL
PRIMVEC
  10.862000   0.000000   0.000000
   0.000000  10.862000   0.000000
   0.000000   0.000000  10.862000
PRIMCOORD
  64 1
Si     6.789E-01     6.789E-01     6.789E-01     3.019E-15     0.000E+00     1.849E-31
Si     3.394E+00     6.789E-01     3.394E+00     2.884E-15     0.000E+00     1.766E-31
Si     6.789E-01     3.394E+00     3.394E+00     4.273E-15     0.000E+00     2.617E-31
Si     3.394E+00     3.394E+00     6.789E-01     7.371E-15     0.000E+00     4.513E-31
Si     4.752E+00     2.037E+00     2.037E+00     1.459E-15     0.000E+00     8.935E-32
Si     4.752E+00     4.752E+00     4.752E+00     4.784E-15     0.000E+00     2.929E-31
Si     2.037E+00     2.037E+00     4.752E+00     6.063E-15     0.000E+00     3.712E-31
Si     2.037E+00     4.752E+00     2.037E+00     2.980E-15     0.000E+00     1.825E-31
Si     6.789E-01     6.789E-01     6.110E+00     5.848E-15     0.000E+00     3.581E-31
Si     3.394E+00     6.789E-01     8.825E+00     5.292E-15     0.000E+00     3.241E-31
Si     6.789E-01     3.394E+00     8.825E+00     3.544E-15     0.000E+00     2.170E-31
Si     3.394E+00     3.394E+00     6.110E+00     2.175E-15     0.000E+00     1.332E-31
Si     4.752E+00     2.037E+00     7.468E+00     4.495E-15     0.000E+00     2.752E-31
Si     4.752E+00     4.752E+00     1.018E+01     8.207E-15     0.000E+00     5.025E-31
Si     2.037E+00     2.037E+00     1.018E+01     4.563E-15     0.000E+00     2.794E-31
Si     2.037E+00     4.752E+00     7.468E+00     7.407E-15     0.000E+00     4.536E-31
Si     6.789E-01     6.110E+00     6.789E-01     4.155E-15     0.000E+00     2.544E-31
Si     3.394E+00     6.110E+00     3.394E+00     5.079E-15     0.000E+00     3.110E-31
Si     6.789E-01     8.825E+00     3.394E+00     1.868E-15     0.000E+00     1.144E-31
Si     3.394E+00     8.825E+00     6.789E-01     3.764E-15     0.000E+00     2.305E-31
Si     4.752E+00     7.468E+00     2.037E+00     3.127E-15     0.000E+00     1.915E-31
Si     4.752E+00     1.018E+01     4.752E+00     6.977E-15     0.000E+00     4.272E-31
Si     2.037E+00     7.468E+00     4.752E+00     9.687E-16     0.000E+00     5.932E-32
Si     2.037E+00     1.018E+01     2.037E+00     1.741E-15     0.000E+00     1.066E-31
Si     6.789E-01     6.110E+00     6.110E+00     4.610E-15     0.000E+00     2.823E-31
Si     3.394E+00     6.110E+00     8.825E+00     4.292E-15     0.000E+00     2.628E-31
Si     6.789E-01     8.825E+00     8.825E+00     5.115E-15     0.000E+00     3.132E-31
Si     3.394E+00     8.825E+00     6.110E+00     5.276E-15     0.000E+00     3.231E-31
Si     4.752E+00     7.468E+00     7.468E+00     8.424E-15     0.000E+00     5.158E-31
Si     4.752E+00     1.018E+01     1.018E+01     2.263E-15     0.000E+00     1.385E-31
Si     2.037E+00     7.468E+00     1.018E+01     6.926E-15     0.000E+00     4.241E-31
Si     2.037E+00     1.018E+01     7.468E+00     1.405E-15     0.000E+00     8.604E-32
Si     6.110E+00     6.789E-01     6.789E-01     2.574E-15     0.000E+00     1.576E-31
Si     8.825E+00     6.789E-01     3.394E+00     4.527E-15     0.000E+00     2.772E-31
Si     6.110E+00     3.394E+00     3.394E+00     4.057E-15     0.000E+00     2.484E-31
Si     8.825E+00     3.394E+00     6.789E-01     3.077E-15     0.000E+00     1.884E-31
Si     1.018E+01     2.037E+00     2.037E+00     6.011E-15     0.000E+00     3.680E-31
Si     1.018E+01     4.752E+00     4.752E+00     1.192E-15     0.000E+00     7.298E-32
Si     7.468E+00     2.037E+00     4.752E+00     6.133E-15     0.000E+00     3.755E-31
Si     7.468E+00     4.752E+00     2.037E+00     5.471E-15     0.000E+00     3.350E-31
Si     6.110E+00     6.789E-01     6.110E+00     6.526E-15     0.000E+00     3.996E-31
Si     8.825E+00     6.789E-01     8.825E+00     4.103E-15     0.000E+00     2.512E-31
Si     6.110E+00     3.394E+00     8.825E+00     7.014E-15     0.000E+00     4.295E-31
Si     8.825E+00     3.394E+00     6.110E+00     5.064E-15     0.000E+00     3.101E-31
Si     1.018E+01     2.037E+00     7.468E+00     5.058E-15     0.000E+00     3.097E-31
Si     1.018E+01     4.752E+00     1.018E+01     6.453E-15     0.000E+00     3.951E-31
Si     7.468E+00     2.037E+00     1.018E+01     4.295E-15     0.000E+00     2.630E-31
Si     7.468E+00     4.752E+00     7.468E+00     4.163E-15     0.000E+00     2.549E-31
Si     6.110E+00     6.110E+00     6.789E-01     4.962E-15     0.000E+00     3.038E-31
Si     8.825E+00     6.110E+00     3.394E+00     3.610E-15     0.000E+00     2.210E-31
Si     6.110E+00     8.825E+00     3.394E+00     4.108E-15     0.000E+00     2.516E-31
Si     8.825E+00     8.825E+00     6.789E-01     4.740E-15     0.000E+00     2.902E-31
Si     1.018E+01     7.468E+00     2.037E+00     6.705E-15     0.000E+00     4.105E-31
Si     1.018E+01     1.018E+01     4.752E+00     2.712E-15     0.000E+00     1.661E-31
Si     7.468E+00     7.468E+00     4.752E+00     4.545E-15     0.000E+00     2.783E-31
Si     7.468E+00     1.018E+01     2.037E+00     5.479E-15     0.000E+00     3.355E-31
Si     6.110E+00     6.110E+00     6.110E+00     4.300E-15     0.000E+00     2.633E-31
Si     8.825E+00     6.110E+00     8.825E+00     4.444E-15     0.000E+00     2.721E-31
Si     6.110E+00     8.825E+00     8.825E+00     2.628E-15     0.000E+00     1.609E-31
Si     8.825E+00     8.825E+00     6.110E+00     3.517E-15     0.000E+00     2.153E-31
Si     1.018E+01     7.468E+00     7.468E+00     5.238E-15     0.000E+00     3.207E-31
Si     1.018E+01     1.018E+01     1.018E+01     2.523E-15     0.000E+00     1.545E-31
Si     7.468E+00     7.468E+00     1.018E+01     3.531E-15     0.000E+00     2.162E-31
Si     7.468E+00     1.018E+01     7.468E+00     3.514E-15     0.000E+00     2.152E-31
