216 

Si    0.67888   0.67888   0.67888   0.000009230646862   0.000009230647511   0.000009212808042
Si    3.39437   0.67888   3.39437  -0.000009230649208   0.000009230641428  -0.000009212832560
Si    0.67888   3.39437   3.39437   0.000009230662973  -0.000009230632477  -0.000009212843220
Si    3.39437   3.39437   0.67888  -0.000009230632118  -0.000009230650467   0.000009212839037
Si    4.75213   2.03662   2.03662   0.000007339824543  -0.000000000002117   0.000000000006022
Si    4.75213   4.75213   4.75213   0.000008381563253   0.000008381578118   0.000008385441635
Si    2.03662   2.03662   4.75213  -0.000000000000581  -0.000000000002003   0.000007347286997
Si    2.03662   4.75213   2.03662   0.000000000001005   0.000007339821840   0.000000000011260
Si    0.67888   0.67888   6.10987   0.000003092499041   0.000003092522702   0.000000875626619
Si    3.39437   0.67888   8.82538  -0.000008381546655   0.000008381535560   0.000008385493283
Si    0.67888   3.39437   8.82538   0.000008381560952  -0.000008381574158   0.000008385474603
Si    3.39437   3.39437   6.10987  -0.000003092528039  -0.000003092547683   0.000000875665040
Si    4.75213   2.03662   7.46762   0.000003110683845   0.000000880692806  -0.000003106576453
Si    4.75213   4.75213  10.18313   0.000003092513694   0.000003092502385  -0.000000875656578
Si    2.03662   2.03662  10.18313   0.000000000004025   0.000000000022038  -0.000000000016214
Si    2.03662   4.75213   7.46762   0.000000880689533   0.000003110707476  -0.000003106543944
Si    0.67888   0.67888  11.54087   0.000008381573862   0.000008381553814  -0.000008385482806
Si    3.39437   0.67888  14.25638  -0.000003092523922   0.000003092498819  -0.000000875622963
Si    0.67888   3.39437  14.25638   0.000003092516720  -0.000003092519957  -0.000000875644380
Si    3.39437   3.39437  11.54087  -0.000008381562022  -0.000008381552267  -0.000008385483225
Si    4.75213   2.03662  12.89863   0.000003110693909  -0.000000880638541   0.000003106570163
Si    4.75213   4.75213  15.61412   0.000009230640367   0.000009230660264  -0.000009212836702
Si    2.03662   2.03662  15.61412  -0.000000000013827  -0.000000000008986  -0.000007347263132
Si    2.03662   4.75213  12.89863  -0.000000880673590   0.000003110679653   0.000003106566464
Si    0.67888   6.10987   0.67888   0.000003110677135   0.000000880672347   0.000003106530825
Si    3.39437   6.10987   3.39437  -0.000003110687166   0.000000880641496  -0.000003106560357
Si    0.67888   8.82538   3.39437   0.000008381541868   0.000008381550014  -0.000008385461785
Si    3.39437   8.82538   0.67888  -0.000008381547439   0.000008381562977   0.000008385471801
Si    4.75213   7.46762   2.03662   0.000003092535308  -0.000003092515171   0.000000875664926
Si    4.75213  10.18313   4.75213   0.000003110697169  -0.000000880669480   0.000003106583509
Si    2.03662   7.46762   4.75213   0.000000880660144  -0.000003110669264   0.000003106561449
Si    2.03662  10.18313   2.03662   0.000000000013077  -0.000000000002320   0.000000000010470
Si    0.67888   6.10987   6.10987   0.000007339842812  -0.000000000002050   0.000000000016319
Si    3.39437   6.10987   8.82538  -0.000003110687162  -0.000000880655376   0.000003106553539
Si    0.67888   8.82538   8.82538   0.000009230656023   0.000009230651535   0.000009212840510
Si    3.39437   8.82538   6.10987  -0.000003092515827   0.000003092508904  -0.000000875632521
Si    4.75213   7.46762   7.46762   0.000008381560219  -0.000008381556731  -0.000008385480279
Si    4.75213  10.18313  10.18313   0.000007339829616   0.000000000003765  -0.000000000007735
Si    2.03662   7.46762  10.18313  -0.000000000011240  -0.000007339831593  -0.000000000021270
Si    2.03662  10.18313   7.46762   0.000000000016171   0.000000000007149  -0.000007347255446
Si    0.67888   6.10987  11.54087   0.000003110694536  -0.000000880692236  -0.000003106587253
Si    3.39437   6.10987  14.25638  -0.000007339836433   0.000000000002025   0.000000000001237
Si    0.67888   8.82538  14.25638   0.000003092528583   0.000003092524042   0.000000875632568
Si    3.39437   8.82538  11.54087  -0.000009230645783   0.000009230662087  -0.000009212807480
Si    4.75213   7.46762  12.89863   0.000009230652097  -0.000009230650315   0.000009212835416
Si    4.75213  10.18313  15.61412   0.000003110683107   0.000000880668924  -0.000003106572591
Si    2.03662   7.46762  15.61412  -0.000000880670657  -0.000003110702664  -0.000003106559717
Si    2.03662  10.18313  12.89863  -0.000000000008993  -0.000000000002621   0.000007347271024
Si    0.67888  11.54087   0.67888   0.000008381540473  -0.000008381548613   0.000008385440092
Si    3.39437  11.54087   3.39437  -0.000008381566023  -0.000008381538338  -0.000008385462477
Si    0.67888  14.25638   3.39437   0.000003110700333  -0.000000880664864  -0.000003106567366
Si    3.39437  14.25638   0.67888  -0.000003110704735  -0.000000880659512   0.000003106553311
Si    4.75213  12.89863   2.03662   0.000003092552702   0.000003092495732  -0.000000875645275
Si    4.75213  15.61412   4.75213   0.000009230655472  -0.000009230659335   0.000009212846110
Si    2.03662  12.89863   4.75213  -0.000000880685832   0.000003110701503   0.000003106548594
Si    2.03662  15.61412   2.03662   0.000000000005349  -0.000007339824407   0.000000000025793
Si    0.67888  11.54087   6.10987   0.000003092519414  -0.000003092497736  -0.000000875649688
Si    3.39437  11.54087   8.82538  -0.000009230652955  -0.000009230665584   0.000009212794047
Si    0.67888  14.25638   8.82538   0.000003110710099   0.000000880645781   0.000003106550725
Si    3.39437  14.25638   6.10987  -0.000007339837491   0.000000000008582   0.000000000005548
Si    4.75213  12.89863   7.46762   0.000009230654503   0.000009230638971  -0.000009212852050
Si    4.75213  15.61412  10.18313   0.000003092512237  -0.000003092503222   0.000000875646927
Si    2.03662  12.89863  10.18313  -0.000000000012302   0.000007339868300   0.000000000027226
Si    2.03662  15.61412   7.46762  -0.000000880660661  -0.000003110704467  -0.000003106554643
Si    0.67888  11.54087  11.54087   0.000009230634781  -0.000009230636702  -0.000009212815111
Si    3.39437  11.54087  14.25638  -0.000003092487694  -0.000003092526813   0.000000875643845
Si    0.67888  14.25638  14.25638   0.000007339843894  -0.000000000011260   0.000000000009325
Si    3.39437  14.25638  11.54087  -0.000003110693707   0.000000880664218  -0.000003106567741
Si    4.75213  12.89863  12.89863   0.000008381550999   0.000008381559784   0.000008385499663
Si    4.75213  15.61412  15.61412   0.000008381571595  -0.000008381558465  -0.000008385504958
Si    2.03662  12.89863  15.61412   0.000000880648244   0.000003110697555  -0.000003106548164
Si    2.03662  15.61412  12.89863   0.000000880661903  -0.000003110683727   0.000003106539837
Si    6.10987   0.67888   0.67888   0.000000880657603   0.000003110711160   0.000003106558710
Si    8.82538   0.67888   3.39437   0.000008381576529   0.000008381553031  -0.000008385458498
Si    6.10987   3.39437   3.39437   0.000000880682557  -0.000003110683390  -0.000003106537271
Si    8.82538   3.39437   0.67888   0.000008381581142  -0.000008381568136   0.000008385490207
Si   10.18313   2.03662   2.03662   0.000000000004628   0.000000000002971  -0.000000000000127
Si   10.18313   4.75213   4.75213  -0.000000880641585   0.000003110686316   0.000003106550430
Si    7.46762   2.03662   4.75213  -0.000003110682194   0.000000880676432   0.000003106548002
Si    7.46762   4.75213   2.03662  -0.000003092513276   0.000003092520430   0.000000875651025
Si    6.10987   0.67888   6.10987   0.000000000003431   0.000007339805366  -0.000000000018955
Si    8.82538   0.67888   8.82538   0.000009230646679   0.000009230650150   0.000009212833173
Si    6.10987   3.39437   8.82538  -0.000000880680485  -0.000003110693722   0.000003106567487
Si    8.82538   3.39437   6.10987   0.000003092510475  -0.000003092519273  -0.000000875638374
Si   10.18313   2.03662   7.46762  -0.000000000004445   0.000000000003467  -0.000007347297175
Si   10.18313   4.75213  10.18313   0.000000000008073   0.000007339848556   0.000000000023364
Si    7.46762   2.03662  10.18313  -0.000007339826440  -0.000000000011779  -0.000000000004140
Si    7.46762   4.75213   7.46762  -0.000008381555374   0.000008381579400  -0.000008385485415
Si    6.10987   0.67888  11.54087  -0.000000880656169   0.000003110670627  -0.000003106554740
Si    8.82538   0.67888  14.25638   0.000003092531201   0.000003092511415   0.000000875670530
Si    6.10987   3.39437  14.25638  -0.000000000016670  -0.000007339859508  -0.000000000013131
Si    8.82538   3.39437  11.54087   0.000009230660803  -0.000009230629362  -0.000009212822922
Si   10.18313   2.03662  12.89863   0.000000000013578   0.000000000011335   0.000007347247499
Si   10.18313   4.75213  15.61412   0.000000880650931   0.000003110696165  -0.000003106560280
Si    7.46762   2.03662  15.61412  -0.000003110690825  -0.000000880667514  -0.000003106555812
Si    7.46762   4.75213  12.89863  -0.000009230651445   0.000009230625410   0.000009212820787
Si    6.10987   6.10987   0.67888  -0.000000000003741   0.000000000005076   0.000007347274948
Si    8.82538   6.10987   3.39437   0.000003110675995  -0.000000880670401  -0.000003106553334
Si    6.10987   8.82538   3.39437  -0.000000880643397   0.000003110701758  -0.000003106570834
Si    8.82538   8.82538   0.67888   0.000009230648784   0.000009230659533   0.000009212826916
Si   10.18313   7.46762   2.03662  -0.000000000011605  -0.000007339835567   0.000000000004197
Si   10.18313  10.18313   4.75213   0.000000000000852   0.000000000010641   0.000007347280724
Si    7.46762   7.46762   4.75213  -0.000008381541803  -0.000008381564087   0.000008385471999
Si    7.46762  10.18313   2.03662  -0.000007339822984  -0.000000000019776  -0.000000000010071
Si    6.10987   6.10987   6.10987   0.000000000008838   0.000000000009216  -0.000000000000309
Si    8.82538   6.10987   8.82538   0.000003110674398   0.000000880656345   0.000003106539595
Si    6.10987   8.82538   8.82538   0.000000880636391   0.000003110682731   0.000003106540032
Si    8.82538   8.82538   6.10987   0.000003092505858   0.000003092514629   0.000000875669500
Si   10.18313   7.46762   7.46762  -0.000000880658760  -0.000003110698427  -0.000003106570689
Si   10.18313  10.18313  10.18313   0.000000000004275  -0.000000000003685  -0.000000000008211
Si    7.46762   7.46762  10.18313  -0.000003092499397  -0.000003092519232  -0.000000875631413
Si    7.46762  10.18313   7.46762  -0.000003110694461  -0.000000880654310  -0.000003106552290
Si    6.10987   6.10987  11.54087  -0.000000000004937  -0.000000000009487  -0.000007347257445
Si    8.82538   6.10987  14.25638   0.000007339831554   0.000000000053218  -0.000000000016482
Si    6.10987   8.82538  14.25638  -0.000000000008144   0.000007339836834  -0.000000000020145
Si    8.82538   8.82538  11.54087   0.000008381547436   0.000008381557907  -0.000008385478473
Si   10.18313   7.46762  12.89863   0.000000880657997  -0.000003110727999   0.000003106555369
Si   10.18313  10.18313  15.61412   0.000000000008108   0.000000000013806  -0.000007347264516
Si    7.46762   7.46762  15.61412  -0.000009230638728  -0.000009230668581  -0.000009212818044
Si    7.46762  10.18313  12.89863  -0.000003110699448   0.000000880660163   0.000003106588236
Si    6.10987  11.54087   0.67888  -0.000000880680241  -0.000003110687682   0.000003106545861
Si    8.82538  11.54087   3.39437   0.000009230643757  -0.000009230622526  -0.000009212815273
Si    6.10987  14.25638   3.39437  -0.000000000002490   0.000000000005065  -0.000007347279392
Si    8.82538  14.25638   0.67888   0.000003110701320   0.000000880675770   0.000003106576634
Si   10.18313  12.89863   2.03662  -0.000000000017682   0.000007339815013   0.000000000001807
Si   10.18313  15.61412   4.75213   0.000000880654195  -0.000003110687151   0.000003106555343
Si    7.46762  12.89863   4.75213  -0.000009230648385   0.000009230634721   0.000009212844673
Si    7.46762  15.61412   2.03662  -0.000003092507967  -0.000003092525729  -0.000000875638792
Si    6.10987  11.54087   6.10987  -0.000000000006663  -0.000007339849703   0.000000000004103
Si    8.82538  11.54087   8.82538   0.000008381572086  -0.000008381548110   0.000008385474078
Si    6.10987  14.25638   8.82538  -0.000000000003377   0.000000000018147   0.000007347270119
Si    8.82538  14.25638   6.10987   0.000007339819210   0.000000000011875   0.000000000000279
Si   10.18313  12.89863   7.46762   0.000000880648698   0.000003110663168  -0.000003106531862
Si   10.18313  15.61412  10.18313   0.000000000008404  -0.000007339827320   0.000000000016679
Si    7.46762  12.89863  10.18313  -0.000003092503675   0.000003092470531   0.000000875655902
Si    7.46762  15.61412   7.46762  -0.000009230639352  -0.000009230660370  -0.000009212846237
Si    6.10987  11.54087  11.54087   0.000000880672565  -0.000003110680614  -0.000003106556433
Si    8.82538  11.54087  14.25638   0.000003092530073  -0.000003092520324  -0.000000875647456
Si    6.10987  14.25638  14.25638  -0.000000000016412  -0.000000000011827  -0.000000000005313
Si    8.82538  14.25638  11.54087   0.000003110690385  -0.000000880646908  -0.000003106545198
Si   10.18313  12.89863  12.89863  -0.000000880683483   0.000003110667702   0.000003106548585
Si   10.18313  15.61412  15.61412  -0.000000880671036  -0.000003110690425  -0.000003106603354
Si    7.46762  12.89863  15.61412  -0.000008381550175   0.000008381549454  -0.000008385473967
Si    7.46762  15.61412  12.89863  -0.000008381559552  -0.000008381554859   0.000008385450756
Si   11.54087   0.67888   0.67888  -0.000008381547227   0.000008381573930   0.000008385486791
Si   14.25638   0.67888   3.39437  -0.000000880678907   0.000003110697903  -0.000003106578415
Si   11.54087   3.39437   3.39437  -0.000008381551610  -0.000008381543863  -0.000008385461776
Si   14.25638   3.39437   0.67888  -0.000000880680912  -0.000003110679681   0.000003106561183
Si   15.61412   2.03662   2.03662  -0.000007339843636  -0.000000000013342  -0.000000000015352
Si   15.61412   4.75213   4.75213  -0.000009230647832   0.000009230640534   0.000009212851535
Si   12.89863   2.03662   4.75213   0.000003110691861  -0.000000880678829   0.000003106573325
Si   12.89863   4.75213   2.03662   0.000003092529626   0.000003092490369  -0.000000875618820
Si   11.54087   0.67888   6.10987  -0.000003092522747   0.000003092515634  -0.000000875636598
Si   14.25638   0.67888   8.82538   0.000000880663651   0.000003110696421   0.000003106558300
Si   11.54087   3.39437   8.82538  -0.000009230650397  -0.000009230641977   0.000009212794621
Si   14.25638   3.39437   6.10987   0.000000000006236  -0.000007339828036  -0.000000000032722
Si   15.61412   2.03662   7.46762  -0.000003110674992  -0.000000880660570  -0.000003106555750
Si   15.61412   4.75213  10.18313  -0.000003092507146   0.000003092550343   0.000000875653355
Si   12.89863   2.03662  10.18313   0.000007339832749  -0.000000000004890   0.000000000010942
Si   12.89863   4.75213   7.46762   0.000009230636849   0.000009230648468  -0.000009212794915
Si   11.54087   0.67888  11.54087  -0.000009230678699   0.000009230671046  -0.000009212846252
Si   14.25638   0.67888  14.25638  -0.000000000024300   0.000007339835086   0.000000000011367
Si   11.54087   3.39437  14.25638  -0.000003092520000  -0.000003092526483   0.000000875641326
Si   14.25638   3.39437  11.54087   0.000000880658509  -0.000003110707717  -0.000003106573376
Si   15.61412   2.03662  12.89863  -0.000003110695717   0.000000880686068   0.000003106560785
Si   15.61412   4.75213  15.61412  -0.000008381549740   0.000008381573174  -0.000008385460366
Si   12.89863   2.03662  15.61412   0.000003110701724   0.000000880669141  -0.000003106542217
Si   12.89863   4.75213  12.89863   0.000008381562728   0.000008381558691   0.000008385475316
Si   11.54087   6.10987   0.67888  -0.000003110690218  -0.000000880646792   0.000003106543805
Si   14.25638   6.10987   3.39437  -0.000000000016981  -0.000000000007265  -0.000007347291502
Si   11.54087   8.82538   3.39437  -0.000009230642831   0.000009230651603  -0.000009212822480
Si   14.25638   8.82538   0.67888   0.000000880659585   0.000003110674137   0.000003106568312
Si   15.61412   7.46762   2.03662  -0.000003092529188  -0.000003092509589  -0.000000875655633
Si   15.61412  10.18313   4.75213  -0.000003110676780   0.000000880668000   0.000003106551782
Si   12.89863   7.46762   4.75213   0.000009230666076  -0.000009230642293   0.000009212829183
Si   12.89863  10.18313   2.03662   0.000007339817678   0.000000000006395  -0.000000000012188
Si   11.54087   6.10987   6.10987  -0.000007339850279  -0.000000000003526   0.000000000007022
Si   14.25638   6.10987   8.82538  -0.000000000012499  -0.000000000004268   0.000007347280739
Si   11.54087   8.82538   8.82538  -0.000008381571419   0.000008381569244   0.000008385463238
Si   14.25638   8.82538   6.10987  -0.000000000018563   0.000007339866779   0.000000000009377
Si   15.61412   7.46762   7.46762  -0.000009230643004  -0.000009230671953  -0.000009212846086
Si   15.61412  10.18313  10.18313  -0.000007339836799  -0.000000000007064  -0.000000000017152
Si   12.89863   7.46762  10.18313   0.000003092517149  -0.000003092517653   0.000000875652350
Si   12.89863  10.18313   7.46762   0.000003110691281   0.000000880651691  -0.000003106566183
Si   11.54087   6.10987  11.54087  -0.000003110703913   0.000000880664973  -0.000003106574732
Si   14.25638   6.10987  14.25638   0.000000000018876   0.000000000021660  -0.000000000028718
Si   11.54087   8.82538  14.25638  -0.000003092500614   0.000003092537361  -0.000000875650778
Si   14.25638   8.82538  11.54087  -0.000000880647549   0.000003110685206  -0.000003106552434
Si   15.61412   7.46762  12.89863  -0.000008381567312  -0.000008381552308   0.000008385488841
Si   15.61412  10.18313  15.61412  -0.000003110670351  -0.000000880640493  -0.000003106552473
Si   12.89863   7.46762  15.61412   0.000008381529058  -0.000008381574078  -0.000008385445985
Si   12.89863  10.18313  12.89863   0.000003110688021  -0.000000880664859   0.000003106596452
Si   11.54087  11.54087   0.67888  -0.000009230660763  -0.000009230662125   0.000009212826800
Si   14.25638  11.54087   3.39437   0.000000880635717  -0.000003110685043  -0.000003106556988
Si   11.54087  14.25638   3.39437  -0.000003110696155   0.000000880657009  -0.000003106566054
Si   14.25638  14.25638   0.67888  -0.000000000000007   0.000000000014821   0.000007347286030
Si   15.61412  12.89863   2.03662  -0.000003092490055   0.000003092490936   0.000000875629684
Si   15.61412  15.61412   4.75213  -0.000008381539831  -0.000008381562119   0.000008385487554
Si   12.89863  12.89863   4.75213   0.000008381575110   0.000008381546399   0.000008385466977
Si   12.89863  15.61412   2.03662   0.000003092527809  -0.000003092510563   0.000000875664772
Si   11.54087  11.54087   6.10987  -0.000003092526946  -0.000003092531708   0.000000875648463
Si   14.25638  11.54087   8.82538  -0.000000880672156  -0.000003110669963   0.000003106564327
Si   11.54087  14.25638   8.82538  -0.000003110700498  -0.000000880686114   0.000003106549103
Si   14.25638  14.25638   6.10987  -0.000000000025418   0.000000000011928  -0.000000000006599
Si   15.61412  12.89863   7.46762  -0.000008381563629   0.000008381556082  -0.000008385472507
Si   15.61412  15.61412  10.18313  -0.000003092510525  -0.000003092521087  -0.000000875627117
Si   12.89863  12.89863  10.18313   0.000003092506448   0.000003092513829  -0.000000875654376
Si   12.89863  15.61412   7.46762   0.000008381558623  -0.000008381548352  -0.000008385502091
Si   11.54087  11.54087  11.54087  -0.000008381554016  -0.000008381552339  -0.000008385481444
Si   14.25638  11.54087  14.25638   0.000000000002538  -0.000007339851663  -0.000000000002476
Si   11.54087  14.25638  14.25638  -0.000007339835999  -0.000000000006115   0.000000000026991
Si   14.25638  14.25638  11.54087   0.000000000018508  -0.000000000006244  -0.000007347285218
Si   15.61412  12.89863  12.89863  -0.000009230636705   0.000009230644391   0.000009212809964
Si   15.61412  15.61412  15.61412  -0.000009230650743  -0.000009230653889  -0.000009212813620
Si   12.89863  12.89863  15.61412   0.000009230622816   0.000009230644111  -0.000009212841053
Si   12.89863  15.61412  12.89863   0.000009230664720  -0.000009230652159   0.000009212821786
