216 

Si    0.67888   0.67888   0.67888   0.000008974336879   0.000008974336458   0.000008955832867
Si    3.39437   0.67888   3.39437  -0.000008974336293   0.000008974336774  -0.000008955832901
Si    0.67888   3.39437   3.39437   0.000008974336963  -0.000008974336458  -0.000008955832908
Si    3.39437   3.39437   0.67888  -0.000008974336435  -0.000008974336727   0.000008955832877
Si    4.75213   2.03662   2.03662   0.000007118415018  -0.000000000000149  -0.000000000000012
Si    4.75213   4.75213   4.75213   0.000008157319120   0.000008157318991   0.000008161418499
Si    2.03662   2.03662   4.75213  -0.000000000000779  -0.000000000000165   0.000007124879033
Si    2.03662   4.75213   2.03662  -0.000000000001080   0.000007118414399   0.000000000000057
Si    0.67888   0.67888   6.10987   0.000002872607000   0.000002872606785   0.000000869889379
Si    3.39437   0.67888   8.82538  -0.000008157318718   0.000008157318866   0.000008161418335
Si    0.67888   3.39437   8.82538   0.000008157318989  -0.000008157319069   0.000008161418482
Si    3.39437   3.39437   6.10987  -0.000002872606503  -0.000002872607049   0.000000869889371
Si    4.75213   2.03662   7.46762   0.000002889835377   0.000000875492358  -0.000002885567346
Si    4.75213   4.75213  10.18313   0.000002872607000   0.000002872606810  -0.000000869889516
Si    2.03662   2.03662  10.18313  -0.000000000000759  -0.000000000000016   0.000000000000173
Si    2.03662   4.75213   7.46762   0.000000875491498   0.000002889835259  -0.000002885567467
Si    0.67888   0.67888  11.54087   0.000008157319033   0.000008157318968  -0.000008161418505
Si    3.39437   0.67888  14.25638  -0.000002872606360   0.000002872606760  -0.000000869889465
Si    0.67888   3.39437  14.25638   0.000002872606915  -0.000002872606781  -0.000000869889443
Si    3.39437   3.39437  11.54087  -0.000008157318545  -0.000008157318887  -0.000008161418412
Si    4.75213   2.03662  12.89863   0.000002889834972  -0.000000875492311   0.000002885567260
Si    4.75213   4.75213  15.61412   0.000008974337038   0.000008974336684  -0.000008955832774
Si    2.03662   2.03662  15.61412  -0.000000000000900   0.000000000000115  -0.000007124878860
Si    2.03662   4.75213  12.89863  -0.000000875493244   0.000002889834884   0.000002885567148
Si    0.67888   6.10987   0.67888   0.000002889835142   0.000000875492403   0.000002885567249
Si    3.39437   6.10987   3.39437  -0.000002889834718   0.000000875492251  -0.000002885567312
Si    0.67888   8.82538   3.39437   0.000008157318881   0.000008157319021  -0.000008161418354
Si    3.39437   8.82538   0.67888  -0.000008157318695   0.000008157318891   0.000008161418258
Si    4.75213   7.46762   2.03662   0.000002872606941  -0.000002872606789   0.000000869889451
Si    4.75213  10.18313   4.75213   0.000002889835048  -0.000000875492257   0.000002885566903
Si    2.03662   7.46762   4.75213   0.000000875491354  -0.000002889835127   0.000002885567116
Si    2.03662  10.18313   2.03662  -0.000000000000810   0.000000000000105   0.000000000000075
Si    0.67888   6.10987   6.10987   0.000007118414795   0.000000000000027   0.000000000000125
Si    3.39437   6.10987   8.82538  -0.000002889834543  -0.000000875492128   0.000002885567507
Si    0.67888   8.82538   8.82538   0.000008974336822   0.000008974336874   0.000008955832613
Si    3.39437   8.82538   6.10987  -0.000002872606411   0.000002872607019  -0.000000869889349
Si    4.75213   7.46762   7.46762   0.000008157319156  -0.000008157319202  -0.000008161418427
Si    4.75213  10.18313  10.18313   0.000007118415025   0.000000000000131  -0.000000000000128
Si    2.03662   7.46762  10.18313  -0.000000000001068  -0.000007118414812   0.000000000000082
Si    2.03662  10.18313   7.46762  -0.000000000000977   0.000000000000018  -0.000007124878612
Si    0.67888   6.10987  11.54087   0.000002889835210  -0.000000875492109  -0.000002885567302
Si    3.39437   6.10987  14.25638  -0.000007118414308  -0.000000000000046   0.000000000000091
Si    0.67888   8.82538  14.25638   0.000002872606967   0.000002872606659   0.000000869889540
Si    3.39437   8.82538  11.54087  -0.000008974336568   0.000008974336666  -0.000008955832588
Si    4.75213   7.46762  12.89863   0.000008974337063  -0.000008974336666   0.000008955832709
Si    4.75213  10.18313  15.61412   0.000002889835167   0.000000875492089  -0.000002885567220
Si    2.03662   7.46762  15.61412  -0.000000875493273  -0.000002889834859  -0.000002885567309
Si    2.03662  10.18313  12.89863  -0.000000000001072  -0.000000000000045   0.000007124878621
Si    0.67888  11.54087   0.67888   0.000008157319118  -0.000008157318967   0.000008161418344
Si    3.39437  11.54087   3.39437  -0.000008157318679  -0.000008157318680  -0.000008161418135
Si    0.67888  14.25638   3.39437   0.000002889835126  -0.000000875492418  -0.000002885567106
Si    3.39437  14.25638   0.67888  -0.000002889834595  -0.000000875492378   0.000002885567358
Si    4.75213  12.89863   2.03662   0.000002872606807   0.000002872606674  -0.000000869889457
Si    4.75213  15.61412   4.75213   0.000008974337170  -0.000008974336795   0.000008955832806
Si    2.03662  12.89863   4.75213  -0.000000875493030   0.000002889834878   0.000002885567268
Si    2.03662  15.61412   2.03662  -0.000000000000991  -0.000007118414470  -0.000000000000166
Si    0.67888  11.54087   6.10987   0.000002872606957  -0.000002872606474  -0.000000869889469
Si    3.39437  11.54087   8.82538  -0.000008974336424  -0.000008974336651   0.000008955832614
Si    0.67888  14.25638   8.82538   0.000002889835148   0.000000875492328   0.000002885567278
Si    3.39437  14.25638   6.10987  -0.000007118414282  -0.000000000000087  -0.000000000000115
Si    4.75213  12.89863   7.46762   0.000008974336934   0.000008974336744  -0.000008955832642
Si    4.75213  15.61412  10.18313   0.000002872606945  -0.000002872606900   0.000000869889466
Si    2.03662  12.89863  10.18313  -0.000000000000789   0.000007118414565  -0.000000000000085
Si    2.03662  15.61412   7.46762  -0.000000875493121  -0.000002889835107  -0.000002885567353
Si    0.67888  11.54087  11.54087   0.000008974336934  -0.000008974336833  -0.000008955832643
Si    3.39437  11.54087  14.25638  -0.000002872606488  -0.000002872606599   0.000000869889451
Si    0.67888  14.25638  14.25638   0.000007118414786   0.000000000000075  -0.000000000000115
Si    3.39437  14.25638  11.54087  -0.000002889834607   0.000000875492115  -0.000002885567379
Si    4.75213  12.89863  12.89863   0.000008157319158   0.000008157318989   0.000008161418277
Si    4.75213  15.61412  15.61412   0.000008157319139  -0.000008157318765  -0.000008161418306
Si    2.03662  12.89863  15.61412   0.000000875491504   0.000002889834885  -0.000002885567063
Si    2.03662  15.61412  12.89863   0.000000875491472  -0.000002889834933   0.000002885567450
Si    6.10987   0.67888   0.67888   0.000000875491258   0.000002889835120   0.000002885567253
Si    8.82538   0.67888   3.39437   0.000008157319166   0.000008157319066  -0.000008161418295
Si    6.10987   3.39437   3.39437   0.000000875491390  -0.000002889835172  -0.000002885567350
Si    8.82538   3.39437   0.67888   0.000008157319141  -0.000008157318906   0.000008161418372
Si   10.18313   2.03662   2.03662  -0.000000000001012  -0.000000000000207   0.000000000000096
Si   10.18313   4.75213   4.75213  -0.000000875492880   0.000002889834904   0.000002885567200
Si    7.46762   2.03662   4.75213  -0.000002889834732   0.000000875492137   0.000002885567262
Si    7.46762   4.75213   2.03662  -0.000002872606577   0.000002872606817   0.000000869889309
Si    6.10987   0.67888   6.10987  -0.000000000000701   0.000007118414283   0.000000000000207
Si    8.82538   0.67888   8.82538   0.000008974336746   0.000008974336542   0.000008955832612
Si    6.10987   3.39437   8.82538  -0.000000875492955  -0.000002889835003   0.000002885567312
Si    8.82538   3.39437   6.10987   0.000002872606968  -0.000002872606852  -0.000000869889477
Si   10.18313   2.03662   7.46762  -0.000000000000945   0.000000000000210  -0.000007124878598
Si   10.18313   4.75213  10.18313  -0.000000000000761   0.000007118414433  -0.000000000000091
Si    7.46762   2.03662  10.18313  -0.000007118414251   0.000000000000063  -0.000000000000078
Si    7.46762   4.75213   7.46762  -0.000008157318744   0.000008157318743  -0.000008161418193
Si    6.10987   0.67888  11.54087  -0.000000875492746   0.000002889834947  -0.000002885567169
Si    8.82538   0.67888  14.25638   0.000002872606840   0.000002872606987   0.000000869889519
Si    6.10987   3.39437  14.25638  -0.000000000000899  -0.000007118414519  -0.000000000000061
Si    8.82538   3.39437  11.54087   0.000008974336787  -0.000008974336825  -0.000008955832715
Si   10.18313   2.03662  12.89863  -0.000000000000876  -0.000000000000214   0.000007124878503
Si   10.18313   4.75213  15.61412   0.000000875491295   0.000002889835052  -0.000002885567375
Si    7.46762   2.03662  15.61412  -0.000002889834680  -0.000000875492483  -0.000002885567173
Si    7.46762   4.75213  12.89863  -0.000008974336283   0.000008974336717   0.000008955832765
Si    6.10987   6.10987   0.67888  -0.000000000000822   0.000000000000073   0.000007124878745
Si    8.82538   6.10987   3.39437   0.000002889835245  -0.000000875492100  -0.000002885567091
Si    6.10987   8.82538   3.39437  -0.000000875492909   0.000002889835136  -0.000002885567097
Si    8.82538   8.82538   0.67888   0.000008974336811   0.000008974336845   0.000008955832877
Si   10.18313   7.46762   2.03662  -0.000000000000660  -0.000007118414819  -0.000000000000053
Si   10.18313  10.18313   4.75213  -0.000000000000688   0.000000000000181   0.000007124879049
Si    7.46762   7.46762   4.75213  -0.000008157318698  -0.000008157318938   0.000008161418415
Si    7.46762  10.18313   2.03662  -0.000007118414439  -0.000000000000130   0.000000000000015
Si    6.10987   6.10987   6.10987  -0.000000000000689   0.000000000000234  -0.000000000000031
Si    8.82538   6.10987   8.82538   0.000002889835077   0.000000875492315   0.000002885567258
Si    6.10987   8.82538   8.82538   0.000000875491304   0.000002889834780   0.000002885567447
Si    8.82538   8.82538   6.10987   0.000002872606897   0.000002872606479   0.000000869889370
Si   10.18313   7.46762   7.46762  -0.000000875492998  -0.000002889834795  -0.000002885567244
Si   10.18313  10.18313  10.18313  -0.000000000001096   0.000000000000027   0.000000000000040
Si    7.46762   7.46762  10.18313  -0.000002872606305  -0.000002872606600  -0.000000869889483
Si    7.46762  10.18313   7.46762  -0.000002889834560  -0.000000875491958  -0.000002885567390
Si    6.10987   6.10987  11.54087  -0.000000000001085  -0.000000000000225  -0.000007124878950
Si    8.82538   6.10987  14.25638   0.000007118414974  -0.000000000000052  -0.000000000000069
Si    6.10987   8.82538  14.25638  -0.000000000000942   0.000007118414910  -0.000000000000024
Si    8.82538   8.82538  11.54087   0.000008157319246   0.000008157318851  -0.000008161418718
Si   10.18313   7.46762  12.89863   0.000000875491193  -0.000002889835084   0.000002885567343
Si   10.18313  10.18313  15.61412  -0.000000000000675  -0.000000000000042  -0.000007124878761
Si    7.46762   7.46762  15.61412  -0.000008974336407  -0.000008974336963  -0.000008955832558
Si    7.46762  10.18313  12.89863  -0.000002889834893   0.000000875491985   0.000002885567275
Si    6.10987  11.54087   0.67888  -0.000000875492903  -0.000002889834842   0.000002885567308
Si    8.82538  11.54087   3.39437   0.000008974336837  -0.000008974336597  -0.000008955832829
Si    6.10987  14.25638   3.39437  -0.000000000000894   0.000000000000077  -0.000007124878679
Si    8.82538  14.25638   0.67888   0.000002889835276   0.000000875492166   0.000002885567368
Si   10.18313  12.89863   2.03662  -0.000000000000956   0.000007118414700   0.000000000000101
Si   10.18313  15.61412   4.75213   0.000000875491270  -0.000002889835033   0.000002885567050
Si    7.46762  12.89863   4.75213  -0.000008974336424   0.000008974336660   0.000008955832694
Si    7.46762  15.61412   2.03662  -0.000002872606656  -0.000002872606753  -0.000000869889282
Si    6.10987  11.54087   6.10987  -0.000000000000800  -0.000007118414454   0.000000000000027
Si    8.82538  11.54087   8.82538   0.000008157319215  -0.000008157318958   0.000008161418551
Si    6.10987  14.25638   8.82538  -0.000000000000837   0.000000000000232   0.000007124878472
Si    8.82538  14.25638   6.10987   0.000007118414763   0.000000000000078   0.000000000000223
Si   10.18313  12.89863   7.46762   0.000000875491185   0.000002889834852  -0.000002885567540
Si   10.18313  15.61412  10.18313  -0.000000000001052  -0.000007118414501  -0.000000000000112
Si    7.46762  12.89863  10.18313  -0.000002872606533   0.000002872606634   0.000000869889495
Si    7.46762  15.61412   7.46762  -0.000008974336664  -0.000008974336522  -0.000008955832728
Si    6.10987  11.54087  11.54087   0.000000875491299  -0.000002889834764  -0.000002885567276
Si    8.82538  11.54087  14.25638   0.000002872607093  -0.000002872606618  -0.000000869889474
Si    6.10987  14.25638  14.25638  -0.000000000000813  -0.000000000000071  -0.000000000000015
Si    8.82538  14.25638  11.54087   0.000002889835176  -0.000000875492283  -0.000002885567351
Si   10.18313  12.89863  12.89863  -0.000000875493056   0.000002889834880   0.000002885567282
Si   10.18313  15.61412  15.61412  -0.000000875493109  -0.000002889835047  -0.000002885567324
Si    7.46762  12.89863  15.61412  -0.000008157318944   0.000008157318917  -0.000008161418306
Si    7.46762  15.61412  12.89863  -0.000008157318868  -0.000008157318741   0.000008161418141
Si   11.54087   0.67888   0.67888  -0.000008157318693   0.000008157319087   0.000008161418231
Si   14.25638   0.67888   3.39437  -0.000000875493186   0.000002889834927  -0.000002885567106
Si   11.54087   3.39437   3.39437  -0.000008157318838  -0.000008157318614  -0.000008161418327
Si   14.25638   3.39437   0.67888  -0.000000875493192  -0.000002889834955   0.000002885567200
Si   15.61412   2.03662   2.03662  -0.000007118414416   0.000000000000029  -0.000000000000058
Si   15.61412   4.75213   4.75213  -0.000008974336696   0.000008974336749   0.000008955832546
Si   12.89863   2.03662   4.75213   0.000002889835390  -0.000000875492390   0.000002885567135
Si   12.89863   4.75213   2.03662   0.000002872606901   0.000002872606852  -0.000000869889505
Si   11.54087   0.67888   6.10987  -0.000002872606477   0.000002872606817  -0.000000869889483
Si   14.25638   0.67888   8.82538   0.000000875491615   0.000002889835170   0.000002885567444
Si   11.54087   3.39437   8.82538  -0.000008974336604  -0.000008974336575   0.000008955832649
Si   14.25638   3.39437   6.10987  -0.000000000000767  -0.000007118414550  -0.000000000000131
Si   15.61412   2.03662   7.46762  -0.000002889834788  -0.000000875492412  -0.000002885567380
Si   15.61412   4.75213  10.18313  -0.000002872606581   0.000002872606931   0.000000869889633
Si   12.89863   2.03662  10.18313   0.000007118414598  -0.000000000000090   0.000000000000051
Si   12.89863   4.75213   7.46762   0.000008974336806   0.000008974336865  -0.000008955832622
Si   11.54087   0.67888  11.54087  -0.000008974336522   0.000008974337052  -0.000008955832608
Si   14.25638   0.67888  14.25638  -0.000000000000795   0.000007118414676   0.000000000000174
Si   11.54087   3.39437  14.25638  -0.000002872606372  -0.000002872606749   0.000000869889560
Si   14.25638   3.39437  11.54087   0.000000875491504  -0.000002889834895  -0.000002885567260
Si   15.61412   2.03662  12.89863  -0.000002889834688   0.000000875492322   0.000002885567362
Si   15.61412   4.75213  15.61412  -0.000008157318722   0.000008157318808  -0.000008161418389
Si   12.89863   2.03662  15.61412   0.000002889835256   0.000000875492369  -0.000002885567224
Si   12.89863   4.75213  12.89863   0.000008157318996   0.000008157319021   0.000008161418355
Si   11.54087   6.10987   0.67888  -0.000002889834572  -0.000000875492160   0.000002885567587
Si   14.25638   6.10987   3.39437  -0.000000000000773   0.000000000000044  -0.000007124878799
Si   11.54087   8.82538   3.39437  -0.000008974336346   0.000008974336653  -0.000008955832817
Si   14.25638   8.82538   0.67888   0.000000875491522   0.000002889834621   0.000002885567178
Si   15.61412   7.46762   2.03662  -0.000002872606651  -0.000002872606736  -0.000000869889422
Si   15.61412  10.18313   4.75213  -0.000002889834627   0.000000875491972   0.000002885567127
Si   12.89863   7.46762   4.75213   0.000008974336855  -0.000008974336774   0.000008955832734
Si   12.89863  10.18313   2.03662   0.000007118414512   0.000000000000052  -0.000000000000098
Si   11.54087   6.10987   6.10987  -0.000007118414346  -0.000000000000053  -0.000000000000059
Si   14.25638   6.10987   8.82538  -0.000000000001028   0.000000000000206   0.000007124878736
Si   11.54087   8.82538   8.82538  -0.000008157318700   0.000008157318744   0.000008161418375
Si   14.25638   8.82538   6.10987  -0.000000000000801   0.000007118414610   0.000000000000257
Si   15.61412   7.46762   7.46762  -0.000008974336642  -0.000008974336662  -0.000008955832725
Si   15.61412  10.18313  10.18313  -0.000007118414244  -0.000000000000032  -0.000000000000023
Si   12.89863   7.46762  10.18313   0.000002872607208  -0.000002872606838   0.000000869889449
Si   12.89863  10.18313   7.46762   0.000002889835222   0.000000875492164  -0.000002885567401
Si   11.54087   6.10987  11.54087  -0.000002889834487   0.000000875492277  -0.000002885567382
Si   14.25638   6.10987  14.25638  -0.000000000000826   0.000000000000264   0.000000000000074
Si   11.54087   8.82538  14.25638  -0.000002872606533   0.000002872606921  -0.000000869889627
Si   14.25638   8.82538  11.54087  -0.000000875493179   0.000002889834827  -0.000002885567218
Si   15.61412   7.46762  12.89863  -0.000008157318732  -0.000008157318955   0.000008161418263
Si   15.61412  10.18313  15.61412  -0.000002889834864  -0.000000875492084  -0.000002885567256
Si   12.89863   7.46762  15.61412   0.000008157319354  -0.000008157319145  -0.000008161418196
Si   12.89863  10.18313  12.89863   0.000002889835358  -0.000000875492171   0.000002885567361
Si   11.54087  11.54087   0.67888  -0.000008974336329  -0.000008974336774   0.000008955832863
Si   14.25638  11.54087   3.39437   0.000000875491477  -0.000002889834920  -0.000002885567126
Si   11.54087  14.25638   3.39437  -0.000002889834663   0.000000875492129  -0.000002885567243
Si   14.25638  14.25638   0.67888  -0.000000000000946   0.000000000000077   0.000007124878786
Si   15.61412  12.89863   2.03662  -0.000002872606440   0.000002872606797   0.000000869889381
Si   15.61412  15.61412   4.75213  -0.000008157318683  -0.000008157318779   0.000008161418325
Si   12.89863  12.89863   4.75213   0.000008157318989   0.000008157318994   0.000008161418485
Si   12.89863  15.61412   2.03662   0.000002872607218  -0.000002872606803   0.000000869889653
Si   11.54087  11.54087   6.10987  -0.000002872606447  -0.000002872606860   0.000000869889295
Si   14.25638  11.54087   8.82538  -0.000000875493110  -0.000002889834987   0.000002885567259
Si   11.54087  14.25638   8.82538  -0.000002889834711  -0.000000875492211   0.000002885567376
Si   14.25638  14.25638   6.10987  -0.000000000000968  -0.000000000000123  -0.000000000000276
Si   15.61412  12.89863   7.46762  -0.000008157318453   0.000008157318797  -0.000008161418232
Si   15.61412  15.61412  10.18313  -0.000002872606460  -0.000002872606888  -0.000000869889580
Si   12.89863  12.89863  10.18313   0.000002872607092   0.000002872606613  -0.000000869889428
Si   12.89863  15.61412   7.46762   0.000008157319093  -0.000008157319040  -0.000008161418517
Si   11.54087  11.54087  11.54087  -0.000008157318667  -0.000008157318908  -0.000008161418467
Si   14.25638  11.54087  14.25638  -0.000000000000846  -0.000007118414689  -0.000000000000095
Si   11.54087  14.25638  14.25638  -0.000007118414349   0.000000000000010   0.000000000000217
Si   14.25638  14.25638  11.54087  -0.000000000000860  -0.000000000000070  -0.000007124878888
Si   15.61412  12.89863  12.89863  -0.000008974336557   0.000008974336468   0.000008955832781
Si   15.61412  15.61412  15.61412  -0.000008974336344  -0.000008974336607  -0.000008955832640
Si   12.89863  12.89863  15.61412   0.000008974336955   0.000008974336655  -0.000008955832820
Si   12.89863  15.61412  12.89863   0.000008974336889  -0.000008974336825   0.000008955832706
