CRYSTAL
PRIMVEC
  16.293000   0.000000   0.000000
   0.000000  16.293000   0.000000
   0.000000   0.000000  16.293000
PRIMCOORD
 216 1
Si     6.789E-01     6.789E-01     6.789E-01     8.450E-15     0.000E+00     5.174E-31
Si     3.394E+00     6.789E-01     3.394E+00     6.206E-15     0.000E+00     3.800E-31
Si     6.789E-01     3.394E+00     3.394E+00     3.748E-15     0.000E+00     2.295E-31
Si     3.394E+00     3.394E+00     6.789E-01     4.922E-15     0.000E+00     3.014E-31
Si     4.752E+00     2.037E+00     2.037E+00     2.029E-15     0.000E+00     1.242E-31
Si     4.752E+00     4.752E+00     4.752E+00     3.947E-15     0.000E+00     2.417E-31
Si     2.037E+00     2.037E+00     4.752E+00     3.109E-15     0.000E+00     1.904E-31
Si     2.037E+00     4.752E+00     2.037E+00     6.355E-15     0.000E+00     3.891E-31
Si     6.789E-01     6.789E-01     6.110E+00     7.977E-15     0.000E+00     4.884E-31
Si     3.394E+00     6.789E-01     8.825E+00     5.307E-15     0.000E+00     3.250E-31
Si     6.789E-01     3.394E+00     8.825E+00     3.650E-15     0.000E+00     2.235E-31
Si     3.394E+00     3.394E+00     6.110E+00     3.858E-15     0.000E+00     2.362E-31
Si     4.752E+00     2.037E+00     7.468E+00     2.740E-15     0.000E+00     1.678E-31
Si     4.752E+00     4.752E+00     1.018E+01     4.624E-15     0.000E+00     2.831E-31
Si     2.037E+00     2.037E+00     1.018E+01     7.805E-15     0.000E+00     4.779E-31
Si     2.037E+00     4.752E+00     7.468E+00     6.644E-16     0.000E+00     4.068E-32
Si     6.789E-01     6.789E-01     1.154E+01     5.282E-15     0.000E+00     3.235E-31
Si     3.394E+00     6.789E-01     1.426E+01     4.233E-15     0.000E+00     2.592E-31
Si     6.789E-01     3.394E+00     1.426E+01     4.621E-15     0.000E+00     2.830E-31
Si     3.394E+00     3.394E+00     1.154E+01     3.910E-15     0.000E+00     2.394E-31
Si     4.752E+00     2.037E+00     1.290E+01     3.748E-15     0.000E+00     2.295E-31
Si     4.752E+00     4.752E+00     1.561E+01     3.082E-15     0.000E+00     1.887E-31
Si     2.037E+00     2.037E+00     1.561E+01     4.585E-15     0.000E+00     2.808E-31
Si     2.037E+00     4.752E+00     1.290E+01     1.680E-15     0.000E+00     1.029E-31
Si     6.789E-01     6.110E+00     6.789E-01     6.452E-15     0.000E+00     3.951E-31
Si     3.394E+00     6.110E+00     3.394E+00     2.640E-15     0.000E+00     1.616E-31
Si     6.789E-01     8.825E+00     3.394E+00     2.933E-15     0.000E+00     1.796E-31
Si     3.394E+00     8.825E+00     6.789E-01     3.184E-15     0.000E+00     1.949E-31
Si     4.752E+00     7.468E+00     2.037E+00     5.464E-15     0.000E+00     3.346E-31
Si     4.752E+00     1.018E+01     4.752E+00     3.480E-15     0.000E+00     2.131E-31
Si     2.037E+00     7.468E+00     4.752E+00     4.026E-15     0.000E+00     2.465E-31
Si     2.037E+00     1.018E+01     2.037E+00     1.209E-15     0.000E+00     7.404E-32
Si     6.789E-01     6.110E+00     6.110E+00     5.424E-15     0.000E+00     3.321E-31
Si     3.394E+00     6.110E+00     8.825E+00     2.674E-15     0.000E+00     1.637E-31
Si     6.789E-01     8.825E+00     8.825E+00     1.238E-15     0.000E+00     7.581E-32
Si     3.394E+00     8.825E+00     6.110E+00     3.325E-15     0.000E+00     2.036E-31
Si     4.752E+00     7.468E+00     7.468E+00     5.743E-15     0.000E+00     3.517E-31
Si     4.752E+00     1.018E+01     1.018E+01     5.879E-15     0.000E+00     3.600E-31
Si     2.037E+00     7.468E+00     1.018E+01     2.546E-15     0.000E+00     1.559E-31
Si     2.037E+00     1.018E+01     7.468E+00     3.710E-15     0.000E+00     2.272E-31
Si     6.789E-01     6.110E+00     1.154E+01     4.198E-15     0.000E+00     2.571E-31
Si     3.394E+00     6.110E+00     1.426E+01     2.053E-15     0.000E+00     1.257E-31
Si     6.789E-01     8.825E+00     1.426E+01     4.930E-15     0.000E+00     3.019E-31
Si     3.394E+00     8.825E+00     1.154E+01     1.095E-15     0.000E+00     6.708E-32
Si     4.752E+00     7.468E+00     1.290E+01     2.233E-15     0.000E+00     1.367E-31
Si     4.752E+00     1.018E+01     1.561E+01     2.556E-15     0.000E+00     1.565E-31
Si     2.037E+00     7.468E+00     1.561E+01     2.257E-15     0.000E+00     1.382E-31
Si     2.037E+00     1.018E+01     1.290E+01     4.706E-15     0.000E+00     2.882E-31
Si     6.789E-01     1.154E+01     6.789E-01     4.072E-15     0.000E+00     2.493E-31
Si     3.394E+00     1.154E+01     3.394E+00     6.200E-15     0.000E+00     3.796E-31
Si     6.789E-01     1.426E+01     3.394E+00     2.829E-15     0.000E+00     1.732E-31
Si     3.394E+00     1.426E+01     6.789E-01     3.787E-15     0.000E+00     2.319E-31
Si     4.752E+00     1.290E+01     2.037E+00     3.239E-15     0.000E+00     1.983E-31
Si     4.752E+00     1.561E+01     4.752E+00     2.977E-15     0.000E+00     1.823E-31
Si     2.037E+00     1.290E+01     4.752E+00     3.269E-15     0.000E+00     2.002E-31
Si     2.037E+00     1.561E+01     2.037E+00     5.912E-15     0.000E+00     3.620E-31
Si     6.789E-01     1.154E+01     6.110E+00     5.794E-15     0.000E+00     3.548E-31
Si     3.394E+00     1.154E+01     8.825E+00     4.301E-15     0.000E+00     2.633E-31
Si     6.789E-01     1.426E+01     8.825E+00     2.988E-15     0.000E+00     1.830E-31
Si     3.394E+00     1.426E+01     6.110E+00     3.617E-15     0.000E+00     2.215E-31
Si     4.752E+00     1.290E+01     7.468E+00     4.078E-15     0.000E+00     2.497E-31
Si     4.752E+00     1.561E+01     1.018E+01     3.876E-15     0.000E+00     2.373E-31
Si     2.037E+00     1.290E+01     1.018E+01     3.553E-15     0.000E+00     2.176E-31
Si     2.037E+00     1.561E+01     7.468E+00     3.315E-15     0.000E+00     2.030E-31
Si     6.789E-01     1.154E+01     1.154E+01     3.677E-15     0.000E+00     2.252E-31
Si     3.394E+00     1.154E+01     1.426E+01     3.143E-15     0.000E+00     1.924E-31
Si     6.789E-01     1.426E+01     1.426E+01     3.034E-15     0.000E+00     1.858E-31
Si     3.394E+00     1.426E+01     1.154E+01     4.047E-15     0.000E+00     2.478E-31
Si     4.752E+00     1.290E+01     1.290E+01     2.995E-15     0.000E+00     1.834E-31
Si     4.752E+00     1.561E+01     1.561E+01     3.179E-15     0.000E+00     1.947E-31
Si     2.037E+00     1.290E+01     1.561E+01     1.231E-15     0.000E+00     7.535E-32
Si     2.037E+00     1.561E+01     1.290E+01     4.115E-15     0.000E+00     2.520E-31
Si     6.110E+00     6.789E-01     6.789E-01     5.237E-15     0.000E+00     3.207E-31
Si     8.825E+00     6.789E-01     3.394E+00     1.657E-15     0.000E+00     1.015E-31
Si     6.110E+00     3.394E+00     3.394E+00     4.161E-15     0.000E+00     2.548E-31
Si     8.825E+00     3.394E+00     6.789E-01     4.210E-15     0.000E+00     2.578E-31
Si     1.018E+01     2.037E+00     2.037E+00     4.546E-15     0.000E+00     2.784E-31
Si     1.018E+01     4.752E+00     4.752E+00     6.753E-15     0.000E+00     4.135E-31
Si     7.468E+00     2.037E+00     4.752E+00     4.362E-15     0.000E+00     2.671E-31
Si     7.468E+00     4.752E+00     2.037E+00     1.868E-15     0.000E+00     1.144E-31
Si     6.110E+00     6.789E-01     6.110E+00     1.658E-15     0.000E+00     1.015E-31
Si     8.825E+00     6.789E-01     8.825E+00     1.553E-15     0.000E+00     9.512E-32
Si     6.110E+00     3.394E+00     8.825E+00     3.917E-15     0.000E+00     2.399E-31
Si     8.825E+00     3.394E+00     6.110E+00     4.189E-15     0.000E+00     2.565E-31
Si     1.018E+01     2.037E+00     7.468E+00     2.151E-15     0.000E+00     1.317E-31
Si     1.018E+01     4.752E+00     1.018E+01     3.049E-15     0.000E+00     1.867E-31
Si     7.468E+00     2.037E+00     1.018E+01     2.877E-15     0.000E+00     1.762E-31
Si     7.468E+00     4.752E+00     7.468E+00     4.085E-15     0.000E+00     2.501E-31
Si     6.110E+00     6.789E-01     1.154E+01     4.102E-15     0.000E+00     2.512E-31
Si     8.825E+00     6.789E-01     1.426E+01     3.176E-15     0.000E+00     1.944E-31
Si     6.110E+00     3.394E+00     1.426E+01     2.381E-15     0.000E+00     1.458E-31
Si     8.825E+00     3.394E+00     1.154E+01     3.408E-15     0.000E+00     2.087E-31
Si     1.018E+01     2.037E+00     1.290E+01     2.385E-15     0.000E+00     1.460E-31
Si     1.018E+01     4.752E+00     1.561E+01     2.050E-15     0.000E+00     1.255E-31
Si     7.468E+00     2.037E+00     1.561E+01     2.047E-15     0.000E+00     1.254E-31
Si     7.468E+00     4.752E+00     1.290E+01     2.779E-15     0.000E+00     1.702E-31
Si     6.110E+00     6.110E+00     6.789E-01     1.265E-15     0.000E+00     7.745E-32
Si     8.825E+00     6.110E+00     3.394E+00     1.669E-15     0.000E+00     1.022E-31
Si     6.110E+00     8.825E+00     3.394E+00     1.583E-15     0.000E+00     9.691E-32
Si     8.825E+00     8.825E+00     6.789E-01     5.392E-15     0.000E+00     3.302E-31
Si     1.018E+01     7.468E+00     2.037E+00     3.814E-15     0.000E+00     2.336E-31
Si     1.018E+01     1.018E+01     4.752E+00     2.153E-15     0.000E+00     1.318E-31
Si     7.468E+00     7.468E+00     4.752E+00     1.313E-15     0.000E+00     8.041E-32
Si     7.468E+00     1.018E+01     2.037E+00     3.830E-15     0.000E+00     2.345E-31
Si     6.110E+00     6.110E+00     6.110E+00     4.969E-15     0.000E+00     3.042E-31
Si     8.825E+00     6.110E+00     8.825E+00     1.226E-15     0.000E+00     7.505E-32
Si     6.110E+00     8.825E+00     8.825E+00     2.879E-15     0.000E+00     1.763E-31
Si     8.825E+00     8.825E+00     6.110E+00     3.018E-15     0.000E+00     1.848E-31
Si     1.018E+01     7.468E+00     7.468E+00     2.466E-15     0.000E+00     1.510E-31
Si     1.018E+01     1.018E+01     1.018E+01     1.895E-15     0.000E+00     1.160E-31
Si     7.468E+00     7.468E+00     1.018E+01     4.103E-15     0.000E+00     2.513E-31
Si     7.468E+00     1.018E+01     7.468E+00     6.564E-15     0.000E+00     4.019E-31
Si     6.110E+00     6.110E+00     1.154E+01     2.252E-15     0.000E+00     1.379E-31
Si     8.825E+00     6.110E+00     1.426E+01     2.559E-15     0.000E+00     1.567E-31
Si     6.110E+00     8.825E+00     1.426E+01     1.776E-15     0.000E+00     1.087E-31
Si     8.825E+00     8.825E+00     1.154E+01     3.981E-15     0.000E+00     2.438E-31
Si     1.018E+01     7.468E+00     1.290E+01     3.338E-15     0.000E+00     2.044E-31
Si     1.018E+01     1.018E+01     1.561E+01     5.386E-15     0.000E+00     3.298E-31
Si     7.468E+00     7.468E+00     1.561E+01     2.422E-15     0.000E+00     1.483E-31
Si     7.468E+00     1.018E+01     1.290E+01     1.521E-15     0.000E+00     9.313E-32
Si     6.110E+00     1.154E+01     6.789E-01     2.858E-15     0.000E+00     1.750E-31
Si     8.825E+00     1.154E+01     3.394E+00     2.898E-15     0.000E+00     1.775E-31
Si     6.110E+00     1.426E+01     3.394E+00     3.435E-15     0.000E+00     2.103E-31
Si     8.825E+00     1.426E+01     6.789E-01     4.007E-15     0.000E+00     2.453E-31
Si     1.018E+01     1.290E+01     2.037E+00     2.987E-15     0.000E+00     1.829E-31
Si     1.018E+01     1.561E+01     4.752E+00     4.386E-15     0.000E+00     2.686E-31
Si     7.468E+00     1.290E+01     4.752E+00     4.777E-15     0.000E+00     2.925E-31
Si     7.468E+00     1.561E+01     2.037E+00     2.566E-15     0.000E+00     1.571E-31
Si     6.110E+00     1.154E+01     6.110E+00     4.810E-15     0.000E+00     2.945E-31
Si     8.825E+00     1.154E+01     8.825E+00     2.020E-15     0.000E+00     1.237E-31
Si     6.110E+00     1.426E+01     8.825E+00     4.260E-15     0.000E+00     2.609E-31
Si     8.825E+00     1.426E+01     6.110E+00     2.126E-15     0.000E+00     1.302E-31
Si     1.018E+01     1.290E+01     7.468E+00     2.824E-15     0.000E+00     1.729E-31
Si     1.018E+01     1.561E+01     1.018E+01     1.058E-15     0.000E+00     6.476E-32
Si     7.468E+00     1.290E+01     1.018E+01     6.679E-15     0.000E+00     4.090E-31
Si     7.468E+00     1.561E+01     7.468E+00     3.486E-15     0.000E+00     2.135E-31
Si     6.110E+00     1.154E+01     1.154E+01     4.138E-15     0.000E+00     2.534E-31
Si     8.825E+00     1.154E+01     1.426E+01     5.261E-15     0.000E+00     3.221E-31
Si     6.110E+00     1.426E+01     1.426E+01     3.154E-15     0.000E+00     1.931E-31
Si     8.825E+00     1.426E+01     1.154E+01     1.627E-15     0.000E+00     9.964E-32
Si     1.018E+01     1.290E+01     1.290E+01     2.010E-15     0.000E+00     1.230E-31
Si     1.018E+01     1.561E+01     1.561E+01     3.614E-15     0.000E+00     2.213E-31
Si     7.468E+00     1.290E+01     1.561E+01     3.537E-15     0.000E+00     2.166E-31
Si     7.468E+00     1.561E+01     1.290E+01     1.608E-15     0.000E+00     9.847E-32
Si     1.154E+01     6.789E-01     6.789E-01     4.556E-15     0.000E+00     2.789E-31
Si     1.426E+01     6.789E-01     3.394E+00     1.702E-15     0.000E+00     1.042E-31
Si     1.154E+01     3.394E+00     3.394E+00     2.491E-15     0.000E+00     1.525E-31
Si     1.426E+01     3.394E+00     6.789E-01     4.464E-15     0.000E+00     2.733E-31
Si     1.561E+01     2.037E+00     2.037E+00     3.855E-15     0.000E+00     2.360E-31
Si     1.561E+01     4.752E+00     4.752E+00     2.755E-15     0.000E+00     1.687E-31
Si     1.290E+01     2.037E+00     4.752E+00     3.308E-15     0.000E+00     2.026E-31
Si     1.290E+01     4.752E+00     2.037E+00     3.796E-15     0.000E+00     2.324E-31
Si     1.154E+01     6.789E-01     6.110E+00     2.656E-15     0.000E+00     1.626E-31
Si     1.426E+01     6.789E-01     8.825E+00     1.536E-15     0.000E+00     9.408E-32
Si     1.154E+01     3.394E+00     8.825E+00     3.674E-15     0.000E+00     2.250E-31
Si     1.426E+01     3.394E+00     6.110E+00     3.110E-15     0.000E+00     1.904E-31
Si     1.561E+01     2.037E+00     7.468E+00     6.047E-15     0.000E+00     3.703E-31
Si     1.561E+01     4.752E+00     1.018E+01     2.259E-15     0.000E+00     1.383E-31
Si     1.290E+01     2.037E+00     1.018E+01     3.187E-15     0.000E+00     1.951E-31
Si     1.290E+01     4.752E+00     7.468E+00     3.142E-15     0.000E+00     1.924E-31
Si     1.154E+01     6.789E-01     1.154E+01     3.609E-15     0.000E+00     2.210E-31
Si     1.426E+01     6.789E-01     1.426E+01     1.822E-15     0.000E+00     1.116E-31
Si     1.154E+01     3.394E+00     1.426E+01     3.677E-15     0.000E+00     2.252E-31
Si     1.426E+01     3.394E+00     1.154E+01     3.226E-15     0.000E+00     1.975E-31
Si     1.561E+01     2.037E+00     1.290E+01     3.481E-15     0.000E+00     2.132E-31
Si     1.561E+01     4.752E+00     1.561E+01     5.960E-15     0.000E+00     3.649E-31
Si     1.290E+01     2.037E+00     1.561E+01     2.667E-15     0.000E+00     1.633E-31
Si     1.290E+01     4.752E+00     1.290E+01     2.539E-15     0.000E+00     1.554E-31
Si     1.154E+01     6.110E+00     6.789E-01     2.567E-15     0.000E+00     1.572E-31
Si     1.426E+01     6.110E+00     3.394E+00     3.097E-15     0.000E+00     1.896E-31
Si     1.154E+01     8.825E+00     3.394E+00     3.979E-15     0.000E+00     2.436E-31
Si     1.426E+01     8.825E+00     6.789E-01     3.391E-15     0.000E+00     2.076E-31
Si     1.561E+01     7.468E+00     2.037E+00     4.924E-15     0.000E+00     3.015E-31
Si     1.561E+01     1.018E+01     4.752E+00     2.535E-15     0.000E+00     1.552E-31
Si     1.290E+01     7.468E+00     4.752E+00     1.493E-15     0.000E+00     9.145E-32
Si     1.290E+01     1.018E+01     2.037E+00     5.289E-15     0.000E+00     3.238E-31
Si     1.154E+01     6.110E+00     6.110E+00     4.261E-15     0.000E+00     2.609E-31
Si     1.426E+01     6.110E+00     8.825E+00     3.810E-16     0.000E+00     2.333E-32
Si     1.154E+01     8.825E+00     8.825E+00     1.250E-15     0.000E+00     7.652E-32
Si     1.426E+01     8.825E+00     6.110E+00     3.643E-15     0.000E+00     2.231E-31
Si     1.561E+01     7.468E+00     7.468E+00     2.679E-15     0.000E+00     1.640E-31
Si     1.561E+01     1.018E+01     1.018E+01     3.600E-15     0.000E+00     2.204E-31
Si     1.290E+01     7.468E+00     1.018E+01     4.500E-15     0.000E+00     2.756E-31
Si     1.290E+01     1.018E+01     7.468E+00     3.694E-15     0.000E+00     2.262E-31
Si     1.154E+01     6.110E+00     1.154E+01     2.793E-15     0.000E+00     1.710E-31
Si     1.426E+01     6.110E+00     1.426E+01     2.041E-15     0.000E+00     1.250E-31
Si     1.154E+01     8.825E+00     1.426E+01     4.517E-15     0.000E+00     2.766E-31
Si     1.426E+01     8.825E+00     1.154E+01     1.794E-15     0.000E+00     1.099E-31
Si     1.561E+01     7.468E+00     1.290E+01     1.140E-15     0.000E+00     6.983E-32
Si     1.561E+01     1.018E+01     1.561E+01     2.437E-15     0.000E+00     1.493E-31
Si     1.290E+01     7.468E+00     1.561E+01     2.635E-15     0.000E+00     1.614E-31
Si     1.290E+01     1.018E+01     1.290E+01     3.043E-15     0.000E+00     1.863E-31
Si     1.154E+01     1.154E+01     6.789E-01     2.954E-15     0.000E+00     1.809E-31
Si     1.426E+01     1.154E+01     3.394E+00     9.523E-16     0.000E+00     5.831E-32
Si     1.154E+01     1.426E+01     3.394E+00     2.668E-15     0.000E+00     1.634E-31
Si     1.426E+01     1.426E+01     6.789E-01     3.804E-15     0.000E+00     2.329E-31
Si     1.561E+01     1.290E+01     2.037E+00     2.947E-15     0.000E+00     1.804E-31
Si     1.561E+01     1.561E+01     4.752E+00     1.081E-15     0.000E+00     6.621E-32
Si     1.290E+01     1.290E+01     4.752E+00     2.151E-15     0.000E+00     1.317E-31
Si     1.290E+01     1.561E+01     2.037E+00     1.452E-15     0.000E+00     8.889E-32
Si     1.154E+01     1.154E+01     6.110E+00     3.677E-15     0.000E+00     2.252E-31
Si     1.426E+01     1.154E+01     8.825E+00     1.999E-15     0.000E+00     1.224E-31
Si     1.154E+01     1.426E+01     8.825E+00     4.885E-15     0.000E+00     2.991E-31
Si     1.426E+01     1.426E+01     6.110E+00     4.445E-15     0.000E+00     2.722E-31
Si     1.561E+01     1.290E+01     7.468E+00     2.648E-15     0.000E+00     1.621E-31
Si     1.561E+01     1.561E+01     1.018E+01     1.970E-15     0.000E+00     1.206E-31
Si     1.290E+01     1.290E+01     1.018E+01     4.322E-15     0.000E+00     2.647E-31
Si     1.290E+01     1.561E+01     7.468E+00     2.927E-15     0.000E+00     1.792E-31
Si     1.154E+01     1.154E+01     1.154E+01     4.844E-15     0.000E+00     2.966E-31
Si     1.426E+01     1.154E+01     1.426E+01     2.704E-15     0.000E+00     1.656E-31
Si     1.154E+01     1.426E+01     1.426E+01     1.940E-15     0.000E+00     1.188E-31
Si     1.426E+01     1.426E+01     1.154E+01     1.306E-15     0.000E+00     7.996E-32
Si     1.561E+01     1.290E+01     1.290E+01     2.505E-15     0.000E+00     1.534E-31
Si     1.561E+01     1.561E+01     1.561E+01     3.639E-15     0.000E+00     2.228E-31
Si     1.290E+01     1.290E+01     1.561E+01     2.848E-15     0.000E+00     1.744E-31
Si     1.290E+01     1.561E+01     1.290E+01     3.939E-15     0.000E+00     2.412E-31
