216 

Si    0.72888   0.67888   0.67888   0.013631496581452   0.000002001528550   0.000002001653623
Si    3.39437   0.67888   3.39437  -0.000195061750491   0.000124669166461  -0.000201389182689
Si    0.67888   3.39437   3.39437   0.000433612181604  -0.000118058782673  -0.000118388094037
Si    3.39437   3.39437   0.67888  -0.000195097783955  -0.000201501852031   0.000125079807560
Si    4.75213   2.03662   2.03662   0.000008523639261   0.000027577360014   0.000027698264946
Si    4.75213   4.75213   4.75213   0.000015186624560   0.000008178987802   0.000008176194089
Si    2.03662   2.03662   4.75213   0.000034200732727  -0.000037171946535   0.000036344798270
Si    2.03662   4.75213   2.03662   0.000034099864959   0.000036432982637  -0.000037251092330
Si    0.67888   0.67888   6.10987  -0.000020661562802   0.000002850195544   0.000000635190120
Si    3.39437   0.67888   8.82538  -0.000019862299308   0.000008157660058   0.000008160505875
Si    0.67888   3.39437   8.82538  -0.000005500558118  -0.000008086496163   0.000010822725932
Si    3.39437   3.39437   6.10987  -0.000016807705446   0.000020978946951  -0.000003356784925
Si    4.75213   2.03662   7.46762  -0.000000011636332  -0.000007644115340  -0.000000929627422
Si    4.75213   4.75213  10.18313   0.000003069025189  -0.000019402541213  -0.000004682734028
Si    2.03662   2.03662  10.18313   0.000016297223597   0.000000112371841   0.000002760287754
Si    2.03662   4.75213   7.46762   0.000010338790775  -0.000005955341044   0.000007312723572
Si    0.67888   0.67888  11.54087  -0.000015374151229   0.000008201924732  -0.000007925175599
Si    3.39437   0.67888  14.25638  -0.000189138056391  -0.000112695188804   0.000191720153027
Si    0.67888   3.39437  14.25638   0.000432167017012   0.000113040007442  -0.000117146947033
Si    3.39437   3.39437  11.54087  -0.000022190460916   0.000016430305573   0.000003317776819
Si    4.75213   2.03662  12.89863  -0.000016981531154   0.000054661039093   0.000024694321968
Si    4.75213   4.75213  15.61412  -0.000010850804710  -0.000012849001908  -0.000064389271000
Si    2.03662   2.03662  15.61412  -0.003409349411221  -0.002468382054101   0.002461240142410
Si    2.03662   4.75213  12.89863  -0.000177947574063   0.000057679756208  -0.000051969698238
Si    0.67888   6.10987   0.67888  -0.000020499707577   0.000000646005143   0.000002873366503
Si    3.39437   6.10987   3.39437  -0.000016839328694  -0.000003365073087   0.000020961437637
Si    0.67888   8.82538   3.39437  -0.000005649321135   0.000010767419233  -0.000008085316413
Si    3.39437   8.82538   0.67888  -0.000019774197701   0.000008156381728   0.000008161547181
Si    4.75213   7.46762   2.03662  -0.000000000191156  -0.000000915284538  -0.000007649102012
Si    4.75213  10.18313   4.75213   0.000003189947409  -0.000004690501372  -0.000019394799903
Si    2.03662   7.46762   4.75213   0.000010344377003   0.000007287168664  -0.000005920126403
Si    2.03662  10.18313   2.03662   0.000016273591518   0.000002743664518   0.000000287039705
Si    0.67888   6.10987   6.10987   0.000110647835319  -0.000020539254693  -0.000020570971219
Si    3.39437   6.10987   8.82538  -0.000005692629901   0.000014356964431   0.000004390020313
Si    0.67888   8.82538   8.82538   0.000105425901634   0.000008974852589   0.000008956362929
Si    3.39437   8.82538   6.10987  -0.000005686120456   0.000004377014889   0.000014361616273
Si    4.75213   7.46762   7.46762   0.000008932275401  -0.000012515394047  -0.000012515819810
Si    4.75213  10.18313  10.18313   0.000007892417354   0.000004358812760   0.000004355149970
Si    2.03662   7.46762  10.18313  -0.000061827907831  -0.000005674400388  -0.000001441720719
Si    2.03662  10.18313   7.46762  -0.000061828031637  -0.000001446411519  -0.000005685473273
Si    0.67888   6.10987  11.54087   0.000107982891165   0.000019456507255  -0.000023252874505
Si    3.39437   6.10987  14.25638  -0.000021125756670  -0.000011462245144  -0.000024502773901
Si    0.67888   8.82538  14.25638  -0.000010931474784   0.000000262796067   0.000000794405693
Si    3.39437   8.82538  11.54087  -0.000011787455767   0.000007469645090  -0.000024187942502
Si    4.75213   7.46762  12.89863   0.000009270947365  -0.000005160271753   0.000031237578516
Si    4.75213  10.18313  15.61412   0.000000018134865  -0.000001082322581   0.000005630714592
Si    2.03662   7.46762  15.61412   0.000015398872896  -0.000005635179347  -0.000003172467363
Si    2.03662  10.18313  12.89863   0.000009468240650  -0.000010176055760   0.000015932139434
Si    0.67888  11.54087   0.67888  -0.000015240878360  -0.000007926172798   0.000008177854684
Si    3.39437  11.54087   3.39437  -0.000022172888183   0.000003308809924   0.000016336576379
Si    0.67888  14.25638   3.39437   0.000432187825755  -0.000116811114414   0.000113369551301
Si    3.39437  14.25638   0.67888  -0.000189182140015   0.000191809776750  -0.000113111171745
Si    4.75213  12.89863   2.03662  -0.000016954881778   0.000024693383904   0.000054545136023
Si    4.75213  15.61412   4.75213  -0.000010895921378  -0.000064529268493  -0.000012855395885
Si    2.03662  12.89863   4.75213  -0.000177947607239  -0.000051908918889   0.000057730656986
Si    2.03662  15.61412   2.03662  -0.003409347012155   0.002461151846043  -0.002468478017419
Si    0.67888  11.54087   6.10987   0.000107965215473  -0.000023203106172   0.000019499040571
Si    3.39437  11.54087   8.82538  -0.000011776915539  -0.000024207387583   0.000007451071082
Si    0.67888  14.25638   8.82538  -0.000010765621609   0.000000804993907   0.000000224536033
Si    3.39437  14.25638   6.10987  -0.000021140124748  -0.000024595479003  -0.000011475187173
Si    4.75213  12.89863   7.46762   0.000009167729037   0.000031250394780  -0.000005144060051
Si    4.75213  15.61412  10.18313  -0.000000026962333   0.000005643917509  -0.000001086426825
Si    2.03662  12.89863  10.18313   0.000009462790067   0.000015965172773  -0.000010197369667
Si    2.03662  15.61412   7.46762   0.000015421965388  -0.000003002520528  -0.000005647589541
Si    0.67888  11.54087  11.54087   0.000112503748624   0.000011568067736   0.000011618285722
Si    3.39437  11.54087  14.25638  -0.000016813013021   0.000001363481393  -0.000022977135879
Si    0.67888  14.25638  14.25638   0.000431698277827   0.000108991328046   0.000109337675284
Si    3.39437  14.25638  11.54087  -0.000016816616330  -0.000022974060295   0.000001336512975
Si    4.75213  12.89863  12.89863   0.000015187544252   0.000008134115049   0.000008144544416
Si    4.75213  15.61412  15.61412   0.000009488388198  -0.000035695577424  -0.000035820937618
Si    2.03662  12.89863  15.61412   0.000034991246216  -0.000026407067793   0.000034369594134
Si    2.03662  15.61412  12.89863   0.000035090490325   0.000034286074217  -0.000026315322266
Si    6.10987   0.67888   0.67888  -0.000004694984666   0.000002878074489   0.000002874582582
Si    8.82538   0.67888   3.39437   0.000006440504945   0.000005524211376  -0.000008023212858
Si    6.10987   3.39437   3.39437   0.000002863813045  -0.000014376202529  -0.000014377724439
Si    8.82538   3.39437   0.67888   0.000006456125821  -0.000008018335678   0.000005508614029
Si   10.18313   2.03662   2.03662  -0.000001362636269   0.000002677019316   0.000002703731345
Si   10.18313   4.75213   4.75213   0.000000771232685  -0.000000876753931  -0.000000915796741
Si    7.46762   2.03662   4.75213   0.000000589769617   0.000011289430124   0.000004667953469
Si    7.46762   4.75213   2.03662   0.000000623464618   0.000004669824919   0.000011291342225
Si    6.10987   0.67888   6.10987  -0.000004377892383   0.000028316369759  -0.000014481450237
Si    8.82538   0.67888   8.82538   0.000006835882046   0.000008978112218   0.000008956312826
Si    6.10987   3.39437   8.82538  -0.000000579845559   0.000012231905938   0.000001087994242
Si    8.82538   3.39437   6.10987   0.000005868326599  -0.000004469902846   0.000000851706554
Si   10.18313   2.03662   7.46762  -0.000003953488879  -0.000000891043729  -0.000006381298064
Si   10.18313   4.75213  10.18313   0.000005001717952   0.000011501650762  -0.000007282901169
Si    7.46762   2.03662  10.18313  -0.000011378377114   0.000001939667289   0.000001106268035
Si    7.46762   4.75213   7.46762  -0.000003126787237   0.000004002450078  -0.000015437209064
Si    6.10987   0.67888  11.54087  -0.000005252194675  -0.000018303227776   0.000011595008533
Si    8.82538   0.67888  14.25638   0.000001156014701   0.000005506135264   0.000000732022025
Si    6.10987   3.39437  14.25638   0.000002095399343  -0.000011610824441   0.000004471842696
Si    8.82538   3.39437  11.54087   0.000012129900692  -0.000007492436831  -0.000007129359942
Si   10.18313   2.03662  12.89863   0.000003411412658  -0.000010151629397   0.000009089177038
Si   10.18313   4.75213  15.61412   0.000004302296197   0.000000909817780   0.000007273578421
Si    7.46762   2.03662  15.61412  -0.000003987810967  -0.000003805562595   0.000000066964462
Si    7.46762   4.75213  12.89863  -0.000007363698156   0.000012882472805   0.000005013941684
Si    6.10987   6.10987   0.67888  -0.000004493213225  -0.000014494732483   0.000028280662249
Si    8.82538   6.10987   3.39437   0.000005886245283   0.000000845180831  -0.000004477062319
Si    6.10987   8.82538   3.39437  -0.000000588656230   0.000001093413371   0.000012220957728
Si    8.82538   8.82538   0.67888   0.000006789779206   0.000008974800949   0.000008959558559
Si   10.18313   7.46762   2.03662  -0.000003943042442  -0.000006385430632  -0.000000908726539
Si   10.18313  10.18313   4.75213   0.000004996058227  -0.000007271189447   0.000011526012254
Si    7.46762   7.46762   4.75213  -0.000003131452337  -0.000015420514912   0.000003988559401
Si    7.46762  10.18313   2.03662  -0.000011365223216   0.000001096557644   0.000001957065891
Si    6.10987   6.10987   6.10987  -0.000003938239663   0.000003375859863   0.000003375411597
Si    8.82538   6.10987   8.82538   0.000001957531500   0.000000836528091   0.000002886032548
Si    6.10987   8.82538   8.82538  -0.000000922229330   0.000002889300946   0.000002885027824
Si    8.82538   8.82538   6.10987   0.000001947289536   0.000002859978553   0.000000831158085
Si   10.18313   7.46762   7.46762  -0.000001925947506  -0.000002007947919  -0.000002026017672
Si   10.18313  10.18313  10.18313  -0.000001050856434  -0.000000881480056  -0.000000859226977
Si    7.46762   7.46762  10.18313  -0.000003881999525  -0.000003824719842   0.000000060254069
Si    7.46762  10.18313   7.46762  -0.000003899161864   0.000000076954519  -0.000003815333582
Si    6.10987   6.10987  11.54087  -0.000003806947738   0.000003471967931  -0.000010586373595
Si    8.82538   6.10987  14.25638   0.000010271127330  -0.000001826320952  -0.000001476478120
Si    6.10987   8.82538  14.25638   0.000000287657769   0.000008916574979  -0.000015107484947
Si    8.82538   8.82538  11.54087   0.000007231899685   0.000008170096827  -0.000008122834168
Si   10.18313   7.46762  12.89863   0.000005870549971   0.000004381996686  -0.000001514769685
Si   10.18313  10.18313  15.61412  -0.000003942943066  -0.000000733740957  -0.000006221323515
Si    7.46762   7.46762  15.61412  -0.000013224794196  -0.000010072453970  -0.000010915287253
Si    7.46762  10.18313  12.89863   0.000002136198713   0.000008137234462   0.000007059904536
Si    6.10987  11.54087   0.67888  -0.000005367033094   0.000011604128326  -0.000018266108033
Si    8.82538  11.54087   3.39437   0.000012128715595  -0.000007149027999  -0.000007478955728
Si    6.10987  14.25638   3.39437   0.000002095566241   0.000004492698007  -0.000011596279520
Si    8.82538  14.25638   0.67888   0.000001188754865   0.000000736876463   0.000005538839290
Si   10.18313  12.89863   2.03662   0.000003427677381   0.000009099653656  -0.000010160654720
Si   10.18313  15.61412   4.75213   0.000004286346093   0.000007260280251   0.000000922426001
Si    7.46762  12.89863   4.75213  -0.000007363799235   0.000005065274703   0.000012896790673
Si    7.46762  15.61412   2.03662  -0.000003970374259   0.000000054893703  -0.000003824868378
Si    6.10987  11.54087   6.10987  -0.000003806869524  -0.000010592832967   0.000003459133399
Si    8.82538  11.54087   8.82538   0.000007224904847  -0.000008118499483   0.000008161086479
Si    6.10987  14.25638   8.82538   0.000000296410124  -0.000015122500187   0.000008924196170
Si    8.82538  14.25638   6.10987   0.000010272290244  -0.000001481450110  -0.000001827476119
Si   10.18313  12.89863   7.46762   0.000005876267262  -0.000001492581481   0.000004398005001
Si   10.18313  15.61412  10.18313  -0.000003953300592  -0.000006232448982  -0.000000744281430
Si    7.46762  12.89863  10.18313   0.000002158101058   0.000007029020005   0.000008144222699
Si    7.46762  15.61412   7.46762  -0.000013238070210  -0.000010916202768  -0.000010063701329
Si    6.10987  11.54087  11.54087  -0.000003064410130  -0.000006265072660  -0.000006260343375
Si    8.82538  11.54087  14.25638   0.000005867304463  -0.000004592772989   0.000000719784731
Si    6.10987  14.25638  14.25638   0.000001997175725   0.000011479685105   0.000011485527610
Si    8.82538  14.25638  11.54087   0.000005883861122   0.000000719901978  -0.000004606661573
Si   10.18313  12.89863  12.89863   0.000000773525960   0.000006660484596   0.000006691077949
Si   10.18313  15.61412  15.61412  -0.000002235945331  -0.000005565501103  -0.000005587852269
Si    7.46762  12.89863  15.61412  -0.000004661125864   0.000006359831186  -0.000018584111202
Si    7.46762  15.61412  12.89863  -0.000004677838252  -0.000018572566485   0.000006378836943
Si   11.54087   0.67888   0.67888  -0.000013432562761   0.000008148485067   0.000008152497293
Si   14.25638   0.67888   3.39437  -0.000179293282846   0.000112577163040   0.000182474410770
Si   11.54087   3.39437   3.39437  -0.000006634247308  -0.000003531360337  -0.000003555157444
Si   14.25638   3.39437   0.67888  -0.000179326398470   0.000182545345878   0.000112983744281
Si   15.61412   2.03662   2.03662  -0.003262979735185   0.002166831237706   0.002166943608427
Si   15.61412   4.75213   4.75213  -0.000180889530459  -0.000045691144794  -0.000045774810551
Si   12.89863   2.03662   4.75213  -0.000014354131225  -0.000055149627843   0.000022769839202
Si   12.89863   4.75213   2.03662  -0.000014313747189   0.000022761560410  -0.000055026486787
Si   11.54087   0.67888   6.10987  -0.000006654276866   0.000022727605226   0.000013094778275
Si   14.25638   0.67888   8.82538  -0.000011123768727   0.000002890955982   0.000002884723368
Si   11.54087   3.39437   8.82538  -0.000008754169780  -0.000024322185334   0.000007223178074
Si   14.25638   3.39437   6.10987  -0.000014138594796  -0.000031369921908   0.000011734263420
Si   15.61412   2.03662   7.46762   0.000013583542988  -0.000001250064780  -0.000000004869393
Si   15.61412   4.75213  10.18313   0.000006427086361   0.000011801946151   0.000011225275518
Si   12.89863   2.03662  10.18313   0.000004478711937   0.000009193124446   0.000001800660434
Si   12.89863   4.75213   7.46762   0.000009179947560   0.000031443533812  -0.000012888642228
Si   11.54087   0.67888  11.54087  -0.000012753789706  -0.000010875619109  -0.000022916234624
Si   14.25638   0.67888  14.25638  -0.000178476272862  -0.000102458641051  -0.000185401868458
Si   11.54087   3.39437  14.25638  -0.000000999978298   0.000008811105817  -0.000010820332312
Si   14.25638   3.39437  11.54087  -0.000013369567595  -0.000027768605544  -0.000007712328707
Si   15.61412   2.03662  12.89863   0.000029304092727   0.000040271971431   0.000029994493848
Si   15.61412   4.75213  15.61412   0.000023879708567  -0.000019099880323  -0.000047610640271
Si   12.89863   2.03662  15.61412   0.000005123524005  -0.000027794031046   0.000025945366303
Si   12.89863   4.75213  12.89863   0.000015178127418   0.000008313565226   0.000008007001317
Si   11.54087   6.10987   0.67888  -0.000006776100578   0.000013101463836   0.000022699294793
Si   14.25638   6.10987   3.39437  -0.000014122666082   0.000011720205815  -0.000031296793799
Si   11.54087   8.82538   3.39437  -0.000008763516059   0.000007242103886  -0.000024291319743
Si   14.25638   8.82538   0.67888  -0.000011040053744   0.000002889002307   0.000002886613126
Si   15.61412   7.46762   2.03662   0.000013590346861  -0.000000009302996  -0.000001438083140
Si   15.61412  10.18313   4.75213   0.000006409615645   0.000011208012426   0.000011783583432
Si   12.89863   7.46762   4.75213   0.000009279511858  -0.000012910187528   0.000031432711764
Si   12.89863  10.18313   2.03662   0.000004503840159   0.000001802462675   0.000009188008429
Si   11.54087   6.10987   6.10987  -0.000010932390345  -0.000003430333132  -0.000003419061526
Si   14.25638   6.10987   8.82538  -0.000002608754444  -0.000015200753143   0.000008670215300
Si   11.54087   8.82538   8.82538  -0.000009845920666   0.000008157078528   0.000008161187725
Si   14.25638   8.82538   6.10987  -0.000002619376979   0.000008664022246  -0.000015200069452
Si   15.61412   7.46762   7.46762  -0.000070101052959  -0.000010403635249  -0.000010379691429
Si   15.61412  10.18313  10.18313  -0.000068237433257   0.000001425735995   0.000001420252913
Si   12.89863   7.46762  10.18313   0.000003466950462   0.000001351516741  -0.000003351771014
Si   12.89863  10.18313   7.46762   0.000003484137412  -0.000003350799529   0.000001333884370
Si   11.54087   6.10987  11.54087  -0.000006663240916  -0.000002632500720   0.000000620830454
Si   14.25638   6.10987  14.25638  -0.000014260198492   0.000004840973898   0.000024889271129
Si   11.54087   8.82538  14.25638  -0.000002661889437   0.000004605132949   0.000014464953705
Si   14.25638   8.82538  11.54087  -0.000003494514064   0.000001345230764   0.000012312047341
Si   15.61412   7.46762  12.89863   0.000001142608769  -0.000018491499879  -0.000000735475021
Si   15.61412  10.18313  15.61412   0.000013573149881  -0.000003739393716  -0.000002322201176
Si   12.89863   7.46762  15.61412   0.000005539837436  -0.000009957998236  -0.000017350337159
Si   12.89863  10.18313  12.89863   0.000003203062956   0.000003064488139  -0.000019590622621
Si   11.54087  11.54087   0.67888  -0.000012857988902  -0.000022947004504  -0.000010852771105
Si   14.25638  11.54087   3.39437  -0.000013383441837  -0.000007731560217  -0.000027768745353
Si   11.54087  14.25638   3.39437  -0.000001017257140  -0.000010807344211   0.000008805480289
Si   14.25638  14.25638   0.67888  -0.000178502029019  -0.000185477991917  -0.000102862957048
Si   15.61412  12.89863   2.03662   0.000029154697192   0.000030078385574   0.000040347520838
Si   15.61412  15.61412   4.75213   0.000024045592144  -0.000047531454927  -0.000018999302552
Si   12.89863  12.89863   4.75213   0.000015177769968   0.000007999613317   0.000008314664317
Si   12.89863  15.61412   2.03662   0.000005106974953   0.000025846407153  -0.000027912047344
Si   11.54087  11.54087   6.10987  -0.000006645980985   0.000000634772912  -0.000002637085706
Si   14.25638  11.54087   8.82538  -0.000003483852786   0.000012308417684   0.000001341244592
Si   11.54087  14.25638   8.82538  -0.000002669854583   0.000014471731549   0.000004618506443
Si   14.25638  14.25638   6.10987  -0.000014247961156   0.000024884279490   0.000004826232833
Si   15.61412  12.89863   7.46762   0.000001142925306  -0.000000770682729  -0.000018518434759
Si   15.61412  15.61412  10.18313   0.000013602195005  -0.000002502730172  -0.000003751174183
Si   12.89863  12.89863  10.18313   0.000003086953890  -0.000019595274428   0.000003067261372
Si   12.89863  15.61412   7.46762   0.000005514153892  -0.000017351445706  -0.000009960466942
Si   11.54087  11.54087  11.54087  -0.000011969330271  -0.000004725898460  -0.000004741281539
Si   14.25638  11.54087  14.25638  -0.000014129921803  -0.000018837074240   0.000024172017878
Si   11.54087  14.25638  14.25638  -0.000005603514558  -0.000004634179682  -0.000004614413148
Si   14.25638  14.25638  11.54087  -0.000014143701846   0.000024253164131  -0.000018857864831
Si   15.61412  12.89863  12.89863  -0.000180894713315   0.000063663820479   0.000063711064773
Si   15.61412  15.61412  15.61412  -0.003264895468529  -0.002175708187644  -0.002175807866688
Si   12.89863  12.89863  15.61412  -0.000008187550942  -0.000010903686035   0.000045157198617
Si   12.89863  15.61412  12.89863  -0.000008244908654   0.000045255806568  -0.000010917166765
