216 

Si    0.72888   0.67888   0.67888   0.013631496583872   0.000002001528581   0.000002001653636
Si    3.39437   0.67888   3.39437  -0.000195061748549   0.000124669165818  -0.000201389178754
Si    0.67888   3.39437   3.39437   0.000433612186536  -0.000118058779572  -0.000118388090926
Si    3.39437   3.39437   0.67888  -0.000195097782015  -0.000201501848103   0.000125079806871
Si    4.75213   2.03662   2.03662   0.000008523640821   0.000027577362757   0.000027698267659
Si    4.75213   4.75213   4.75213   0.000015186622997   0.000008178988613   0.000008176194899
Si    2.03662   2.03662   4.75213   0.000034200738708  -0.000037171945685   0.000036344802776
Si    2.03662   4.75213   2.03662   0.000034099870927   0.000036432987162  -0.000037251091472
Si    0.67888   0.67888   6.10987  -0.000020661559389   0.000002850195059   0.000000635192976
Si    3.39437   0.67888   8.82538  -0.000019862301260   0.000008157660072   0.000008160505885
Si    0.67888   3.39437   8.82538  -0.000005500558222  -0.000008086495567   0.000010822723446
Si    3.39437   3.39437   6.10987  -0.000016807704062   0.000020978948991  -0.000003356784663
Si    4.75213   2.03662   7.46762  -0.000000011635958  -0.000007644113036  -0.000000929630109
Si    4.75213   4.75213  10.18313   0.000003069024673  -0.000019402542997  -0.000004682738498
Si    2.03662   2.03662  10.18313   0.000016297225106   0.000000112370410   0.000002760287340
Si    2.03662   4.75213   7.46762   0.000010338793018  -0.000005955340874   0.000007312721093
Si    0.67888   0.67888  11.54087  -0.000015374147770   0.000008201924995  -0.000007925178479
Si    3.39437   0.67888  14.25638  -0.000189138054479  -0.000112695188166   0.000191720149043
Si    0.67888   3.39437  14.25638   0.000432167022794   0.000113040009246  -0.000117146948921
Si    3.39437   3.39437  11.54087  -0.000022190464797   0.000016430302101   0.000003317778119
Si    4.75213   2.03662  12.89863  -0.000016981533335   0.000054661036426   0.000024694323516
Si    4.75213   4.75213  15.61412  -0.000010850806822  -0.000012849003393  -0.000064389268281
Si    2.03662   2.03662  15.61412  -0.003409349407210  -0.002468382049569   0.002461240137791
Si    2.03662   4.75213  12.89863  -0.000177947574620   0.000057679753465  -0.000051969695360
Si    0.67888   6.10987   0.67888  -0.000020499704176   0.000000646007999   0.000002873366076
Si    3.39437   6.10987   3.39437  -0.000016839327319  -0.000003365072836   0.000020961439691
Si    0.67888   8.82538   3.39437  -0.000005649321234   0.000010767416770  -0.000008085315809
Si    3.39437   8.82538   0.67888  -0.000019774199670   0.000008156381750   0.000008161547195
Si    4.75213   7.46762   2.03662  -0.000000000190780  -0.000000915287237  -0.000007649099727
Si    4.75213  10.18313   4.75213   0.000003189946922  -0.000004690505841  -0.000019394801722
Si    2.03662   7.46762   4.75213   0.000010344379248   0.000007287166156  -0.000005920126228
Si    2.03662  10.18313   2.03662   0.000016273592982   0.000002743664073   0.000000287038271
Si    0.67888   6.10987   6.10987   0.000110647835603  -0.000020539253878  -0.000020570970456
Si    3.39437   6.10987   8.82538  -0.000005692631944   0.000014356962158   0.000004390013617
Si    0.67888   8.82538   8.82538   0.000105425900263   0.000008974852556   0.000008956362896
Si    3.39437   8.82538   6.10987  -0.000005686122489   0.000004377008183   0.000014361614032
Si    4.75213   7.46762   7.46762   0.000008932271877  -0.000012515398461  -0.000012515824196
Si    4.75213  10.18313  10.18313   0.000007892413962   0.000004358817192   0.000004355154388
Si    2.03662   7.46762  10.18313  -0.000061827911339  -0.000005674399047  -0.000001441722018
Si    2.03662  10.18313   7.46762  -0.000061828035138  -0.000001446412813  -0.000005685471954
Si    0.67888   6.10987  11.54087   0.000107982892147   0.000019456508147  -0.000023252875575
Si    3.39437   6.10987  14.25638  -0.000021125760810  -0.000011462246588  -0.000024502770451
Si    0.67888   8.82538  14.25638  -0.000010931474933   0.000000262798447   0.000000794405185
Si    3.39437   8.82538  11.54087  -0.000011787457748   0.000007469651591  -0.000024187940245
Si    4.75213   7.46762  12.89863   0.000009270946921  -0.000005160267086   0.000031237580305
Si    4.75213  10.18313  15.61412   0.000000018135342  -0.000001082319887   0.000005630712356
Si    2.03662   7.46762  15.61412   0.000015398874301  -0.000005635178903  -0.000003172465970
Si    2.03662  10.18313  12.89863   0.000009468242886  -0.000010176053047   0.000015932139377
Si    0.67888  11.54087   0.67888  -0.000015240874880  -0.000007926175623   0.000008177854888
Si    3.39437  11.54087   3.39437  -0.000022172892085   0.000003308811204   0.000016336572907
Si    0.67888  14.25638   3.39437   0.000432187831533  -0.000116811116277   0.000113369553112
Si    3.39437  14.25638   0.67888  -0.000189182138099   0.000191809772766  -0.000113111171095
Si    4.75213  12.89863   2.03662  -0.000016954883938   0.000024693385477   0.000054545133348
Si    4.75213  15.61412   4.75213  -0.000010895923504  -0.000064529265745  -0.000012855397364
Si    2.03662  12.89863   4.75213  -0.000177947607811  -0.000051908916023   0.000057730654217
Si    2.03662  15.61412   2.03662  -0.003409347008144   0.002461151841409  -0.002468478012882
Si    0.67888  11.54087   6.10987   0.000107965216456  -0.000023203107250   0.000019499041491
Si    3.39437  11.54087   8.82538  -0.000011776917525  -0.000024207385327   0.000007451077602
Si    0.67888  14.25638   8.82538  -0.000010765621780   0.000000804993372   0.000000224538409
Si    3.39437  14.25638   6.10987  -0.000021140128854  -0.000024595475565  -0.000011475188632
Si    4.75213  12.89863   7.46762   0.000009167728595   0.000031250396562  -0.000005144055399
Si    4.75213  15.61412  10.18313  -0.000000026961854   0.000005643915269  -0.000001086424134
Si    2.03662  12.89863  10.18313   0.000009462792294   0.000015965172722  -0.000010197366972
Si    2.03662  15.61412   7.46762   0.000015421966791  -0.000003002519136  -0.000005647589102
Si    0.67888  11.54087  11.54087   0.000112503748917   0.000011568066948   0.000011618284956
Si    3.39437  11.54087  14.25638  -0.000016813011645   0.000001363481159  -0.000022977137986
Si    0.67888  14.25638  14.25638   0.000431698282812   0.000108991324867   0.000109337672131
Si    3.39437  14.25638  11.54087  -0.000016816614942  -0.000022974062425   0.000001336512720
Si    4.75213  12.89863  12.89863   0.000015187542588   0.000008134114163   0.000008144543522
Si    4.75213  15.61412  15.61412   0.000009488389571  -0.000035695580112  -0.000035820940308
Si    2.03662  12.89863  15.61412   0.000034991252067  -0.000026407072163   0.000034369593474
Si    2.03662  15.61412  12.89863   0.000035090496213   0.000034286073540  -0.000026315326626
Si    6.10987   0.67888   0.67888  -0.000004694981933   0.000002878074514   0.000002874582614
Si    8.82538   0.67888   3.39437   0.000006440506922   0.000005524209479  -0.000008023213146
Si    6.10987   3.39437   3.39437   0.000002863811783  -0.000014376200438  -0.000014377722359
Si    8.82538   3.39437   0.67888   0.000006456127813  -0.000008018335971   0.000005508612139
Si   10.18313   2.03662   2.03662  -0.000001362636147   0.000002677017661   0.000002703729694
Si   10.18313   4.75213   4.75213   0.000000771237183  -0.000000876757139  -0.000000915799936
Si    7.46762   2.03662   4.75213   0.000000589768925   0.000011289430617   0.000004667956328
Si    7.46762   4.75213   2.03662   0.000000623463921   0.000004669827762   0.000011291342717
Si    6.10987   0.67888   6.10987  -0.000004377890935   0.000028316374835  -0.000014481450364
Si    8.82538   0.67888   8.82538   0.000006835880639   0.000008978112284   0.000008956312802
Si    6.10987   3.39437   8.82538  -0.000000579845391   0.000012231903907   0.000001087988452
Si    8.82538   3.39437   6.10987   0.000005868325082  -0.000004469908032   0.000000851705567
Si   10.18313   2.03662   7.46762  -0.000003953486764  -0.000000891044325  -0.000006381300466
Si   10.18313   4.75213  10.18313   0.000005001716419   0.000011501648402  -0.000007282901059
Si    7.46762   2.03662  10.18313  -0.000011378377575   0.000001939664221   0.000001106266544
Si    7.46762   4.75213   7.46762  -0.000003126791590   0.000004002444037  -0.000015437210595
Si    6.10987   0.67888  11.54087  -0.000005252193337  -0.000018303232881   0.000011595008498
Si    8.82538   0.67888  14.25638   0.000001156016644   0.000005506137018   0.000000732022276
Si    6.10987   3.39437  14.25638   0.000002095401060  -0.000011610826393   0.000004471844525
Si    8.82538   3.39437  11.54087   0.000012129900364  -0.000007492439369  -0.000007129357969
Si   10.18313   2.03662  12.89863   0.000003411411101  -0.000010151632230   0.000009089181136
Si   10.18313   4.75213  15.61412   0.000004302294459   0.000000909813806   0.000007273581450
Si    7.46762   2.03662  15.61412  -0.000003987807089  -0.000003805562454   0.000000066964259
Si    7.46762   4.75213  12.89863  -0.000007363696106   0.000012882470291   0.000005013944153
Si    6.10987   6.10987   0.67888  -0.000004493211803  -0.000014494732622   0.000028280667308
Si    8.82538   6.10987   3.39437   0.000005886243787   0.000000845179839  -0.000004477067526
Si    6.10987   8.82538   3.39437  -0.000000588656073   0.000001093407559   0.000012220955695
Si    8.82538   8.82538   0.67888   0.000006789777821   0.000008974800938   0.000008959558615
Si   10.18313   7.46762   2.03662  -0.000003943040293  -0.000006385433033  -0.000000908727123
Si   10.18313  10.18313   4.75213   0.000004996056697  -0.000007271189335   0.000011526009913
Si    7.46762   7.46762   4.75213  -0.000003131456691  -0.000015420516406   0.000003988553380
Si    7.46762  10.18313   2.03662  -0.000011365223686   0.000001096556170   0.000001957062835
Si    6.10987   6.10987   6.10987  -0.000003938247021   0.000003375856688   0.000003375408435
Si    8.82538   6.10987   8.82538   0.000001957529638   0.000000836523463   0.000002886034043
Si    6.10987   8.82538   8.82538  -0.000000922232836   0.000002889300993   0.000002885027846
Si    8.82538   8.82538   6.10987   0.000001947287698   0.000002859980045   0.000000831153450
Si   10.18313   7.46762   7.46762  -0.000001925945349  -0.000002007949345  -0.000002026019111
Si   10.18313  10.18313  10.18313  -0.000001050854195  -0.000000881478604  -0.000000859225520
Si    7.46762   7.46762  10.18313  -0.000003882001531  -0.000003824721926   0.000000060256169
Si    7.46762  10.18313   7.46762  -0.000003899163859   0.000000076956627  -0.000003815335644
Si    6.10987   6.10987  11.54087  -0.000003806945695   0.000003471967540  -0.000010586373262
Si    8.82538   6.10987  14.25638   0.000010271127047  -0.000001826323069  -0.000001476475489
Si    6.10987   8.82538  14.25638   0.000000287657854   0.000008916580761  -0.000015107483024
Si    8.82538   8.82538  11.54087   0.000007231897883   0.000008170095176  -0.000008122829557
Si   10.18313   7.46762  12.89863   0.000005870548363   0.000004381996688  -0.000001514767336
Si   10.18313  10.18313  15.61412  -0.000003942940877  -0.000000733738602  -0.000006221322954
Si    7.46762   7.46762  15.61412  -0.000013224794533  -0.000010072452451  -0.000010915284170
Si    7.46762  10.18313  12.89863   0.000002136194357   0.000008137236012   0.000007059910714
Si    6.10987  11.54087   0.67888  -0.000005367031773   0.000011604128278  -0.000018266113100
Si    8.82538  11.54087   3.39437   0.000012128715241  -0.000007149026039  -0.000007478958261
Si    6.10987  14.25638   3.39437   0.000002095567925   0.000004492699805  -0.000011596281463
Si    8.82538  14.25638   0.67888   0.000001188756794   0.000000736876690   0.000005538841055
Si   10.18313  12.89863   2.03662   0.000003427675837   0.000009099657780  -0.000010160657545
Si   10.18313  15.61412   4.75213   0.000004286344385   0.000007260283278   0.000000922422041
Si    7.46762  12.89863   4.75213  -0.000007363797192   0.000005065277177   0.000012896788144
Si    7.46762  15.61412   2.03662  -0.000003970370366   0.000000054893488  -0.000003824868248
Si    6.10987  11.54087   6.10987  -0.000003806867491  -0.000010592832647   0.000003459133010
Si    8.82538  11.54087   8.82538   0.000007224903009  -0.000008118494870   0.000008161084807
Si    6.10987  14.25638   8.82538   0.000000296410231  -0.000015122498243   0.000008924201966
Si    8.82538  14.25638   6.10987   0.000010272289965  -0.000001481447472  -0.000001827478262
Si   10.18313  12.89863   7.46762   0.000005876265666  -0.000001492579118   0.000004398005006
Si   10.18313  15.61412  10.18313  -0.000003953298376  -0.000006232448437  -0.000000744279079
Si    7.46762  12.89863  10.18313   0.000002158096689   0.000007029026172   0.000008144224260
Si    7.46762  15.61412   7.46762  -0.000013238070553  -0.000010916199674  -0.000010063699816
Si    6.10987  11.54087  11.54087  -0.000003064417490  -0.000006265069553  -0.000006260340279
Si    8.82538  11.54087  14.25638   0.000005867302913  -0.000004592771990   0.000000719789759
Si    6.10987  14.25638  14.25638   0.000001997174603   0.000011479682880   0.000011485525407
Si    8.82538  14.25638  11.54087   0.000005883859567   0.000000719907025  -0.000004606660583
Si   10.18313  12.89863  12.89863   0.000000773530396   0.000006660487815   0.000006691081187
Si   10.18313  15.61412  15.61412  -0.000002235945266  -0.000005565499431  -0.000005587850598
Si    7.46762  12.89863  15.61412  -0.000004661126534   0.000006359828654  -0.000018584111488
Si    7.46762  15.61412  12.89863  -0.000004677838910  -0.000018572566765   0.000006378834382
Si   11.54087   0.67888   0.67888  -0.000013432566478   0.000008148485089   0.000008152497317
Si   14.25638   0.67888   3.39437  -0.000179293287017   0.000112577161986   0.000182474411112
Si   11.54087   3.39437   3.39437  -0.000006634249248  -0.000003531358493  -0.000003555155617
Si   14.25638   3.39437   0.67888  -0.000179326402625   0.000182545346226   0.000112983743248
Si   15.61412   2.03662   2.03662  -0.003262979736060   0.002166831238254   0.002166943608985
Si   15.61412   4.75213   4.75213  -0.000180889530877  -0.000045691139610  -0.000045774805346
Si   12.89863   2.03662   4.75213  -0.000014354136808  -0.000055149625223   0.000022769841874
Si   12.89863   4.75213   2.03662  -0.000014313752778   0.000022761563075  -0.000055026484159
Si   11.54087   0.67888   6.10987  -0.000006654279380   0.000022727609618   0.000013094778636
Si   14.25638   0.67888   8.82538  -0.000011123768062   0.000002890956051   0.000002884723437
Si   11.54087   3.39437   8.82538  -0.000008754169207  -0.000024322189783   0.000007223172850
Si   14.25638   3.39437   6.10987  -0.000014138596729  -0.000031369918523   0.000011734267617
Si   15.61412   2.03662   7.46762   0.000013583541804  -0.000001250063365  -0.000000004866915
Si   15.61412   4.75213  10.18313   0.000006427089153   0.000011801945372   0.000011225271454
Si   12.89863   2.03662  10.18313   0.000004478712855   0.000009193119859   0.000001800655958
Si   12.89863   4.75213   7.46762   0.000009179951174   0.000031443531228  -0.000012888647676
Si   11.54087   0.67888  11.54087  -0.000012753792186  -0.000010875623546  -0.000022916235032
Si   14.25638   0.67888  14.25638  -0.000178476276978  -0.000102458640103  -0.000185401868934
Si   11.54087   3.39437  14.25638  -0.000000999982561   0.000008811101606  -0.000010820328211
Si   14.25638   3.39437  11.54087  -0.000013369564346  -0.000027768608007  -0.000007712331120
Si   15.61412   2.03662  12.89863   0.000029304095307   0.000040271972264   0.000029994490952
Si   15.61412   4.75213  15.61412   0.000023879711238  -0.000019099877272  -0.000047610640974
Si   12.89863   2.03662  15.61412   0.000005123516941  -0.000027794031455   0.000025945366732
Si   12.89863   4.75213  12.89863   0.000015178126368   0.000008313563344   0.000008007003081
Si   11.54087   6.10987   0.67888  -0.000006776103110   0.000013101464187   0.000022699299197
Si   14.25638   6.10987   3.39437  -0.000014122668013   0.000011720210036  -0.000031296790425
Si   11.54087   8.82538   3.39437  -0.000008763515477   0.000007242098669  -0.000024291324213
Si   14.25638   8.82538   0.67888  -0.000011040053058   0.000002889002359   0.000002886613187
Si   15.61412   7.46762   2.03662   0.000013590345668  -0.000000009300525  -0.000001438081709
Si   15.61412  10.18313   4.75213   0.000006409618438   0.000011208008378   0.000011783582671
Si   12.89863   7.46762   4.75213   0.000009279515464  -0.000012910192969   0.000031432709197
Si   12.89863  10.18313   2.03662   0.000004503841074   0.000001802458221   0.000009188003831
Si   11.54087   6.10987   6.10987  -0.000010932383570  -0.000003430337940  -0.000003419066318
Si   14.25638   6.10987   8.82538  -0.000002608749131  -0.000015200753065   0.000008670209936
Si   11.54087   8.82538   8.82538  -0.000009845913616   0.000008157078571   0.000008161187781
Si   14.25638   8.82538   6.10987  -0.000002619371667   0.000008664016909  -0.000015200069415
Si   15.61412   7.46762   7.46762  -0.000070101052341  -0.000010403636932  -0.000010379693072
Si   15.61412  10.18313  10.18313  -0.000068237432737   0.000001425737698   0.000001420254603
Si   12.89863   7.46762  10.18313   0.000003466954084   0.000001351519420  -0.000003351773765
Si   12.89863  10.18313   7.46762   0.000003484141053  -0.000003350802258   0.000001333887067
Si   11.54087   6.10987  11.54087  -0.000006663242364  -0.000002632501275   0.000000620831048
Si   14.25638   6.10987  14.25638  -0.000014260195180   0.000004840976120   0.000024889273499
Si   11.54087   8.82538  14.25638  -0.000002661888902   0.000004605138036   0.000014464958305
Si   14.25638   8.82538  11.54087  -0.000003494508889   0.000001345236122   0.000012312047194
Si   15.61412   7.46762  12.89863   0.000001142611605  -0.000018491495600  -0.000000735474072
Si   15.61412  10.18313  15.61412   0.000013573148812  -0.000003739396284  -0.000002322202543
Si   12.89863   7.46762  15.61412   0.000005539838273  -0.000009957993691  -0.000017350332535
Si   12.89863  10.18313  12.89863   0.000003203066767   0.000003064493689  -0.000019590620088
Si   11.54087  11.54087   0.67888  -0.000012857991335  -0.000022947004922  -0.000010852775575
Si   14.25638  11.54087   3.39437  -0.000013383438585  -0.000007731562613  -0.000027768747868
Si   11.54087  14.25638   3.39437  -0.000001017261396  -0.000010807340114   0.000008805476084
Si   14.25638  14.25638   0.67888  -0.000178502033101  -0.000185477992412  -0.000102862956105
Si   15.61412  12.89863   2.03662   0.000029154699761   0.000030078382647   0.000040347521697
Si   15.61412  15.61412   4.75213   0.000024045594834  -0.000047531455622  -0.000018999299522
Si   12.89863  12.89863   4.75213   0.000015177768932   0.000007999615091   0.000008314662433
Si   12.89863  15.61412   2.03662   0.000005106967837   0.000025846407581  -0.000027912047766
Si   11.54087  11.54087   6.10987  -0.000006645982447   0.000000634773477  -0.000002637086233
Si   14.25638  11.54087   8.82538  -0.000003483847629   0.000012308417549   0.000001341249946
Si   11.54087  14.25638   8.82538  -0.000002669854108   0.000014471736133   0.000004618511588
Si   14.25638  14.25638   6.10987  -0.000014247957833   0.000024884281886   0.000004826235058
Si   15.61412  12.89863   7.46762   0.000001142928170  -0.000000770681753  -0.000018518430474
Si   15.61412  15.61412  10.18313   0.000013602193941  -0.000002502731541  -0.000003751176743
Si   12.89863  12.89863  10.18313   0.000003086957720  -0.000019595271889   0.000003067266935
Si   12.89863  15.61412   7.46762   0.000005514154724  -0.000017351441105  -0.000009960462423
Si   11.54087  11.54087  11.54087  -0.000011969323523  -0.000004725893765  -0.000004741276848
Si   14.25638  11.54087  14.25638  -0.000014129923678  -0.000018837078530   0.000024172014296
Si   11.54087  14.25638  14.25638  -0.000005603516497  -0.000004634181526  -0.000004614415014
Si   14.25638  14.25638  11.54087  -0.000014143703760   0.000024253160562  -0.000018857869078
Si   15.61412  12.89863  12.89863  -0.000180894713709   0.000063663815318   0.000063711059564
Si   15.61412  15.61412  15.61412  -0.003264895469359  -0.002175708188223  -0.002175807867269
Si   12.89863  12.89863  15.61412  -0.000008187556553  -0.000010903688587   0.000045157196211
Si   12.89863  15.61412  12.89863  -0.000008244914246   0.000045255804139  -0.000010917169308
