384 

Si    0.67887   0.67887   0.67888   0.000003780007521   0.000003780005198  -0.000004943432367
Si    3.39438   0.67887   3.39437  -0.000002077064217  -0.000005614887147   0.000007892207192
Si    0.67887   3.39437   3.39437  -0.000005614875321  -0.000002077132009   0.000007892072041
Si    3.39438   3.39437   0.67888   0.000002232380934   0.000002232285811  -0.000005445658024
Si    4.75212   2.03662   2.03662  -0.000000011487058   0.000000377798839  -0.000000871041174
Si    4.75212   4.75212   4.75213  -0.000002021755829  -0.000002021810759  -0.000003168391351
Si    2.03662   2.03662   4.75213  -0.000002167510447  -0.000002167686737  -0.000003637215456
Si    2.03662   4.75212   2.03662   0.000000377717742  -0.000000011514211  -0.000000871119496
Si    0.67887   0.67887   6.10987  -0.000004899012968  -0.000004899147417   0.000000333411418
Si    3.39438   0.67887   8.82537  -0.000002759307394  -0.000005115229426  -0.000009135383605
Si    0.67887   3.39437   8.82537  -0.000005115047114  -0.000002759366591  -0.000009135556886
Si    3.39438   3.39437   6.10987  -0.000004153192754  -0.000004153442718   0.000000193717579
Si    4.75212   2.03662   7.46762   0.000001267618293  -0.000000900095988   0.000001363780843
Si    4.75212   4.75212  10.18313  -0.000000895604958  -0.000000895825069   0.000001254684448
Si    2.03662   2.03662  10.18313   0.000000066749516   0.000000066363540   0.000000225482824
Si    2.03662   4.75212   7.46762  -0.000000900013942   0.000001267655984   0.000001363776035
Si    0.67887   0.67887  11.54087   0.000003757590811   0.000003757271502   0.000005236432191
Si    3.39438   0.67887  14.25638  -0.000000392785013   0.000007078949065  -0.000000029636206
Si    0.67887   3.39437  14.25638   0.000007078977328  -0.000000392750428  -0.000000029517032
Si    3.39438   3.39437  11.54087   0.000002718554178   0.000002718341660   0.000005988115860
Si    4.75212   2.03662  12.89862   0.000000209627511  -0.000000118365049  -0.000000884174942
Si    4.75212   4.75212  15.61413  -0.000001375827634  -0.000001375942035   0.000004813741495
Si    2.03662   2.03662  15.61413   0.000000043436392   0.000000043483283   0.000002438964172
Si    2.03662   4.75212  12.89862  -0.000000118303052   0.000000209670845  -0.000000884062480
Si    0.67887   6.10987   0.67888   0.000003189336034   0.000001620119081   0.000002413069568
Si    3.39438   6.10987   3.39437   0.000005635730165  -0.000005763703037   0.000003492676250
Si    0.67887   8.82537   3.39437   0.000002211867529   0.000001327100868  -0.000002615842308
Si    3.39438   8.82537   0.67888  -0.000001991075286  -0.000003965183440  -0.000004818260995
Si    4.75212   7.46762   2.03662   0.000002006387834   0.000002568620316   0.000000596110137
Si    4.75212  10.18313   4.75213  -0.000002105486450  -0.000001001230695  -0.000003115739604
Si    2.03662   7.46762   4.75213   0.000003415227012  -0.000000697077499  -0.000006810318635
Si    2.03662  10.18313   2.03662   0.000002104294324   0.000001262492394  -0.000000436856643
Si    0.67887   6.10987   6.10987  -0.000001361006591  -0.000001036566574  -0.000000510968542
Si    3.39438   6.10987   8.82537   0.000007204050053  -0.000005288509396  -0.000002219932432
Si    0.67887   8.82537   8.82537  -0.000000023266078   0.000001437698880   0.000002426072599
Si    3.39438   8.82537   6.10987   0.000000596796827   0.000004613180537  -0.000000323295249
Si    4.75212   7.46762   7.46762   0.000001037038246   0.000001966078574  -0.000002559834927
Si    4.75212  10.18313  10.18313   0.000001848687344   0.000002671478431   0.000000921053697
Si    2.03662   7.46762  10.18313  -0.000002055322030   0.000006387322941  -0.000000250128843
Si    2.03662  10.18313   7.46762  -0.000001910863515   0.000002696158555   0.000001633480954
Si    0.67887   6.10987  11.54087   0.000000087391496   0.000003408000856  -0.000000425769558
Si    3.39438   6.10987  14.25638  -0.000002940740642   0.000002001133005   0.000001111088086
Si    0.67887   8.82537  14.25638   0.000000138445660   0.000001469638180   0.000001037433169
Si    3.39438   8.82537  11.54087   0.000000147794346  -0.000003444590372   0.000003858738739
Si    4.75212   7.46762  12.89862   0.000001130881903  -0.000000432228436   0.000001687402565
Si    4.75212  10.18313  15.61413  -0.000002349861593  -0.000000184569152   0.000002208988899
Si    2.03662   7.46762  15.61413   0.000001687807345  -0.000001467952340   0.000006324519242
Si    2.03662  10.18313  12.89862  -0.000000043391382   0.000003473928663   0.000000471363006
Si    0.67887  11.54087   0.67888  -0.000006918615563   0.000006111840396  -0.000003361567567
Si    3.39438  11.54087   3.39437   0.000005332366351  -0.000002288786660  -0.000003078844851
Si    0.67887  14.25638   3.39437  -0.000002155225940   0.000000711671460   0.000005543821478
Si    3.39438  14.25638   0.67888  -0.000000329992167   0.000000518298980  -0.000002631938528
Si    4.75212  12.89862   2.03662  -0.000000234766434   0.000001157499558   0.000000300798952
Si    4.75212  15.61413   4.75213  -0.000001424462887   0.000000812715854  -0.000003373829552
Si    2.03662  12.89862   4.75213  -0.000005669068465  -0.000000563648295   0.000000868922018
Si    2.03662  15.61413   2.03662   0.000001510073033  -0.000003982511862  -0.000000589144124
Si    0.67887  11.54087   6.10987   0.000001991213406  -0.000003518178757   0.000000137568028
Si    3.39438  11.54087   8.82537   0.000005881885268  -0.000001779420338   0.000002226110794
Si    0.67887  14.25638   8.82537  -0.000003222220000   0.000001260988639  -0.000005794513780
Si    3.39438  14.25638   6.10987   0.000007351984880   0.000005928905916  -0.000000202162400
Si    4.75212  12.89862   7.46762  -0.000006277642007  -0.000002011702387  -0.000002876230642
Si    4.75212  15.61413  10.18313   0.000007656115761  -0.000001764473079   0.000000133560175
Si    2.03662  12.89862  10.18313  -0.000004023995541   0.000005474656304   0.000000748615254
Si    2.03662  15.61413   7.46762  -0.000002784724840  -0.000002365393006  -0.000000309634367
Si    0.67887  11.54087  11.54087  -0.000006353103311   0.000002713063122   0.000004752590537
Si    3.39438  11.54087  14.25638   0.000003808697868  -0.000003175306206  -0.000001515676994
Si    0.67887  14.25638  14.25638   0.000003956215464  -0.000004248255492   0.000000324414113
Si    3.39438  14.25638  11.54087  -0.000000236001742   0.000000430425062   0.000003145151532
Si    4.75212  12.89862  12.89862  -0.000004182987841  -0.000000590657518   0.000000849814693
Si    4.75212  15.61413  15.61413   0.000000379022073  -0.000001195556933   0.000005218537004
Si    2.03662  12.89862  15.61413  -0.000007774807761   0.000000262414624  -0.000000071881740
Si    2.03662  15.61413  12.89862  -0.000002713093469  -0.000002727725010  -0.000000527174698
Si    0.67887  16.97188   0.67888  -0.000000757878861   0.000002485659398  -0.000004554512603
Si    3.39438  16.97188   3.39437   0.000002559801121   0.000002276726737   0.000002444231666
Si    0.67887  19.68738   3.39437   0.000003155276889   0.000002868561589   0.000001081780438
Si    3.39438  19.68738   0.67888  -0.000007102027752  -0.000005992407482  -0.000001180716441
Si    4.75212  18.32963   2.03662  -0.000000875258316  -0.000000749921986  -0.000000968201460
Si    4.75212  21.04512   4.75213  -0.000001915122064   0.000000426786065  -0.000003552629266
Si    2.03662  18.32963   4.75213   0.000004586710225   0.000007183874122  -0.000003018284165
Si    2.03662  21.04512   2.03662   0.000002171659992   0.000000878456939   0.000000234168241
Si    0.67887  16.97188   6.10987  -0.000003479754819  -0.000010277350699   0.000000545005881
Si    3.39438  16.97188   8.82537   0.000002904965683   0.000002560088980  -0.000002081407783
Si    0.67887  19.68738   8.82537   0.000004852179767   0.000001223045109  -0.000001542121684
Si    3.39438  19.68738   6.10987   0.000002046474501  -0.000001075903884  -0.000000627799116
Si    4.75212  18.32963   7.46762  -0.000002560233778  -0.000002905115072   0.000002081346308
Si    4.75212  21.04512  10.18313   0.000010277159574   0.000003479865093  -0.000000544997847
Si    2.03662  18.32963  10.18313   0.000001075886071  -0.000002046547460   0.000000627834198
Si    2.03662  21.04512   7.46762  -0.000001222982298  -0.000004852186458   0.000001542301348
Si    0.67887  16.97188  11.54087  -0.000000426707001   0.000001915188942   0.000003552772434
Si    3.39438  16.97188  14.25638   0.000000749766032   0.000000874884456   0.000000968188845
Si    0.67887  19.68738  14.25638  -0.000000878504859  -0.000002171722976  -0.000000234041894
Si    3.39438  19.68738  11.54087  -0.000007183830517  -0.000004586759459   0.000003018206994
Si    4.75212  18.32963  12.89862  -0.000002276876399  -0.000002559959207  -0.000002444356501
Si    4.75212  21.04512  15.61413  -0.000002485763034   0.000000757938340   0.000004554403874
Si    2.03662  18.32963  15.61413   0.000005992301435   0.000007101776921   0.000001180760759
Si    2.03662  21.04512  12.89862  -0.000002868548033  -0.000003155081953  -0.000001081804237
Si    6.10987   0.67887   0.67888   0.000001620178081   0.000003189370144   0.000002413041422
Si    8.82537   0.67887   3.39437   0.000001327046024   0.000002211915646  -0.000002615820677
Si    6.10987   3.39437   3.39437  -0.000005763716007   0.000005635710711   0.000003492660130
Si    8.82537   3.39437   0.67888  -0.000003965250901  -0.000001990860564  -0.000004818209304
Si   10.18313   2.03662   2.03662   0.000001262509521   0.000002104424703  -0.000000436822383
Si   10.18313   4.75212   4.75213  -0.000001001230981  -0.000002105534935  -0.000003115682294
Si    7.46762   2.03662   4.75213  -0.000000697139581   0.000003415095380  -0.000006810204589
Si    7.46762   4.75212   2.03662   0.000002568786893   0.000002006406316   0.000000595957498
Si    6.10987   0.67887   6.10987  -0.000001036635685  -0.000001361110856  -0.000000511036630
Si    8.82537   0.67887   8.82537   0.000001437699758  -0.000000023429682   0.000002426140435
Si    6.10987   3.39437   8.82537  -0.000005288577391   0.000007204045001  -0.000002219807248
Si    8.82537   3.39437   6.10987   0.000004613363529   0.000000596891547  -0.000000323285746
Si   10.18313   2.03662   7.46762   0.000002696143823  -0.000001910687252   0.000001633450604
Si   10.18313   4.75212  10.18313   0.000002671525918   0.000001848660470   0.000000920901343
Si    7.46762   2.03662  10.18313   0.000006387282875  -0.000002055398012  -0.000000250157942
Si    7.46762   4.75212   7.46762   0.000001966129994   0.000001037006048  -0.000002559845525
Si    6.10987   0.67887  11.54087   0.000003407901588   0.000000087304952  -0.000000425896943
Si    8.82537   0.67887  14.25638   0.000001469650415   0.000000138479531   0.000001037450060
Si    6.10987   3.39437  14.25638   0.000002001143778  -0.000002940764026   0.000001111082836
Si    8.82537   3.39437  11.54087  -0.000003444531986   0.000000147861884   0.000003858749661
Si   10.18313   2.03662  12.89862   0.000003473952840  -0.000000043368483   0.000000471370587
Si   10.18313   4.75212  15.61413  -0.000000184826520  -0.000002349710850   0.000002208985473
Si    7.46762   2.03662  15.61413  -0.000001467964721   0.000001687879752   0.000006324465311
Si    7.46762   4.75212  12.89862  -0.000000432145328   0.000001130844116   0.000001687330096
Si    6.10987   6.10987   0.67888   0.000003857349925   0.000003857134368  -0.000000005629957
Si    8.82537   6.10987   3.39437   0.000008578635703   0.000001191291408  -0.000000040034715
Si    6.10987   8.82537   3.39437   0.000001191412008   0.000008578614623  -0.000000039959657
Si    8.82537   8.82537   0.67888   0.000004665326956   0.000004665111370  -0.000003516743290
Si   10.18313   7.46762   2.03662  -0.000007110678356  -0.000002473210695  -0.000000440869487
Si   10.18313  10.18313   4.75213  -0.000001483739824  -0.000001483914276   0.000001029689670
Si    7.46762   7.46762   4.75213  -0.000003672605126  -0.000003672694193   0.000006753259086
Si    7.46762  10.18313   2.03662  -0.000002473081739  -0.000007110920840  -0.000000440812885
Si    6.10987   6.10987   6.10987  -0.000004832562643  -0.000004832701986   0.000001363535297
Si    8.82537   6.10987   8.82537   0.000007651068573  -0.000000066160801   0.000000790691431
Si    6.10987   8.82537   8.82537  -0.000000066031953   0.000007651003136   0.000000790630611
Si    8.82537   8.82537   6.10987   0.000001977164814   0.000001976936897   0.000000890551255
Si   10.18313   7.46762   7.46762   0.000001813849169   0.000006325683250   0.000005756447972
Si   10.18313  10.18313  10.18313  -0.000001979787952  -0.000001979999390  -0.000001682244083
Si    7.46762   7.46762  10.18313  -0.000005643869779  -0.000005643906648   0.000000362030308
Si    7.46762  10.18313   7.46762   0.000006325675107   0.000001813758653   0.000005756615484
Si    6.10987   6.10987  11.54087   0.000002339561936   0.000002339479528  -0.000002180317901
Si    8.82537   6.10987  14.25638  -0.000005182210391   0.000001549501666  -0.000000901710636
Si    6.10987   8.82537  14.25638   0.000001549413835  -0.000005182330039  -0.000000901856143
Si    8.82537   8.82537  11.54087   0.000004016858300   0.000004016723189   0.000003474540269
Si   10.18313   7.46762  12.89862   0.000000633496914   0.000007341047144  -0.000004960706422
Si   10.18313  10.18313  15.61413  -0.000000710849047  -0.000000711113456  -0.000001295555556
Si    7.46762   7.46762  15.61413  -0.000003715321748  -0.000003715592469  -0.000006872484392
Si    7.46762  10.18313  12.89862   0.000007341021822   0.000000633450282  -0.000004960718947
Si    6.10987  11.54087   0.67888  -0.000005767498340   0.000005757034578  -0.000003143683135
Si    8.82537  11.54087   3.39437   0.000001981249029   0.000001509808981   0.000000920642796
Si    6.10987  14.25638   3.39437  -0.000002675889840  -0.000001432400519   0.000005881306352
Si    8.82537  14.25638   0.67888  -0.000000871378787  -0.000001692688474  -0.000002179521634
Si   10.18313  12.89862   2.03662   0.000000763623330  -0.000002178921023  -0.000000870520666
Si   10.18313  15.61413   4.75213  -0.000008468082330   0.000003922991965  -0.000003034703101
Si    7.46762  12.89862   4.75213   0.000001605580691   0.000000756064002  -0.000001765119493
Si    7.46762  15.61413   2.03662  -0.000005440107962  -0.000001761376191  -0.000000042066906
Si    6.10987  11.54087   6.10987   0.000002271399741  -0.000003799925401  -0.000001303027918
Si    8.82537  11.54087   8.82537   0.000001406566953   0.000002892250551  -0.000001136458107
Si    6.10987  14.25638   8.82537  -0.000002345479838  -0.000002605793244  -0.000006273357824
Si    8.82537  14.25638   6.10987   0.000001041749475   0.000002757506069  -0.000000665192091
Si   10.18313  12.89862   7.46762  -0.000002892185757  -0.000001406730225   0.000001136494333
Si   10.18313  15.61413  10.18313   0.000003799948856  -0.000002271474364   0.000001303160234
Si    7.46762  12.89862  10.18313  -0.000002757631547  -0.000001041798480   0.000000665236558
Si    7.46762  15.61413   7.46762   0.000002605507172   0.000002345377054   0.000006273468390
Si    6.10987  11.54087  11.54087  -0.000003923049064   0.000008468143972   0.000003034585395
Si    8.82537  11.54087  14.25638   0.000002178972325  -0.000000763485521   0.000000870412744
Si    6.10987  14.25638  14.25638   0.000001761108157   0.000005439930697   0.000000042005441
Si    8.82537  14.25638  11.54087  -0.000000756217659  -0.000001605766015   0.000001765078220
Si   10.18313  12.89862  12.89862  -0.000001509765903  -0.000001981360102  -0.000000920614983
Si   10.18313  15.61413  15.61413  -0.000005756789554   0.000005767158272   0.000003143743576
Si    7.46762  12.89862  15.61413   0.000001692579691   0.000000871443611   0.000002179470831
Si    7.46762  15.61413  12.89862   0.000001432171594   0.000002675848754  -0.000005881352594
Si    6.10987  16.97188   0.67888   0.000001195394434  -0.000000379338232  -0.000005218705424
Si    8.82537  16.97188   3.39437   0.000000590792703   0.000004182821563  -0.000000849792941
Si    6.10987  19.68738   3.39437   0.000002727757113   0.000002713231341   0.000000527405610
Si    8.82537  19.68738   0.67888  -0.000000262392385   0.000007774987194   0.000000071866767
Si   10.18313  18.32963   2.03662   0.000003175508803  -0.000003808676370   0.000001515771158
Si   10.18313  21.04512   4.75213  -0.000002712936702   0.000006353474042  -0.000004752518610
Si    7.46762  18.32963   4.75213  -0.000000430513922   0.000000236130315  -0.000003145145381
Si    7.46762  21.04512   2.03662   0.000004248399802  -0.000003956026880  -0.000000324254685
Si    6.10987  16.97188   6.10987   0.000001764221968  -0.000007656228853  -0.000000133419344
Si    8.82537  16.97188   8.82537   0.000002011638981   0.000006277715500   0.000002876257104
Si    6.10987  19.68738   8.82537   0.000002365309595   0.000002784779538   0.000000309668416
Si    8.82537  19.68738   6.10987  -0.000005474482736   0.000004024148549  -0.000000748506799
Si   10.18313  18.32963   7.46762   0.000001779482611  -0.000005881704404  -0.000002226034786
Si   10.18313  21.04512  10.18313   0.000003518214847  -0.000001990932044  -0.000000137620602
Si    7.46762  18.32963  10.18313  -0.000005928866157  -0.000007352063030   0.000000202257050
Si    7.46762  21.04512   7.46762  -0.000001260978227   0.000003222456344   0.000005794482844
Si    6.10987  16.97188  11.54087  -0.000000812837342   0.000001424288831   0.000003373919654
Si    8.82537  16.97188  14.25638  -0.000001157734028   0.000000234589194  -0.000000300885203
Si    6.10987  19.68738  14.25638   0.000003982415604  -0.000001510074758   0.000000589096527
Si    8.82537  19.68738  11.54087   0.000000563610364   0.000005669156923  -0.000000869061736
Si   10.18313  18.32963  12.89862   0.000002288930145  -0.000005332348635   0.000003078713694
Si   10.18313  21.04512  15.61413  -0.000006111716865   0.000006918877214   0.000003361597050
Si    7.46762  18.32963  15.61413  -0.000000518372595   0.000000329893225   0.000002631823429
Si    7.46762  21.04512  12.89862  -0.000000711790586   0.000002155459054  -0.000005543963622
Si   11.54087   0.67887   0.67888   0.000006111888575  -0.000006918631756  -0.000003361593347
Si   14.25638   0.67887   3.39437   0.000000711591026  -0.000002155191896   0.000005543919644
Si   11.54087   3.39437   3.39437  -0.000002288886363   0.000005332392331  -0.000003078718030
Si   14.25638   3.39437   0.67888   0.000000518152469  -0.000000329846178  -0.000002631885039
Si   15.61413   2.03662   2.03662  -0.000003982775586   0.000001510146979  -0.000000588983704
Si   15.61413   4.75212   4.75213   0.000000812532782  -0.000001424247816  -0.000003373859689
Si   12.89862   2.03662   4.75213  -0.000000563821992  -0.000005669054378   0.000000868993985
Si   12.89862   4.75212   2.03662   0.000001157496052  -0.000000234497534   0.000000300870756
Si   11.54087   0.67887   6.10987  -0.000003518237627   0.000001991259460   0.000000137474445
Si   14.25638   0.67887   8.82537   0.000001260782362  -0.000003222381161  -0.000005794534169
Si   11.54087   3.39437   8.82537  -0.000001779540904   0.000005881964733   0.000002225990428
Si   14.25638   3.39437   6.10987   0.000005928700991   0.000007352115102  -0.000000202255480
Si   15.61413   2.03662   7.46762  -0.000002365617762  -0.000002784672583  -0.000000309762086
Si   15.61413   4.75212  10.18313  -0.000001764664109   0.000007656455565   0.000000133570608
Si   12.89862   2.03662  10.18313   0.000005474384091  -0.000004023984028   0.000000748620471
Si   12.89862   4.75212   7.46762  -0.000002011830936  -0.000006277738008  -0.000002876257518
Si   11.54087   0.67887  11.54087   0.000002713020736  -0.000006353087827   0.000004752567605
Si   14.25638   0.67887  14.25638  -0.000004248544924   0.000003956134679   0.000000324387132
Si   11.54087   3.39437  14.25638  -0.000003175394290   0.000003808730230  -0.000001515747523
Si   14.25638   3.39437  11.54087   0.000000430100966  -0.000000235880866   0.000003145261897
Si   15.61413   2.03662  12.89862  -0.000002727933077  -0.000002713106928  -0.000000527229724
Si   15.61413   4.75212  15.61413  -0.000001195714477   0.000000379293814   0.000005218715481
Si   12.89862   2.03662  15.61413   0.000000262245453  -0.000007774795452  -0.000000071782725
Si   12.89862   4.75212  12.89862  -0.000000590649886  -0.000004182876390   0.000000849735498
Si   11.54087   6.10987   0.67888   0.000005757111262  -0.000005767192912  -0.000003143433445
Si   14.25638   6.10987   3.39437  -0.000001432444477  -0.000002675707377   0.000005881286681
Si   11.54087   8.82537   3.39437   0.000001510040912   0.000001981007794   0.000000920635044
Si   14.25638   8.82537   0.67888  -0.000001692776571  -0.000000871449233  -0.000002179401956
Si   15.61413   7.46762   2.03662  -0.000001761500894  -0.000005439960377  -0.000000042048952
Si   15.61413  10.18313   4.75213   0.000003922953850  -0.000008468214003  -0.000003034578728
Si   12.89862   7.46762   4.75213   0.000000756173355   0.000001605718422  -0.000001765204967
Si   12.89862  10.18313   2.03662  -0.000002178770959   0.000000763390541  -0.000000870524670
Si   11.54087   6.10987   6.10987  -0.000003800034565   0.000002271448842  -0.000001303167373
Si   14.25638   6.10987   8.82537  -0.000002605827579  -0.000002345282140  -0.000006273352565
Si   11.54087   8.82537   8.82537   0.000002892406941   0.000001406585661  -0.000001136541564
Si   14.25638   8.82537   6.10987   0.000002757639958   0.000001041805999  -0.000000665245194
Si   15.61413   7.46762   7.46762   0.000002345173196   0.000002605881039   0.000006273321976
Si   15.61413  10.18313  10.18313  -0.000002271638361   0.000003799982372   0.000001302980115
Si   12.89862   7.46762  10.18313  -0.000001041758602  -0.000002757547191   0.000000665224776
Si   12.89862  10.18313   7.46762  -0.000001406498388  -0.000002892365265   0.000001136515235
Si   11.54087   6.10987  11.54087   0.000008468259356  -0.000003923031714   0.000003034551234
Si   14.25638   6.10987  14.25638   0.000005439810553   0.000001761315867   0.000000041961523
Si   11.54087   8.82537  14.25638  -0.000000763440795   0.000002178917461   0.000000870432135
Si   14.25638   8.82537  11.54087  -0.000001605773928  -0.000000756260402   0.000001765168526
Si   15.61413   7.46762  12.89862   0.000002675519870   0.000001432332499  -0.000005881398946
Si   15.61413  10.18313  15.61413   0.000005767301600  -0.000005756951294   0.000003143654322
Si   12.89862   7.46762  15.61413   0.000000871435420   0.000001692649017   0.000002179565113
Si   12.89862  10.18313  12.89862  -0.000001981289732  -0.000001509838860  -0.000000920646449
Si   11.54087  11.54087   0.67888   0.000000711251222   0.000000711076394   0.000001295440461
Si   14.25638  11.54087   3.39437  -0.000007341012769  -0.000000633446091   0.000004960718762
Si   11.54087  14.25638   3.39437  -0.000000633183785  -0.000007341109163   0.000004960545876
Si   14.25638  14.25638   0.67888   0.000003715470325   0.000003715440086   0.000006872383453
Si   15.61413  12.89862   2.03662  -0.000001549485409   0.000005182305612   0.000000901769631
Si   15.61413  15.61413   4.75213  -0.000002339498271  -0.000002339552830   0.000002180385402
Si   12.89862  12.89862   4.75213  -0.000004016573718  -0.000004016782307  -0.000003474604002
Si   12.89862  15.61413   2.03662   0.000005182376949  -0.000001549676559   0.000000901705321
Si   11.54087  11.54087   6.10987   0.000001980007096   0.000001979782438   0.000001682344040
Si   14.25638  11.54087   8.82537  -0.000006325628994  -0.000001813876404  -0.000005756552043
Si   11.54087  14.25638   8.82537  -0.000001813732832  -0.000006325808178  -0.000005756574252
Si   14.25638  14.25638   6.10987   0.000005644001263   0.000005643840454  -0.000000362054233
Si   15.61413  12.89862   7.46762   0.000000065932208  -0.000007651048676  -0.000000790757568
Si   15.61413  15.61413  10.18313   0.000004832604274   0.000004832650480  -0.000001363643900
Si   12.89862  12.89862  10.18313  -0.000001976851795  -0.000001977126870  -0.000000890514724
Si   12.89862  15.61413   7.46762  -0.000007650752576   0.000000065955209  -0.000000790698387
Si   11.54087  11.54087  11.54087   0.000001483912653   0.000001483619655  -0.000001029428582
Si   14.25638  11.54087  14.25638   0.000002473023271   0.000007111027688   0.000000440879595
Si   11.54087  14.25638  14.25638   0.000007111149370   0.000002472934598   0.000000440920707
Si   14.25638  14.25638  11.54087   0.000003672669966   0.000003672484848  -0.000006753101000
Si   15.61413  12.89862  12.89862  -0.000001191571327  -0.000008578491275   0.000000040152286
Si   15.61413  15.61413  15.61413  -0.000003857368460  -0.000003857424412   0.000000005599248
Si   12.89862  12.89862  15.61413  -0.000004665184353  -0.000004665237083   0.000003516681660
Si   12.89862  15.61413  12.89862  -0.000008578415588  -0.000001191599163   0.000000040182239
Si   11.54087  16.97188   0.67888   0.000000184960865   0.000002349604256  -0.000002208989302
Si   14.25638  16.97188   3.39437   0.000000432311399  -0.000001130912928  -0.000001687336221
Si   11.54087  19.68738   3.39437  -0.000003473752547   0.000000043507809  -0.000000471416509
Si   14.25638  19.68738   0.67888   0.000001467843195  -0.000001687711238  -0.000006324436172
Si   15.61413  18.32963   2.03662  -0.000002001126446   0.000002940604914  -0.000001110943231
Si   15.61413  21.04512   4.75213  -0.000003408080392  -0.000000087307919   0.000000425952585
Si   12.89862  18.32963   4.75213   0.000003444733004  -0.000000147811228  -0.000003858842242
Si   12.89862  21.04512   2.03662  -0.000001469607833  -0.000000138219395  -0.000001037454392
Si   11.54087  16.97188   6.10987  -0.000002671405988  -0.000001848663111  -0.000000921055918
Si   14.25638  16.97188   8.82537  -0.000001965950551  -0.000001037084217   0.000002559865244
Si   11.54087  19.68738   8.82537  -0.000002696110633   0.000001910902360  -0.000001633605251
Si   14.25638  19.68738   6.10987  -0.000006387210868   0.000002055485132   0.000000250091692
Si   15.61413  18.32963   7.46762   0.000005288608007  -0.000007204077638   0.000002219843254
Si   15.61413  21.04512  10.18313   0.000001036470232   0.000001360997356   0.000000510973946
Si   12.89862  18.32963  10.18313  -0.000004613086057  -0.000000596811387   0.000000323331156
Si   12.89862  21.04512   7.46762  -0.000001437658237   0.000000023512953  -0.000002426116851
Si   11.54087  16.97188  11.54087   0.000001001358547   0.000002105484815   0.000003115624827
Si   14.25638  16.97188  14.25638  -0.000002568607243  -0.000002006579346  -0.000000595989206
Si   11.54087  19.68738  14.25638  -0.000001262269353  -0.000002104178401   0.000000436832397
Si   14.25638  19.68738  11.54087   0.000000697165102  -0.000003415164884   0.000006810154657
Si   15.61413  18.32963  12.89862   0.000005763718547  -0.000005635884983  -0.000003492696150
Si   15.61413  21.04512  15.61413  -0.000001620347800  -0.000003189205871  -0.000002413015568
Si   12.89862  18.32963  15.61413   0.000003965322809   0.000001990919937   0.000004818214779
Si   12.89862  21.04512  12.89862  -0.000001327085203  -0.000002211701329   0.000002615896329
Si   16.97188   0.67887   0.67888   0.000002485587686  -0.000000757925795  -0.000004554453682
Si   19.68738   0.67887   3.39437   0.000002868747659   0.000003155111876   0.000001081775332
Si   16.97188   3.39437   3.39437   0.000002276552096   0.000002559855395   0.000002444342526
Si   19.68738   3.39437   0.67888  -0.000005992176248  -0.000007101893147  -0.000001180764466
Si   21.04512   2.03662   2.03662   0.000000878673680   0.000002171626274   0.000000234145033
Si   21.04512   4.75212   4.75213   0.000000426780989  -0.000001915181890  -0.000003552815933
Si   18.32963   2.03662   4.75213   0.000007183787888   0.000004586690950  -0.000003018311662
Si   18.32963   4.75212   2.03662  -0.000000749957507  -0.000000874879747  -0.000000968210022
Si   16.97188   0.67887   6.10987  -0.000010277345093  -0.000003479879621   0.000000544906663
Si   19.68738   0.67887   8.82537   0.000001223019901   0.000004851853159  -0.000001542334150
Si   16.97188   3.39437   8.82537   0.000002560022664   0.000002905085339  -0.000002081440966
Si   19.68738   3.39437   6.10987  -0.000001075770211   0.000002046461593  -0.000000627906499
Si   21.04512   2.03662   7.46762  -0.000004852072989  -0.000001223179548   0.000001542155144
Si   21.04512   4.75212  10.18313   0.000003479908137   0.000010277290670  -0.000000544968099
Si   18.32963   2.03662  10.18313  -0.000002046601710   0.000001075786181   0.000000627869456
Si   18.32963   4.75212   7.46762  -0.000002905168451  -0.000002560068068   0.000002081414629
Si   16.97188   0.67887  11.54087   0.000001915209242  -0.000000426819861   0.000003552684315
Si   19.68738   0.67887  14.25638  -0.000002171549059  -0.000000878532715  -0.000000234061444
Si   16.97188   3.39437  14.25638   0.000000874856328   0.000000749845503   0.000000968231942
Si   19.68738   3.39437  11.54087  -0.000004586778843  -0.000007183813903   0.000003018339728
Si   21.04512   2.03662  12.89862  -0.000003154935264  -0.000002868688239  -0.000001081628898
Si   21.04512   4.75212  15.61413   0.000000758115909  -0.000002485763850   0.000004554462744
Si   18.32963   2.03662  15.61413   0.000007101963110   0.000005992370974   0.000001180742497
Si   18.32963   4.75212  12.89862  -0.000002559900532  -0.000002276665723  -0.000002444311437
Si   16.97188   6.10987   0.67888  -0.000000379401730   0.000001195572765  -0.000005218545434
Si   19.68738   6.10987   3.39437   0.000002713133800   0.000002727852546   0.000000527190616
Si   16.97188   8.82537   3.39437   0.000004182694885   0.000000590771886  -0.000000849702427
Si   19.68738   8.82537   0.67888   0.000007774935572  -0.000000262305916   0.000000071807390
Si   21.04512   7.46762   2.03662  -0.000003956059445   0.000004248420156  -0.000000324359352
Si   21.04512  10.18313   4.75213   0.000006353302604  -0.000002712991453  -0.000004752632397
Si   18.32963   7.46762   4.75213   0.000000235855720  -0.000000430196944  -0.000003145188944
Si   18.32963  10.18313   2.03662  -0.000003808832549   0.000003175514996   0.000001515816271
Si   16.97188   6.10987   6.10987  -0.000007656490815   0.000001764596417  -0.000000133542006
Si   19.68738   6.10987   8.82537   0.000002784629790   0.000002365494604   0.000000309580408
Si   16.97188   8.82537   8.82537   0.000006277531791   0.000002011743679   0.000002876179784
Si   19.68738   8.82537   6.10987   0.000004023939086  -0.000005474485652  -0.000000748640704
Si   21.04512   7.46762   7.46762   0.000003222361060  -0.000001260897702   0.000005794392749
Si   21.04512  10.18313  10.18313  -0.000001991070659   0.000003518380368  -0.000000137484488
Si   18.32963   7.46762  10.18313  -0.000007352235528  -0.000005928751525   0.000000202154123
Si   18.32963  10.18313   7.46762  -0.000005882015619   0.000001779399812  -0.000002226051622
Si   16.97188   6.10987  11.54087   0.000001424102387  -0.000000812609207   0.000003373855899
Si   19.68738   6.10987  14.25638  -0.000001509972847   0.000003982511067   0.000000589036929
Si   16.97188   8.82537  14.25638   0.000000234463574  -0.000001157370882  -0.000000300766198
Si   19.68738   8.82537  11.54087   0.000005669085908   0.000000563701136  -0.000000869028844
Si   21.04512   7.46762  12.89862   0.000002155393401  -0.000000711740061  -0.000005543872788
Si   21.04512  10.18313  15.61413   0.000006918803325  -0.000006111827800   0.000003361724142
Si   18.32963   7.46762  15.61413   0.000000329832596  -0.000000518112951   0.000002631994735
Si   18.32963  10.18313  12.89862  -0.000005332488161   0.000002289012305   0.000003078933261
Si   16.97188  11.54087   0.67888   0.000002349595069   0.000000184835310  -0.000002208991640
Si   19.68738  11.54087   3.39437   0.000000043280491  -0.000003473805404  -0.000000471453763
Si   16.97188  14.25638   3.39437  -0.000001130866600   0.000000432139372  -0.000001687375080
Si   19.68738  14.25638   0.67888  -0.000001687708641   0.000001467944770  -0.000006324332609
Si   21.04512  12.89862   2.03662  -0.000000138287992  -0.000001469526810  -0.000001037411818
Si   21.04512  15.61413   4.75213  -0.000000087338068  -0.000003407963371   0.000000425919707
Si   18.32963  12.89862   4.75213  -0.000000147993090   0.000003444670996  -0.000003858961720
Si   18.32963  15.61413   2.03662   0.000002940693032  -0.000002001193150  -0.000001110958136
Si   16.97188  11.54087   6.10987  -0.000001848885948  -0.000002671496646  -0.000000921066588
Si   19.68738  11.54087   8.82537   0.000001910781053  -0.000002696022307  -0.000001633514366
Si   16.97188  14.25638   8.82537  -0.000001037140880  -0.000001966048725   0.000002559816005
Si   19.68738  14.25638   6.10987   0.000002055497033  -0.000006387140978   0.000000250121820
Si   21.04512  12.89862   7.46762   0.000000023513552  -0.000001437585742  -0.000002426124121
Si   21.04512  15.61413  10.18313   0.000001361203763   0.000001036572188   0.000000511050734
Si   18.32963  12.89862  10.18313  -0.000000596855864  -0.000004613211776   0.000000323287728
Si   18.32963  15.61413   7.46762  -0.000007204059526   0.000005288540673   0.000002219734970
Si   16.97188  11.54087  11.54087   0.000002105375115   0.000001001340641   0.000003115664436
Si   19.68738  11.54087  14.25638  -0.000002104478381  -0.000001262311532   0.000000436847448
Si   16.97188  14.25638  14.25638  -0.000002006685166  -0.000002568697265  -0.000000595970407
Si   19.68738  14.25638  11.54087  -0.000003415070690   0.000000697121286   0.000006810274838
Si   21.04512  12.89862  12.89862  -0.000002211681855  -0.000001326879247   0.000002615790090
Si   21.04512  15.61413  15.61413  -0.000003189027951  -0.000001620154133  -0.000002412977357
Si   18.32963  12.89862  15.61413   0.000001990810152   0.000003965205084   0.000004818265047
Si   18.32963  15.61413  12.89862  -0.000005635768048   0.000005763756330  -0.000003492726461
Si   16.97188  16.97188   0.67888   0.000001375783757   0.000001375786462  -0.000004813711045
Si   19.68738  16.97188   3.39437   0.000000118363851  -0.000000209694237   0.000000884234555
Si   16.97188  19.68738   3.39437  -0.000000209752377   0.000000118159759   0.000000884253412
Si   19.68738  19.68738   0.67888  -0.000000043336524  -0.000000043548492  -0.000002438960256
Si   21.04512  18.32963   2.03662  -0.000007078934299   0.000000392711670   0.000000029517220
Si   21.04512  21.04512   4.75213  -0.000003757298320  -0.000003757497899  -0.000005236375771
Si   18.32963  18.32963   4.75213  -0.000002718504167  -0.000002718615520  -0.000005988262271
Si   18.32963  21.04512   2.03662   0.000000392847579  -0.000007079056221   0.000000029632008
Si   16.97188  16.97188   6.10987   0.000000895603588   0.000000895596003  -0.000001254724203
Si   19.68738  16.97188   8.82537   0.000000900108994  -0.000001267527184  -0.000001363798201
Si   16.97188  19.68738   8.82537  -0.000001267514208   0.000000899984740  -0.000001363827872
Si   19.68738  19.68738   6.10987  -0.000000066495321  -0.000000066488210  -0.000000225310924
Si   21.04512  18.32963   7.46762   0.000005115158352   0.000002759310928   0.000009135538724
Si   21.04512  21.04512  10.18313   0.000004899188467   0.000004898895753  -0.000000333558998
Si   18.32963  18.32963  10.18313   0.000004153367105   0.000004153316068  -0.000000193844238
Si   18.32963  21.04512   7.46762   0.000002759505024   0.000005115056255   0.000009135538950
Si   16.97188  16.97188  11.54087   0.000002021737639   0.000002021729368   0.000003168433691
Si   19.68738  16.97188  14.25638  -0.000000377641705   0.000000011493012   0.000000871054169
Si   16.97188  19.68738  14.25638   0.000000011462612  -0.000000377852018   0.000000870997966
Si   19.68738  19.68738  11.54087   0.000002167647343   0.000002167478423   0.000003637085763
Si   21.04512  18.32963  12.89862   0.000005615058071   0.000002076976883  -0.000007892226464
Si   21.04512  21.04512  15.61413  -0.000003779854922  -0.000003780102107   0.000004943444013
Si   18.32963  18.32963  15.61413  -0.000002232221715  -0.000002232426603   0.000005445747282
Si   18.32963  21.04512  12.89862   0.000002077084814   0.000005614882374  -0.000007892265746
