64 

Si    0.67888   0.67888   0.67888  -0.000000346423071  -0.000000346423182  -0.000000346410696
Si    3.39437   0.67888   3.39437  -0.000000479999605  -0.000001000917592  -0.000000479995805
Si    0.67888   3.39437   3.39437  -0.000001000917653  -0.000000479999581  -0.000000479995874
Si    3.39437   3.39437   0.67888  -0.000000480005101  -0.000000480005167  -0.000001000921063
Si    4.75212   2.03662   2.03662   0.000001000917696   0.000000479999113   0.000000479995689
Si    4.75212   4.75212   4.75212   0.000000346423276   0.000000346422748   0.000000346410506
Si    2.03663   2.03662   4.75212   0.000000480005512   0.000000480005339   0.000001000921218
Si    2.03663   4.75212   2.03662   0.000000479999000   0.000001000917936   0.000000479995911
Si    0.67888   0.67888   6.10987  -0.000000346423008  -0.000000346423149  -0.000000346410583
Si    3.39437   0.67888   8.82537  -0.000000479998911  -0.000001000918271  -0.000000479995498
Si    0.67888   3.39437   8.82537  -0.000001000917535  -0.000000479998946  -0.000000479995861
Si    3.39437   3.39437   6.10987  -0.000000480005302  -0.000000480005638  -0.000001000921213
Si    4.75212   2.03662   7.46762   0.000001000917429   0.000000479999327   0.000000479995512
Si    4.75212   4.75212  10.18313   0.000000346422985   0.000000346423135   0.000000346410623
Si    2.03663   2.03662  10.18313   0.000000480005379   0.000000480005427   0.000001000920854
Si    2.03663   4.75212   7.46762   0.000000479999217   0.000001000917555   0.000000479996082
Si    0.67888   6.10987   0.67888  -0.000000346423032  -0.000000346423370  -0.000000346410439
Si    3.39437   6.10987   3.39437  -0.000000479998795  -0.000001000917493  -0.000000479996204
Si    0.67888   8.82537   3.39437  -0.000001000917537  -0.000000479999221  -0.000000479995353
Si    3.39437   8.82537   0.67888  -0.000000480005165  -0.000000480005185  -0.000001000921139
Si    4.75212   7.46762   2.03662   0.000001000917458   0.000000479998997   0.000000479996058
Si    4.75212  10.18313   4.75212   0.000000346423203   0.000000346423103   0.000000346410406
Si    2.03663   7.46762   4.75212   0.000000480004996   0.000000480005260   0.000001000920687
Si    2.03663  10.18313   2.03662   0.000000479999707   0.000001000917701   0.000000479995800
Si    0.67888   6.10987   6.10987  -0.000000346422830  -0.000000346422915  -0.000000346410436
Si    3.39437   6.10987   8.82537  -0.000000479999317  -0.000001000917790  -0.000000479995798
Si    0.67888   8.82537   8.82537  -0.000001000917943  -0.000000479998677  -0.000000479995782
Si    3.39437   8.82537   6.10987  -0.000000480005234  -0.000000480005499  -0.000001000920751
Si    4.75212   7.46762   7.46762   0.000001000917660   0.000000479999532   0.000000479996086
Si    4.75212  10.18313  10.18313   0.000000346422580   0.000000346423281   0.000000346410331
Si    2.03663   7.46762  10.18313   0.000000480005751   0.000000480005275   0.000001000920991
Si    2.03663  10.18313   7.46762   0.000000479999058   0.000001000917957   0.000000479995698
Si    6.10987   0.67888   0.67888  -0.000000346422843  -0.000000346422923  -0.000000346410439
Si    8.82537   0.67888   3.39437  -0.000000479999311  -0.000001000917806  -0.000000479995797
Si    6.10987   3.39437   3.39437  -0.000001000917943  -0.000000479998676  -0.000000479995772
Si    8.82537   3.39437   0.67888  -0.000000480005232  -0.000000480005495  -0.000001000920733
Si   10.18313   2.03662   2.03662   0.000001000917664   0.000000479999531   0.000000479996097
Si   10.18313   4.75212   4.75212   0.000000346422561   0.000000346423279   0.000000346410351
Si    7.46762   2.03662   4.75212   0.000000480005720   0.000000480005281   0.000001000920985
Si    7.46762   4.75212   2.03662   0.000000479999036   0.000001000917925   0.000000479995694
Si    6.10987   0.67888   6.10987  -0.000000346423036  -0.000000346423337  -0.000000346410431
Si    8.82537   0.67888   8.82537  -0.000000479998785  -0.000001000917483  -0.000000479996211
Si    6.10987   3.39437   8.82537  -0.000001000917527  -0.000000479999217  -0.000000479995348
Si    8.82537   3.39437   6.10987  -0.000000480005143  -0.000000480005171  -0.000001000921162
Si   10.18313   2.03662   7.46762   0.000001000917446   0.000000479998991   0.000000479996066
Si   10.18313   4.75212  10.18313   0.000000346423206   0.000000346423107   0.000000346410404
Si    7.46762   2.03662  10.18313   0.000000480004982   0.000000480005267   0.000001000920675
Si    7.46762   4.75212   7.46762   0.000000479999697   0.000001000917698   0.000000479995815
Si    6.10987   6.10987   0.67888  -0.000000346423015  -0.000000346423165  -0.000000346410602
Si    8.82537   6.10987   3.39437  -0.000000479998915  -0.000001000918271  -0.000000479995494
Si    6.10987   8.82537   3.39437  -0.000001000917546  -0.000000479998966  -0.000000479995872
Si    8.82537   8.82537   0.67888  -0.000000480005304  -0.000000480005648  -0.000001000921221
Si   10.18313   7.46762   2.03662   0.000001000917442   0.000000479999340   0.000000479995529
Si   10.18313  10.18313   4.75212   0.000000346422974   0.000000346423117   0.000000346410621
Si    7.46762   7.46762   4.75212   0.000000480005362   0.000000480005451   0.000001000920888
Si    7.46762  10.18313   2.03662   0.000000479999213   0.000001000917567   0.000000479996097
Si    6.10987   6.10987   6.10987  -0.000000346423056  -0.000000346423164  -0.000000346410706
Si    8.82537   6.10987   8.82537  -0.000000479999624  -0.000001000917579  -0.000000479995799
Si    6.10987   8.82537   8.82537  -0.000001000917650  -0.000000479999584  -0.000000479995861
Si    8.82537   8.82537   6.10987  -0.000000480005118  -0.000000480005161  -0.000001000921075
Si   10.18313   7.46762   7.46762   0.000001000917696   0.000000479999090   0.000000479995684
Si   10.18313  10.18313  10.18313   0.000000346423271   0.000000346422764   0.000000346410532
Si    7.46762   7.46762  10.18313   0.000000480005504   0.000000480005345   0.000001000921203
Si    7.46762  10.18313   7.46762   0.000000479999008   0.000001000917924   0.000000479995914
