300 

Si    0.00000  -0.00000  -0.00000   0.000094898811383  -0.000171784217028  -0.000171781475391
Si    1.35775   1.35775   1.35775  -0.000086998503677   0.000172839655708   0.000172285094907
Si    2.71550   2.71550   0.00000   0.000094898811010  -0.000171784217202  -0.000171781475559
Si    4.07325   4.07325   1.35775  -0.000086998503683   0.000172839655701   0.000172285095305
Si    5.43100   5.43100   0.00000   0.000094898810882  -0.000171784217108  -0.000171781475448
Si    6.78875   6.78875   1.35775  -0.000086998503675   0.000172839655647   0.000172285094971
Si    8.14650   8.14650   0.00000   0.000094898811023  -0.000171784217184  -0.000171781475415
Si    9.50425   9.50425   1.35775  -0.000086998503657   0.000172839655623   0.000172285094954
Si   10.86200  10.86200   0.00000   0.000094898810953  -0.000171784217207  -0.000171781475528
Si   12.21975  12.21975   1.35775  -0.000086998503284   0.000172839655603   0.000172285095001
Si    2.71550   0.00000   2.71550   0.000094898811173  -0.000171784217160  -0.000171781475346
Si    4.07325   1.35775   4.07325  -0.000086998503830   0.000172839655890   0.000172285095230
Si    5.43100   2.71550   2.71550   0.000094898810782  -0.000171784217257  -0.000171781475591
Si    6.78875   4.07325   4.07325  -0.000086998503797   0.000172839655697   0.000172285095368
Si    8.14650   5.43100   2.71550   0.000094898811122  -0.000171784216956  -0.000171781475493
Si    9.50425   6.78875   4.07325  -0.000086998503684   0.000172839655565   0.000172285095208
Si   10.86200   8.14650   2.71550   0.000094898811012  -0.000171784217164  -0.000171781475513
Si   12.21975   9.50425   4.07325  -0.000086998503403   0.000172839655442   0.000172285095133
Si   13.57750  10.86200   2.71550   0.000094898811303  -0.000171784216971  -0.000171781475476
Si   14.93525  12.21975   4.07325  -0.000086998503673   0.000172839655837   0.000172285095276
Si    5.43100  -0.00000   5.43100   0.000094898810887  -0.000171784217164  -0.000171781475612
Si    6.78875   1.35775   6.78875  -0.000086998503841   0.000172839655755   0.000172285095298
Si    8.14650   2.71550   5.43100   0.000094898811031  -0.000171784217083  -0.000171781475402
Si    9.50425   4.07325   6.78875  -0.000086998503755   0.000172839655801   0.000172285095211
Si   10.86200   5.43100   5.43100   0.000094898811066  -0.000171784217101  -0.000171781475524
Si   12.21975   6.78875   6.78875  -0.000086998503752   0.000172839655726   0.000172285095192
Si   13.57750   8.14650   5.43100   0.000094898811041  -0.000171784216914  -0.000171781475322
Si   14.93525   9.50425   6.78875  -0.000086998503552   0.000172839655584   0.000172285095240
Si   16.29300  10.86200   5.43100   0.000094898811224  -0.000171784216945  -0.000171781475506
Si   17.65075  12.21975   6.78875  -0.000086998503963   0.000172839655750   0.000172285095309
Si    8.14650   0.00000   8.14650   0.000094898810995  -0.000171784217134  -0.000171781475614
Si    9.50425   1.35775   9.50425  -0.000086998503632   0.000172839655776   0.000172285095356
Si   10.86200   2.71550   8.14650   0.000094898811140  -0.000171784216975  -0.000171781475512
Si   12.21975   4.07325   9.50425  -0.000086998503671   0.000172839655493   0.000172285095229
Si   13.57750   5.43100   8.14650   0.000094898811257  -0.000171784217036  -0.000171781475493
Si   14.93525   6.78875   9.50425  -0.000086998503634   0.000172839655573   0.000172285095403
Si   16.29300   8.14650   8.14650   0.000094898810963  -0.000171784216946  -0.000171781475417
Si   17.65075   9.50425   9.50425  -0.000086998503500   0.000172839655733   0.000172285095374
Si   19.00850  10.86200   8.14650   0.000094898810962  -0.000171784217232  -0.000171781475414
Si   20.36625  12.21975   9.50425  -0.000086998503937   0.000172839655664   0.000172285095176
Si   10.86200   0.00000  10.86200   0.000094898811094  -0.000171784217145  -0.000171781475384
Si   12.21975   1.35775  12.21975  -0.000086998503470   0.000172839655740   0.000172285095062
Si   13.57750   2.71550  10.86200   0.000094898811186  -0.000171784217118  -0.000171781475215
Si   14.93525   4.07325  12.21975  -0.000086998503763   0.000172839655766   0.000172285095200
Si   16.29300   5.43100  10.86200   0.000094898810974  -0.000171784217051  -0.000171781475276
Si   17.65075   6.78875  12.21975  -0.000086998503555   0.000172839655687   0.000172285095126
Si   19.00850   8.14650  10.86200   0.000094898810905  -0.000171784216943  -0.000171781475513
Si   20.36625   9.50425  12.21975  -0.000086998503879   0.000172839655537   0.000172285095100
Si   21.72400  10.86200  10.86200   0.000094898810970  -0.000171784217105  -0.000171781475374
Si   23.08175  12.21975  12.21975  -0.000086998503514   0.000172839655531   0.000172285095149
Si    0.00000   2.71550   2.71550   0.000092740609322  -0.000155822357578  -0.000156372613494
Si    1.35775   4.07325   4.07325  -0.000081315492663   0.000166970180268   0.000167517410244
Si    2.71550   5.43100   2.71550   0.000092740609333  -0.000155822357768  -0.000156372613408
Si    4.07325   6.78875   4.07325  -0.000081315492713   0.000166970180008   0.000167517410262
Si    5.43100   8.14650   2.71550   0.000092740609274  -0.000155822357633  -0.000156372613279
Si    6.78875   9.50425   4.07325  -0.000081315492998   0.000166970180015   0.000167517410394
Si    8.14650  10.86200   2.71550   0.000092740609407  -0.000155822357508  -0.000156372613298
Si    9.50425  12.21975   4.07325  -0.000081315492783   0.000166970180159   0.000167517410161
Si   10.86200  13.57750   2.71550   0.000092740609101  -0.000155822357541  -0.000156372613122
Si   12.21975  14.93525   4.07325  -0.000081315492602   0.000166970180177   0.000167517410171
Si    2.71550   2.71550   5.43100   0.000092740609570  -0.000155822357731  -0.000156372613223
Si    4.07325   4.07325   6.78875  -0.000081315492835   0.000166970180223   0.000167517410294
Si    5.43100   5.43100   5.43100   0.000092740609185  -0.000155822357571  -0.000156372613151
Si    6.78875   6.78875   6.78875  -0.000081315493031   0.000166970180060   0.000167517410064
Si    8.14650   8.14650   5.43100   0.000092740609495  -0.000155822357279  -0.000156372613242
Si    9.50425   9.50425   6.78875  -0.000081315492934   0.000166970180041   0.000167517410192
Si   10.86200  10.86200   5.43100   0.000092740609163  -0.000155822357471  -0.000156372613072
Si   12.21975  12.21975   6.78875  -0.000081315492448   0.000166970180056   0.000167517410009
Si   13.57750  13.57750   5.43100   0.000092740609275  -0.000155822357900  -0.000156372613196
Si   14.93525  14.93525   6.78875  -0.000081315492741   0.000166970180220   0.000167517410363
Si    5.43100   2.71550   8.14650   0.000092740609287  -0.000155822357480  -0.000156372613305
Si    6.78875   4.07325   9.50425  -0.000081315493278   0.000166970180154   0.000167517410076
Si    8.14650   5.43100   8.14650   0.000092740609515  -0.000155822357617  -0.000156372613248
Si    9.50425   6.78875   9.50425  -0.000081315492743   0.000166970180014   0.000167517410059
Si   10.86200   8.14650   8.14650   0.000092740609346  -0.000155822357624  -0.000156372613238
Si   12.21975   9.50425   9.50425  -0.000081315492555   0.000166970179897   0.000167517410120
Si   13.57750  10.86200   8.14650   0.000092740609269  -0.000155822357634  -0.000156372613305
Si   14.93525  12.21975   9.50425  -0.000081315492619   0.000166970180214   0.000167517410332
Si   16.29300  13.57750   8.14650   0.000092740609537  -0.000155822357606  -0.000156372613369
Si   17.65075  14.93525   9.50425  -0.000081315492952   0.000166970180154   0.000167517410144
Si    8.14650   2.71550  10.86200   0.000092740609431  -0.000155822357585  -0.000156372613061
Si    9.50425   4.07325  12.21975  -0.000081315492932   0.000166970180243   0.000167517410278
Si   10.86200   5.43100  10.86200   0.000092740609359  -0.000155822357341  -0.000156372613177
Si   12.21975   6.78875  12.21975  -0.000081315492564   0.000166970180067   0.000167517410192
Si   13.57750   8.14650  10.86200   0.000092740609428  -0.000155822357739  -0.000156372613412
Si   14.93525   9.50425  12.21975  -0.000081315492891   0.000166970180099   0.000167517410231
Si   16.29300  10.86200  10.86200   0.000092740609521  -0.000155822357636  -0.000156372613426
Si   17.65075  12.21975  12.21975  -0.000081315492882   0.000166970180277   0.000167517410226
Si   19.00850  13.57750  10.86200   0.000092740609224  -0.000155822357727  -0.000156372613019
Si   20.36625  14.93525  12.21975  -0.000081315493236   0.000166970180256   0.000167517410183
Si   10.86200   2.71550  13.57750   0.000092740609375  -0.000155822357716  -0.000156372613410
Si   12.21975   4.07325  14.93525  -0.000081315492569   0.000166970180096   0.000167517410224
Si   13.57750   5.43100  13.57750   0.000092740609400  -0.000155822357724  -0.000156372613591
Si   14.93525   6.78875  14.93525  -0.000081315492788   0.000166970180192   0.000167517410257
Si   16.29300   8.14650  13.57750   0.000092740609532  -0.000155822357741  -0.000156372613416
Si   17.65075   9.50425  14.93525  -0.000081315492865   0.000166970180119   0.000167517410301
Si   19.00850  10.86200  13.57750   0.000092740609255  -0.000155822357377  -0.000156372613431
Si   20.36625  12.21975  14.93525  -0.000081315493125   0.000166970180248   0.000167517410341
Si   21.72400  13.57750  13.57750   0.000092740609244  -0.000155822357573  -0.000156372613131
Si   23.08175  14.93525  14.93525  -0.000081315492861   0.000166970180247   0.000167517410411
Si    0.00000   5.43100   5.43100   0.000100254341133  -0.000166127634255  -0.000165579399449
Si    1.35775   6.78875   6.78875  -0.000089597000097   0.000165811248664   0.000165817856718
Si    2.71550   8.14650   5.43100   0.000100254341113  -0.000166127634210  -0.000165579399355
Si    4.07325   9.50425   6.78875  -0.000089597000234   0.000165811248447   0.000165817856704
Si    5.43100  10.86200   5.43100   0.000100254340991  -0.000166127634366  -0.000165579399408
Si    6.78875  12.21975   6.78875  -0.000089597000380   0.000165811248498   0.000165817856601
Si    8.14650  13.57750   5.43100   0.000100254341146  -0.000166127634181  -0.000165579399295
Si    9.50425  14.93525   6.78875  -0.000089597000279   0.000165811248641   0.000165817856641
Si   10.86200  16.29300   5.43100   0.000100254341227  -0.000166127634333  -0.000165579399551
Si   12.21975  17.65075   6.78875  -0.000089596999984   0.000165811248467   0.000165817856718
Si    2.71550   5.43100   8.14650   0.000100254341289  -0.000166127634400  -0.000165579399408
Si    4.07325   6.78875   9.50425  -0.000089597000265   0.000165811248373   0.000165817856414
Si    5.43100   8.14650   8.14650   0.000100254340831  -0.000166127634014  -0.000165579399457
Si    6.78875   9.50425   9.50425  -0.000089597000432   0.000165811248300   0.000165817856653
Si    8.14650  10.86200   8.14650   0.000100254341280  -0.000166127634145  -0.000165579399339
Si    9.50425  12.21975   9.50425  -0.000089597000394   0.000165811248671   0.000165817856645
Si   10.86200  13.57750   8.14650   0.000100254341140  -0.000166127634144  -0.000165579399445
Si   12.21975  14.93525   9.50425  -0.000089596999798   0.000165811248494   0.000165817856616
Si   13.57750  16.29300   8.14650   0.000100254341150  -0.000166127634465  -0.000165579399612
Si   14.93525  17.65075   9.50425  -0.000089597000007   0.000165811248469   0.000165817856513
Si    5.43100   5.43100  10.86200   0.000100254341125  -0.000166127634165  -0.000165579399367
Si    6.78875   6.78875  12.21975  -0.000089597000703   0.000165811248445   0.000165817856743
Si    8.14650   8.14650  10.86200   0.000100254341158  -0.000166127633929  -0.000165579399289
Si    9.50425   9.50425  12.21975  -0.000089597000247   0.000165811248429   0.000165817856705
Si   10.86200  10.86200  10.86200   0.000100254341336  -0.000166127634342  -0.000165579399385
Si   12.21975  12.21975  12.21975  -0.000089596999955   0.000165811248661   0.000165817856589
Si   13.57750  13.57750  10.86200   0.000100254341068  -0.000166127634401  -0.000165579399563
Si   14.93525  14.93525  12.21975  -0.000089597000082   0.000165811248406   0.000165817856773
Si   16.29300  16.29300  10.86200   0.000100254341152  -0.000166127634243  -0.000165579399460
Si   17.65075  17.65075  12.21975  -0.000089597000252   0.000165811248410   0.000165817856617
Si    8.14650   5.43100  13.57750   0.000100254341349  -0.000166127634231  -0.000165579399238
Si    9.50425   6.78875  14.93525  -0.000089597000283   0.000165811248486   0.000165817856597
Si   10.86200   8.14650  13.57750   0.000100254341221  -0.000166127634307  -0.000165579399342
Si   12.21975   9.50425  14.93525  -0.000089596999951   0.000165811248361   0.000165817856546
Si   13.57750  10.86200  13.57750   0.000100254341136  -0.000166127634350  -0.000165579399423
Si   14.93525  12.21975  14.93525  -0.000089597000146   0.000165811248571   0.000165817856685
Si   16.29300  13.57750  13.57750   0.000100254341306  -0.000166127634470  -0.000165579399431
Si   17.65075  14.93525  14.93525  -0.000089597000207   0.000165811248451   0.000165817856475
Si   19.00850  16.29300  13.57750   0.000100254341360  -0.000166127634269  -0.000165579399212
Si   20.36625  17.65075  14.93525  -0.000089597000340   0.000165811248372   0.000165817856300
Si   10.86200   5.43100  16.29300   0.000100254341078  -0.000166127634379  -0.000165579399481
Si   12.21975   6.78875  17.65075  -0.000089596999922   0.000165811248440   0.000165817856618
Si   13.57750   8.14650  16.29300   0.000100254341294  -0.000166127634332  -0.000165579399471
Si   14.93525   9.50425  17.65075  -0.000089597000278   0.000165811248563   0.000165817856600
Si   16.29300  10.86200  16.29300   0.000100254341295  -0.000166127634172  -0.000165579399456
Si   17.65075  12.21975  17.65075  -0.000089597000145   0.000165811248500   0.000165817856539
Si   19.00850  13.57750  16.29300   0.000100254341107  -0.000166127634313  -0.000165579399348
Si   20.36625  14.93525  17.65075  -0.000089597000383   0.000165811248542   0.000165817856491
Si   21.72400  16.29300  16.29300   0.000100254341190  -0.000166127634249  -0.000165579399210
Si   23.08175  17.65075  17.65075  -0.000089597000186   0.000165811248334   0.000165817856566
Si    0.00000   8.14650   8.14650   0.000094898811356  -0.000171784217032  -0.000171781475393
Si    1.35775   9.50425   9.50425  -0.000086998503684   0.000172839655698   0.000172285094927
Si    2.71550  10.86200   8.14650   0.000094898811027  -0.000171784217202  -0.000171781475573
Si    4.07325  12.21975   9.50425  -0.000086998503675   0.000172839655702   0.000172285095316
Si    5.43100  13.57750   8.14650   0.000094898810894  -0.000171784217105  -0.000171781475440
Si    6.78875  14.93525   9.50425  -0.000086998503675   0.000172839655621   0.000172285094950
Si    8.14650  16.29300   8.14650   0.000094898811021  -0.000171784217187  -0.000171781475419
Si    9.50425  17.65075   9.50425  -0.000086998503659   0.000172839655642   0.000172285094943
Si   10.86200  19.00850   8.14650   0.000094898810945  -0.000171784217206  -0.000171781475534
Si   12.21975  20.36625   9.50425  -0.000086998503249   0.000172839655624   0.000172285095023
Si    2.71550   8.14650  10.86200   0.000094898811157  -0.000171784217175  -0.000171781475351
Si    4.07325   9.50425  12.21975  -0.000086998503834   0.000172839655871   0.000172285095230
Si    5.43100  10.86200  10.86200   0.000094898810749  -0.000171784217262  -0.000171781475579
Si    6.78875  12.21975  12.21975  -0.000086998503817   0.000172839655692   0.000172285095367
Si    8.14650  13.57750  10.86200   0.000094898811127  -0.000171784216989  -0.000171781475491
Si    9.50425  14.93525  12.21975  -0.000086998503693   0.000172839655563   0.000172285095211
Si   10.86200  16.29300  10.86200   0.000094898810996  -0.000171784217165  -0.000171781475504
Si   12.21975  17.65075  12.21975  -0.000086998503419   0.000172839655438   0.000172285095131
Si   13.57750  19.00850  10.86200   0.000094898811307  -0.000171784216980  -0.000171781475491
Si   14.93525  20.36625  12.21975  -0.000086998503677   0.000172839655822   0.000172285095290
Si    5.43100   8.14650  13.57750   0.000094898810860  -0.000171784217171  -0.000171781475601
Si    6.78875   9.50425  14.93525  -0.000086998503827   0.000172839655759   0.000172285095293
Si    8.14650  10.86200  13.57750   0.000094898811031  -0.000171784217093  -0.000171781475397
Si    9.50425  12.21975  14.93525  -0.000086998503741   0.000172839655771   0.000172285095218
Si   10.86200  13.57750  13.57750   0.000094898811054  -0.000171784217121  -0.000171781475528
Si   12.21975  14.93525  14.93525  -0.000086998503739   0.000172839655732   0.000172285095194
Si   13.57750  16.29300  13.57750   0.000094898811041  -0.000171784216935  -0.000171781475306
Si   14.93525  17.65075  14.93525  -0.000086998503548   0.000172839655583   0.000172285095248
Si   16.29300  19.00850  13.57750   0.000094898811226  -0.000171784216967  -0.000171781475499
Si   17.65075  20.36625  14.93525  -0.000086998503957   0.000172839655764   0.000172285095333
Si    8.14650   8.14650  16.29300   0.000094898811006  -0.000171784217143  -0.000171781475607
Si    9.50425   9.50425  17.65075  -0.000086998503623   0.000172839655770   0.000172285095369
Si   10.86200  10.86200  16.29300   0.000094898811102  -0.000171784216971  -0.000171781475513
Si   12.21975  12.21975  17.65075  -0.000086998503678   0.000172839655497   0.000172285095216
Si   13.57750  13.57750  16.29300   0.000094898811241  -0.000171784217028  -0.000171781475481
Si   14.93525  14.93525  17.65075  -0.000086998503629   0.000172839655546   0.000172285095397
Si   16.29300  16.29300  16.29300   0.000094898810958  -0.000171784216951  -0.000171781475424
Si   17.65075  17.65075  17.65075  -0.000086998503523   0.000172839655737   0.000172285095388
Si   19.00850  19.00850  16.29300   0.000094898810949  -0.000171784217247  -0.000171781475421
Si   20.36625  20.36625  17.65075  -0.000086998503909   0.000172839655671   0.000172285095175
Si   10.86200   8.14650  19.00850   0.000094898811070  -0.000171784217136  -0.000171781475372
Si   12.21975   9.50425  20.36625  -0.000086998503460   0.000172839655736   0.000172285095085
Si   13.57750  10.86200  19.00850   0.000094898811180  -0.000171784217132  -0.000171781475207
Si   14.93525  12.21975  20.36625  -0.000086998503769   0.000172839655776   0.000172285095215
Si   16.29300  13.57750  19.00850   0.000094898810979  -0.000171784217060  -0.000171781475287
Si   17.65075  14.93525  20.36625  -0.000086998503543   0.000172839655696   0.000172285095125
Si   19.00850  16.29300  19.00850   0.000094898810903  -0.000171784216964  -0.000171781475499
Si   20.36625  17.65075  20.36625  -0.000086998503873   0.000172839655539   0.000172285095116
Si   21.72400  19.00850  19.00850   0.000094898810988  -0.000171784217124  -0.000171781475393
Si   23.08175  20.36625  20.36625  -0.000086998503505   0.000172839655495   0.000172285095153
Si    0.00000  10.86200  10.86200   0.000092740609346  -0.000155822357583  -0.000156372613498
Si    1.35775  12.21975  12.21975  -0.000081315492667   0.000166970180271   0.000167517410244
Si    2.71550  13.57750  10.86200   0.000092740609318  -0.000155822357776  -0.000156372613411
Si    4.07325  14.93525  12.21975  -0.000081315492705   0.000166970180022   0.000167517410262
Si    5.43100  16.29300  10.86200   0.000092740609266  -0.000155822357619  -0.000156372613269
Si    6.78875  17.65075  12.21975  -0.000081315493006   0.000166970180024   0.000167517410393
Si    8.14650  19.00850  10.86200   0.000092740609410  -0.000155822357507  -0.000156372613303
Si    9.50425  20.36625  12.21975  -0.000081315492789   0.000166970180153   0.000167517410160
Si   10.86200  21.72400  10.86200   0.000092740609091  -0.000155822357555  -0.000156372613148
Si   12.21975  23.08175  12.21975  -0.000081315492582   0.000166970180182   0.000167517410186
Si    2.71550  10.86200  13.57750   0.000092740609577  -0.000155822357717  -0.000156372613231
Si    4.07325  12.21975  14.93525  -0.000081315492849   0.000166970180240   0.000167517410279
Si    5.43100  13.57750  13.57750   0.000092740609168  -0.000155822357550  -0.000156372613152
Si    6.78875  14.93525  14.93525  -0.000081315493028   0.000166970180046   0.000167517410072
Si    8.14650  16.29300  13.57750   0.000092740609504  -0.000155822357276  -0.000156372613237
Si    9.50425  17.65075  14.93525  -0.000081315492942   0.000166970180032   0.000167517410184
Si   10.86200  19.00850  13.57750   0.000092740609167  -0.000155822357450  -0.000156372613059
Si   12.21975  20.36625  14.93525  -0.000081315492442   0.000166970180062   0.000167517409998
Si   13.57750  21.72400  13.57750   0.000092740609276  -0.000155822357887  -0.000156372613181
Si   14.93525  23.08175  14.93525  -0.000081315492763   0.000166970180215   0.000167517410350
Si    5.43100  10.86200  16.29300   0.000092740609308  -0.000155822357504  -0.000156372613296
Si    6.78875  12.21975  17.65075  -0.000081315493285   0.000166970180133   0.000167517410092
Si    8.14650  13.57750  16.29300   0.000092740609502  -0.000155822357599  -0.000156372613242
Si    9.50425  14.93525  17.65075  -0.000081315492727   0.000166970180010   0.000167517410052
Si   10.86200  16.29300  16.29300   0.000092740609351  -0.000155822357621  -0.000156372613251
Si   12.21975  17.65075  17.65075  -0.000081315492561   0.000166970179877   0.000167517410111
Si   13.57750  19.00850  16.29300   0.000092740609278  -0.000155822357635  -0.000156372613309
Si   14.93525  20.36625  17.65075  -0.000081315492635   0.000166970180225   0.000167517410312
Si   16.29300  21.72400  16.29300   0.000092740609522  -0.000155822357617  -0.000156372613384
Si   17.65075  23.08175  17.65075  -0.000081315492940   0.000166970180164   0.000167517410179
Si    8.14650  10.86200  19.00850   0.000092740609397  -0.000155822357592  -0.000156372613057
Si    9.50425  12.21975  20.36625  -0.000081315492934   0.000166970180230   0.000167517410276
Si   10.86200  13.57750  19.00850   0.000092740609365  -0.000155822357353  -0.000156372613183
Si   12.21975  14.93525  20.36625  -0.000081315492553   0.000166970180063   0.000167517410201
Si   13.57750  16.29300  19.00850   0.000092740609408  -0.000155822357722  -0.000156372613378
Si   14.93525  17.65075  20.36625  -0.000081315492913   0.000166970180082   0.000167517410223
Si   16.29300  19.00850  19.00850   0.000092740609551  -0.000155822357637  -0.000156372613435
Si   17.65075  20.36625  20.36625  -0.000081315492889   0.000166970180277   0.000167517410223
Si   19.00850  21.72400  19.00850   0.000092740609207  -0.000155822357713  -0.000156372613008
Si   20.36625  23.08175  20.36625  -0.000081315493229   0.000166970180284   0.000167517410174
Si   10.86200  10.86200  21.72400   0.000092740609388  -0.000155822357701  -0.000156372613393
Si   12.21975  12.21975  23.08175  -0.000081315492591   0.000166970180096   0.000167517410226
Si   13.57750  13.57750  21.72400   0.000092740609420  -0.000155822357719  -0.000156372613599
Si   14.93525  14.93525  23.08175  -0.000081315492780   0.000166970180177   0.000167517410260
Si   16.29300  16.29300  21.72400   0.000092740609525  -0.000155822357746  -0.000156372613435
Si   17.65075  17.65075  23.08175  -0.000081315492879   0.000166970180120   0.000167517410311
Si   19.00850  19.00850  21.72400   0.000092740609262  -0.000155822357372  -0.000156372613434
Si   20.36625  20.36625  23.08175  -0.000081315493135   0.000166970180215   0.000167517410352
Si   21.72400  21.72400  21.72400   0.000092740609258  -0.000155822357582  -0.000156372613151
Si   23.08175  23.08175  23.08175  -0.000081315492846   0.000166970180260   0.000167517410429
Si    0.00000  13.57750  13.57750   0.000100254341114  -0.000166127634263  -0.000165579399433
Si    1.35775  14.93525  14.93525  -0.000089597000079   0.000165811248681   0.000165817856730
Si    2.71550  16.29300  13.57750   0.000100254341106  -0.000166127634213  -0.000165579399355
Si    4.07325  17.65075  14.93525  -0.000089597000227   0.000165811248427   0.000165817856705
Si    5.43100  19.00850  13.57750   0.000100254340983  -0.000166127634369  -0.000165579399409
Si    6.78875  20.36625  14.93525  -0.000089597000383   0.000165811248484   0.000165817856605
Si    8.14650  21.72400  13.57750   0.000100254341127  -0.000166127634146  -0.000165579399314
Si    9.50425  23.08175  14.93525  -0.000089597000261   0.000165811248657   0.000165817856657
Si   10.86200  24.43950  13.57750   0.000100254341223  -0.000166127634311  -0.000165579399539
Si   12.21975  25.79725  14.93525  -0.000089596999977   0.000165811248477   0.000165817856722
Si    2.71550  13.57750  16.29300   0.000100254341321  -0.000166127634383  -0.000165579399423
Si    4.07325  14.93525  17.65075  -0.000089597000266   0.000165811248382   0.000165817856411
Si    5.43100  16.29300  16.29300   0.000100254340813  -0.000166127634018  -0.000165579399457
Si    6.78875  17.65075  17.65075  -0.000089597000459   0.000165811248306   0.000165817856661
Si    8.14650  19.00850  16.29300   0.000100254341263  -0.000166127634130  -0.000165579399339
Si    9.50425  20.36625  17.65075  -0.000089597000395   0.000165811248652   0.000165817856642
Si   10.86200  21.72400  16.29300   0.000100254341142  -0.000166127634137  -0.000165579399449
Si   12.21975  23.08175  17.65075  -0.000089596999802   0.000165811248505   0.000165817856610
Si   13.57750  24.43950  16.29300   0.000100254341161  -0.000166127634461  -0.000165579399606
Si   14.93525  25.79725  17.65075  -0.000089596999985   0.000165811248462   0.000165817856512
Si    5.43100  13.57750  19.00850   0.000100254341149  -0.000166127634178  -0.000165579399348
Si    6.78875  14.93525  20.36625  -0.000089597000709   0.000165811248464   0.000165817856745
Si    8.14650  16.29300  19.00850   0.000100254341157  -0.000166127633919  -0.000165579399289
Si    9.50425  17.65075  20.36625  -0.000089597000234   0.000165811248431   0.000165817856707
Si   10.86200  19.00850  19.00850   0.000100254341324  -0.000166127634346  -0.000165579399385
Si   12.21975  20.36625  20.36625  -0.000089596999944   0.000165811248686   0.000165817856579
Si   13.57750  21.72400  19.00850   0.000100254341071  -0.000166127634422  -0.000165579399558
Si   14.93525  23.08175  20.36625  -0.000089597000086   0.000165811248422   0.000165817856767
Si   16.29300  24.43950  19.00850   0.000100254341157  -0.000166127634256  -0.000165579399461
Si   17.65075  25.79725  20.36625  -0.000089597000239   0.000165811248421   0.000165817856634
Si    8.14650  13.57750  21.72400   0.000100254341331  -0.000166127634241  -0.000165579399219
Si    9.50425  14.93525  23.08175  -0.000089597000280   0.000165811248467   0.000165817856613
Si   10.86200  16.29300  21.72400   0.000100254341222  -0.000166127634315  -0.000165579399337
Si   12.21975  17.65075  23.08175  -0.000089596999933   0.000165811248384   0.000165817856531
Si   13.57750  19.00850  21.72400   0.000100254341109  -0.000166127634356  -0.000165579399420
Si   14.93525  20.36625  23.08175  -0.000089597000160   0.000165811248582   0.000165817856702
Si   16.29300  21.72400  21.72400   0.000100254341317  -0.000166127634457  -0.000165579399458
Si   17.65075  23.08175  23.08175  -0.000089597000219   0.000165811248460   0.000165817856464
Si   19.00850  24.43950  21.72400   0.000100254341354  -0.000166127634271  -0.000165579399206
Si   20.36625  25.79725  23.08175  -0.000089597000328   0.000165811248357   0.000165817856307
Si   10.86200  13.57750  24.43950   0.000100254341085  -0.000166127634379  -0.000165579399488
Si   12.21975  14.93525  25.79725  -0.000089596999915   0.000165811248439   0.000165817856628
Si   13.57750  16.29300  24.43950   0.000100254341311  -0.000166127634332  -0.000165579399451
Si   14.93525  17.65075  25.79725  -0.000089597000292   0.000165811248565   0.000165817856587
Si   16.29300  19.00850  24.43950   0.000100254341301  -0.000166127634170  -0.000165579399480
Si   17.65075  20.36625  25.79725  -0.000089597000135   0.000165811248506   0.000165817856548
Si   19.00850  21.72400  24.43950   0.000100254341100  -0.000166127634329  -0.000165579399361
Si   20.36625  23.08175  25.79725  -0.000089597000382   0.000165811248547   0.000165817856514
Si   21.72400  24.43950  24.43950   0.000100254341189  -0.000166127634278  -0.000165579399211
Si   23.08175  25.79725  25.79725  -0.000089597000159   0.000165811248314   0.000165817856572
