155 

C    8.01999   7.88315   0.55702  -0.014171043684667   0.000722246338820  -0.000080523192860
C    6.96113  10.44779   0.55571  -0.010993024282121  -0.008044624104529   0.001265090033178
C    5.74964  11.18264   0.55475  -0.001493943614454  -0.012875970388423   0.000184210209478
C    1.89862  10.04303   0.55447   0.008915386169412  -0.008974971318846   0.000395478747378
C    1.24340   7.34768   0.55614   0.011373385649379   0.004036788499652   0.000532796765895
C    1.78497   6.03355   0.55634   0.009251956553035   0.006517350774966   0.000240081957813
C    4.16099   4.59760   0.55298   0.002959559517354   0.012341799133662   0.000700924403047
C    5.57580   4.70870   0.55033  -0.005858150984836   0.011026369587986  -0.000273547302901
C    7.69027   6.50563   0.55304  -0.010780390078860   0.006446813722402   0.000777653482052
C    2.98169  10.96285   0.55399   0.005208140606661  -0.011360002345245   0.000469804877172
C    3.64063  11.23790   1.77488   0.005848184516965  -0.010975792833070   0.000467993211900
C    7.96902   8.59416   1.77091  -0.011298386404518  -0.004721230629516   0.000531076993161
C    2.25598   5.49565   1.77509   0.010622698952677   0.007732969916583   0.000386479492845
C    3.46965   4.76026   1.77498   0.002106337240981   0.012547310978512   0.000154613749123
C    7.42898   9.90847   1.77254  -0.010028424882750  -0.006292076265728   0.000381213491537
C    1.52528   9.43841   1.77450   0.010652619997215  -0.005328131801962   0.000318704528806
C    6.23829   4.97477   1.77167  -0.004319797485523   0.011310619234840   0.000821139610840
C    7.32016   5.89585   1.76980  -0.008688113051814   0.009419683636814   0.001012959721622
C    1.19262   8.05840   1.77447   0.013785824662699  -0.000299670652296   0.000386123765193
C    5.05578  11.34945   1.77430  -0.003000883643372  -0.012098056737625   0.000597491225539
C    8.02538   7.88095   2.98200  -0.014090371924732   0.000722628230053  -0.000023454483142
C    6.96106  10.44509   2.99035  -0.010368595338990  -0.008174997704505  -0.000222363091186
C    5.75014  11.18178   2.99384  -0.001940876816071  -0.012773282267327  -0.000267400877233
C    1.89843  10.04354   2.99427   0.009030175610275  -0.009105683063734  -0.000072423910290
C    1.24378   7.34907   2.99313   0.011109004161754   0.004733420833863   0.000644333200946
C    1.78718   6.03536   2.99347   0.009357125387773   0.006428471888359   0.000222051453702
C    4.16542   4.60073   2.99524   0.002732627697081   0.012203869111306   0.000110407793207
C    5.58071   4.70782   2.99370  -0.005693457909388   0.010911451323883  -0.000518983781513
C    7.69792   6.50225   2.98393  -0.010863866857409   0.005693709816672  -0.000763772308304
C    2.98206  10.96339   2.99550   0.005174954950548  -0.011269737796524   0.000000553384871
C    3.64414  11.22817   4.21738   0.006047875599247  -0.010922530565255   0.000334912487971
C    7.98039   8.59072   4.19664  -0.011499529690817  -0.003705592334701   0.000163854174593
C    2.25656   5.50022   4.21373   0.010786702184912   0.007777134757608   0.000192428006146
C    3.47332   4.77140   4.21561   0.001600009932136   0.012337975384456   0.000278673440637
C    7.43338   9.89942   4.20375  -0.009194811724077  -0.007044039644906   0.001149599207531
C    1.52211   9.43688   4.21267   0.010301548763252  -0.006663822304491   0.000352931979346
C    6.24234   4.98991   4.21239  -0.003739917661204   0.011562221134634   0.001402308378064
C    7.33088   5.89984   4.20678  -0.009026364793685   0.008327754754931   0.001475261763624
C    1.18903   8.05859   4.21156   0.014652553578123  -0.000079561238814   0.000595658552117
C    5.05888  11.33697   4.21672  -0.003327352279650  -0.011726274567928   0.000263389606526
C    8.06782   7.88323   5.40997  -0.013475728412335   0.003028304978806   0.002191449548626
C    6.96646  10.42028   5.42718  -0.009393528559710  -0.007437328963796  -0.001087228181837
C    5.75503  11.15424   5.43341  -0.002628856975056  -0.012227564952496   0.001502324531672
C    1.89481  10.03924   5.43465   0.009272320423956  -0.008917400093367   0.000487060356411
C    1.23225   7.34904   5.42992   0.011611730509659   0.004395216008273  -0.000653010977704
C    1.78045   6.03783   5.43078   0.009472436118716   0.006727897897318   0.000788900822096
C    4.16989   4.62758   5.43712   0.002526295044102   0.012682415577841   0.000342866933082
C    5.58368   4.74360   5.43767  -0.005528122707452   0.010322597386783  -0.001024610922359
C    7.73002   6.49884   5.41822  -0.012987830039266   0.004752632887137  -0.000348692843866
C    2.98652  10.94822   5.43694   0.004818557325218  -0.011375474836827   0.000362099517080
C    3.65468  11.19704   6.65786   0.005942178873203  -0.010898361571254   0.000227837591086
C    8.05672   8.59669   6.62003  -0.011898099956575  -0.001768488757579  -0.009950922470191
C    2.24801   5.50482   6.65172   0.011124474534293   0.007893108000702  -0.000354739379321
C    3.47289   4.79142   6.65359   0.001380867269882   0.011941330175479   0.000278016803605
C    7.45431   9.87712   6.63753  -0.008490546059263  -0.007720927488150  -0.000935223356700
C    1.51107   9.43505   6.65162   0.010626604156737  -0.005905814930145   0.000181832756163
C    6.24824   5.03362   6.65324  -0.001771597907342   0.011439728763053  -0.000891403667365
C    7.36597   5.90084   6.64337  -0.009644211771539   0.003631505732504  -0.006555539836513
C    1.17112   8.05704   6.65018   0.014190042795122   0.000223297733500   0.000495136921497
C    5.06908  11.29513   6.65734  -0.002789230108352  -0.011117283253237  -0.002418016822053
C    8.28118   7.87509   7.84369  -0.009762925198605  -0.009830183692053  -0.005213299042286
C    7.00209  10.41799   7.86539  -0.011366678464934  -0.002839381321177  -0.005265677438500
C    5.77179  11.11117   7.87242  -0.000307678700203  -0.012005781597350  -0.000227854429506
C    1.89006  10.03276   7.87362   0.010092502310264  -0.007776531490031  -0.000409310761290
C    1.21751   7.34701   7.86977   0.012119476520978   0.003387488685386  -0.000228368998135
C    1.76766   6.03768   7.86954   0.009638317459261   0.007520281572658   0.000302413058988
C    4.16967   4.65461   7.87432   0.002545794749641   0.012548966491311  -0.000452014743483
C    5.57914   4.78757   7.87677  -0.006342410188553   0.009731730749360   0.001229578927635
C    7.85249   6.46506   7.86825  -0.003588246665719   0.011807496461310  -0.005119627916553
C    2.99336  10.92406   7.87507   0.004068381100891  -0.011968617457551  -0.000295138711623
C    3.66372  11.17546   9.09408   0.006365292435542  -0.010589459101438   0.000340377987460
C    8.25305   8.64657   9.08669  -0.011935040106746   0.005211828711624   0.001428555051228
C    2.23543   5.50161   9.09044   0.011829558309166   0.007446494089989   0.000438504049264
C    3.46141   4.79335   9.09054   0.000844885475924   0.012352036843705   0.001649914421777
C    7.56451   9.94504   9.09379  -0.000224259867423  -0.008051796813075  -0.000984579285528
C    1.50666   9.43041   9.09291   0.010674336381970  -0.006386318049825   0.000649021166543
C    6.22902   5.07180   9.09979  -0.004805840560473   0.009187190576147   0.000322019524510
C    7.34261   5.94649   9.11175  -0.007947443856458   0.002007394472308   0.009113497930009
C    1.16292   8.05441   9.09221   0.014093313332127   0.000679977299705   0.000311134467967
C    5.07550  11.26778   9.09443  -0.003904977119398  -0.011643657209326   0.000709486856703
C    8.25749   7.88256  10.33706  -0.010039800976775   0.009122767386018   0.013263848394799
C    7.00292  10.42594  10.32762  -0.010119048486112  -0.002662313984230   0.010248960550929
C    5.76815  11.11246  10.31662  -0.001304289003623  -0.011582418735660   0.001293094680243
C    1.88981  10.03088  10.31288   0.009526902012040  -0.008270024092544   0.000530678221041
C    1.21408   7.34399  10.31284   0.012160605972513   0.003580506532632   0.000692736476156
C    1.75899   6.03176  10.31187   0.009565175122025   0.007246750603575   0.000322727721613
C    4.15124   4.63894  10.31048   0.002272959662550   0.013190851294895  -0.000194489352970
C    5.55935   4.78679  10.31199  -0.005287395942710   0.009724984532969   0.002333829750417
C    7.71121   6.54589  10.32407  -0.009549116217641  -0.004653411712522   0.001080170294818
C    2.99207  10.92439  10.31273   0.004521451965168  -0.011512213325786   0.001185337120369
C    3.65233  11.19545  11.53033   0.005453931508891  -0.010953230383105   0.000015410872055
C    8.13289   8.64496  11.55779  -0.000450277755208  -0.019023087977463  -0.001964267719175
C    2.23054   5.49377  11.53134   0.011574218244476   0.007479100270289   0.000250632398649
C    3.45052   4.77287  11.53012   0.000935574459871   0.012590460293827   0.000017518367694
C    7.47074   9.91978  11.54732  -0.011092449856214   0.002155956052667  -0.000494579452691
C    1.51005   9.43030  11.53330   0.010684270058883  -0.005811838645436   0.000112141047591
C    6.20657   5.05859  11.53323  -0.005643155717962   0.009987909600124  -0.001107703941747
C    7.28814   5.96894  11.53755  -0.007651919265467   0.005043374174395   0.000808520990581
C    1.16722   8.05321  11.53362   0.014066498661692   0.000291134916883  -0.000359023683391
C    5.06769  11.29205  11.53196  -0.002348610247679  -0.011109324042625   0.001697194799907
C    8.17012   7.88521  12.77558  -0.010318852469174   0.003349901809901  -0.006411268023872
C    6.97377  10.42184  12.75793  -0.009701434006324  -0.006463175777348  -0.003368892311827
C    5.75471  11.14358  12.75436  -0.002113885273371  -0.011594227999793  -0.001161717954726
C    1.89273  10.03395  12.75144   0.009534463458763  -0.008573367601750  -0.000013835567219
C    1.22409   7.34401  12.75440   0.012015902214127   0.003311640296294   0.000675623674365
C    1.76382   6.03006  12.75372   0.009305678421109   0.007597947387613  -0.000043996637476
C    4.14736   4.61567  12.74950   0.002434952504230   0.013048224591833   0.001073241500008
C    5.55813   4.75315  12.75038  -0.005208173033501   0.010588504618044   0.000626119744415
C    7.69757   6.53299  12.76387  -0.012012442590333  -0.000930120699324   0.001460588607580
C    2.98542  10.94042  12.74979   0.004601520552719  -0.011642529568545  -0.000041071761484
C    3.64501  11.21595  13.96976   0.005964665893047  -0.010876429434268   0.000840288329723
C    8.04782   8.60533  13.99688  -0.011454925607624  -0.001367239082726   0.008285185555725
C    2.23772   5.49233  13.97277   0.011347535363684   0.007701899908085   0.000889207427330
C    3.45400   4.76292  13.97105   0.001687840911782   0.012608027132636  -0.000087263410102
C    7.45499   9.89495  13.98477  -0.008649600963648  -0.008218478399034   0.001349984491578
C    1.51807   9.43248  13.97324   0.010772887759055  -0.005871897538200   0.000418823011682
C    6.22157   5.01489  13.96791  -0.006388038787169   0.009627290241653   0.000486793653651
C    7.31403   5.92713  13.97002  -0.007280881271291   0.008892864786981  -0.001687243415432
C    1.17975   8.05453  13.97430   0.013944878301079   0.000085424068720   0.000245714763206
C    5.05884  11.32125  13.97120  -0.002999602456450  -0.011556342495330   0.000668578143575
C    8.06007   7.88811  15.20616  -0.012902292987226   0.003411809064100  -0.001089245659643
C    6.97104  10.43745  15.19422  -0.009367790809349  -0.008546865771410   0.001825576994808
C    5.75318  11.16859  15.19125  -0.002926398521266  -0.011821783069178   0.000277193694602
C    1.89541  10.03881  15.19146   0.008996837382666  -0.009194388945846   0.000460578555898
C    1.23504   7.34608  15.19436   0.011504856252317   0.003962062403200   0.000402671123596
C    1.77535   6.03142  15.19395   0.009408376206831   0.006789800678169  -0.000132191094834
C    4.15446   4.60447  15.18818   0.002363753469738   0.012727183647704   0.000459408937461
C    5.56873   4.72593  15.18629  -0.005117609014692   0.010825719187191  -0.000232338385813
C    7.70545   6.51158  15.19719  -0.010863487735692   0.005069284386977   0.001478149747828
C    2.98169  10.95499  15.19012   0.005439763477866  -0.011056267329771   0.000191850201643
C    3.64234  11.23085  16.40877   0.005933543818822  -0.010987614909850  -0.000136883646672
C    7.97983   8.59691  16.42075  -0.011628592859716  -0.004229049541470   0.000673887332249
C    2.24954   5.49405  16.41233   0.011054415411564   0.007452231201137   0.000409679867926
C    3.46338   4.76119  16.41069   0.001658612989933   0.012977856729248  -0.000185164187681
C    7.43537   9.90732  16.41677  -0.009516064425753  -0.007381207146271  -0.001161907885601
C    1.52304   9.43588  16.41219   0.010546038229394  -0.005520005776193  -0.000091586243097
C    6.23181   4.98807  16.40672  -0.005135027519032   0.010643857182985   0.000313192566566
C    7.31861   5.90469  16.40712  -0.008910709213442   0.009749950988402  -0.001147856744462
C    1.18873   8.05662  16.41306   0.013938889815967  -0.000036206339206  -0.000089181705775
C    5.05759  11.34012  16.40832  -0.002906275554328  -0.011928794554055  -0.000105902690915
Pt   11.73039   8.28133   9.20313   0.002991643801374  -0.010010014437554   0.001507025829946
Pt   10.15807   8.09937  11.40306  -0.024878890820407   0.007009093170373   0.000941641432559
Pt    9.79820  10.11682   8.99155  -0.012138920806794  -0.008117847564653   0.002281962501484
Pt   12.34044  10.76103   8.40006   0.002035284930803  -0.058465167758766   0.026620126549626
Pt   14.15192   9.52929  10.09310  -0.005397460674065  -0.003544889565226  -0.003905654785392
Pt   11.78320  10.32189  11.03297   0.005560998424166  -0.000885910608309  -0.006718239781995
Pt   10.04828   6.65988   7.76494  -0.015382381687923   0.005724267730978   0.002088244938982
Pt   12.75439   7.76065  11.71289   0.000174000497374   0.000252740255782  -0.003670124476878
Pt   11.73382   5.77600   9.92599  -0.000641981612910   0.009883132582612  -0.004725814863570
Pt   14.13194   6.89619   9.50109  -0.005757581607300   0.007496094705126  -0.001699922455996
Pt   11.58629   8.76423   6.61294   0.006978452632421  -0.002458136813792   0.006464570988814
Pt   12.63267   6.35276   7.32189  -0.000833069139969   0.004128710275302   0.000574209439373
Pt   14.09884   8.74009   7.49676  -0.001296463131714   0.002335982091862   0.005324697526018
C   12.31171  12.82194   7.61712  -0.002760836420019   0.223153823164766  -0.081982102006140
O   12.32301  13.89097   7.24517  -0.000266268248506  -0.172675708538271   0.060615689433894
