64 

B   -0.11787  -0.11787  -0.11787   0.000026503803670   0.000026509369579   0.000026531541128
C   -0.05194   1.79543   1.79543   0.000012121584108  -0.000003913764761  -0.000003914687681
C    1.79543  -0.05194   1.79543  -0.000003915238144   0.000012113618092  -0.000003911465757
C    1.79543   1.79543  -0.05194  -0.000003932443151  -0.000003926541485   0.000012175236141
B    1.00962   1.00962   1.00962  -0.000026502581742  -0.000026499065779  -0.000026538521507
C    0.89202   2.68372   2.68372  -0.000011922686613  -0.000000209647828  -0.000000204850587
C    2.68372   0.89202   2.68372  -0.000000206877014  -0.000011925304824  -0.000000204347081
C    2.68372   2.68372   0.89202  -0.000000212425813  -0.000000208891685  -0.000011926654440
C    0.00142   0.00142   3.56662   0.000004620122723   0.000004617589517  -0.000001700982477
C   -0.00420   1.79577   5.33953  -0.000003143924330  -0.000004976422176   0.000017094795407
C    1.79577  -0.00420   5.33953  -0.000004972029776  -0.000003151857744   0.000017114019086
C    1.78139   1.78139   3.56508   0.000017553012614   0.000017560306097  -0.000019556794826
C    0.89033   0.89033   4.45913  -0.000004626689074  -0.000004620207416   0.000001697238423
C    0.89595   2.68622   6.22998   0.000003146643797  -0.000017100841512   0.000004972445748
C    2.68622   0.89595   6.22998  -0.000017097674281   0.000003148097762   0.000004942008803
C    2.67549   2.67549   4.45736  -0.000018404159385  -0.000018405117539   0.000002768927356
C    0.00142   3.56662   0.00142   0.000004631742904  -0.000001723582265   0.000004610853748
C   -0.00420   5.33953   1.79577  -0.000003157099603   0.000017095083529  -0.000004957536359
C    1.78139   3.56508   1.78139   0.000017586860996  -0.000019563137672   0.000017578525624
C    1.79577   5.33953  -0.00420  -0.000004958906895   0.000017078828563  -0.000003133181575
C    0.89033   4.45913   0.89033  -0.000004615120939   0.000001723998105  -0.000004622600806
C    0.89595   6.22998   2.68622   0.000003150276105   0.000004979960834  -0.000017104888163
C    2.67549   4.45736   2.67549  -0.000018454878990   0.000002770020209  -0.000018408550091
C    2.68622   6.22998   0.89595  -0.000017086756895   0.000004967003616   0.000003147657694
C   -0.00491   3.56882   3.56882   0.000022256233777   0.000009663595255   0.000009682153771
C   -0.00027   5.34203   5.34203   0.000011921144965   0.000000203125726   0.000000213509733
C    1.78298   3.57121   5.34437   0.000004265193564   0.000016094542889   0.000015844352272
C    1.78298   5.34437   3.57121   0.000004273612168   0.000015853786515   0.000016106358044
C    0.89666   4.45693   4.45693  -0.000022233367001  -0.000009665830159  -0.000009690332950
C    0.94369   6.23032   6.23032  -0.000012128316812   0.000003920669260   0.000003909125862
C    2.68138   4.45454   6.24277  -0.000015829447837  -0.000016106093998  -0.000004306897033
C    2.68138   6.24277   4.45454  -0.000015861671247  -0.000004283237740  -0.000016100261791
C    3.56662   0.00142   0.00142  -0.000001718516434   0.000004634354733   0.000004619957845
C    3.56508   1.78139   1.78139  -0.000019576302755   0.000017591864345   0.000017562448329
C    5.33953  -0.00420   1.79577   0.000017096312661  -0.000003147301569  -0.000004955917193
C    5.33953   1.79577  -0.00420   0.000017081470838  -0.000004954905736  -0.000003145801455
C    4.45913   0.89033   0.89033   0.000001713237239  -0.000004630373672  -0.000004610320529
C    4.45736   2.67549   2.67549   0.000002793781863  -0.000018433614577  -0.000018396410165
C    6.22998   0.89595   2.68622   0.000004972631978   0.000003148472009  -0.000017104017526
C    6.22998   2.68622   0.89595   0.000004960627189  -0.000017085569170   0.000003143300007
C    3.56882  -0.00491   3.56882   0.000009667888630   0.000022247175193   0.000009685351471
C    3.57121   1.78298   5.34437   0.000016073411804   0.000004252265108   0.000015844998959
C    5.34203  -0.00027   5.34203   0.000000204150245   0.000011925741455   0.000000207567372
C    5.34437   1.78298   3.57121   0.000015838530572   0.000004269906056   0.000016100331960
C    4.45693   0.89666   4.45693  -0.000009652394275  -0.000022237578615  -0.000009680568660
C    4.45454   2.68138   6.24277  -0.000016089295223  -0.000015814002966  -0.000004301731310
C    6.23032   0.94369   6.23032   0.000003919220776  -0.000012124030903   0.000003924620709
C    6.24277   2.68138   4.45454  -0.000004280210198  -0.000015849906468  -0.000016098692684
C    3.56882   3.56882  -0.00491   0.000009654203768   0.000009642268601   0.000022270906187
C    3.57121   5.34437   1.78298   0.000016088376647   0.000015824362217   0.000004306805883
C    5.34437   3.57121   1.78298   0.000015811985951   0.000016078155163   0.000004303084570
C    5.34203   5.34203  -0.00027   0.000000219217313   0.000000217163655   0.000011933674160
C    4.45693   4.45693   0.89666  -0.000009642612615  -0.000009640902786  -0.000022281824165
C    4.45454   6.24277   2.68138  -0.000016061690192  -0.000004262891577  -0.000015855177636
C    6.24277   4.45454   2.68138  -0.000004252926999  -0.000016072929815  -0.000015854712965
C    6.23032   6.23032   0.94369   0.000003928051748   0.000003923450271  -0.000012176650297
C    3.56559   3.56559   3.56559   0.000003770663227   0.000003773340940   0.000003734353926
C    3.56839   5.35026   5.35026  -0.000002778791780   0.000018433742022   0.000018389241091
C    5.35026   3.56839   5.35026   0.000018437716931  -0.000002791029923   0.000018409791851
C    5.35026   5.35026   3.56839   0.000018392193747   0.000018408963032  -0.000002756676041
C    4.46016   4.46016   4.46016  -0.000003768309476  -0.000003772837655  -0.000003740469026
C    4.46067   6.24436   6.24436   0.000019575494136  -0.000017591934416  -0.000017567329502
C    6.24436   4.46067   6.24436  -0.000017580519062   0.000019587032307  -0.000017569987273
C    6.24436   6.24436   4.46067  -0.000017561687038  -0.000017559805277   0.000019553692752
