512 

C   -0.00000   0.00000  -0.00000   0.001997978903696   0.001997983904786   0.002012452114149
C   -0.00000   1.78350   1.78350   0.000052129035127   0.000375533531444   0.000377710877890
C    1.78350   0.00000   1.78350   0.000375534312184   0.000052126367517   0.000377712288530
C    1.78350   1.78350  -0.00000   0.000379472168866   0.000379472918800   0.000051743996354
C    0.89175   0.89175   0.89175  -0.001934547282141  -0.001934548461152  -0.001935391536966
C    0.89175   2.67525   2.67525  -0.000438598748137   0.000261921076085   0.000255760128666
C    2.67525   0.89175   2.67525   0.000261920846514  -0.000438599266762   0.000255766175461
C    2.67525   2.67525   0.89175   0.000214782500943   0.000214788888821  -0.000426755329572
C   -0.00000   0.00000   3.56700   0.000185728781244   0.000185728647639  -0.000020486222516
C   -0.00000   1.78350   5.35050   0.000170012766467   0.000065593573288  -0.000131868274828
C    1.78350   0.00000   5.35050   0.000065593279024   0.000170012580082  -0.000131868167589
C    1.78350   1.78350   3.56700   0.000354758346618   0.000354755665807  -0.000394943757925
C    0.89175   0.89175   4.45875  -0.000062484186190  -0.000062484446166   0.000013946952257
C    0.89175   2.67525   6.24225  -0.000172229022058   0.000092018080829   0.000171055738004
C    2.67525   0.89175   6.24225   0.000092018125325  -0.000172228812770   0.000171055868202
C    2.67525   2.67525   4.45875   0.000107062689044   0.000107060832821   0.000278921645649
C   -0.00000   0.00000   7.13400   0.000173371816932   0.000173371783807  -0.000142569613058
C   -0.00000   1.78350   8.91750   0.000259757987652   0.000106267630202  -0.000071930830041
C    1.78350   0.00000   8.91750   0.000106267587912   0.000259757927488  -0.000071930762977
C    1.78350   1.78350   7.13400   0.000076533935594   0.000076533776198  -0.000175618439990
C    0.89175   0.89175   8.02575  -0.000183464574930  -0.000183464279324   0.000135438859778
C    0.89175   2.67525   9.80925  -0.000271984959061  -0.000049458488638   0.000060290521162
C    2.67525   0.89175   9.80925  -0.000049458379094  -0.000271984952407   0.000060290556112
C    2.67525   2.67525   8.02575  -0.000081723693972  -0.000081723530678   0.000201309905908
C   -0.00000   0.00000  10.70100   0.000293423685009   0.000293423714592   0.000150295041630
C   -0.00000   1.78350  12.48450   0.000262670999865   0.000091926592951   0.000271482647690
C    1.78350   0.00000  12.48450   0.000091926537145   0.000262671108385   0.000271482392804
C    1.78350   1.78350  10.70100   0.000165559697624   0.000165559786834   0.000055380109249
C    0.89175   0.89175  11.59275  -0.000273195326976  -0.000273195368064  -0.000114157761870
C    0.89175   2.67525  13.37625  -0.000297226234972  -0.000226563722550  -0.000236515096208
C    2.67525   0.89175  13.37625  -0.000226563457262  -0.000297226600841  -0.000236515592611
C    2.67525   2.67525  11.59275  -0.000082151310887  -0.000082151490936  -0.000108109262522
C   -0.00000   3.56700  -0.00000   0.000184846759046  -0.000019556799092   0.000185349954739
C   -0.00000   5.35050   1.78350   0.000170742400734  -0.000131647557215   0.000065170616943
C    1.78350   3.56700   1.78350   0.000355959287850  -0.000395500444204   0.000355399305725
C    1.78350   5.35050  -0.00000   0.000063961360907  -0.000131542876080   0.000170093598079
C    0.89175   4.45875   0.89175  -0.000064312823349   0.000014608662259  -0.000063661505709
C    0.89175   6.24225   2.67525  -0.000170452224872   0.000169965189517   0.000093588956233
C    2.67525   4.45875   2.67525   0.000106361807857   0.000278911953831   0.000105849046586
C    2.67525   6.24225   0.89175   0.000092159760083   0.000171252100596  -0.000171223077221
C   -0.00000   3.56700   3.56700   0.000377604219108  -0.000339200367211  -0.000342265904227
C   -0.00000   5.35050   5.35050   0.000177280278732  -0.000257587636500  -0.000259198588521
C    1.78350   3.56700   5.35050   0.000265062852531  -0.000270384556823  -0.000324901751825
C    1.78350   5.35050   3.56700   0.000263147001216  -0.000324133374297  -0.000268482112390
C    0.89175   4.45875   4.45875  -0.000193998484648   0.000165223805222   0.000165690521266
C    0.89175   6.24225   6.24225  -0.000582346587738   0.000611248601572   0.000612263617508
C    2.67525   4.45875   6.24225  -0.000109373237386   0.000145039873121   0.000198583382812
C    2.67525   6.24225   4.45875  -0.000107846281268   0.000198191531681   0.000144131075715
C   -0.00000   3.56700   7.13400   0.000242481073415  -0.000072852267724  -0.000178322286896
C   -0.00000   5.35050   8.91750   0.000312747516573  -0.000234252539813  -0.000221162563997
C    1.78350   3.56700   8.91750   0.000151470747149  -0.000043412889638  -0.000073257007964
C    1.78350   5.35050   7.13400   0.000225062198786  -0.000254966515151  -0.000178768451959
C    0.89175   4.45875   8.02575  -0.000310179305485   0.000251455638001   0.000186657335724
C    0.89175   6.24225   9.80925  -0.000173533148403   0.000274958907415   0.000047324063015
C    2.67525   4.45875   9.80925  -0.000066721874771   0.000184166558019   0.000042696341684
C    2.67525   6.24225   8.02575  -0.000151162548127   0.000334400426417   0.000212924644943
C   -0.00000   3.56700  10.70100   0.000311401755824  -0.000022048437948   0.000008830769387
C   -0.00000   5.35050  12.48450   0.000163706570361  -0.000111463414931   0.000107889967296
C    1.78350   3.56700  12.48450   0.000117671492184  -0.000023764359098   0.000176669620957
C    1.78350   5.35050  10.70100   0.000116389905922  -0.000218554973604   0.000017673809793
C    0.89175   4.45875  11.59275  -0.000249346074565   0.000136250057414  -0.000120676287352
C    0.89175   6.24225  13.37625  -0.000130784337376   0.000204652493685  -0.000190901999779
C    2.67525   4.45875  13.37625  -0.000025314059937   0.000191750670146  -0.000222050536109
C    2.67525   6.24225  11.59275  -0.000024998932867   0.000310490006467  -0.000143627845479
C   -0.00000   7.13400  -0.00000   0.000174339488972  -0.000143676781391   0.000173186886075
C   -0.00000   8.91750   1.78350   0.000259837004863  -0.000072814771079   0.000106836587219
C    1.78350   7.13400   1.78350   0.000077917008830  -0.000176185604537   0.000077312469514
C    1.78350   8.91750  -0.00000   0.000107494994247  -0.000072430079340   0.000259751283893
C    0.89175   8.02575   0.89175  -0.000183203990313   0.000135800664741  -0.000182712486325
C    0.89175   9.80925   2.67525  -0.000273225810135   0.000060234357259  -0.000049455743955
C    2.67525   8.02575   2.67525  -0.000083356995856   0.000201023097963  -0.000083160467985
C    2.67525   9.80925   0.89175  -0.000049775059311   0.000060510947733  -0.000272725490741
C   -0.00000   7.13400   3.56700   0.000241685149497  -0.000178774114887  -0.000071705690458
C   -0.00000   8.91750   5.35050   0.000312054784198  -0.000219933894530  -0.000233973955240
C    1.78350   7.13400   5.35050   0.000222246734620  -0.000177937731215  -0.000254871173836
C    1.78350   8.91750   3.56700   0.000151130661486  -0.000074206148543  -0.000042282069599
C    0.89175   8.02575   4.45875  -0.000310553982572   0.000186287176941   0.000252224098676
C    0.89175   9.80925   6.24225  -0.000173911356581   0.000046880112859   0.000275631591502
C    2.67525   8.02575   6.24225  -0.000151397277388   0.000212795268781   0.000334712529028
C    2.67525   9.80925   4.45875  -0.000067163705846   0.000042777624245   0.000185230035600
C   -0.00000   7.13400   7.13400   0.000549921451794  -0.000702126039555  -0.000694970675135
C   -0.00000   8.91750   8.91750   0.000245925167998  -0.000186751564767  -0.000187359127681
C    1.78350   7.13400   8.91750   0.000126240834054  -0.000342766248285  -0.000210416551750
C    1.78350   8.91750   7.13400   0.000125620026394  -0.000209988280581  -0.000342578732662
C    0.89175   8.02575   8.02575  -0.000146081641133   0.000280704502480   0.000281662306610
C    0.89175   9.80925   9.80925  -0.000112576649400   0.000040527870552   0.000042776009559
C    2.67525   8.02575   9.80925  -0.000054177115135   0.000242366098998   0.000055832235922
C    2.67525   9.80925   8.02575  -0.000054091941159   0.000055510046709   0.000242449540373
C   -0.00000   7.13400  10.70100   0.000242350118937  -0.000260422850400  -0.000067023900224
C   -0.00000   8.91750  12.48450   0.000192956426012  -0.000124643576689   0.000213555890618
C    1.78350   7.13400  12.48450   0.000071988842420  -0.000238906080387   0.000138928289373
C    1.78350   8.91750  10.70100   0.000107579143761  -0.000173695030781   0.000036738440788
C    0.89175   8.02575  11.59275  -0.000116057202076   0.000152723054802  -0.000068497797972
C    0.89175   9.80925  13.37625  -0.000137587512715   0.000009422619534  -0.000233131612566
C    2.67525   8.02575  13.37625   0.000037189880192   0.000210301004568  -0.000306308562994
C    2.67525   9.80925  11.59275  -0.000039836751532   0.000037623160917  -0.000166590626147
C   -0.00000  10.70100  -0.00000   0.000293527184431   0.000148832187932   0.000293696590787
C   -0.00000  12.48450   1.78350   0.000262179365878   0.000271120913505   0.000091220281105
C    1.78350  10.70100   1.78350   0.000165505738430   0.000055280061746   0.000165697527964
C    1.78350  12.48450  -0.00000   0.000090356838388   0.000270854989029   0.000262917999977
C    0.89175  11.59275   0.89175  -0.000273754800407  -0.000113917310751  -0.000273939204349
C    0.89175  13.37625   2.67525  -0.000296729040020  -0.000235833066742  -0.000227697922138
C    2.67525  11.59275   2.67525  -0.000081667605428  -0.000108417702689  -0.000081484180322
C    2.67525  13.37625   0.89175  -0.000226621896316  -0.000236383118675  -0.000297181831281
C   -0.00000  10.70100   3.56700   0.000310846989680   0.000009110887964  -0.000022287888916
C   -0.00000  12.48450   5.35050   0.000164549219565   0.000108967154696  -0.000112169428886
C    1.78350  10.70100   5.35050   0.000117122766484   0.000018184426779  -0.000218800552990
C    1.78350  12.48450   3.56700   0.000118041014759   0.000177693159194  -0.000024919018333
C    0.89175  11.59275   4.45875  -0.000249965447510  -0.000120661135345   0.000136100815025
C    0.89175  13.37625   6.24225  -0.000130458245053  -0.000191923941206   0.000203378472035
C    2.67525  11.59275   6.24225  -0.000024905376435  -0.000143911469837   0.000310743965247
C    2.67525  13.37625   4.45875  -0.000025574998233  -0.000221662261883   0.000190888994001
C   -0.00000  10.70100   7.13400   0.000243427442347  -0.000065723354406  -0.000260887208417
C   -0.00000  12.48450   8.91750   0.000191853476715   0.000213436786438  -0.000123730140607
C    1.78350  10.70100   8.91750   0.000107894303069   0.000037197975122  -0.000173132914206
C    1.78350  12.48450   7.13400   0.000072958626629   0.000139451754638  -0.000238416939506
C    0.89175  11.59275   8.02575  -0.000115445923513  -0.000069473659760   0.000152311308193
C    0.89175  13.37625   9.80925  -0.000138153543131  -0.000232648116297   0.000008524050636
C    2.67525  11.59275   9.80925  -0.000040116933795  -0.000166738740681   0.000037303796972
C    2.67525  13.37625   8.02575   0.000036962443153  -0.000306452610478   0.000210155794975
C   -0.00000  10.70100  10.70100   0.000174588592160   0.000062716136349   0.000063547512623
C   -0.00000  12.48450  12.48450   0.000286377092253  -0.000010253014708  -0.000009778681935
C    1.78350  10.70100  12.48450   0.000126256458750   0.000108528447004   0.000292487026408
C    1.78350  12.48450  10.70100   0.000126192551675   0.000292973678005   0.000108881515569
C    0.89175  11.59275  11.59275  -0.000173596200805  -0.000157419416326  -0.000158604868031
C    0.89175  13.37625  13.37625  -0.000463518423006  -0.000370604583441  -0.000371121611005
C    2.67525  11.59275  13.37625  -0.000046818263090  -0.000170067432415  -0.000329972014741
C    2.67525  13.37625  11.59275  -0.000046631026401  -0.000329552232355  -0.000170301965821
C    3.56700   0.00000  -0.00000  -0.000019556521512   0.000184846277215   0.000185349630731
C    3.56700   1.78350   1.78350  -0.000395496856957   0.000355956863682   0.000355399638477
C    5.35050   0.00000   1.78350  -0.000131647135033   0.000170742007302   0.000065170003881
C    5.35050   1.78350  -0.00000  -0.000131542558879   0.000063961075624   0.000170093411177
C    4.45875   0.89175   0.89175   0.000014608293335  -0.000064312471403  -0.000063660896775
C    4.45875   2.67525   2.67525   0.000278907759961   0.000106364219972   0.000105853363791
C    6.24225   0.89175   2.67525   0.000169965361825  -0.000170452304395   0.000093589405257
C    6.24225   2.67525   0.89175   0.000171252128891   0.000092160147414  -0.000171223397491
C    3.56700   0.00000   3.56700  -0.000339204064731   0.000377606257332  -0.000342270112210
C    3.56700   1.78350   5.35050  -0.000270384911174   0.000265063304851  -0.000324902519518
C    5.35050   0.00000   5.35050  -0.000257588095211   0.000177279903384  -0.000259198942325
C    5.35050   1.78350   3.56700  -0.000324133688180   0.000263147668367  -0.000268482877412
C    4.45875   0.89175   4.45875   0.000165223442922  -0.000193997857213   0.000165690052356
C    4.45875   2.67525   6.24225   0.000145040120936  -0.000109373852751   0.000198583670070
C    6.24225   0.89175   6.24225   0.000611270801100  -0.000582368596321   0.000612285433825
C    6.24225   2.67525   4.45875   0.000198191770230  -0.000107847236616   0.000144131317662
C    3.56700   0.00000   7.13400  -0.000072852059274   0.000242480975531  -0.000178322348347
C    3.56700   1.78350   8.91750  -0.000043412948577   0.000151470727377  -0.000073256932132
C    5.35050   0.00000   8.91750  -0.000234251951535   0.000312746884424  -0.000221162991288
C    5.35050   1.78350   7.13400  -0.000254969007498   0.000225064708843  -0.000178766207127
C    4.45875   0.89175   8.02575   0.000251456032258  -0.000310179452421   0.000186657153726
C    4.45875   2.67525   9.80925   0.000184166725306  -0.000066722023070   0.000042696225642
C    6.24225   0.89175   9.80925   0.000274958993148  -0.000173533188416   0.000047323442499
C    6.24225   2.67525   8.02575   0.000334400886516  -0.000151164293907   0.000212924276845
C    3.56700   0.00000  10.70100  -0.000022048571213   0.000311401732645   0.000008830748419
C    3.56700   1.78350  12.48450  -0.000023764511110   0.000117671616910   0.000176669800142
C    5.35050   0.00000  12.48450  -0.000111463429199   0.000163706631675   0.000107890121468
C    5.35050   1.78350  10.70100  -0.000218555025207   0.000116389987153   0.000017673854899
C    4.45875   0.89175  11.59275   0.000136250114854  -0.000249346161368  -0.000120676407634
C    4.45875   2.67525  13.37625   0.000191751224613  -0.000025314131659  -0.000222050968619
C    6.24225   0.89175  13.37625   0.000204652475026  -0.000130784327290  -0.000190901835231
C    6.24225   2.67525  11.59275   0.000310490111542  -0.000024999000715  -0.000143627925436
C    3.56700   3.56700  -0.00000  -0.000343652121819  -0.000343652629426   0.000378609364366
C    3.56700   5.35050   1.78350  -0.000267401479688  -0.000323747977726   0.000264253504844
C    5.35050   3.56700   1.78350  -0.000323747493840  -0.000267401848517   0.000264253774323
C    5.35050   5.35050  -0.00000  -0.000260633820447  -0.000260633721676   0.000176503640752
C    4.45875   4.45875   0.89175   0.000172143561259   0.000172143424729  -0.000193490038414
C    4.45875   6.24225   2.67525   0.000143346469801   0.000198119864144  -0.000109122272814
C    6.24225   4.45875   2.67525   0.000198119664793   0.000143346444469  -0.000109122551305
C    6.24225   6.24225   0.89175   0.000606758432690   0.000606757996008  -0.000579999408705
C    3.56700   3.56700   3.56700   0.000072159811393   0.000072155293610   0.000070811301890
C    3.56700   5.35050   5.35050   0.000024150103996  -0.000240804322059  -0.000241200385873
C    5.35050   3.56700   5.35050  -0.000240805213969   0.000024152734301  -0.000241201944392
C    5.35050   5.35050   3.56700  -0.000241399735795  -0.000241400475549   0.000023060029885
C    4.45875   4.45875   4.45875  -0.000179386437875  -0.000179387344068  -0.000179954023622
C    4.45875   6.24225   6.24225   0.000061438732050   0.000262578406040   0.000261594378461
C    6.24225   4.45875   6.24225   0.000262578467724   0.000061438759902   0.000261594656367
C    6.24225   6.24225   4.45875   0.000260569297687   0.000260569534958   0.000060139032328
C    3.56700   3.56700   7.13400  -0.000014231670824  -0.000014231837440  -0.000214496299835
C    3.56700   5.35050   8.91750  -0.000026809620257  -0.000182228716421  -0.000072268371515
C    5.35050   3.56700   8.91750  -0.000182228736880  -0.000026809487968  -0.000072268332615
C    5.35050   5.35050   7.13400  -0.000110335051112  -0.000110335056956  -0.000138120069436
C    4.45875   4.45875   8.02575   0.000143893606078   0.000143893719997   0.000170449450203
C    4.45875   6.24225   9.80925   0.000124392071096   0.000289440177484   0.000047847058795
C    6.24225   4.45875   9.80925   0.000289440169887   0.000124391964828   0.000047847088421
C    6.24225   6.24225   8.02575   0.000095619879471   0.000095619655408   0.000176983281493
C    3.56700   3.56700  10.70100  -0.000072246032636  -0.000072245778787   0.000015891429803
C    3.56700   5.35050  12.48450  -0.000061169771656  -0.000205285094477   0.000144528086321
C    5.35050   3.56700  12.48450  -0.000205285155135  -0.000061169685255   0.000144528154130
C    5.35050   5.35050  10.70100  -0.000253155683102  -0.000253155578852   0.000084797908134
C    4.45875   4.45875  11.59275   0.000195061309837   0.000195061144515  -0.000124983821512
C    4.45875   6.24225  13.37625   0.000289433216737   0.000316561082763  -0.000270764931749
C    6.24225   4.45875  13.37625   0.000316561098950   0.000289432999621  -0.000270764954458
C    6.24225   6.24225  11.59275   0.000246067022380   0.000246066985182  -0.000128790512313
C    3.56700   7.13400  -0.00000  -0.000071159619969  -0.000177852162731   0.000242617899363
C    3.56700   8.91750   1.78350  -0.000041267045789  -0.000073398776517   0.000151499926351
C    5.35050   7.13400   1.78350  -0.000253623220332  -0.000179099295952   0.000223677746910
C    5.35050   8.91750  -0.00000  -0.000233343655444  -0.000220021976103   0.000312580867445
C    4.45875   8.02575   0.89175   0.000251677125393   0.000186268111473  -0.000310701550310
C    4.45875   9.80925   2.67525   0.000185836845446   0.000042767398584  -0.000067054870597
C    6.24225   8.02575   2.67525   0.000334945701594   0.000212803698907  -0.000152342474435
C    6.24225   9.80925   0.89175   0.000275690678440   0.000047617798111  -0.000173891138424
C    3.56700   7.13400   3.56700  -0.000014987151752  -0.000214942256585  -0.000014712453175
C    3.56700   8.91750   5.35050  -0.000028502705704  -0.000072459314874  -0.000182453324029
C    5.35050   7.13400   5.35050  -0.000111709673142  -0.000138852600735  -0.000110861124239
C    5.35050   8.91750   3.56700  -0.000182391761377  -0.000073006640987  -0.000027672632375
C    4.45875   8.02575   4.45875   0.000143885363251   0.000170257499198   0.000143496371478
C    4.45875   9.80925   6.24225   0.000124678649332   0.000048398505276   0.000289875276200
C    6.24225   8.02575   6.24225   0.000096014254721   0.000177795319113   0.000095119403635
C    6.24225   9.80925   4.45875   0.000290240358489   0.000047599414080   0.000124301867060
C    3.56700   7.13400   7.13400  -0.000004711212601  -0.000199907763049  -0.000199681499714
C    3.56700   8.91750   8.91750  -0.000027611458790  -0.000173203014280  -0.000172671645965
C    5.35050   7.13400   8.91750  -0.000104524047258  -0.000246876177791  -0.000109454938159
C    5.35050   8.91750   7.13400  -0.000105696961414  -0.000110237979316  -0.000246802356440
C    4.45875   8.02575   8.02575   0.000060428683671   0.000184207200690   0.000183633779185
C    4.45875   9.80925   9.80925   0.000067636906543   0.000039447158709   0.000039157925170
C    6.24225   8.02575   9.80925   0.000207961607989   0.000174067772460  -0.000040852241106
C    6.24225   9.80925   8.02575   0.000206264563803  -0.000039777915857   0.000174465331948
C    3.56700   7.13400  10.70100  -0.000060641718431  -0.000334422636805   0.000053986536455
C    3.56700   8.91750  12.48450  -0.000047690961366  -0.000161869945228   0.000283081702065
C    5.35050   7.13400  12.48450  -0.000203137796321  -0.000346937016679   0.000335858511626
C    5.35050   8.91750  10.70100  -0.000183389990988  -0.000207482286285   0.000103798616351
C    4.45875   8.02575  11.59275   0.000106745520507   0.000241837729736  -0.000170793092204
C    4.45875   9.80925  13.37625   0.000106902466097   0.000061213098000  -0.000313339442812
C    6.24225   8.02575  13.37625   0.000256950058118   0.000268446254344  -0.000305223048501
C    6.24225   9.80925  11.59275   0.000213802727898   0.000082383187128  -0.000144702460249
C    3.56700  10.70100  -0.00000  -0.000022590043778   0.000009101781037   0.000311101109141
C    3.56700  12.48450   1.78350  -0.000026050275868   0.000176814137624   0.000118170946086
C    5.35050  10.70100   1.78350  -0.000218882874978   0.000018432596378   0.000116921484456
C    5.35050  12.48450  -0.00000  -0.000113243130581   0.000108614531369   0.000163884081647
C    4.45875  11.59275   0.89175   0.000136650649768  -0.000121130414246  -0.000249496056791
C    4.45875  13.37625   2.67525   0.000190676446568  -0.000221083295253  -0.000024812032240
C    6.24225  11.59275   2.67525   0.000311158213816  -0.000143496564564  -0.000024329714505
C    6.24225  13.37625   0.89175   0.000203240169665  -0.000190443960435  -0.000129539532820
C    3.56700  10.70100   3.56700  -0.000071027662973   0.000017119682817  -0.000071469210217
C    3.56700  12.48450   5.35050  -0.000058606677915   0.000144147752143  -0.000205341034733
C    5.35050  10.70100   5.35050  -0.000252584112876   0.000083705660427  -0.000252970266281
C    5.35050  12.48450   3.56700  -0.000204625612570   0.000145189516846  -0.000059866810755
C    4.45875  11.59275   4.45875   0.000196106827065  -0.000124975033374   0.000195942387053
C    4.45875  13.37625   6.24225   0.000289380032273  -0.000270389821241   0.000316538643373
C    6.24225  11.59275   6.24225   0.000246151385663  -0.000128710809767   0.000246567745759
C    6.24225  13.37625   4.45875   0.000315882434021  -0.000269984329068   0.000290336429318
C    3.56700  10.70100   7.13400  -0.000060398420845   0.000053866285153  -0.000333976390745
C    3.56700  12.48450   8.91750  -0.000047940963295   0.000283471991921  -0.000161673913085
C    5.35050  10.70100   8.91750  -0.000183608923859   0.000103367478578  -0.000207271935642
C    5.35050  12.48450   7.13400  -0.000202747885923   0.000335185613373  -0.000347342595760
C    4.45875  11.59275   8.02575   0.000106565991949  -0.000169954700781   0.000242433251707
C    4.45875  13.37625   9.80925   0.000106905795783  -0.000312853612620   0.000061842093828
C    6.24225  11.59275   9.80925   0.000215861172711  -0.000143711531397   0.000084116685459
C    6.24225  13.37625   8.02575   0.000258122449758  -0.000304949692455   0.000269400501687
C    3.56700  10.70100  10.70100  -0.000035229295895   0.000073758526905   0.000073363260763
C    3.56700  12.48450  12.48450  -0.000050804251520   0.000229708838920   0.000229255804031
C    5.35050  10.70100  12.48450  -0.000177198409004   0.000014679360960   0.000248198405637
C    5.35050  12.48450  10.70100  -0.000176550872240   0.000248460378696   0.000013931245953
C    4.45875  11.59275  11.59275   0.000064058050935  -0.000116106990626  -0.000115507072504
C    4.45875  13.37625  13.37625   0.000039492040184  -0.000220347969068  -0.000219572330720
C    6.24225  11.59275  13.37625   0.000148566223488  -0.000047142054656  -0.000178433441906
C    6.24225  13.37625  11.59275   0.000149314051375  -0.000178310012463  -0.000046354737052
C    7.13400   0.00000  -0.00000  -0.000143676931128   0.000174339596835   0.000173187044150
C    7.13400   1.78350   1.78350  -0.000176185442128   0.000077916833165   0.000077312461108
C    8.91750   0.00000   1.78350  -0.000072814607478   0.000259836866471   0.000106836527043
C    8.91750   1.78350  -0.00000  -0.000072429969044   0.000107494972968   0.000259751195511
C    8.02575   0.89175   0.89175   0.000135800627347  -0.000183203883722  -0.000182712659568
C    8.02575   2.67525   2.67525   0.000201022926527  -0.000083356969259  -0.000083160594355
C    9.80925   0.89175   2.67525   0.000060234299427  -0.000273225829446  -0.000049455716328
C    9.80925   2.67525   0.89175   0.000060510854909  -0.000049775150559  -0.000272725509990
C    7.13400   0.00000   3.56700  -0.000178774078962   0.000241685088068  -0.000071705508216
C    7.13400   1.78350   5.35050  -0.000177935641259   0.000222249166242  -0.000254873391671
C    8.91750   0.00000   5.35050  -0.000219934207245   0.000312054188221  -0.000233973292914
C    8.91750   1.78350   3.56700  -0.000074205938331   0.000151130647666  -0.000042282072791
C    8.02575   0.89175   4.45875   0.000186286841926  -0.000310554204249   0.000252224413861
C    8.02575   2.67525   6.24225   0.000212794800313  -0.000151399183377   0.000334712983719
C    9.80925   0.89175   6.24225   0.000046879383632  -0.000173911464774   0.000275631734137
C    9.80925   2.67525   4.45875   0.000042777342398  -0.000067163884655   0.000185230118910
C    7.13400   0.00000   7.13400  -0.000702157928797   0.000549946739548  -0.000695003093320
C    7.13400   1.78350   8.91750  -0.000342765813927   0.000126239742283  -0.000210417862502
C    8.91750   0.00000   8.91750  -0.000186745908459   0.000245926265186  -0.000187353886654
C    8.91750   1.78350   7.13400  -0.000209989468527   0.000125618938314  -0.000342578356936
C    8.02575   0.89175   8.02575   0.000280706709238  -0.000146081703424   0.000281664477354
C    8.02575   2.67525   9.80925   0.000242366006206  -0.000054176895833   0.000055832409339
C    9.80925   0.89175   9.80925   0.000040528061310  -0.000112576866611   0.000042776337152
C    9.80925   2.67525   8.02575   0.000055510270988  -0.000054091637627   0.000242449388272
C    7.13400   0.00000  10.70100  -0.000260422945092   0.000242350207750  -0.000067023869908
C    7.13400   1.78350  12.48450  -0.000238906089529   0.000071988898156   0.000138928377180
C    8.91750   0.00000  12.48450  -0.000124643833831   0.000192956589081   0.000213556028534
C    8.91750   1.78350  10.70100  -0.000173695099626   0.000107579136649   0.000036738218030
C    8.02575   0.89175  11.59275   0.000152723229582  -0.000116057328495  -0.000068497931494
C    8.02575   2.67525  13.37625   0.000210300992783   0.000037189758963  -0.000306308582305
C    9.80925   0.89175  13.37625   0.000009422643934  -0.000137587622833  -0.000233131518450
C    9.80925   2.67525  11.59275   0.000037623295471  -0.000039836699721  -0.000166590470105
C    7.13400   3.56700  -0.00000  -0.000177852056087  -0.000071159662839   0.000242617927734
C    7.13400   5.35050   1.78350  -0.000179099457403  -0.000253622945776   0.000223677652157
C    8.91750   3.56700   1.78350  -0.000073398630461  -0.000041266993177   0.000151499937187
C    8.91750   5.35050  -0.00000  -0.000220021862374  -0.000233343585933   0.000312580908406
C    8.02575   4.45875   0.89175   0.000186267958808   0.000251677046092  -0.000310701635862
C    8.02575   6.24225   2.67525   0.000212803608077   0.000334945692845  -0.000152342636078
C    9.80925   4.45875   2.67525   0.000042767219543   0.000185836757905  -0.000067054892677
C    9.80925   6.24225   0.89175   0.000047617688866   0.000275690721300  -0.000173891208102
C    7.13400   3.56700   3.56700  -0.000214942349029  -0.000014987074304  -0.000014712195079
C    7.13400   5.35050   5.35050  -0.000138852567311  -0.000111709795028  -0.000110861220030
C    8.91750   3.56700   5.35050  -0.000072459078895  -0.000028502537670  -0.000182453250406
C    8.91750   5.35050   3.56700  -0.000073006442719  -0.000182391662497  -0.000027672606787
C    8.02575   4.45875   4.45875   0.000170257351772   0.000143885211382   0.000143496111995
C    8.02575   6.24225   6.24225   0.000177794432765   0.000096014926966   0.000095120328953
C    9.80925   4.45875   6.24225   0.000048398345659   0.000124678645746   0.000289875240118
C    9.80925   6.24225   4.45875   0.000047599238617   0.000290240322863   0.000124301966718
C    7.13400   3.56700   7.13400  -0.000199907529881  -0.000004710998224  -0.000199681301878
C    7.13400   5.35050   8.91750  -0.000246876156888  -0.000104523977158  -0.000109454839601
C    8.91750   3.56700   8.91750  -0.000173203150475  -0.000027611634183  -0.000172671679065
C    8.91750   5.35050   7.13400  -0.000110237745723  -0.000105697038073  -0.000246802245218
C    8.02575   4.45875   8.02575   0.000184207247546   0.000060428675741   0.000183633718378
C    8.02575   6.24225   9.80925   0.000174067960422   0.000207961599864  -0.000040852356958
C    9.80925   4.45875   9.80925   0.000039447484995   0.000067637164219   0.000039157788800
C    9.80925   6.24225   8.02575  -0.000039778370758   0.000206265042771   0.000174465057325
C    7.13400   3.56700  10.70100  -0.000334422581679  -0.000060641589971   0.000053986538203
C    7.13400   5.35050  12.48450  -0.000346936987083  -0.000203137662617   0.000335858634187
C    8.91750   3.56700  12.48450  -0.000161869890263  -0.000047690861493   0.000283081655192
C    8.91750   5.35050  10.70100  -0.000207482311673  -0.000183389970381   0.000103798765696
C    8.02575   4.45875  11.59275   0.000241837790051   0.000106745451297  -0.000170793051025
C    8.02575   6.24225  13.37625   0.000268445882804   0.000256950527184  -0.000305222664237
C    9.80925   4.45875  13.37625   0.000061213082756   0.000106902379474  -0.000313339480377
C    9.80925   6.24225  11.59275   0.000082383289977   0.000213802952558  -0.000144702773141
C    7.13400   7.13400  -0.00000  -0.000693036707460  -0.000693037854644   0.000552303212654
C    7.13400   8.91750   1.78350  -0.000341940568434  -0.000209477987387   0.000126038598823
C    8.91750   7.13400   1.78350  -0.000209477860764  -0.000341940632785   0.000126038608910
C    8.91750   8.91750  -0.00000  -0.000187063297190  -0.000187063711073   0.000246466817316
C    8.02575   8.02575   0.89175   0.000281957867929   0.000281957808081  -0.000146979520202
C    8.02575   9.80925   2.67525   0.000242566034134   0.000056015450976  -0.000054187157770
C    9.80925   8.02575   2.67525   0.000056015503680   0.000242565970917  -0.000054187076432
C    9.80925   9.80925   0.89175   0.000044391191625   0.000044391319527  -0.000110955399072
C    7.13400   7.13400   3.56700  -0.000199538667933  -0.000199538696623  -0.000004773544132
C    7.13400   8.91750   5.35050  -0.000247440510906  -0.000110450640990  -0.000105089964809
C    8.91750   7.13400   5.35050  -0.000110450482565  -0.000247440420548  -0.000105090138512
C    8.91750   8.91750   3.56700  -0.000172007472496  -0.000172007361968  -0.000027438155282
C    8.02575   8.02575   4.45875   0.000182999211686   0.000182999096869   0.000059536319561
C    8.02575   9.80925   6.24225   0.000174249120147  -0.000042246970168   0.000206722531464
C    9.80925   8.02575   6.24225  -0.000042247330385   0.000174248664219   0.000206723028245
C    9.80925   9.80925   4.45875   0.000038229037216   0.000038228579201   0.000066822036015
C    7.13400   7.13400   7.13400   0.000187882456640   0.000187882425473   0.000188410621169
C    7.13400   8.91750   8.91750  -0.000249734375587  -0.000064442518529  -0.000064159341807
C    8.91750   7.13400   8.91750  -0.000064442693952  -0.000249732190332  -0.000064160472919
C    8.91750   8.91750   7.13400  -0.000065810950341  -0.000065811938372  -0.000250577076295
C    8.02575   8.02575   8.02575  -0.000439804595695  -0.000439807091014  -0.000432216489442
C    8.02575   9.80925   9.80925   0.000303051152787   0.000189779974040   0.000190085307807
C    9.80925   8.02575   9.80925   0.000189778554864   0.000303046352391   0.000190084175060
C    9.80925   9.80925   8.02575   0.000189963190438   0.000189963474909   0.000303556771656
C    7.13400   7.13400  10.70100  -0.000269954185389  -0.000269954205487   0.000211155928753
C    7.13400   8.91750  12.48450  -0.000274006057016  -0.000205545963313   0.000224041919247
C    8.91750   7.13400  12.48450  -0.000205545620326  -0.000274005996115   0.000224041944416
C    8.91750   8.91750  10.70100  -0.000452967501719  -0.000452966533441   0.000276869013535
C    8.02575   8.02575  11.59275   0.000340932287411   0.000340932208526  -0.000401912682278
C    8.02575   9.80925  13.37625   0.000229595742763   0.000135646597433  -0.000223940258741
C    9.80925   8.02575  13.37625   0.000135646275938   0.000229595511071  -0.000223939969556
C    9.80925   9.80925  11.59275   0.000068301384488   0.000068308721246  -0.000319199705424
C    7.13400  10.70100  -0.00000  -0.000261440961779  -0.000065624865772   0.000243145754049
C    7.13400  12.48450   1.78350  -0.000238365796976   0.000139415340013   0.000072112379048
C    8.91750  10.70100   1.78350  -0.000172367733959   0.000036366598013   0.000107741986531
C    8.91750  12.48450  -0.00000  -0.000124963336664   0.000214812050065   0.000192678940270
C    8.02575  11.59275   0.89175   0.000151824322342  -0.000067565799126  -0.000115069209195
C    8.02575  13.37625   2.67525   0.000209763088734  -0.000306285364821   0.000038154139417
C    9.80925  11.59275   2.67525   0.000036660973212  -0.000166090002746  -0.000039788641179
C    9.80925  13.37625   0.89175   0.000007668337725  -0.000233208388209  -0.000137500514343
C    7.13400  10.70100   3.56700  -0.000333410556476   0.000053616097416  -0.000060507315373
C    7.13400  12.48450   5.35050  -0.000347360017153   0.000335574612665  -0.000203388722586
C    8.91750  10.70100   5.35050  -0.000206791907064   0.000103372519572  -0.000183750940931
C    8.91750  12.48450   3.56700  -0.000161035215345   0.000282296961179  -0.000047872113103
C    8.02575  11.59275   4.45875   0.000242776594806  -0.000171409340496   0.000107194584205
C    8.02575  13.37625   6.24225   0.000270316901469  -0.000305350448654   0.000257456345300
C    9.80925  11.59275   6.24225   0.000085878791468  -0.000144953465237   0.000214542897597
C    9.80925  13.37625   4.45875   0.000062380220030  -0.000313566667296   0.000107005837545
C    7.13400  10.70100   7.13400  -0.000270954469655   0.000209615356239  -0.000270848861827
C    7.13400  12.48450   8.91750  -0.000273224897505   0.000222995698453  -0.000206523462835
C    8.91750  10.70100   8.91750  -0.000448279691275   0.000292961588591  -0.000446979466423
C    8.91750  12.48450   7.13400  -0.000205798581667   0.000224098027005  -0.000274133521093
C    8.02575  11.59275   8.02575   0.000342326638012  -0.000403002264087   0.000342640251605
C    8.02575  13.37625   9.80925   0.000228873782197  -0.000224722348672   0.000133723135328
C    9.80925  11.59275   9.80925   0.000063540110627  -0.000318682049649   0.000065904670002
C    9.80925  13.37625   8.02575   0.000133061478179  -0.000222829091516   0.000229580549720
C    7.13400  10.70100  10.70100  -0.000197301270388   0.000025360869398   0.000025510588998
C    7.13400  12.48450  12.48450  -0.000260523474034   0.000203755552093   0.000203677507775
C    8.91750  10.70100  12.48450   0.000027523941541  -0.000132728291805   0.000060181165209
C    8.91750  12.48450  10.70100   0.000029747390990   0.000059818613020  -0.000132739027165
C    8.02575  11.59275  11.59275   0.000304460192381  -0.000182722540106  -0.000183003384352
C    8.02575  13.37625  13.37625   0.000141990686066  -0.000128164189575  -0.000128119768432
C    9.80925  11.59275  13.37625   0.000001828842495  -0.000122546459805  -0.000278297628026
C    9.80925  13.37625  11.59275   0.000003509060002  -0.000277746797973  -0.000122785270690
C   10.70100   0.00000  -0.00000   0.000148832346522   0.000293527169308   0.000293696546043
C   10.70100   1.78350   1.78350   0.000055280244362   0.000165505768834   0.000165697465080
C   12.48450   0.00000   1.78350   0.000271121128361   0.000262179528986   0.000091220152087
C   12.48450   1.78350  -0.00000   0.000270855504732   0.000090356695091   0.000262918014784
C   11.59275   0.89175   0.89175  -0.000113917398163  -0.000273754830997  -0.000273939199719
C   11.59275   2.67525   2.67525  -0.000108417974037  -0.000081667663458  -0.000081484064527
C   13.37625   0.89175   2.67525  -0.000235833172719  -0.000296729116372  -0.000227697603658
C   13.37625   2.67525   0.89175  -0.000236382846449  -0.000226621657914  -0.000297181491574
C   10.70100   0.00000   3.56700   0.000009110991991   0.000310846998458  -0.000022287974747
C   10.70100   1.78350   5.35050   0.000018184642021   0.000117122925128  -0.000218800660982
C   12.48450   0.00000   5.35050   0.000108967342532   0.000164549315876  -0.000112169502766
C   12.48450   1.78350   3.56700   0.000177692861437   0.000118040896818  -0.000024919045566
C   11.59275   0.89175   4.45875  -0.000120661340914  -0.000249965457432   0.000136100857093
C   11.59275   2.67525   6.24225  -0.000143911559669  -0.000024905439394   0.000310744015549
C   13.37625   0.89175   6.24225  -0.000191923966604  -0.000130458312712   0.000203378654365
C   13.37625   2.67525   4.45875  -0.000221662022099  -0.000025575089442   0.000190888987227
C   10.70100   0.00000   7.13400  -0.000065723339837   0.000243427624383  -0.000260887396685
C   10.70100   1.78350   8.91750   0.000037197830056   0.000107894219303  -0.000173133128121
C   12.48450   0.00000   8.91750   0.000213437048932   0.000191853461018  -0.000123730417887
C   12.48450   1.78350   7.13400   0.000139451941109   0.000072958833873  -0.000238417052055
C   11.59275   0.89175   8.02575  -0.000069473806382  -0.000115445926757   0.000152311522470
C   11.59275   2.67525   9.80925  -0.000166738417708  -0.000040116698325   0.000037303788691
C   13.37625   0.89175   9.80925  -0.000232648081024  -0.000138153557535   0.000008524139411
C   13.37625   2.67525   8.02575  -0.000306452584805   0.000036962409732   0.000210155735783
C   10.70100   0.00000  10.70100   0.000062716097103   0.000174589076008   0.000063547243196
C   10.70100   1.78350  12.48450   0.000108528520002   0.000126256540896   0.000292486934153
C   12.48450   0.00000  12.48450  -0.000010253527746   0.000286376810821  -0.000009779703401
C   12.48450   1.78350  10.70100   0.000292973639496   0.000126192583062   0.000108881486070
C   11.59275   0.89175  11.59275  -0.000157419272639  -0.000173596324440  -0.000158604671299
C   11.59275   2.67525  13.37625  -0.000170067471464  -0.000046818403903  -0.000329971944686
C   13.37625   0.89175  13.37625  -0.000370602762075  -0.000463523376289  -0.000371118716322
C   13.37625   2.67525  11.59275  -0.000329552115218  -0.000046631094844  -0.000170302027705
C   10.70100   3.56700  -0.00000   0.000009101912245  -0.000022589992062   0.000311101132231
C   10.70100   5.35050   1.78350   0.000018432771928  -0.000218882926383   0.000116921553460
C   12.48450   3.56700   1.78350   0.000176813688067  -0.000026050182223   0.000118170714905
C   12.48450   5.35050  -0.00000   0.000108614546629  -0.000113243186780   0.000163884084031
C   11.59275   4.45875   0.89175  -0.000121130500621   0.000136650629525  -0.000249495975265
C   11.59275   6.24225   2.67525  -0.000143496571936   0.000311158157227  -0.000024329706376
C   13.37625   4.45875   2.67525  -0.000221082596656   0.000190675875013  -0.000024812040344
C   13.37625   6.24225   0.89175  -0.000190444182487   0.000203240398165  -0.000129539619649
C   10.70100   3.56700   3.56700   0.000017120015969  -0.000071027474084  -0.000071469278283
C   10.70100   5.35050   5.35050   0.000083705936699  -0.000252583993584  -0.000252970254714
C   12.48450   3.56700   5.35050   0.000144147990923  -0.000058606301362  -0.000205341054990
C   12.48450   5.35050   3.56700   0.000145189696007  -0.000204625586211  -0.000059866534191
C   11.59275   4.45875   4.45875  -0.000124975385983   0.000196106646081   0.000195942365982
C   11.59275   6.24225   6.24225  -0.000128712200758   0.000246150951881   0.000246567350286
C   13.37625   4.45875   6.24225  -0.000270390882985   0.000289378334867   0.000316538356667
C   13.37625   6.24225   4.45875  -0.000269985376922   0.000315882153764   0.000290334958691
C   10.70100   3.56700   7.13400   0.000053866417387  -0.000060398228444  -0.000333976393114
C   10.70100   5.35050   8.91750   0.000103367395439  -0.000183609065653  -0.000207271717931
C   12.48450   3.56700   8.91750   0.000283471856106  -0.000047941145998  -0.000161673782814
C   12.48450   5.35050   7.13400   0.000335184628843  -0.000202748590096  -0.000347342791035
C   11.59275   4.45875   8.02575  -0.000169954543819   0.000106566335303   0.000242433420797
C   11.59275   6.24225   9.80925  -0.000143711375186   0.000215861106693   0.000084116463253
C   13.37625   4.45875   9.80925  -0.000312853767326   0.000106906091809   0.000061841947109
C   13.37625   6.24225   8.02575  -0.000304947861767   0.000258119425104   0.000269399931245
C   10.70100   3.56700  10.70100   0.000073758341997  -0.000035229311161   0.000073363314325
C   10.70100   5.35050  12.48450   0.000014679343269  -0.000177198389780   0.000248198582414
C   12.48450   3.56700  12.48450   0.000229708842610  -0.000050804177009   0.000229255897880
C   12.48450   5.35050  10.70100   0.000248460240815  -0.000176550956411   0.000013931431980
C   11.59275   4.45875  11.59275  -0.000116106753655   0.000064058081289  -0.000115507242201
C   11.59275   6.24225  13.37625  -0.000047142001530   0.000148566058543  -0.000178433426774
C   13.37625   4.45875  13.37625  -0.000220348015217   0.000039492021334  -0.000219572404306
C   13.37625   6.24225  11.59275  -0.000178309823312   0.000149313923817  -0.000046354338443
C   10.70100   7.13400  -0.00000  -0.000065624887765  -0.000261441056963   0.000243145842051
C   10.70100   8.91750   1.78350   0.000036366673986  -0.000172367881035   0.000107741911423
C   12.48450   7.13400   1.78350   0.000139415434264  -0.000238365898984   0.000072112507670
C   12.48450   8.91750  -0.00000   0.000214812194265  -0.000124963361981   0.000192678773734
C   11.59275   8.02575   0.89175  -0.000067565806213   0.000151824358162  -0.000115069091156
C   11.59275   9.80925   2.67525  -0.000166089836423   0.000036660829764  -0.000039788460504
C   13.37625   8.02575   2.67525  -0.000306285305804   0.000209763038984   0.000038154229335
C   13.37625   9.80925   0.89175  -0.000233208438313   0.000007668396861  -0.000137500421159
C   10.70100   7.13400   3.56700   0.000053616222529  -0.000333410615518  -0.000060507258559
C   10.70100   8.91750   5.35050   0.000103372287842  -0.000206791657453  -0.000183751116463
C   12.48450   7.13400   5.35050   0.000335573489508  -0.000347360223371  -0.000203389579263
C   12.48450   8.91750   3.56700   0.000282296864835  -0.000161035131922  -0.000047872391121
C   11.59275   8.02575   4.45875  -0.000171409215560   0.000242776714002   0.000107195001658
C   11.59275   9.80925   6.24225  -0.000144952991251   0.000085878458852   0.000214542599915
C   13.37625   8.02575   6.24225  -0.000305348948961   0.000270316691394   0.000257452892220
C   13.37625   9.80925   4.45875  -0.000313566783706   0.000062380092020   0.000107006220920
C   10.70100   7.13400   7.13400   0.000209614837488  -0.000270954148348  -0.000270848511700
C   10.70100   8.91750   8.91750   0.000292964375560  -0.000448275147698  -0.000446975998109
C   12.48450   7.13400   8.91750   0.000223001644288  -0.000273224277145  -0.000206530807891
C   12.48450   8.91750   7.13400   0.000224103963821  -0.000205806257412  -0.000274132974699
C   11.59275   8.02575   8.02575  -0.000403002602894   0.000342326787356   0.000342640480707
C   11.59275   9.80925   9.80925  -0.000318652164933   0.000063535494374   0.000065892843075
C   13.37625   8.02575   9.80925  -0.000224722415622   0.000228873460177   0.000133724641452
C   13.37625   9.80925   8.02575  -0.000222829438568   0.000133063302388   0.000229580460374
C   10.70100   7.13400  10.70100   0.000025360798222  -0.000197301638506   0.000025510434161
C   10.70100   8.91750  12.48450  -0.000132730876219   0.000027521915758   0.000060181079582
C   12.48450   7.13400  12.48450   0.000203755318063  -0.000260523271564   0.000203676864087
C   12.48450   8.91750  10.70100   0.000059819642245   0.000029743947206  -0.000132741722410
C   11.59275   8.02575  11.59275  -0.000182721460771   0.000304459175689  -0.000183002164050
C   11.59275   9.80925  13.37625  -0.000122546566567   0.000001828447275  -0.000278296529342
C   13.37625   8.02575  13.37625  -0.000128163986400   0.000141990401115  -0.000128119417559
C   13.37625   9.80925  11.59275  -0.000277748640163   0.000003509583438  -0.000122786269210
C   10.70100  10.70100  -0.00000   0.000065801182308   0.000065800966968   0.000174681717241
C   10.70100  12.48450   1.78350   0.000108089284901   0.000291697974034   0.000126163016559
C   12.48450  10.70100   1.78350   0.000291698026257   0.000108089192217   0.000126162965919
C   12.48450  12.48450  -0.00000  -0.000009432247596  -0.000009432791088   0.000287237127515
C   11.59275  11.59275   0.89175  -0.000159280172785  -0.000159280123812  -0.000173577955087
C   11.59275  13.37625   2.67525  -0.000170450127335  -0.000330386716760  -0.000047458510857
C   13.37625  11.59275   2.67525  -0.000330386667460  -0.000170450151018  -0.000047458449157
C   13.37625  13.37625   0.89175  -0.000370744545214  -0.000370743376378  -0.000463679159406
C   10.70100  10.70100   3.56700   0.000071837463183   0.000071837699952  -0.000035252885922
C   10.70100  12.48450   5.35050   0.000014799410675   0.000248317979035  -0.000177019509992
C   12.48450  10.70100   5.35050   0.000248317666788   0.000014799614226  -0.000177019612992
C   12.48450  12.48450   3.56700   0.000228893815651   0.000228893907239  -0.000050549960660
C   11.59275  11.59275   4.45875  -0.000114609347963  -0.000114609747303   0.000063405139938
C   11.59275  13.37625   6.24225  -0.000045465647351  -0.000178525142362   0.000148369999716
C   13.37625  11.59275   6.24225  -0.000178524936413  -0.000045465283585   0.000148370008205
C   13.37625  13.37625   4.45875  -0.000218811166699  -0.000218811204055   0.000038297165995
C   10.70100  10.70100   7.13400   0.000021128258347   0.000021128199608  -0.000197040126381
C   10.70100  12.48450   8.91750  -0.000132308543094   0.000059958266532   0.000028735725761
C   12.48450  10.70100   8.91750   0.000059959264014  -0.000132308549282   0.000028734405254
C   12.48450  12.48450   7.13400   0.000205387522010   0.000205387123093  -0.000260819322463
C   11.59275  11.59275   8.02575  -0.000182817982227  -0.000182817847265   0.000304679448941
C   11.59275  13.37625   9.80925  -0.000122500177413  -0.000279195507707   0.000002957727689
C   13.37625  11.59275   9.80925  -0.000279198258421  -0.000122501050559   0.000002958531968
C   13.37625  13.37625   8.02575  -0.000128236241220  -0.000128236110430   0.000142573328468
C   10.70100  10.70100  10.70100   0.001271494707674   0.001271530643939   0.001291106516486
C   10.70100  12.48450  12.48450   0.000154920330858   0.000328834505541   0.000328707158944
C   12.48450  10.70100  12.48450   0.000328843838026   0.000154919612313   0.000328715580300
C   12.48450  12.48450  10.70100   0.000327946432795   0.000327945622375   0.000155936675366
C   11.59275  11.59275  11.59275  -0.001610079800292  -0.001610093365586  -0.001609568377980
C   11.59275  13.37625  13.37625  -0.000161384776205  -0.000218994691676  -0.000219590683054
C   13.37625  11.59275  13.37625  -0.000218994533731  -0.000161384465119  -0.000219590249013
C   13.37625  13.37625  11.59275  -0.000219262153623  -0.000219261892779  -0.000160884221857
