432

Fe -5.73280 -5.73280 -5.73280
Fe -5.73280 -5.73280 -2.86640
Fe -5.73280 -2.86640 -5.73280
Fe -5.73280 -2.86640 -2.86640
Fe -2.86640 -5.73280 -5.73280
Fe -2.86640 -5.73280 -2.86640
Fe -2.86640 -2.86640 -5.73280
Fe -2.86640 -2.86640 -2.86640
Fe -4.29960 -4.29960 -4.29960
Fe -4.29960 -4.29960 -1.43320
Fe -4.29960 -1.43320 -4.29960
Fe -4.29960 -1.43320 -1.43320
Fe -1.43320 -4.29960 -4.29960
Fe -1.43320 -4.29960 -1.43320
Fe -1.43320 -1.43320 -4.29960
Fe -1.43320 -1.43320 -1.43320
Fe -5.73280 -5.73280  0.00000
Fe -5.73280 -5.73280  2.86640
Fe -5.73280 -2.86640  0.00000
Fe -5.73280 -2.86640  2.86640
Fe -2.86640 -5.73280  0.00000
Fe -2.86640 -5.73280  2.86640
Fe -2.86640 -2.86640  0.00000
Fe -2.86640 -2.86640  2.86640
Fe -4.29960 -4.29960  1.43320
Fe -4.29960 -4.29960  4.29960
Fe -4.29960 -1.43320  1.43320
Fe -4.29960 -1.43320  4.29960
Fe -1.43320 -4.29960  1.43320
Fe -1.43320 -4.29960  4.29960
Fe -1.43320 -1.43320  1.43320
Fe -1.43320 -1.43320  4.29960
Fe -5.73280 -5.73280  5.73280
Fe -5.73280 -5.73280  8.59920
Fe -5.73280 -2.86640  5.73280
Fe -5.73280 -2.86640  8.59920
Fe -2.86640 -5.73280  5.73280
Fe -2.86640 -5.73280  8.59920
Fe -2.86640 -2.86640  5.73280
Fe -2.86640 -2.86640  8.59920
Fe -4.29960 -4.29960  7.16600
Fe -4.29960 -4.29960 10.03240
Fe -4.29960 -1.43320  7.16600
Fe -4.29960 -1.43320 10.03240
Fe -1.43320 -4.29960  7.16600
Fe -1.43320 -4.29960 10.03240
Fe -1.43320 -1.43320  7.16600
Fe -1.43320 -1.43320 10.03240
Fe -5.73280  0.00000 -5.73280
Fe -5.73280  0.00000 -2.86640
Fe -5.73280  2.86640 -5.73280
Fe -5.73280  2.86640 -2.86640
Fe -2.86640  0.00000 -5.73280
Fe -2.86640  0.00000 -2.86640
Fe -2.86640  2.86640 -5.73280
Fe -2.86640  2.86640 -2.86640
Fe -4.29960  1.43320 -4.29960
Fe -4.29960  1.43320 -1.43320
Fe -4.29960  4.29960 -4.29960
Fe -4.29960  4.29960 -1.43320
Fe -1.43320  1.43320 -4.29960
Fe -1.43320  1.43320 -1.43320
Fe -1.43320  4.29960 -4.29960
Fe -1.43320  4.29960 -1.43320
Fe -5.73280  0.00000  0.00000
Fe -5.73280  0.00000  2.86640
Fe -5.73280  2.86640  0.00000
Fe -5.73280  2.86640  2.86640
Fe -2.86640  0.00000  0.00000
Fe -2.86640  0.00000  2.86640
Fe -2.86640  2.86640  0.00000
Fe -2.86640  2.86640  2.86640
Fe -4.29960  1.43320  1.43320
Fe -4.29960  1.43320  4.29960
Fe -4.29960  4.29960  1.43320
Fe -4.29960  4.29960  4.29960
Fe -1.43320  1.43320  1.43320
Fe -1.43320  1.43320  4.29960
Fe -1.43320  4.29960  1.43320
Fe -1.43320  4.29960  4.29960
Fe -5.73280  0.00000  5.73280
Fe -5.73280  0.00000  8.59920
Fe -5.73280  2.86640  5.73280
Fe -5.73280  2.86640  8.59920
Fe -2.86640  0.00000  5.73280
Fe -2.86640  0.00000  8.59920
Fe -2.86640  2.86640  5.73280
Fe -2.86640  2.86640  8.59920
Fe -4.29960  1.43320  7.16600
Fe -4.29960  1.43320 10.03240
Fe -4.29960  4.29960  7.16600
Fe -4.29960  4.29960 10.03240
Fe -1.43320  1.43320  7.16600
Fe -1.43320  1.43320 10.03240
Fe -1.43320  4.29960  7.16600
Fe -1.43320  4.29960 10.03240
Fe -5.73280  5.73280 -5.73280
Fe -5.73280  5.73280 -2.86640
Fe -5.73280  8.59920 -5.73280
Fe -5.73280  8.59920 -2.86640
Fe -2.86640  5.73280 -5.73280
Fe -2.86640  5.73280 -2.86640
Fe -2.86640  8.59920 -5.73280
Fe -2.86640  8.59920 -2.86640
Fe -4.29960  7.16600 -4.29960
Fe -4.29960  7.16600 -1.43320
Fe -4.29960 10.03240 -4.29960
Fe -4.29960 10.03240 -1.43320
Fe -1.43320  7.16600 -4.29960
Fe -1.43320  7.16600 -1.43320
Fe -1.43320 10.03240 -4.29960
Fe -1.43320 10.03240 -1.43320
Fe -5.73280  5.73280  0.00000
Fe -5.73280  5.73280  2.86640
Fe -5.73280  8.59920  0.00000
Fe -5.73280  8.59920  2.86640
Fe -2.86640  5.73280  0.00000
Fe -2.86640  5.73280  2.86640
Fe -2.86640  8.59920  0.00000
Fe -2.86640  8.59920  2.86640
Fe -4.29960  7.16600  1.43320
Fe -4.29960  7.16600  4.29960
Fe -4.29960 10.03240  1.43320
Fe -4.29960 10.03240  4.29960
Fe -1.43320  7.16600  1.43320
Fe -1.43320  7.16600  4.29960
Fe -1.43320 10.03240  1.43320
Fe -1.43320 10.03240  4.29960
Fe -5.73280  5.73280  5.73280
Fe -5.73280  5.73280  8.59920
Fe -5.73280  8.59920  5.73280
Fe -5.73280  8.59920  8.59920
Fe -2.86640  5.73280  5.73280
Fe -2.86640  5.73280  8.59920
Fe -2.86640  8.59920  5.73280
Fe -2.86640  8.59920  8.59920
Fe -4.29960  7.16600  7.16600
Fe -4.29960  7.16600 10.03240
Fe -4.29960 10.03240  7.16600
Fe -4.29960 10.03240 10.03240
Fe -1.43320  7.16600  7.16600
Fe -1.43320  7.16600 10.03240
Fe -1.43320 10.03240  7.16600
Fe -1.43320 10.03240 10.03240
Fe  0.00000 -5.73280 -5.73280
Fe  0.00000 -5.73280 -2.86640
Fe  0.00000 -2.86640 -5.73280
Fe  0.00000 -2.86640 -2.86640
Fe  2.86640 -5.73280 -5.73280
Fe  2.86640 -5.73280 -2.86640
Fe  2.86640 -2.86640 -5.73280
Fe  2.86640 -2.86640 -2.86640
Fe  1.43320 -4.29960 -4.29960
Fe  1.43320 -4.29960 -1.43320
Fe  1.43320 -1.43320 -4.29960
Fe  1.43320 -1.43320 -1.43320
Fe  4.29960 -4.29960 -4.29960
Fe  4.29960 -4.29960 -1.43320
Fe  4.29960 -1.43320 -4.29960
Fe  4.29960 -1.43320 -1.43320
Fe  0.00000 -5.73280  0.00000
Fe  0.00000 -5.73280  2.86640
Fe  0.00000 -2.86640  0.00000
Fe  0.00000 -2.86640  2.86640
Fe  2.86640 -5.73280  0.00000
Fe  2.86640 -5.73280  2.86640
Fe  2.86640 -2.86640  0.00000
Fe  2.86640 -2.86640  2.86640
Fe  1.43320 -4.29960  1.43320
Fe  1.43320 -4.29960  4.29960
Fe  1.43320 -1.43320  1.43320
Fe  1.43320 -1.43320  4.29960
Fe  4.29960 -4.29960  1.43320
Fe  4.29960 -4.29960  4.29960
Fe  4.29960 -1.43320  1.43320
Fe  4.29960 -1.43320  4.29960
Fe  0.00000 -5.73280  5.73280
Fe  0.00000 -5.73280  8.59920
Fe  0.00000 -2.86640  5.73280
Fe  0.00000 -2.86640  8.59920
Fe  2.86640 -5.73280  5.73280
Fe  2.86640 -5.73280  8.59920
Fe  2.86640 -2.86640  5.73280
Fe  2.86640 -2.86640  8.59920
Fe  1.43320 -4.29960  7.16600
Fe  1.43320 -4.29960 10.03240
Fe  1.43320 -1.43320  7.16600
Fe  1.43320 -1.43320 10.03240
Fe  4.29960 -4.29960  7.16600
Fe  4.29960 -4.29960 10.03240
Fe  4.29960 -1.43320  7.16600
Fe  4.29960 -1.43320 10.03240
Fe  0.00000  0.00000 -5.73280
Fe  0.00000  0.00000 -2.86640
Fe  0.00000  2.86640 -5.73280
Fe  0.00000  2.86640 -2.86640
Fe  2.86640  0.00000 -5.73280
Fe  2.86640  0.00000 -2.86640
Fe  2.86640  2.86640 -5.73280
Fe  2.86640  2.86640 -2.86640
Fe  1.43320  1.43320 -4.29960
Fe  1.43320  1.43320 -1.43320
Fe  1.43320  4.29960 -4.29960
Fe  1.43320  4.29960 -1.43320
Fe  4.29960  1.43320 -4.29960
Fe  4.29960  1.43320 -1.43320
Fe  4.29960  4.29960 -4.29960
Fe  4.29960  4.29960 -1.43320
Fe  0.00000  0.00000  0.00000
Fe  0.00000  0.00000  2.86640
Fe  0.00000  2.86640  0.00000
Fe  0.00000  2.86640  2.86640
Fe  2.86640  0.00000  0.00000
Fe  2.86640  0.00000  2.86640
Fe  2.86640  2.86640  0.00000
Fe  2.86640  2.86640  2.86640
Fe  1.43320  1.43320  1.43320
Fe  1.43320  1.43320  4.29960
Fe  1.43320  4.29960  1.43320
Fe  1.43320  4.29960  4.29960
Fe  4.29960  1.43320  1.43320
Fe  4.29960  1.43320  4.29960
Fe  4.29960  4.29960  1.43320
Fe  4.29960  4.29960  4.29960
Fe  0.00000  0.00000  5.73280
Fe  0.00000  0.00000  8.59920
Fe  0.00000  2.86640  5.73280
Fe  0.00000  2.86640  8.59920
Fe  2.86640  0.00000  5.73280
Fe  2.86640  0.00000  8.59920
Fe  2.86640  2.86640  5.73280
Fe  2.86640  2.86640  8.59920
Fe  1.43320  1.43320  7.16600
Fe  1.43320  1.43320 10.03240
Fe  1.43320  4.29960  7.16600
Fe  1.43320  4.29960 10.03240
Fe  4.29960  1.43320  7.16600
Fe  4.29960  1.43320 10.03240
Fe  4.29960  4.29960  7.16600
Fe  4.29960  4.29960 10.03240
Fe  0.00000  5.73280 -5.73280
Fe  0.00000  5.73280 -2.86640
Fe  0.00000  8.59920 -5.73280
Fe  0.00000  8.59920 -2.86640
Fe  2.86640  5.73280 -5.73280
Fe  2.86640  5.73280 -2.86640
Fe  2.86640  8.59920 -5.73280
Fe  2.86640  8.59920 -2.86640
Fe  1.43320  7.16600 -4.29960
Fe  1.43320  7.16600 -1.43320
Fe  1.43320 10.03240 -4.29960
Fe  1.43320 10.03240 -1.43320
Fe  4.29960  7.16600 -4.29960
Fe  4.29960  7.16600 -1.43320
Fe  4.29960 10.03240 -4.29960
Fe  4.29960 10.03240 -1.43320
Fe  0.00000  5.73280  0.00000
Fe  0.00000  5.73280  2.86640
Fe  0.00000  8.59920  0.00000
Fe  0.00000  8.59920  2.86640
Fe  2.86640  5.73280  0.00000
Fe  2.86640  5.73280  2.86640
Fe  2.86640  8.59920  0.00000
Fe  2.86640  8.59920  2.86640
Fe  1.43320  7.16600  1.43320
Fe  1.43320  7.16600  4.29960
Fe  1.43320 10.03240  1.43320
Fe  1.43320 10.03240  4.29960
Fe  4.29960  7.16600  1.43320
Fe  4.29960  7.16600  4.29960
Fe  4.29960 10.03240  1.43320
Fe  4.29960 10.03240  4.29960
Fe  0.00000  5.73280  5.73280
Fe  0.00000  5.73280  8.59920
Fe  0.00000  8.59920  5.73280
Fe  0.00000  8.59920  8.59920
Fe  2.86640  5.73280  5.73280
Fe  2.86640  5.73280  8.59920
Fe  2.86640  8.59920  5.73280
Fe  2.86640  8.59920  8.59920
Fe  1.43320  7.16600  7.16600
Fe  1.43320  7.16600 10.03240
Fe  1.43320 10.03240  7.16600
Fe  1.43320 10.03240 10.03240
Fe  4.29960  7.16600  7.16600
Fe  4.29960  7.16600 10.03240
Fe  4.29960 10.03240  7.16600
Fe  4.29960 10.03240 10.03240
Fe  5.73280 -5.73280 -5.73280
Fe  5.73280 -5.73280 -2.86640
Fe  5.73280 -2.86640 -5.73280
Fe  5.73280 -2.86640 -2.86640
Fe  8.59920 -5.73280 -5.73280
Fe  8.59920 -5.73280 -2.86640
Fe  8.59920 -2.86640 -5.73280
Fe  8.59920 -2.86640 -2.86640
Fe  7.16600 -4.29960 -4.29960
Fe  7.16600 -4.29960 -1.43320
Fe  7.16600 -1.43320 -4.29960
Fe  7.16600 -1.43320 -1.43320
Fe 10.03240 -4.29960 -4.29960
Fe 10.03240 -4.29960 -1.43320
Fe 10.03240 -1.43320 -4.29960
Fe 10.03240 -1.43320 -1.43320
Fe  5.73280 -5.73280  0.00000
Fe  5.73280 -5.73280  2.86640
Fe  5.73280 -2.86640  0.00000
Fe  5.73280 -2.86640  2.86640
Fe  8.59920 -5.73280  0.00000
Fe  8.59920 -5.73280  2.86640
Fe  8.59920 -2.86640  0.00000
Fe  8.59920 -2.86640  2.86640
Fe  7.16600 -4.29960  1.43320
Fe  7.16600 -4.29960  4.29960
Fe  7.16600 -1.43320  1.43320
Fe  7.16600 -1.43320  4.29960
Fe 10.03240 -4.29960  1.43320
Fe 10.03240 -4.29960  4.29960
Fe 10.03240 -1.43320  1.43320
Fe 10.03240 -1.43320  4.29960
Fe  5.73280 -5.73280  5.73280
Fe  5.73280 -5.73280  8.59920
Fe  5.73280 -2.86640  5.73280
Fe  5.73280 -2.86640  8.59920
Fe  8.59920 -5.73280  5.73280
Fe  8.59920 -5.73280  8.59920
Fe  8.59920 -2.86640  5.73280
Fe  8.59920 -2.86640  8.59920
Fe  7.16600 -4.29960  7.16600
Fe  7.16600 -4.29960 10.03240
Fe  7.16600 -1.43320  7.16600
Fe  7.16600 -1.43320 10.03240
Fe 10.03240 -4.29960  7.16600
Fe 10.03240 -4.29960 10.03240
Fe 10.03240 -1.43320  7.16600
Fe 10.03240 -1.43320 10.03240
Fe  5.73280  0.00000 -5.73280
Fe  5.73280  0.00000 -2.86640
Fe  5.73280  2.86640 -5.73280
Fe  5.73280  2.86640 -2.86640
Fe  8.59920  0.00000 -5.73280
Fe  8.59920  0.00000 -2.86640
Fe  8.59920  2.86640 -5.73280
Fe  8.59920  2.86640 -2.86640
Fe  7.16600  1.43320 -4.29960
Fe  7.16600  1.43320 -1.43320
Fe  7.16600  4.29960 -4.29960
Fe  7.16600  4.29960 -1.43320
Fe 10.03240  1.43320 -4.29960
Fe 10.03240  1.43320 -1.43320
Fe 10.03240  4.29960 -4.29960
Fe 10.03240  4.29960 -1.43320
Fe  5.73280  0.00000  0.00000
Fe  5.73280  0.00000  2.86640
Fe  5.73280  2.86640  0.00000
Fe  5.73280  2.86640  2.86640
Fe  8.59920  0.00000  0.00000
Fe  8.59920  0.00000  2.86640
Fe  8.59920  2.86640  0.00000
Fe  8.59920  2.86640  2.86640
Fe  7.16600  1.43320  1.43320
Fe  7.16600  1.43320  4.29960
Fe  7.16600  4.29960  1.43320
Fe  7.16600  4.29960  4.29960
Fe 10.03240  1.43320  1.43320
Fe 10.03240  1.43320  4.29960
Fe 10.03240  4.29960  1.43320
Fe 10.03240  4.29960  4.29960
Fe  5.73280  0.00000  5.73280
Fe  5.73280  0.00000  8.59920
Fe  5.73280  2.86640  5.73280
Fe  5.73280  2.86640  8.59920
Fe  8.59920  0.00000  5.73280
Fe  8.59920  0.00000  8.59920
Fe  8.59920  2.86640  5.73280
Fe  8.59920  2.86640  8.59920
Fe  7.16600  1.43320  7.16600
Fe  7.16600  1.43320 10.03240
Fe  7.16600  4.29960  7.16600
Fe  7.16600  4.29960 10.03240
Fe 10.03240  1.43320  7.16600
Fe 10.03240  1.43320 10.03240
Fe 10.03240  4.29960  7.16600
Fe 10.03240  4.29960 10.03240
Fe  5.73280  5.73280 -5.73280
Fe  5.73280  5.73280 -2.86640
Fe  5.73280  8.59920 -5.73280
Fe  5.73280  8.59920 -2.86640
Fe  8.59920  5.73280 -5.73280
Fe  8.59920  5.73280 -2.86640
Fe  8.59920  8.59920 -5.73280
Fe  8.59920  8.59920 -2.86640
Fe  7.16600  7.16600 -4.29960
Fe  7.16600  7.16600 -1.43320
Fe  7.16600 10.03240 -4.29960
Fe  7.16600 10.03240 -1.43320
Fe 10.03240  7.16600 -4.29960
Fe 10.03240  7.16600 -1.43320
Fe 10.03240 10.03240 -4.29960
Fe 10.03240 10.03240 -1.43320
Fe  5.73280  5.73280  0.00000
Fe  5.73280  5.73280  2.86640
Fe  5.73280  8.59920  0.00000
Fe  5.73280  8.59920  2.86640
Fe  8.59920  5.73280  0.00000
Fe  8.59920  5.73280  2.86640
Fe  8.59920  8.59920  0.00000
Fe  8.59920  8.59920  2.86640
Fe  7.16600  7.16600  1.43320
Fe  7.16600  7.16600  4.29960
Fe  7.16600 10.03240  1.43320
Fe  7.16600 10.03240  4.29960
Fe 10.03240  7.16600  1.43320
Fe 10.03240  7.16600  4.29960
Fe 10.03240 10.03240  1.43320
Fe 10.03240 10.03240  4.29960
Fe  5.73280  5.73280  5.73280
Fe  5.73280  5.73280  8.59920
Fe  5.73280  8.59920  5.73280
Fe  5.73280  8.59920  8.59920
Fe  8.59920  5.73280  5.73280
Fe  8.59920  5.73280  8.59920
Fe  8.59920  8.59920  5.73280
Fe  8.59920  8.59920  8.59920
Fe  7.16600  7.16600  7.16600
Fe  7.16600  7.16600 10.03240
Fe  7.16600 10.03240  7.16600
Fe  7.16600 10.03240 10.03240
Fe 10.03240  7.16600  7.16600
Fe 10.03240  7.16600 10.03240
Fe 10.03240 10.03240  7.16600
Fe 10.03240 10.03240 10.03240
