1080

Ga -7.42198 -9.39930 -4.17961
Ga -7.34952 -6.50093 -0.96455
Fe -7.41297 -3.91171 -4.10985
Fe -8.45375 -1.92150 -1.63793
O -5.91406 -5.36700 -0.12803
O -4.48149 -5.31060 -2.44529
O -0.03676 -7.51944 -1.74315
O -7.38251 -7.55140 -4.30124
O -7.26700 -3.07921 -0.76869
O -7.27750 -0.57336 -2.46612
Ga -5.70482 -9.39930 -1.63931
Ga -5.77728 -6.50093 -3.50485
Fe -5.71383 -3.91171 -1.56955
Fe -4.67305 -1.92150  0.90237
O -7.21274 -5.36700 -2.66833
O -8.64531 -5.31060  0.09501
O -13.09004 -7.51944 -4.28345
O -5.74429 -7.55140 -1.76094
O -5.85980 -3.07921 -3.30899
O -5.84930 -0.57336  0.07418
Ga -3.04638 -4.69965 -3.44129
Ga -2.97392 -1.80128 -6.65635
Fe -3.03737  0.78794 -3.51105
Fe -4.07815  2.77815 -5.98297
O -1.53846 -0.66735 -7.49287
O -0.10589 -0.61095 -5.17561
O -4.41235 -2.81979 -5.87775
O -3.00691 -2.85175 -3.31966
O -2.89140  1.62044 -6.85221
O -2.90190  4.12629 -5.15478
Ga -10.08042 -4.69965 -5.98159
Ga -10.15288 -1.80128  0.96455
Fe -10.08943  0.78794 -6.05135
Fe -9.04865  2.77815 -8.52327
O -11.58834 -0.66735 -4.95257
O -13.02091 -0.61095 -7.71591
O -8.71445 -2.81979 -8.41805
O -10.11989 -2.85175 -5.85996
O -10.23540 -7.77886 -4.31190
O -10.22490  4.12629 -7.69508
Ga -7.42198 -9.39930  0.90099
Ga -7.34952 -6.50093  4.11605
Fe -7.41297 -3.91171  0.97075
Fe -8.45375 -1.92150  3.44267
O -5.91406 -5.36700  4.95257
O -4.48149 -5.31060  2.63531
O -0.03676 -7.51944  3.33745
O -7.38251 -7.55140  0.77936
O -7.26700 -3.07921  4.31191
O -7.27750 -0.57336  2.61448
Ga -5.70482 -9.39930  3.44129
Ga -5.77728 -6.50093  1.57575
Fe -5.71383 -3.91171  3.51105
Fe -4.67305 -1.92150  5.98297
O -7.21274 -5.36700  2.41227
O -8.64531 -5.31060  5.17561
O -13.09004 -7.51944  0.79715
O -5.74429 -7.55140  3.31966
O -5.85980 -3.07921  1.77161
O -5.84930 -0.57336  5.15478
Ga -3.04638 -4.69965  1.63931
Ga -2.97392 -1.80128 -1.57575
Fe -3.03737  0.78794  1.56955
Fe -4.07815  2.77815 -0.90237
O -1.53846 -0.66735 -2.41227
O -0.10589 -0.61095 -0.09501
O -4.41235 -2.81979 -0.79715
O -3.00691 -2.85175  1.76094
O -2.89140  1.62044 -1.77161
O -2.90190  4.12629 -0.07418
Ga -10.08042 -4.69965 -0.90099
Ga -10.15288 -1.80128  6.04515
Fe -10.08943  0.78794 -0.97075
Fe -9.04865  2.77815 -3.44267
O -11.58834 -0.66735  0.12803
O -13.02091 -0.61095 -2.63531
O -8.71445 -2.81979 -3.33745
O -10.11989 -2.85175 -0.77936
O -10.23540 -7.77886  0.76869
O -10.22490  4.12629 -2.61448
Ga -7.42198 -9.39930  5.98159
Ga -7.34952 -6.50093  9.19665
Fe -7.41297 -3.91171  6.05135
Fe -8.45375 -1.92150  8.52327
O -5.91406 -5.36700 10.03317
O -4.48149 -5.31060  7.71591
O -0.03676 -7.51944  8.41805
O -7.38251 -7.55140  5.85996
O -7.26700 -3.07921  9.39251
O -7.27750 -0.57336  7.69508
Ga -5.70482 -9.39930  8.52189
Ga -5.77728 -6.50093  6.65635
Fe -5.71383 -3.91171  8.59165
Fe -4.67305 -1.92150 11.06357
O -7.21274 -5.36700  7.49287
O -8.64531 -5.31060 10.25621
O -13.09004 -7.51944  5.87775
O -5.74429 -7.55140  8.40026
O -5.85980 -3.07921  6.85221
O -5.84930 -0.57336 10.23538
Ga -3.04638 -4.69965  6.71991
Ga -2.97392 -1.80128  3.50485
Fe -3.03737  0.78794  6.65015
Fe -4.07815  2.77815  4.17823
O -1.53846 -0.66735  2.66833
O -0.10589 -0.61095  4.98559
O -4.41235 -2.81979  4.28345
O -3.00691 -2.85175  6.84154
O -2.89140  1.62044  3.30899
O -2.90190  4.12629  5.00642
Ga -10.08042 -4.69965  4.17961
Ga -10.15288 -1.80128 11.12575
Fe -10.08943  0.78794  4.10985
Fe -9.04865  2.77815  1.63793
O -11.58834 -0.66735  5.20863
O -13.02091 -0.61095  2.44529
O -8.71445 -2.81979  1.74315
O -10.11989 -2.85175  4.30124
O -10.23540 -7.77886  5.84929
O -10.22490  4.12629  2.46612
Ga -7.42198 -0.00000 -4.17961
Ga -7.34952  2.89837 -0.96455
Fe -7.41297  5.48759 -4.10985
Fe -8.45375  7.47780 -1.63793
O -5.91406  4.03230 -0.12803
O -4.48149  4.08870 -2.44529
O -0.03676  1.87986 -1.74315
O -7.38251  1.84790 -4.30124
O -7.26700  6.32009 -0.76869
O -7.27750  8.82594 -2.46612
Ga -5.70482 -0.00000 -1.63931
Ga -5.77728  2.89837 -3.50485
Fe -5.71383  5.48759 -1.56955
Fe -4.67305  7.47780  0.90237
O -7.21274  4.03230 -2.66833
O -8.64531  4.08870  0.09501
O -13.09004  1.87986 -4.28345
O -5.74429  1.84790 -1.76094
O -5.85980  6.32009 -3.30899
O -5.84930  8.82594  0.07418
Ga -3.04638  4.69965 -3.44129
Ga -2.97392  7.59802 -6.65635
Fe -3.03737 10.18724 -3.51105
Fe -4.07815 12.17745 -5.98297
O -1.53846  8.73195 -7.49287
O -0.10589  8.78835 -5.17561
O -4.41235  6.57951 -5.87775
O -3.00691  6.54755 -3.31966
O -2.89140 11.01974 -6.85221
O -2.90190 13.52559 -5.15478
Ga -10.08042  4.69965 -5.98159
Ga -10.15288  7.59802  0.96455
Fe -10.08943 10.18724 -6.05135
Fe -9.04865 12.17745 -8.52327
O -11.58834  8.73195 -4.95257
O -13.02091  8.78835 -7.71591
O -8.71445  6.57951 -8.41805
O -10.11989  6.54755 -5.85996
O -10.23540  1.62044 -4.31190
O -10.22490 13.52559 -7.69508
Ga -7.42198 -0.00000  0.90099
Ga -7.34952  2.89837  4.11605
Fe -7.41297  5.48759  0.97075
Fe -8.45375  7.47780  3.44267
O -5.91406  4.03230  4.95257
O -4.48149  4.08870  2.63531
O -0.03676  1.87986  3.33745
O -7.38251  1.84790  0.77936
O -7.26700  6.32009  4.31191
O -7.27750  8.82594  2.61448
Ga -5.70482 -0.00000  3.44129
Ga -5.77728  2.89837  1.57575
Fe -5.71383  5.48759  3.51105
Fe -4.67305  7.47780  5.98297
O -7.21274  4.03230  2.41227
O -8.64531  4.08870  5.17561
O -13.09004  1.87986  0.79715
O -5.74429  1.84790  3.31966
O -5.85980  6.32009  1.77161
O -5.84930  8.82594  5.15478
Ga -3.04638  4.69965  1.63931
Ga -2.97392  7.59802 -1.57575
Fe -3.03737 10.18724  1.56955
Fe -4.07815 12.17745 -0.90237
O -1.53846  8.73195 -2.41227
O -0.10589  8.78835 -0.09501
O -4.41235  6.57951 -0.79715
O -3.00691  6.54755  1.76094
O -2.89140 11.01974 -1.77161
O -2.90190 13.52559 -0.07418
Ga -10.08042  4.69965 -0.90099
Ga -10.15288  7.59802  6.04515
Fe -10.08943 10.18724 -0.97075
Fe -9.04865 12.17745 -3.44267
O -11.58834  8.73195  0.12803
O -13.02091  8.78835 -2.63531
O -8.71445  6.57951 -3.33745
O -10.11989  6.54755 -0.77936
O -10.23540  1.62044  0.76869
O -10.22490 13.52559 -2.61448
Ga -7.42198 -0.00000  5.98159
Ga -7.34952  2.89837  9.19665
Fe -7.41297  5.48759  6.05135
Fe -8.45375  7.47780  8.52327
O -5.91406  4.03230 10.03317
O -4.48149  4.08870  7.71591
O -0.03676  1.87986  8.41805
O -7.38251  1.84790  5.85996
O -7.26700  6.32009  9.39251
O -7.27750  8.82594  7.69508
Ga -5.70482 -0.00000  8.52189
Ga -5.77728  2.89837  6.65635
Fe -5.71383  5.48759  8.59165
Fe -4.67305  7.47780 11.06357
O -7.21274  4.03230  7.49287
O -8.64531  4.08870 10.25621
O -13.09004  1.87986  5.87775
O -5.74429  1.84790  8.40026
O -5.85980  6.32009  6.85221
O -5.84930  8.82594 10.23538
Ga -3.04638  4.69965  6.71991
Ga -2.97392  7.59802  3.50485
Fe -3.03737 10.18724  6.65015
Fe -4.07815 12.17745  4.17823
O -1.53846  8.73195  2.66833
O -0.10589  8.78835  4.98559
O -4.41235  6.57951  4.28345
O -3.00691  6.54755  6.84154
O -2.89140 11.01974  3.30899
O -2.90190 13.52559  5.00642
Ga -10.08042  4.69965  4.17961
Ga -10.15288  7.59802 11.12575
Fe -10.08943 10.18724  4.10985
Fe -9.04865 12.17745  1.63793
O -11.58834  8.73195  5.20863
O -13.02091  8.78835  2.44529
O -8.71445  6.57951  1.74315
O -10.11989  6.54755  4.30124
O -10.23540  1.62044  5.84929
O -10.22490 13.52559  2.46612
Ga -7.42198  9.39930 -4.17961
Ga -7.34952 12.29767 -0.96455
Fe -7.41297 14.88689 -4.10985
Fe -8.45375 16.87710 -1.63793
O -5.91406 13.43160 -0.12803
O -4.48149 13.48800 -2.44529
O -0.03676 11.27916 -1.74315
O -7.38251 11.24720 -4.30124
O -7.26700 15.71939 -0.76869
O -7.27750 18.22524 -2.46612
Ga -5.70482  9.39930 -1.63931
Ga -5.77728 12.29767 -3.50485
Fe -5.71383 14.88689 -1.56955
Fe -4.67305 16.87710  0.90237
O -7.21274 13.43160 -2.66833
O -8.64531 13.48800  0.09501
O -13.09004 11.27916 -4.28345
O -5.74429 11.24720 -1.76094
O -5.85980 15.71939 -3.30899
O -5.84930 18.22524  0.07418
Ga -3.04638 14.09895 -3.44129
Ga -2.97392 16.99732 -6.65635
Fe -3.03737 19.58654 -3.51105
Fe -4.07815 21.57675 -5.98297
O -1.53846 18.13125 -7.49287
O -0.10589 18.18765 -5.17561
O -4.41235 15.97881 -5.87775
O -3.00691 15.94685 -3.31966
O -2.89140 20.41904 -6.85221
O -2.90190 22.92489 -5.15478
Ga -10.08042 14.09895 -5.98159
Ga -10.15288 16.99732  0.96455
Fe -10.08943 19.58654 -6.05135
Fe -9.04865 21.57675 -8.52327
O -11.58834 18.13125 -4.95257
O -13.02091 18.18765 -7.71591
O -8.71445 15.97881 -8.41805
O -10.11989 15.94685 -5.85996
O -10.23540 11.01974 -4.31190
O -10.22490 22.92489 -7.69508
Ga -7.42198  9.39930  0.90099
Ga -7.34952 12.29767  4.11605
Fe -7.41297 14.88689  0.97075
Fe -8.45375 16.87710  3.44267
O -5.91406 13.43160  4.95257
O -4.48149 13.48800  2.63531
O -0.03676 11.27916  3.33745
O -7.38251 11.24720  0.77936
O -7.26700 15.71939  4.31191
O -7.27750 18.22524  2.61448
Ga -5.70482  9.39930  3.44129
Ga -5.77728 12.29767  1.57575
Fe -5.71383 14.88689  3.51105
Fe -4.67305 16.87710  5.98297
O -7.21274 13.43160  2.41227
O -8.64531 13.48800  5.17561
O -13.09004 11.27916  0.79715
O -5.74429 11.24720  3.31966
O -5.85980 15.71939  1.77161
O -5.84930 18.22524  5.15478
Ga -3.04638 14.09895  1.63931
Ga -2.97392 16.99732 -1.57575
Fe -3.03737 19.58654  1.56955
Fe -4.07815 21.57675 -0.90237
O -1.53846 18.13125 -2.41227
O -0.10589 18.18765 -0.09501
O -4.41235 15.97881 -0.79715
O -3.00691 15.94685  1.76094
O -2.89140 20.41904 -1.77161
O -2.90190 22.92489 -0.07418
Ga -10.08042 14.09895 -0.90099
Ga -10.15288 16.99732  6.04515
Fe -10.08943 19.58654 -0.97075
Fe -9.04865 21.57675 -3.44267
O -11.58834 18.13125  0.12803
O -13.02091 18.18765 -2.63531
O -8.71445 15.97881 -3.33745
O -10.11989 15.94685 -0.77936
O -10.23540 11.01974  0.76869
O -10.22490 22.92489 -2.61448
Ga -7.42198  9.39930  5.98159
Ga -7.34952 12.29767  9.19665
Fe -7.41297 14.88689  6.05135
Fe -8.45375 16.87710  8.52327
O -5.91406 13.43160 10.03317
O -4.48149 13.48800  7.71591
O -0.03676 11.27916  8.41805
O -7.38251 11.24720  5.85996
O -7.26700 15.71939  9.39251
O -7.27750 18.22524  7.69508
Ga -5.70482  9.39930  8.52189
Ga -5.77728 12.29767  6.65635
Fe -5.71383 14.88689  8.59165
Fe -4.67305 16.87710 11.06357
O -7.21274 13.43160  7.49287
O -8.64531 13.48800 10.25621
O -13.09004 11.27916  5.87775
O -5.74429 11.24720  8.40026
O -5.85980 15.71939  6.85221
O -5.84930 18.22524 10.23538
Ga -3.04638 14.09895  6.71991
Ga -2.97392 16.99732  3.50485
Fe -3.03737 19.58654  6.65015
Fe -4.07815 21.57675  4.17823
O -1.53846 18.13125  2.66833
O -0.10589 18.18765  4.98559
O -4.41235 15.97881  4.28345
O -3.00691 15.94685  6.84154
O -2.89140 20.41904  3.30899
O -2.90190 22.92489  5.00642
Ga -10.08042 14.09895  4.17961
Ga -10.15288 16.99732 11.12575
Fe -10.08943 19.58654  4.10985
Fe -9.04865 21.57675  1.63793
O -11.58834 18.13125  5.20863
O -13.02091 18.18765  2.44529
O -8.71445 15.97881  1.74315
O -10.11989 15.94685  4.30124
O -10.23540 11.01974  5.84929
O -10.22490 22.92489  2.46612
Ga  1.32922 -9.39930 -4.17961
Ga  1.40168 -6.50093 -0.96455
Fe  1.33823 -3.91171 -4.10985
Fe  0.29745 -1.92150 -1.63793
O  2.83714 -5.36700 -0.12803
O  4.26971 -5.31060 -2.44529
O  8.71444 -7.51944 -1.74315
O  1.36869 -7.55140 -4.30124
O  1.48420 -3.07921 -0.76869
O  1.47370 -0.57336 -2.46612
Ga  3.04638 -9.39930 -1.63931
Ga  2.97392 -6.50093 -3.50485
Fe  3.03737 -3.91171 -1.56955
Fe  4.07815 -1.92150  0.90237
O  1.53846 -5.36700 -2.66833
O  0.10589 -5.31060  0.09501
O -4.33885 -7.51944 -4.28345
O  3.00691 -7.55140 -1.76094
O  2.89140 -3.07921 -3.30899
O  2.90190 -0.57336  0.07418
Ga  5.70482 -4.69965 -3.44129
Ga  5.77728 -1.80128 -6.65635
Fe  5.71383  0.78794 -3.51105
Fe  4.67305  2.77815 -5.98297
O  7.21274 -0.66735 -7.49287
O  8.64531 -0.61095 -5.17561
O  4.33885 -2.81979 -5.87775
O  5.74429 -2.85175 -3.31966
O  5.85980  1.62044 -6.85221
O  5.84930  4.12629 -5.15478
Ga -1.32922 -4.69965 -5.98159
Ga -1.40168 -1.80128  0.96455
Fe -1.33823  0.78794 -6.05135
Fe -0.29745  2.77815 -8.52327
O -2.83714 -0.66735 -4.95257
O -4.26971 -0.61095 -7.71591
O  0.03675 -2.81979 -8.41805
O -1.36869 -2.85175 -5.85996
O -1.48420 -7.77886 -4.31190
O -1.47370  4.12629 -7.69508
Ga  1.32922 -9.39930  0.90099
Ga  1.40168 -6.50093  4.11605
Fe  1.33823 -3.91171  0.97075
Fe  0.29745 -1.92150  3.44267
O  2.83714 -5.36700  4.95257
O  4.26971 -5.31060  2.63531
O  8.71444 -7.51944  3.33745
O  1.36869 -7.55140  0.77936
O  1.48420 -3.07921  4.31191
O  1.47370 -0.57336  2.61448
Ga  3.04638 -9.39930  3.44129
Ga  2.97392 -6.50093  1.57575
Fe  3.03737 -3.91171  3.51105
Fe  4.07815 -1.92150  5.98297
O  1.53846 -5.36700  2.41227
O  0.10589 -5.31060  5.17561
O -4.33885 -7.51944  0.79715
O  3.00691 -7.55140  3.31966
O  2.89140 -3.07921  1.77161
O  2.90190 -0.57336  5.15478
Ga  5.70482 -4.69965  1.63931
Ga  5.77728 -1.80128 -1.57575
Fe  5.71383  0.78794  1.56955
Fe  4.67305  2.77815 -0.90237
O  7.21274 -0.66735 -2.41227
O  8.64531 -0.61095 -0.09501
O  4.33885 -2.81979 -0.79715
O  5.74429 -2.85175  1.76094
O  5.85980  1.62044 -1.77161
O  5.84930  4.12629 -0.07418
Ga -1.32922 -4.69965 -0.90099
Ga -1.40168 -1.80128  6.04515
Fe -1.33823  0.78794 -0.97075
Fe -0.29745  2.77815 -3.44267
O -2.83714 -0.66735  0.12803
O -4.26971 -0.61095 -2.63531
O  0.03675 -2.81979 -3.33745
O -1.36869 -2.85175 -0.77936
O -1.48420 -7.77886  0.76869
O -1.47370  4.12629 -2.61448
Ga  1.32922 -9.39930  5.98159
Ga  1.40168 -6.50093  9.19665
Fe  1.33823 -3.91171  6.05135
Fe  0.29745 -1.92150  8.52327
O  2.83714 -5.36700 10.03317
O  4.26971 -5.31060  7.71591
O  8.71444 -7.51944  8.41805
O  1.36869 -7.55140  5.85996
O  1.48420 -3.07921  9.39251
O  1.47370 -0.57336  7.69508
Ga  3.04638 -9.39930  8.52189
Ga  2.97392 -6.50093  6.65635
Fe  3.03737 -3.91171  8.59165
Fe  4.07815 -1.92150 11.06357
O  1.53846 -5.36700  7.49287
O  0.10589 -5.31060 10.25621
O -4.33885 -7.51944  5.87775
O  3.00691 -7.55140  8.40026
O  2.89140 -3.07921  6.85221
O  2.90190 -0.57336 10.23538
Ga  5.70482 -4.69965  6.71991
Ga  5.77728 -1.80128  3.50485
Fe  5.71383  0.78794  6.65015
Fe  4.67305  2.77815  4.17823
O  7.21274 -0.66735  2.66833
O  8.64531 -0.61095  4.98559
O  4.33885 -2.81979  4.28345
O  5.74429 -2.85175  6.84154
O  5.85980  1.62044  3.30899
O  5.84930  4.12629  5.00642
Ga -1.32922 -4.69965  4.17961
Ga -1.40168 -1.80128 11.12575
Fe -1.33823  0.78794  4.10985
Fe -0.29745  2.77815  1.63793
O -2.83714 -0.66735  5.20863
O -4.26971 -0.61095  2.44529
O  0.03675 -2.81979  1.74315
O -1.36869 -2.85175  4.30124
O -1.48420 -7.77886  5.84929
O -1.47370  4.12629  2.46612
Ga  1.32922 -0.00000 -4.17961
Ga  1.40168  2.89837 -0.96455
Fe  1.33823  5.48759 -4.10985
Fe  0.29745  7.47780 -1.63793
O  2.83714  4.03230 -0.12803
O  4.26971  4.08870 -2.44529
O  8.71444  1.87986 -1.74315
O  1.36869  1.84790 -4.30124
O  1.48420  6.32009 -0.76869
O  1.47370  8.82594 -2.46612
Ga  3.04638 -0.00000 -1.63931
Ga  2.97392  2.89837 -3.50485
Fe  3.03737  5.48759 -1.56955
Fe  4.07815  7.47780  0.90237
O  1.53846  4.03230 -2.66833
O  0.10589  4.08870  0.09501
O -4.33885  1.87986 -4.28345
O  3.00691  1.84790 -1.76094
O  2.89140  6.32009 -3.30899
O  2.90190  8.82594  0.07418
Ga  5.70482  4.69965 -3.44129
Ga  5.77728  7.59802 -6.65635
Fe  5.71383 10.18724 -3.51105
Fe  4.67305 12.17745 -5.98297
O  7.21274  8.73195 -7.49287
O  8.64531  8.78835 -5.17561
O  4.33885  6.57951 -5.87775
O  5.74429  6.54755 -3.31966
O  5.85980 11.01974 -6.85221
O  5.84930 13.52559 -5.15478
Ga -1.32922  4.69965 -5.98159
Ga -1.40168  7.59802  0.96455
Fe -1.33823 10.18724 -6.05135
Fe -0.29745 12.17745 -8.52327
O -2.83714  8.73195 -4.95257
O -4.26971  8.78835 -7.71591
O  0.03675  6.57951 -8.41805
O -1.36869  6.54755 -5.85996
O -1.48420  1.62044 -4.31190
O -1.47370 13.52559 -7.69508
Ga  1.32922 -0.00000  0.90099
Ga  1.40168  2.89837  4.11605
Fe  1.33823  5.48759  0.97075
Fe  0.29745  7.47780  3.44267
O  2.83714  4.03230  4.95257
O  4.26971  4.08870  2.63531
O  8.71444  1.87986  3.33745
O  1.36869  1.84790  0.77936
O  1.48420  6.32009  4.31191
O  1.47370  8.82594  2.61448
Ga  3.04638 -0.00000  3.44129
Ga  2.97392  2.89837  1.57575
Fe  3.03737  5.48759  3.51105
Fe  4.07815  7.47780  5.98297
O  1.53846  4.03230  2.41227
O  0.10589  4.08870  5.17561
O -4.33885  1.87986  0.79715
O  3.00691  1.84790  3.31966
O  2.89140  6.32009  1.77161
O  2.90190  8.82594  5.15478
Ga  5.70482  4.69965  1.63931
Ga  5.77728  7.59802 -1.57575
Fe  5.71383 10.18724  1.56955
Fe  4.67305 12.17745 -0.90237
O  7.21274  8.73195 -2.41227
O  8.64531  8.78835 -0.09501
O  4.33885  6.57951 -0.79715
O  5.74429  6.54755  1.76094
O  5.85980 11.01974 -1.77161
O  5.84930 13.52559 -0.07418
Ga -1.32922  4.69965 -0.90099
Ga -1.40168  7.59802  6.04515
Fe -1.33823 10.18724 -0.97075
Fe -0.29745 12.17745 -3.44267
O -2.83714  8.73195  0.12803
O -4.26971  8.78835 -2.63531
O  0.03675  6.57951 -3.33745
O -1.36869  6.54755 -0.77936
O -1.48420  1.62044  0.76869
O -1.47370 13.52559 -2.61448
Ga  1.32922 -0.00000  5.98159
Ga  1.40168  2.89837  9.19665
Fe  1.33823  5.48759  6.05135
Fe  0.29745  7.47780  8.52327
O  2.83714  4.03230 10.03317
O  4.26971  4.08870  7.71591
O  8.71444  1.87986  8.41805
O  1.36869  1.84790  5.85996
O  1.48420  6.32009  9.39251
O  1.47370  8.82594  7.69508
Ga  3.04638 -0.00000  8.52189
Ga  2.97392  2.89837  6.65635
Fe  3.03737  5.48759  8.59165
Fe  4.07815  7.47780 11.06357
O  1.53846  4.03230  7.49287
O  0.10589  4.08870 10.25621
O -4.33885  1.87986  5.87775
O  3.00691  1.84790  8.40026
O  2.89140  6.32009  6.85221
O  2.90190  8.82594 10.23538
Ga  5.70482  4.69965  6.71991
Ga  5.77728  7.59802  3.50485
Fe  5.71383 10.18724  6.65015
Fe  4.67305 12.17745  4.17823
O  7.21274  8.73195  2.66833
O  8.64531  8.78835  4.98559
O  4.33885  6.57951  4.28345
O  5.74429  6.54755  6.84154
O  5.85980 11.01974  3.30899
O  5.84930 13.52559  5.00642
Ga -1.32922  4.69965  4.17961
Ga -1.40168  7.59802 11.12575
Fe -1.33823 10.18724  4.10985
Fe -0.29745 12.17745  1.63793
O -2.83714  8.73195  5.20863
O -4.26971  8.78835  2.44529
O  0.03675  6.57951  1.74315
O -1.36869  6.54755  4.30124
O -1.48420  1.62044  5.84929
O -1.47370 13.52559  2.46612
Ga  1.32922  9.39930 -4.17961
Ga  1.40168 12.29767 -0.96455
Fe  1.33823 14.88689 -4.10985
Fe  0.29745 16.87710 -1.63793
O  2.83714 13.43160 -0.12803
O  4.26971 13.48800 -2.44529
O  8.71444 11.27916 -1.74315
O  1.36869 11.24720 -4.30124
O  1.48420 15.71939 -0.76869
O  1.47370 18.22524 -2.46612
Ga  3.04638  9.39930 -1.63931
Ga  2.97392 12.29767 -3.50485
Fe  3.03737 14.88689 -1.56955
Fe  4.07815 16.87710  0.90237
O  1.53846 13.43160 -2.66833
O  0.10589 13.48800  0.09501
O -4.33885 11.27916 -4.28345
O  3.00691 11.24720 -1.76094
O  2.89140 15.71939 -3.30899
O  2.90190 18.22524  0.07418
Ga  5.70482 14.09895 -3.44129
Ga  5.77728 16.99732 -6.65635
Fe  5.71383 19.58654 -3.51105
Fe  4.67305 21.57675 -5.98297
O  7.21274 18.13125 -7.49287
O  8.64531 18.18765 -5.17561
O  4.33885 15.97881 -5.87775
O  5.74429 15.94685 -3.31966
O  5.85980 20.41904 -6.85221
O  5.84930 22.92489 -5.15478
Ga -1.32922 14.09895 -5.98159
Ga -1.40168 16.99732  0.96455
Fe -1.33823 19.58654 -6.05135
Fe -0.29745 21.57675 -8.52327
O -2.83714 18.13125 -4.95257
O -4.26971 18.18765 -7.71591
O  0.03675 15.97881 -8.41805
O -1.36869 15.94685 -5.85996
O -1.48420 11.01974 -4.31190
O -1.47370 22.92489 -7.69508
Ga  1.32922  9.39930  0.90099
Ga  1.40168 12.29767  4.11605
Fe  1.33823 14.88689  0.97075
Fe  0.29745 16.87710  3.44267
O  2.83714 13.43160  4.95257
O  4.26971 13.48800  2.63531
O  8.71444 11.27916  3.33745
O  1.36869 11.24720  0.77936
O  1.48420 15.71939  4.31191
O  1.47370 18.22524  2.61448
Ga  3.04638  9.39930  3.44129
Ga  2.97392 12.29767  1.57575
Fe  3.03737 14.88689  3.51105
Fe  4.07815 16.87710  5.98297
O  1.53846 13.43160  2.41227
O  0.10589 13.48800  5.17561
O -4.33885 11.27916  0.79715
O  3.00691 11.24720  3.31966
O  2.89140 15.71939  1.77161
O  2.90190 18.22524  5.15478
Ga  5.70482 14.09895  1.63931
Ga  5.77728 16.99732 -1.57575
Fe  5.71383 19.58654  1.56955
Fe  4.67305 21.57675 -0.90237
O  7.21274 18.13125 -2.41227
O  8.64531 18.18765 -0.09501
O  4.33885 15.97881 -0.79715
O  5.74429 15.94685  1.76094
O  5.85980 20.41904 -1.77161
O  5.84930 22.92489 -0.07418
Ga -1.32922 14.09895 -0.90099
Ga -1.40168 16.99732  6.04515
Fe -1.33823 19.58654 -0.97075
Fe -0.29745 21.57675 -3.44267
O -2.83714 18.13125  0.12803
O -4.26971 18.18765 -2.63531
O  0.03675 15.97881 -3.33745
O -1.36869 15.94685 -0.77936
O -1.48420 11.01974  0.76869
O -1.47370 22.92489 -2.61448
Ga  1.32922  9.39930  5.98159
Ga  1.40168 12.29767  9.19665
Fe  1.33823 14.88689  6.05135
Fe  0.29745 16.87710  8.52327
O  2.83714 13.43160 10.03317
O  4.26971 13.48800  7.71591
O  8.71444 11.27916  8.41805
O  1.36869 11.24720  5.85996
O  1.48420 15.71939  9.39251
O  1.47370 18.22524  7.69508
Ga  3.04638  9.39930  8.52189
Ga  2.97392 12.29767  6.65635
Fe  3.03737 14.88689  8.59165
Fe  4.07815 16.87710 11.06357
O  1.53846 13.43160  7.49287
O  0.10589 13.48800 10.25621
O -4.33885 11.27916  5.87775
O  3.00691 11.24720  8.40026
O  2.89140 15.71939  6.85221
O  2.90190 18.22524 10.23538
Ga  5.70482 14.09895  6.71991
Ga  5.77728 16.99732  3.50485
Fe  5.71383 19.58654  6.65015
Fe  4.67305 21.57675  4.17823
O  7.21274 18.13125  2.66833
O  8.64531 18.18765  4.98559
O  4.33885 15.97881  4.28345
O  5.74429 15.94685  6.84154
O  5.85980 20.41904  3.30899
O  5.84930 22.92489  5.00642
Ga -1.32922 14.09895  4.17961
Ga -1.40168 16.99732 11.12575
Fe -1.33823 19.58654  4.10985
Fe -0.29745 21.57675  1.63793
O -2.83714 18.13125  5.20863
O -4.26971 18.18765  2.44529
O  0.03675 15.97881  1.74315
O -1.36869 15.94685  4.30124
O -1.48420 11.01974  5.84929
O -1.47370 22.92489  2.46612
Ga 10.08042 -9.39930 -4.17961
Ga 10.15288 -6.50093 -0.96455
Fe 10.08943 -3.91171 -4.10985
Fe  9.04865 -1.92150 -1.63793
O 11.58834 -5.36700 -0.12803
O 13.02091 -5.31060 -2.44529
O 17.46564 -7.51944 -1.74315
O 10.11989 -7.55140 -4.30124
O 10.23540 -3.07921 -0.76869
O 10.22490 -0.57336 -2.46612
Ga 11.79758 -9.39930 -1.63931
Ga 11.72512 -6.50093 -3.50485
Fe 11.78857 -3.91171 -1.56955
Fe 12.82935 -1.92150  0.90237
O 10.28966 -5.36700 -2.66833
O  8.85709 -5.31060  0.09501
O  4.41235 -7.51944 -4.28345
O 11.75811 -7.55140 -1.76094
O 11.64260 -3.07921 -3.30899
O 11.65310 -0.57336  0.07418
Ga 14.45602 -4.69965 -3.44129
Ga 14.52848 -1.80128 -6.65635
Fe 14.46503  0.78794 -3.51105
Fe 13.42425  2.77815 -5.98297
O 15.96394 -0.66735 -7.49287
O 17.39651 -0.61095 -5.17561
O 13.09004 -2.81979 -5.87775
O 14.49549 -2.85175 -3.31966
O 14.61100  1.62044 -6.85221
O 14.60050  4.12629 -5.15478
Ga  7.42198 -4.69965 -5.98159
Ga  7.34952 -1.80128  0.96455
Fe  7.41297  0.78794 -6.05135
Fe  8.45375  2.77815 -8.52327
O  5.91406 -0.66735 -4.95257
O  4.48149 -0.61095 -7.71591
O  8.78796 -2.81979 -8.41805
O  7.38251 -2.85175 -5.85996
O  7.26700 -7.77886 -4.31190
O  7.27750  4.12629 -7.69508
Ga 10.08042 -9.39930  0.90099
Ga 10.15288 -6.50093  4.11605
Fe 10.08943 -3.91171  0.97075
Fe  9.04865 -1.92150  3.44267
O 11.58834 -5.36700  4.95257
O 13.02091 -5.31060  2.63531
O 17.46564 -7.51944  3.33745
O 10.11989 -7.55140  0.77936
O 10.23540 -3.07921  4.31191
O 10.22490 -0.57336  2.61448
Ga 11.79758 -9.39930  3.44129
Ga 11.72512 -6.50093  1.57575
Fe 11.78857 -3.91171  3.51105
Fe 12.82935 -1.92150  5.98297
O 10.28966 -5.36700  2.41227
O  8.85709 -5.31060  5.17561
O  4.41235 -7.51944  0.79715
O 11.75811 -7.55140  3.31966
O 11.64260 -3.07921  1.77161
O 11.65310 -0.57336  5.15478
Ga 14.45602 -4.69965  1.63931
Ga 14.52848 -1.80128 -1.57575
Fe 14.46503  0.78794  1.56955
Fe 13.42425  2.77815 -0.90237
O 15.96394 -0.66735 -2.41227
O 17.39651 -0.61095 -0.09501
O 13.09004 -2.81979 -0.79715
O 14.49549 -2.85175  1.76094
O 14.61100  1.62044 -1.77161
O 14.60050  4.12629 -0.07418
Ga  7.42198 -4.69965 -0.90099
Ga  7.34952 -1.80128  6.04515
Fe  7.41297  0.78794 -0.97075
Fe  8.45375  2.77815 -3.44267
O  5.91406 -0.66735  0.12803
O  4.48149 -0.61095 -2.63531
O  8.78796 -2.81979 -3.33745
O  7.38251 -2.85175 -0.77936
O  7.26700 -7.77886  0.76869
O  7.27750  4.12629 -2.61448
Ga 10.08042 -9.39930  5.98159
Ga 10.15288 -6.50093  9.19665
Fe 10.08943 -3.91171  6.05135
Fe  9.04865 -1.92150  8.52327
O 11.58834 -5.36700 10.03317
O 13.02091 -5.31060  7.71591
O 17.46564 -7.51944  8.41805
O 10.11989 -7.55140  5.85996
O 10.23540 -3.07921  9.39251
O 10.22490 -0.57336  7.69508
Ga 11.79758 -9.39930  8.52189
Ga 11.72512 -6.50093  6.65635
Fe 11.78857 -3.91171  8.59165
Fe 12.82935 -1.92150 11.06357
O 10.28966 -5.36700  7.49287
O  8.85709 -5.31060 10.25621
O  4.41235 -7.51944  5.87775
O 11.75811 -7.55140  8.40026
O 11.64260 -3.07921  6.85221
O 11.65310 -0.57336 10.23538
Ga 14.45602 -4.69965  6.71991
Ga 14.52848 -1.80128  3.50485
Fe 14.46503  0.78794  6.65015
Fe 13.42425  2.77815  4.17823
O 15.96394 -0.66735  2.66833
O 17.39651 -0.61095  4.98559
O 13.09004 -2.81979  4.28345
O 14.49549 -2.85175  6.84154
O 14.61100  1.62044  3.30899
O 14.60050  4.12629  5.00642
Ga  7.42198 -4.69965  4.17961
Ga  7.34952 -1.80128 11.12575
Fe  7.41297  0.78794  4.10985
Fe  8.45375  2.77815  1.63793
O  5.91406 -0.66735  5.20863
O  4.48149 -0.61095  2.44529
O  8.78796 -2.81979  1.74315
O  7.38251 -2.85175  4.30124
O  7.26700 -7.77886  5.84929
O  7.27750  4.12629  2.46612
Ga 10.08042 -0.00000 -4.17961
Ga 10.15288  2.89837 -0.96455
Fe 10.08943  5.48759 -4.10985
Fe  9.04865  7.47780 -1.63793
O 11.58834  4.03230 -0.12803
O 13.02091  4.08870 -2.44529
O 17.46564  1.87986 -1.74315
O 10.11989  1.84790 -4.30124
O 10.23540  6.32009 -0.76869
O 10.22490  8.82594 -2.46612
Ga 11.79758 -0.00000 -1.63931
Ga 11.72512  2.89837 -3.50485
Fe 11.78857  5.48759 -1.56955
Fe 12.82935  7.47780  0.90237
O 10.28966  4.03230 -2.66833
O  8.85709  4.08870  0.09501
O  4.41235  1.87986 -4.28345
O 11.75811  1.84790 -1.76094
O 11.64260  6.32009 -3.30899
O 11.65310  8.82594  0.07418
Ga 14.45602  4.69965 -3.44129
Ga 14.52848  7.59802 -6.65635
Fe 14.46503 10.18724 -3.51105
Fe 13.42425 12.17745 -5.98297
O 15.96394  8.73195 -7.49287
O 17.39651  8.78835 -5.17561
O 13.09004  6.57951 -5.87775
O 14.49549  6.54755 -3.31966
O 14.61100 11.01974 -6.85221
O 14.60050 13.52559 -5.15478
Ga  7.42198  4.69965 -5.98159
Ga  7.34952  7.59802  0.96455
Fe  7.41297 10.18724 -6.05135
Fe  8.45375 12.17745 -8.52327
O  5.91406  8.73195 -4.95257
O  4.48149  8.78835 -7.71591
O  8.78796  6.57951 -8.41805
O  7.38251  6.54755 -5.85996
O  7.26700  1.62044 -4.31190
O  7.27750 13.52559 -7.69508
Ga 10.08042 -0.00000  0.90099
Ga 10.15288  2.89837  4.11605
Fe 10.08943  5.48759  0.97075
Fe  9.04865  7.47780  3.44267
O 11.58834  4.03230  4.95257
O 13.02091  4.08870  2.63531
O 17.46564  1.87986  3.33745
O 10.11989  1.84790  0.77936
O 10.23540  6.32009  4.31191
O 10.22490  8.82594  2.61448
Ga 11.79758 -0.00000  3.44129
Ga 11.72512  2.89837  1.57575
Fe 11.78857  5.48759  3.51105
Fe 12.82935  7.47780  5.98297
O 10.28966  4.03230  2.41227
O  8.85709  4.08870  5.17561
O  4.41235  1.87986  0.79715
O 11.75811  1.84790  3.31966
O 11.64260  6.32009  1.77161
O 11.65310  8.82594  5.15478
Ga 14.45602  4.69965  1.63931
Ga 14.52848  7.59802 -1.57575
Fe 14.46503 10.18724  1.56955
Fe 13.42425 12.17745 -0.90237
O 15.96394  8.73195 -2.41227
O 17.39651  8.78835 -0.09501
O 13.09004  6.57951 -0.79715
O 14.49549  6.54755  1.76094
O 14.61100 11.01974 -1.77161
O 14.60050 13.52559 -0.07418
Ga  7.42198  4.69965 -0.90099
Ga  7.34952  7.59802  6.04515
Fe  7.41297 10.18724 -0.97075
Fe  8.45375 12.17745 -3.44267
O  5.91406  8.73195  0.12803
O  4.48149  8.78835 -2.63531
O  8.78796  6.57951 -3.33745
O  7.38251  6.54755 -0.77936
O  7.26700  1.62044  0.76869
O  7.27750 13.52559 -2.61448
Ga 10.08042 -0.00000  5.98159
Ga 10.15288  2.89837  9.19665
Fe 10.08943  5.48759  6.05135
Fe  9.04865  7.47780  8.52327
O 11.58834  4.03230 10.03317
O 13.02091  4.08870  7.71591
O 17.46564  1.87986  8.41805
O 10.11989  1.84790  5.85996
O 10.23540  6.32009  9.39251
O 10.22490  8.82594  7.69508
Ga 11.79758 -0.00000  8.52189
Ga 11.72512  2.89837  6.65635
Fe 11.78857  5.48759  8.59165
Fe 12.82935  7.47780 11.06357
O 10.28966  4.03230  7.49287
O  8.85709  4.08870 10.25621
O  4.41235  1.87986  5.87775
O 11.75811  1.84790  8.40026
O 11.64260  6.32009  6.85221
O 11.65310  8.82594 10.23538
Ga 14.45602  4.69965  6.71991
Ga 14.52848  7.59802  3.50485
Fe 14.46503 10.18724  6.65015
Fe 13.42425 12.17745  4.17823
O 15.96394  8.73195  2.66833
O 17.39651  8.78835  4.98559
O 13.09004  6.57951  4.28345
O 14.49549  6.54755  6.84154
O 14.61100 11.01974  3.30899
O 14.60050 13.52559  5.00642
Ga  7.42198  4.69965  4.17961
Ga  7.34952  7.59802 11.12575
Fe  7.41297 10.18724  4.10985
Fe  8.45375 12.17745  1.63793
O  5.91406  8.73195  5.20863
O  4.48149  8.78835  2.44529
O  8.78796  6.57951  1.74315
O  7.38251  6.54755  4.30124
O  7.26700  1.62044  5.84929
O  7.27750 13.52559  2.46612
Ga 10.08042  9.39930 -4.17961
Ga 10.15288 12.29767 -0.96455
Fe 10.08943 14.88689 -4.10985
Fe  9.04865 16.87710 -1.63793
O 11.58834 13.43160 -0.12803
O 13.02091 13.48800 -2.44529
O 17.46564 11.27916 -1.74315
O 10.11989 11.24720 -4.30124
O 10.23540 15.71939 -0.76869
O 10.22490 18.22524 -2.46612
Ga 11.79758  9.39930 -1.63931
Ga 11.72512 12.29767 -3.50485
Fe 11.78857 14.88689 -1.56955
Fe 12.82935 16.87710  0.90237
O 10.28966 13.43160 -2.66833
O  8.85709 13.48800  0.09501
O  4.41235 11.27916 -4.28345
O 11.75811 11.24720 -1.76094
O 11.64260 15.71939 -3.30899
O 11.65310 18.22524  0.07418
Ga 14.45602 14.09895 -3.44129
Ga 14.52848 16.99732 -6.65635
Fe 14.46503 19.58654 -3.51105
Fe 13.42425 21.57675 -5.98297
O 15.96394 18.13125 -7.49287
O 17.39651 18.18765 -5.17561
O 13.09004 15.97881 -5.87775
O 14.49549 15.94685 -3.31966
O 14.61100 20.41904 -6.85221
O 14.60050 22.92489 -5.15478
Ga  7.42198 14.09895 -5.98159
Ga  7.34952 16.99732  0.96455
Fe  7.41297 19.58654 -6.05135
Fe  8.45375 21.57675 -8.52327
O  5.91406 18.13125 -4.95257
O  4.48149 18.18765 -7.71591
O  8.78796 15.97881 -8.41805
O  7.38251 15.94685 -5.85996
O  7.26700 11.01974 -4.31190
O  7.27750 22.92489 -7.69508
Ga 10.08042  9.39930  0.90099
Ga 10.15288 12.29767  4.11605
Fe 10.08943 14.88689  0.97075
Fe  9.04865 16.87710  3.44267
O 11.58834 13.43160  4.95257
O 13.02091 13.48800  2.63531
O 17.46564 11.27916  3.33745
O 10.11989 11.24720  0.77936
O 10.23540 15.71939  4.31191
O 10.22490 18.22524  2.61448
Ga 11.79758  9.39930  3.44129
Ga 11.72512 12.29767  1.57575
Fe 11.78857 14.88689  3.51105
Fe 12.82935 16.87710  5.98297
O 10.28966 13.43160  2.41227
O  8.85709 13.48800  5.17561
O  4.41235 11.27916  0.79715
O 11.75811 11.24720  3.31966
O 11.64260 15.71939  1.77161
O 11.65310 18.22524  5.15478
Ga 14.45602 14.09895  1.63931
Ga 14.52848 16.99732 -1.57575
Fe 14.46503 19.58654  1.56955
Fe 13.42425 21.57675 -0.90237
O 15.96394 18.13125 -2.41227
O 17.39651 18.18765 -0.09501
O 13.09004 15.97881 -0.79715
O 14.49549 15.94685  1.76094
O 14.61100 20.41904 -1.77161
O 14.60050 22.92489 -0.07418
Ga  7.42198 14.09895 -0.90099
Ga  7.34952 16.99732  6.04515
Fe  7.41297 19.58654 -0.97075
Fe  8.45375 21.57675 -3.44267
O  5.91406 18.13125  0.12803
O  4.48149 18.18765 -2.63531
O  8.78796 15.97881 -3.33745
O  7.38251 15.94685 -0.77936
O  7.26700 11.01974  0.76869
O  7.27750 22.92489 -2.61448
Ga 10.08042  9.39930  5.98159
Ga 10.15288 12.29767  9.19665
Fe 10.08943 14.88689  6.05135
Fe  9.04865 16.87710  8.52327
O 11.58834 13.43160 10.03317
O 13.02091 13.48800  7.71591
O 17.46564 11.27916  8.41805
O 10.11989 11.24720  5.85996
O 10.23540 15.71939  9.39251
O 10.22490 18.22524  7.69508
Ga 11.79758  9.39930  8.52189
Ga 11.72512 12.29767  6.65635
Fe 11.78857 14.88689  8.59165
Fe 12.82935 16.87710 11.06357
O 10.28966 13.43160  7.49287
O  8.85709 13.48800 10.25621
O  4.41235 11.27916  5.87775
O 11.75811 11.24720  8.40026
O 11.64260 15.71939  6.85221
O 11.65310 18.22524 10.23538
Ga 14.45602 14.09895  6.71991
Ga 14.52848 16.99732  3.50485
Fe 14.46503 19.58654  6.65015
Fe 13.42425 21.57675  4.17823
O 15.96394 18.13125  2.66833
O 17.39651 18.18765  4.98559
O 13.09004 15.97881  4.28345
O 14.49549 15.94685  6.84154
O 14.61100 20.41904  3.30899
O 14.60050 22.92489  5.00642
Ga  7.42198 14.09895  4.17961
Ga  7.34952 16.99732 11.12575
Fe  7.41297 19.58654  4.10985
Fe  8.45375 21.57675  1.63793
O  5.91406 18.13125  5.20863
O  4.48149 18.18765  2.44529
O  8.78796 15.97881  1.74315
O  7.38251 15.94685  4.30124
O  7.26700 11.01974  5.84929
O  7.27750 22.92489  2.46612
