15228

C -19.97159 -17.56616 -78.71304
C -21.49549 -13.79437 -78.71304
C -25.52390 -13.22822 -78.71304
C -28.02841 -16.43384 -78.71304
C -26.50451 -20.20563 -78.71304
C -22.47610 -20.77178 -78.71304
C -20.02090 -16.15422 -78.71304
C -22.74292 -13.13110 -78.71304
C -26.72202 -13.97689 -78.71304
C -27.97910 -17.84579 -78.71304
C -25.25708 -20.86890 -78.71304
C -21.27798 -20.02311 -78.71304
C -20.12166 -15.41215 -77.54956
C -23.45010 -12.92586 -77.51467
C -27.19878 -14.45308 -77.48466
C -27.87844 -18.58796 -77.54962
C -24.54992 -21.07404 -77.51468
C -20.80110 -19.54687 -77.48470
C -20.87984 -14.20816 -77.53864
C -24.88064 -13.03063 -77.47079
C -27.92799 -15.68827 -77.54201
C -27.12007 -19.79178 -77.53857
C -23.11932 -20.96924 -77.47079
C -20.07198 -18.31166 -77.54198
C -19.87869 -17.56421 -76.33512
C -21.43579 -13.72530 -76.30664
C -25.52515 -13.23222 -76.23231
C -28.12132 -16.43578 -76.33524
C -26.56427 -20.27459 -76.30647
C -22.47481 -20.76772 -76.23232
C -19.90762 -16.13731 -76.33839
C -22.71295 -13.09160 -76.28525
C -26.73475 -13.96300 -76.24984
C -28.09248 -17.86264 -76.33849
C -25.28696 -20.90839 -76.28515
C -21.26516 -20.03694 -76.25004
C -20.13232 -15.43883 -75.11544
C -23.40577 -12.99502 -75.02748
C -27.24206 -14.51189 -75.04700
C -27.86773 -18.56112 -75.11552
C -24.59429 -21.00500 -75.02738
C -20.75781 -19.48811 -75.04706
C -20.90341 -14.24463 -75.08519
C -24.82190 -13.06048 -75.00354
C -27.94136 -15.74450 -75.10133
C -27.09653 -19.75538 -75.08510
C -23.17813 -20.93960 -75.00356
C -20.05856 -18.25534 -75.10123
C -19.85506 -17.54681 -73.89695
C -21.43053 -13.79632 -73.83648
C -25.50129 -13.31164 -73.77667
C -28.14491 -16.45322 -73.89708
C -26.56946 -20.20357 -73.83637
C -22.49876 -20.68843 -73.77680
C -19.89069 -16.12806 -73.90358
C -22.71049 -13.18179 -73.79458
C -26.73117 -14.02584 -73.81185
C -28.10936 -17.87189 -73.90371
C -25.28950 -20.81815 -73.79446
C -21.26887 -19.97411 -73.81187
C -20.06388 -15.44115 -72.67802
C -23.40125 -13.10904 -72.54111
C -27.26055 -14.54802 -72.60879
C -27.93623 -18.55889 -72.67821
C -24.59879 -20.89096 -72.54096
C -20.73950 -19.45197 -72.60878
C -20.86870 -14.27680 -72.62406
C -24.81838 -13.17563 -72.53200
C -27.99974 -15.75608 -72.67280
C -27.13113 -19.72312 -72.62402
C -23.18160 -20.82457 -72.53200
C -20.00044 -18.24388 -72.67269
C -19.73596 -17.54370 -71.47783
C -28.26405 -16.45639 -71.47794
C -19.76668 -16.12946 -71.48085
C -28.23325 -17.87064 -71.48095
C -21.40332 -13.86871 -71.36331
C -26.59663 -20.13127 -71.36324
C -21.24680 -19.90132 -71.35462
C -26.75320 -14.09878 -71.35461
C -22.50054 -20.56292 -71.30295
C -25.49942 -13.43725 -71.30297
C -22.70548 -13.31014 -71.30738
C -25.29455 -20.68986 -71.30722
C -19.85456 -18.23735 -70.25082
C -28.14544 -15.76278 -70.25094
C -19.91963 -15.44805 -70.25147
C -28.08041 -18.55191 -70.25155
C -20.66584 -19.39712 -70.16264
C -27.33415 -14.60300 -70.16268
C -20.79617 -14.33714 -70.16678
C -27.20395 -19.66292 -70.16672
C -24.60523 -20.70955 -70.04969
C -23.39461 -13.29038 -70.04976
C -23.18060 -20.64660 -70.04713
C -24.81925 -13.35354 -70.04717
C -19.49240 -17.54338 -69.07852
C -28.50760 -16.45667 -69.07868
C -19.52672 -16.12842 -69.07948
C -28.47320 -17.87164 -69.07963
C -21.17434 -19.78418 -68.88812
C -26.82553 -14.21599 -68.88808
C -21.33512 -13.99647 -68.88899
C -26.66485 -20.00354 -68.88899
C -22.67832 -13.51211 -68.82914
C -25.32158 -20.48777 -68.82906
C -22.47724 -20.37065 -68.82984
C -25.52263 -13.62944 -68.82985
C -28.43035 -15.77005 -67.84360
C -19.56975 -18.22987 -67.84346
C -28.35717 -18.54698 -67.84241
C -19.64281 -15.45297 -67.84240
C -20.48792 -19.31178 -67.72361
C -27.51219 -14.68828 -67.72378
C -20.62571 -14.43049 -67.72250
C -27.37426 -19.56944 -67.72251
C -24.62479 -20.39294 -67.58078
C -23.37508 -13.60679 -67.58078
C -24.82752 -13.66167 -67.57993
C -23.17232 -20.33809 -67.57984
C -19.12866 -16.11995 -66.70050
C -28.87136 -17.88000 -66.70062
C -19.09006 -17.53977 -66.70047
C -28.91006 -16.46025 -66.70054
C -21.00381 -19.56868 -66.41794
C -26.99627 -14.43129 -66.41811
C -26.83501 -19.77753 -66.41713
C -21.16486 -14.22234 -66.41707
C -22.42376 -19.91689 -66.41944
C -25.57629 -14.08307 -66.41956
C -22.60551 -13.97934 -66.41883
C -25.39446 -20.02037 -66.41890
C -19.11769 -18.21248 -65.44983
C -28.88236 -15.78758 -65.44991
C -19.19685 -15.45200 -65.44909
C -28.80309 -18.54795 -65.44916
C -20.16002 -19.18401 -65.29749
C -27.83998 -14.81601 -65.29760
C -24.63331 -19.32098 -65.46400
C -23.36671 -14.67901 -65.46409
C -24.77234 -14.72482 -65.46144
C -23.22772 -19.27524 -65.46126
C -20.30191 -14.55387 -65.29568
C -27.69803 -19.44615 -65.29578
C -29.41028 -17.89634 -64.30378
C -29.45195 -16.47356 -64.30410
C -18.58979 -16.10374 -64.30380
C -18.54816 -17.52644 -64.30409
C -22.74432 -15.68345 -64.64481
C -25.25565 -18.31664 -64.64481
C -22.66793 -18.23483 -64.64076
C -25.33202 -15.76514 -64.64089
C -23.31471 -16.97777 -64.72169
C -24.68518 -17.02230 -64.72173
C -27.46413 -14.80370 -63.88726
C -20.53577 -19.19631 -63.88711
C -27.31537 -19.42415 -63.88791
C -20.68456 -14.57596 -63.88783
C -26.29846 -15.54786 -63.66656
C -21.70145 -18.45222 -63.66647
C -26.20515 -18.59805 -63.67054
C -21.79489 -15.40194 -63.67042
C -29.51531 -15.82643 -63.01361
C -18.48467 -18.17354 -63.01369
C -29.42969 -18.54576 -63.01310
C -18.57038 -15.45426 -63.01316
C -28.42307 -14.93831 -62.81515
C -19.57677 -19.06175 -62.81511
C -28.27892 -19.35621 -62.81438
C -19.72109 -14.64379 -62.81424
C -26.21690 -16.36904 -62.49089
C -21.78298 -17.63106 -62.49090
C -26.17298 -17.77662 -62.49268
C -21.82698 -16.22349 -62.49260
C -17.95685 -17.51022 -61.83576
C -30.04316 -16.48979 -61.83571
C -18.00341 -16.08181 -61.83503
C -29.99665 -17.91828 -61.83505
C -20.10520 -19.03501 -61.47317
C -27.89465 -14.96513 -61.47314
C -20.25027 -14.70795 -61.47406
C -27.74966 -19.29210 -61.47414
C -21.30326 -18.27992 -61.32066
C -26.69661 -15.72022 -61.32062
C -21.39477 -15.54229 -61.32241
C -26.60508 -18.45788 -61.32238
C -18.04630 -18.14415 -60.53075
C -29.95369 -15.85592 -60.53071
C -18.13791 -15.45387 -60.53026
C -29.86211 -18.54625 -60.53027
C -19.20598 -18.95967 -60.35887
C -28.79395 -15.04040 -60.35895
C -19.35096 -14.72096 -60.35800
C -28.64894 -19.27908 -60.35805
C -21.54077 -17.62972 -60.09079
C -26.45935 -16.37043 -60.09077
C -21.59061 -16.20587 -60.09166
C -26.40924 -17.79429 -60.09164
C -30.42765 -16.50796 -59.32055
C -17.57240 -17.49204 -59.32054
C -30.37811 -17.93038 -59.31973
C -17.62195 -16.06964 -59.31969
C -28.20847 -15.05254 -59.04929
C -19.79157 -18.94754 -59.04917
C -28.06257 -19.22826 -59.04920
C -19.93737 -14.77178 -59.04910
C -26.96738 -15.73350 -58.92874
C -21.03276 -18.26660 -58.92873
C -26.87098 -18.46393 -58.92903
C -21.12902 -15.53611 -58.92902
C -17.75252 -18.11978 -58.01600
C -30.24755 -15.88027 -58.01604
C -17.84741 -15.45393 -58.01578
C -30.15257 -18.54610 -58.01580
C -29.06284 -15.10187 -57.89539
C -18.93723 -18.89814 -57.89532
C -28.91563 -19.23922 -57.89405
C -19.08428 -14.76082 -57.89395
C -26.68806 -16.37851 -57.69546
C -21.31191 -17.62142 -57.69550
C -26.63745 -17.79994 -57.69563
C -21.36250 -16.20006 -57.69558
C -17.31155 -17.48311 -56.78584
C -30.68845 -16.51699 -56.78581
C -17.36290 -16.05495 -56.78482
C -30.63709 -17.94513 -56.78481
C -19.56688 -18.92355 -56.60872
C -28.43313 -15.07643 -56.60877
C -19.71509 -14.77881 -56.60715
C -28.28479 -19.22118 -56.60720
C -20.82742 -18.25872 -56.52476
C -27.17261 -15.74121 -56.52471
C -20.92591 -15.53118 -56.52367
C -27.07403 -18.46873 -56.52360
C -17.55959 -18.11065 -55.49958
C -30.44043 -15.88939 -55.49951
C -30.34394 -18.55474 -55.49816
C -17.65606 -15.44544 -55.49820
C -18.75564 -18.88231 -55.42920
C -29.24435 -15.11770 -55.42918
C -18.90494 -14.76220 -55.42618
C -29.09503 -19.23791 -55.42616
C -21.19895 -16.19513 -55.30272
C -26.80110 -17.80488 -55.30263
C -21.14650 -17.61789 -55.30337
C -26.85352 -16.38211 -55.30329
C -30.77329 -17.94722 -54.24600
C -17.22666 -16.05293 -54.24602
C -30.82522 -16.52626 -54.24722
C -17.17477 -17.47385 -54.24718
C -28.42039 -19.21206 -54.15817
C -19.57969 -14.78809 -54.15821
C -28.57064 -15.09284 -54.16167
C -19.42934 -18.90713 -54.16164
C -27.21280 -18.46562 -54.11508
C -20.78725 -15.53452 -54.11511
C -27.31188 -15.74925 -54.11764
C -20.68810 -18.25074 -54.11772
C -17.46528 -18.10814 -52.96953
C -30.53472 -15.89188 -52.96959
C -17.56364 -15.44415 -52.96630
C -30.43633 -18.55587 -52.96624
C -29.33653 -15.11985 -52.94730
C -18.66353 -18.88016 -52.94727
C -18.81502 -14.76169 -52.94265
C -29.18503 -19.23845 -52.94265
C -26.88999 -17.80409 -52.90160
C -21.10996 -16.19607 -52.90167
C -26.94202 -16.38111 -52.90267
C -21.05786 -17.61900 -52.90269
C -17.12104 -17.47797 -51.70652
C -30.87905 -16.52202 -51.70649
C -19.38331 -18.91839 -51.70816
C -28.61663 -15.08168 -51.70821
C -20.74867 -15.53261 -51.70352
C -27.25120 -18.46747 -51.70334
C -17.17326 -16.05073 -51.70469
C -30.82669 -17.94927 -51.70467
C -20.64851 -18.25987 -51.70708
C -27.35144 -15.74020 -51.70711
C -19.53585 -14.78136 -51.70321
C -28.46404 -19.21876 -51.70321
C -26.89328 -17.79757 -50.50622
C -21.10663 -16.20250 -50.50637
C -26.94475 -16.37580 -50.50742
C -21.05517 -17.62421 -50.50747
C -29.33764 -15.11462 -50.46888
C -18.66229 -18.88534 -50.46885
C -18.81376 -14.76571 -50.46393
C -29.18604 -19.23439 -50.46385
C -17.56347 -15.44782 -50.44101
C -30.43643 -18.55228 -50.44096
C -17.46596 -18.11244 -50.44476
C -30.53397 -15.88764 -50.44472
C -27.21503 -18.45661 -49.29182
C -20.78495 -15.54353 -49.29190
C -27.31367 -15.73795 -49.29477
C -20.68619 -18.26205 -49.29477
C -28.57304 -15.08056 -49.25342
C -19.42682 -18.91940 -49.25337
C -28.42191 -19.20570 -49.24851
C -19.57805 -14.79437 -49.24862
C -30.82523 -16.51752 -49.16448
C -17.17455 -17.48261 -49.16455
C -30.77378 -17.93970 -49.16314
C -17.22611 -16.06039 -49.16330
C -21.14293 -17.63170 -48.10794
C -26.85701 -16.36832 -48.10794
C -21.19423 -16.20915 -48.10698
C -26.80581 -17.79092 -48.10698
C -29.24633 -15.10360 -47.98534
C -18.75355 -18.89651 -47.98532
C -18.90382 -14.77180 -47.98157
C -29.09628 -19.22829 -47.98150
C -30.44115 -15.87771 -47.91360
C -17.55872 -18.12228 -47.91368
C -17.65539 -15.45589 -47.91096
C -30.34468 -18.54418 -47.91087
C -20.82434 -18.27424 -46.88605
C -27.17572 -15.72584 -46.88602
C -20.92340 -15.54586 -46.88495
C -27.07675 -18.45419 -46.88503
C -19.56416 -18.93858 -46.80322
C -28.43581 -15.06142 -46.80314
C -19.71495 -14.79171 -46.80053
C -28.28509 -19.20836 -46.80054
C -17.31243 -17.49561 -46.62474
C -30.68758 -16.50446 -46.62470
C -17.36320 -16.06809 -46.62440
C -30.63686 -17.93184 -46.62440
C -26.69015 -16.36224 -45.71512
C -21.30993 -17.63782 -45.71516
C -26.63893 -17.78493 -45.71480
C -21.36114 -16.21511 -45.71474
C -29.06421 -15.08649 -45.51553
C -18.93580 -18.91350 -45.51557
C -28.91660 -19.22715 -45.51477
C -19.08348 -14.77280 -45.51475
C -17.75112 -18.13318 -45.39422
C -30.24889 -15.86686 -45.39421
C -30.15404 -18.53346 -45.39360
C -17.84595 -15.46650 -45.39363
C -26.96938 -15.71903 -44.48133
C -21.03061 -18.28103 -44.48140
C -26.87298 -18.44826 -44.48167
C -21.12696 -15.55185 -44.48166
C -28.21055 -15.03903 -44.36089
C -19.78945 -18.96113 -44.36089
C -28.06334 -19.21390 -44.36079
C -19.93669 -14.78611 -44.36077
C -30.42749 -16.49501 -44.08984
C -17.57244 -17.50496 -44.08987
C -30.37821 -17.91724 -44.09046
C -17.62175 -16.08275 -44.09051
C -21.53992 -17.64369 -43.31859
C -26.46013 -16.35639 -43.31852
C -21.58865 -16.22053 -43.31765
C -26.41123 -17.77953 -43.31766
C -19.20481 -18.97150 -43.04925
C -28.79525 -15.02864 -43.04925
C -19.34992 -14.73315 -43.05127
C -28.65011 -19.26688 -43.05122
C -18.04597 -18.15595 -42.87788
C -29.95397 -15.84410 -42.87779
C -18.13745 -15.46625 -42.87884
C -29.86253 -18.53374 -42.87875
C -21.30352 -18.29257 -42.08839
C -26.69649 -15.70755 -42.08840
C -21.39399 -15.55360 -42.08894
C -26.60593 -18.44647 -42.08896
C -20.10409 -19.04798 -41.93486
C -27.89594 -14.95213 -41.93492
C -20.24919 -14.71800 -41.93640
C -27.75080 -19.28211 -41.93637
C -17.95530 -17.52265 -41.57276
C -30.04470 -16.47735 -41.57269
C -18.00170 -16.09254 -41.57385
C -29.99836 -17.90754 -41.57377
C -26.21897 -16.36043 -40.91908
C -21.78102 -17.63976 -40.91905
C -26.17400 -17.76746 -40.91817
C -21.82593 -16.23273 -40.91827
C -28.42397 -14.92834 -40.59259
C -19.57594 -19.07180 -40.59244
C -28.28057 -19.34615 -40.59613
C -19.71940 -14.65392 -40.59610
C -29.51652 -15.81533 -40.39468
C -18.48343 -18.18473 -40.39456
C -29.43022 -18.53469 -40.39633
C -18.56980 -15.46545 -40.39639
C -26.30041 -15.54167 -39.73996
C -21.69946 -18.45839 -39.73996
C -26.20511 -18.59299 -39.74064
C -21.79484 -15.40709 -39.74065
C -27.46462 -14.79623 -39.51926
C -20.53533 -19.20389 -39.51920
C -27.31644 -19.41521 -39.52197
C -20.68351 -14.58483 -39.52185
C -23.31568 -16.97923 -38.69381
C -24.68428 -17.02078 -38.69377
C -22.74538 -15.68404 -38.76708
C -25.25467 -18.31599 -38.76702
C -22.66636 -18.23669 -38.76772
C -25.33355 -15.76326 -38.76760
C -29.45392 -16.46327 -39.10271
C -18.54605 -17.53682 -39.10264
C -29.40974 -17.88546 -39.10352
C -18.59024 -16.11461 -39.10357
C -20.15814 -19.19455 -38.10901
C -27.84191 -14.80543 -38.10903
C -24.77481 -14.72900 -37.93992
C -23.22516 -19.27090 -37.94001
C -24.63367 -19.31529 -37.94046
C -23.36631 -14.68468 -37.94046
C -20.30441 -14.56241 -38.11227
C -27.69546 -19.43776 -38.11238
C -19.11306 -18.22196 -37.95637
C -28.88702 -15.77815 -37.95639
C -19.19766 -15.46358 -37.95844
C -28.80224 -18.53651 -37.95843
C -25.57787 -14.08251 -36.98607
C -22.42215 -19.91746 -36.98612
C -22.60705 -13.98580 -36.98732
C -25.39286 -20.01428 -36.98739
C -27.00092 -14.42297 -36.98927
C -20.99914 -19.57697 -36.98926
C -26.83480 -19.76910 -36.99168
C -21.16507 -14.23102 -36.99163
C -28.87037 -17.87050 -36.70681
C -19.12960 -16.12964 -36.70684
C -28.91262 -16.45034 -36.70662
C -19.08737 -17.54977 -36.70663
C -24.83184 -13.65728 -35.82458
C -23.16809 -20.34276 -35.82462
C -24.62094 -20.39198 -35.82583
C -23.37901 -13.60805 -35.82568
C -20.48092 -19.32352 -35.68106
C -27.51910 -14.67639 -35.68102
C -20.62934 -14.44186 -35.68313
C -27.37059 -19.55820 -35.68322
C -28.35356 -18.53577 -35.56279
C -19.64633 -15.46434 -35.56280
C -28.43520 -15.75911 -35.56154
C -19.56471 -18.24091 -35.56155
C -22.68542 -13.51653 -34.57766
C -25.31449 -20.48346 -34.57778
C -22.47138 -20.38245 -34.57613
C -25.52860 -13.61758 -34.57615
C -21.16372 -19.79919 -34.51671
C -26.83627 -14.20079 -34.51668
C -21.34062 -14.00785 -34.51873
C -26.65928 -19.99207 -34.51882
C -19.53020 -16.13933 -34.32616
C -28.46968 -17.86073 -34.32613
C -19.48910 -17.55716 -34.32628
C -28.51075 -16.44289 -34.32624
C -24.59663 -20.70998 -33.35944
C -23.40337 -13.29006 -33.35944
C -24.82848 -13.34194 -33.35852
C -23.17154 -20.65809 -33.35850
C -20.65551 -19.41615 -33.24092
C -27.34448 -14.58392 -33.24090
C -20.80837 -14.35305 -33.24165
C -27.19148 -19.64686 -33.24167
C -19.93041 -15.46308 -33.15571
C -28.06958 -18.53694 -33.15563
C -19.84841 -18.25390 -33.15514
C -28.15156 -15.74617 -33.15505
C -22.48868 -20.58463 -32.09897
C -25.51138 -13.41545 -32.09895
C -22.71815 -13.31261 -32.09940
C -25.28183 -20.68746 -32.09940
C -21.23344 -19.92476 -32.04506
C -26.76664 -14.07527 -32.04503
C -21.41923 -13.88254 -32.04590
C -26.58074 -20.11756 -32.04590
C -19.73484 -17.56139 -31.92540
C -28.26514 -16.43873 -31.92532
C -19.77685 -16.14603 -31.92517
C -28.22307 -17.85406 -31.92506
C -19.99653 -18.26447 -30.73289
C -23.16574 -20.84587 -30.86926
C -27.11107 -19.70741 -30.78838
C -28.00340 -15.73566 -30.73284
C -24.83430 -13.15422 -30.86922
C -20.88895 -14.29281 -30.78844
C -20.72919 -19.48007 -30.78876
C -24.58639 -20.89813 -30.86944
C -27.91915 -18.54089 -30.73249
C -27.27079 -14.52006 -30.78871
C -23.41366 -13.10197 -30.86944
C -20.08081 -15.45930 -30.73253
C -19.86689 -17.56511 -29.50942
C -21.45283 -13.80764 -29.57948
C -25.51629 -13.28536 -29.61764
C -28.13309 -16.43501 -29.50940
C -26.54722 -20.19247 -29.57940
C -22.48378 -20.71466 -29.61768
C -19.90885 -16.14828 -29.50853
C -22.72617 -13.18324 -29.61693
C -26.74245 -13.99788 -29.57992
C -28.09116 -17.85185 -29.50853
C -25.27391 -20.81685 -29.61692
C -21.25758 -20.00222 -29.57994
C -20.16123 -15.45763 -28.30102
C -23.41999 -12.99337 -28.38239
C -27.23468 -14.48884 -28.33474
C -27.83882 -18.54245 -28.30101
C -24.58009 -21.00657 -28.38235
C -20.76544 -19.51118 -28.33473
C -20.93027 -14.26351 -28.33315
C -24.83980 -13.04565 -28.38238
C -27.92367 -15.73053 -28.30180
C -27.06975 -19.73655 -28.33312
C -23.16029 -20.95426 -28.38242
C -20.07634 -18.26952 -28.30176
C -19.92849 -17.56695 -27.08192
C -21.47253 -13.77455 -27.11671
C -25.52181 -13.22225 -27.13976
C -28.07157 -16.43303 -27.08197
C -26.52749 -20.22540 -27.11665
C -22.47833 -20.77762 -27.13978
C -19.97160 -16.15015 -27.08112
C -22.73005 -13.12049 -27.13846
C -26.73015 -13.96338 -27.11804
C -28.02844 -17.84983 -27.08113
C -25.26998 -20.87950 -27.13836
C -21.27002 -20.03648 -27.11801
C -20.21025 -15.46365 -25.86450
C -23.42764 -12.96310 -25.90180
C -27.20790 -14.48747 -25.88075
C -27.78976 -18.53624 -25.86444
C -24.57241 -21.03701 -25.90173
C -20.79227 -19.51239 -25.88074
C -20.96383 -14.26632 -25.87883
C -24.84159 -13.01433 -25.90188
C -27.88023 -15.73235 -25.86541
C -27.03618 -19.73357 -25.87878
C -23.15850 -20.98563 -25.90188
C -20.12002 -18.26754 -25.86537
C -19.99946 -17.58167 -24.63705
C -21.49970 -13.82504 -24.64569
C -25.48693 -13.24388 -24.65653
C -28.00067 -16.41832 -24.63705
C -26.50037 -20.17502 -24.64566
C -22.51314 -20.75622 -24.65650
C -20.04742 -16.14119 -24.63645
C -22.77337 -13.14822 -24.65437
C -26.71012 -14.00886 -24.64602
C -27.95256 -17.85879 -24.63635
C -25.22667 -20.85182 -24.65431
C -21.28999 -19.99110 -24.64604
C -20.22822 -15.47610 -23.39987
C -23.43384 -12.97159 -23.39987
C -27.20563 -14.49549 -23.39987
C -27.77178 -18.52390 -23.39987
C -24.56616 -21.02841 -23.39987
C -20.79437 -19.50451 -23.39987
C -20.97689 -14.27798 -23.39987
C -24.84579 -13.02090 -23.39987
C -27.86890 -15.74292 -23.39987
C -27.02311 -19.72202 -23.39987
C -23.15421 -20.97910 -23.39987
C -20.13110 -18.25708 -23.39987
C -19.97159 -0.56616 -78.71304
C -21.49549  3.20563 -78.71304
C -25.52390  3.77178 -78.71304
C -28.02841  0.56616 -78.71304
C -26.50451 -3.20563 -78.71304
C -22.47610 -3.77178 -78.71304
C -20.02090  0.84578 -78.71304
C -22.74292  3.86890 -78.71304
C -26.72202  3.02311 -78.71304
C -27.97910 -0.84579 -78.71304
C -25.25708 -3.86890 -78.71304
C -21.27798 -3.02311 -78.71304
C -20.12166  1.58785 -77.54956
C -23.45010  4.07414 -77.51467
C -27.19878  2.54692 -77.48466
C -27.87844 -1.58796 -77.54962
C -24.54992 -4.07404 -77.51468
C -20.80110 -2.54687 -77.48470
C -20.87984  2.79184 -77.53864
C -24.88064  3.96937 -77.47079
C -27.92799  1.31173 -77.54201
C -27.12007 -2.79178 -77.53857
C -23.11932 -3.96924 -77.47079
C -20.07198 -1.31166 -77.54198
C -19.87869 -0.56421 -76.33512
C -21.43579  3.27470 -76.30664
C -25.52515  3.76778 -76.23231
C -28.12132  0.56422 -76.33524
C -26.56427 -3.27459 -76.30647
C -22.47481 -3.76772 -76.23232
C -19.90762  0.86269 -76.33839
C -22.71295  3.90840 -76.28525
C -26.73475  3.03700 -76.24984
C -28.09248 -0.86264 -76.33849
C -25.28696 -3.90839 -76.28515
C -21.26516 -3.03694 -76.25004
C -20.13232  1.56117 -75.11544
C -23.40577  4.00498 -75.02748
C -27.24206  2.48811 -75.04700
C -27.86773 -1.56112 -75.11552
C -24.59429 -4.00500 -75.02738
C -20.75781 -2.48811 -75.04706
C -20.90341  2.75537 -75.08519
C -24.82190  3.93952 -75.00354
C -27.94136  1.25550 -75.10133
C -27.09653 -2.75538 -75.08510
C -23.17813 -3.93960 -75.00356
C -20.05856 -1.25534 -75.10123
C -19.85506 -0.54681 -73.89695
C -21.43053  3.20368 -73.83648
C -25.50129  3.68836 -73.77667
C -28.14491  0.54678 -73.89708
C -26.56946 -3.20357 -73.83637
C -22.49876 -3.68843 -73.77680
C -19.89069  0.87194 -73.90358
C -22.71049  3.81821 -73.79458
C -26.73117  2.97416 -73.81185
C -28.10936 -0.87189 -73.90371
C -25.28950 -3.81815 -73.79446
C -21.26887 -2.97411 -73.81187
C -20.06388  1.55885 -72.67802
C -23.40125  3.89096 -72.54111
C -27.26055  2.45198 -72.60879
C -27.93623 -1.55889 -72.67821
C -24.59879 -3.89096 -72.54096
C -20.73950 -2.45197 -72.60878
C -20.86870  2.72320 -72.62406
C -24.81838  3.82437 -72.53200
C -27.99974  1.24392 -72.67280
C -27.13113 -2.72312 -72.62402
C -23.18160 -3.82457 -72.53200
C -20.00044 -1.24388 -72.67269
C -19.73596 -0.54370 -71.47783
C -28.26405  0.54361 -71.47794
C -19.76668  0.87054 -71.48085
C -28.23325 -0.87064 -71.48095
C -21.40332  3.13129 -71.36331
C -26.59663 -3.13127 -71.36324
C -21.24680 -2.90132 -71.35462
C -26.75320  2.90122 -71.35461
C -22.50054 -3.56292 -71.30295
C -25.49942  3.56275 -71.30297
C -22.70548  3.68986 -71.30738
C -25.29455 -3.68986 -71.30722
C -19.85456 -1.23735 -70.25082
C -28.14544  1.23722 -70.25094
C -19.91963  1.55195 -70.25147
C -28.08041 -1.55191 -70.25155
C -20.66584 -2.39712 -70.16264
C -27.33415  2.39700 -70.16268
C -20.79617  2.66286 -70.16678
C -27.20395 -2.66292 -70.16672
C -24.60523 -3.70955 -70.04969
C -23.39461  3.70962 -70.04976
C -23.18060 -3.64660 -70.04713
C -24.81925  3.64646 -70.04717
C -19.49240 -0.54338 -69.07852
C -28.50760  0.54333 -69.07868
C -19.52672  0.87158 -69.07948
C -28.47320 -0.87164 -69.07963
C -21.17434 -2.78418 -68.88812
C -26.82553  2.78401 -68.88808
C -21.33512  3.00353 -68.88899
C -26.66485 -3.00354 -68.88899
C -22.67832  3.48789 -68.82914
C -25.32158 -3.48777 -68.82906
C -22.47724 -3.37065 -68.82984
C -25.52263  3.37056 -68.82985
C -28.43035  1.22995 -67.84360
C -19.56975 -1.22987 -67.84346
C -28.35717 -1.54698 -67.84241
C -19.64281  1.54703 -67.84240
C -20.48792 -2.31178 -67.72361
C -27.51219  2.31172 -67.72378
C -20.62571  2.56951 -67.72250
C -27.37426 -2.56944 -67.72251
C -24.62479 -3.39294 -67.58078
C -23.37508  3.39321 -67.58078
C -24.82752  3.33833 -67.57993
C -23.17232 -3.33809 -67.57984
C -19.12866  0.88005 -66.70050
C -28.87136 -0.88000 -66.70062
C -19.09006 -0.53977 -66.70047
C -28.91006  0.53975 -66.70054
C -21.00381 -2.56868 -66.41794
C -26.99627  2.56871 -66.41811
C -26.83501 -2.77753 -66.41713
C -21.16486  2.77766 -66.41707
C -22.42376 -2.91689 -66.41944
C -25.57629  2.91693 -66.41956
C -22.60551  3.02066 -66.41883
C -25.39446 -3.02037 -66.41890
C -19.11769 -1.21248 -65.44983
C -28.88236  1.21242 -65.44991
C -19.19685  1.54800 -65.44909
C -28.80309 -1.54795 -65.44916
C -20.16002 -2.18401 -65.29749
C -27.83998  2.18399 -65.29760
C -24.63331 -2.32098 -65.46400
C -23.36671  2.32099 -65.46409
C -24.77234  2.27518 -65.46144
C -23.22772 -2.27524 -65.46126
C -20.30191  2.44613 -65.29568
C -27.69803 -2.44615 -65.29578
C -29.41028 -0.89634 -64.30378
C -29.45195  0.52644 -64.30410
C -18.58979  0.89626 -64.30380
C -18.54816 -0.52644 -64.30409
C -22.74432  1.31655 -64.64481
C -25.25565 -1.31664 -64.64481
C -22.66793 -1.23483 -64.64076
C -25.33202  1.23486 -64.64089
C -23.31471  0.02223 -64.72169
C -24.68518 -0.02230 -64.72173
C -27.46413  2.19630 -63.88726
C -20.53577 -2.19631 -63.88711
C -27.31537 -2.42415 -63.88791
C -20.68456  2.42404 -63.88783
C -26.29846  1.45214 -63.66656
C -21.70145 -1.45222 -63.66647
C -26.20515 -1.59805 -63.67054
C -21.79489  1.59806 -63.67042
C -29.51531  1.17357 -63.01361
C -18.48467 -1.17354 -63.01369
C -29.42969 -1.54576 -63.01310
C -18.57038  1.54574 -63.01316
C -28.42307  2.06169 -62.81515
C -19.57677 -2.06175 -62.81511
C -28.27892 -2.35621 -62.81438
C -19.72109  2.35621 -62.81424
C -26.21690  0.63096 -62.49089
C -21.78298 -0.63106 -62.49090
C -26.17298 -0.77662 -62.49268
C -21.82698  0.77651 -62.49260
C -17.95685 -0.51022 -61.83576
C -30.04316  0.51021 -61.83571
C -18.00341  0.91819 -61.83503
C -29.99665 -0.91828 -61.83505
C -20.10520 -2.03501 -61.47317
C -27.89465  2.03487 -61.47314
C -20.25027  2.29205 -61.47406
C -27.74966 -2.29210 -61.47414
C -21.30326 -1.27992 -61.32066
C -26.69661  1.27978 -61.32062
C -21.39477  1.45771 -61.32241
C -26.60508 -1.45788 -61.32238
C -18.04630 -1.14415 -60.53075
C -29.95369  1.14408 -60.53071
C -18.13791  1.54613 -60.53026
C -29.86211 -1.54625 -60.53027
C -19.20598 -1.95967 -60.35887
C -28.79395  1.95960 -60.35895
C -19.35096  2.27904 -60.35800
C -28.64894 -2.27908 -60.35805
C -21.54077 -0.62972 -60.09079
C -26.45935  0.62957 -60.09077
C -21.59061  0.79413 -60.09166
C -26.40924 -0.79429 -60.09164
C -30.42765  0.49204 -59.32055
C -17.57240 -0.49204 -59.32054
C -30.37811 -0.93038 -59.31973
C -17.62195  0.93036 -59.31969
C -28.20847  1.94746 -59.04929
C -19.79157 -1.94754 -59.04917
C -28.06257 -2.22826 -59.04920
C -19.93737  2.22822 -59.04910
C -26.96738  1.26650 -58.92874
C -21.03276 -1.26660 -58.92873
C -26.87098 -1.46393 -58.92903
C -21.12902  1.46389 -58.92902
C -17.75252 -1.11978 -58.01600
C -30.24755  1.11973 -58.01604
C -17.84741  1.54607 -58.01578
C -30.15257 -1.54610 -58.01580
C -29.06284  1.89813 -57.89539
C -18.93723 -1.89814 -57.89532
C -28.91563 -2.23922 -57.89405
C -19.08428  2.23918 -57.89395
C -26.68806  0.62149 -57.69546
C -21.31191 -0.62142 -57.69550
C -26.63745 -0.79994 -57.69563
C -21.36250  0.79994 -57.69558
C -17.31155 -0.48311 -56.78584
C -30.68845  0.48301 -56.78581
C -17.36290  0.94505 -56.78482
C -30.63709 -0.94513 -56.78481
C -19.56688 -1.92355 -56.60872
C -28.43313  1.92357 -56.60877
C -19.71509  2.22119 -56.60715
C -28.28479 -2.22118 -56.60720
C -20.82742 -1.25872 -56.52476
C -27.17261  1.25879 -56.52471
C -20.92591  1.46882 -56.52367
C -27.07403 -1.46873 -56.52360
C -17.55959 -1.11065 -55.49958
C -30.44043  1.11061 -55.49951
C -30.34394 -1.55474 -55.49816
C -17.65606  1.55456 -55.49820
C -18.75564 -1.88231 -55.42920
C -29.24435  1.88230 -55.42918
C -18.90494  2.23780 -55.42618
C -29.09503 -2.23791 -55.42616
C -21.19895  0.80487 -55.30272
C -26.80110 -0.80488 -55.30263
C -21.14650 -0.61789 -55.30337
C -26.85352  0.61789 -55.30329
C -30.77329 -0.94722 -54.24600
C -17.22666  0.94707 -54.24602
C -30.82522  0.47374 -54.24722
C -17.17477 -0.47385 -54.24718
C -28.42039 -2.21206 -54.15817
C -19.57969  2.21191 -54.15821
C -28.57064  1.90716 -54.16167
C -19.42934 -1.90713 -54.16164
C -27.21280 -1.46562 -54.11508
C -20.78725  1.46548 -54.11511
C -27.31188  1.25075 -54.11764
C -20.68810 -1.25074 -54.11772
C -17.46528 -1.10814 -52.96953
C -30.53472  1.10812 -52.96959
C -17.56364  1.55585 -52.96630
C -30.43633 -1.55587 -52.96624
C -29.33653  1.88015 -52.94730
C -18.66353 -1.88016 -52.94727
C -18.81502  2.23831 -52.94265
C -29.18503 -2.23845 -52.94265
C -26.88999 -0.80409 -52.90160
C -21.10996  0.80393 -52.90167
C -26.94202  0.61889 -52.90267
C -21.05786 -0.61900 -52.90269
C -17.12104 -0.47797 -51.70652
C -30.87905  0.47798 -51.70649
C -19.38331 -1.91839 -51.70816
C -28.61663  1.91832 -51.70821
C -20.74867  1.46739 -51.70352
C -27.25120 -1.46747 -51.70334
C -17.17326  0.94927 -51.70469
C -30.82669 -0.94927 -51.70467
C -20.64851 -1.25987 -51.70708
C -27.35144  1.25980 -51.70711
C -19.53585  2.21864 -51.70321
C -28.46404 -2.21876 -51.70321
C -26.89328 -0.79757 -50.50622
C -21.10663  0.79750 -50.50637
C -26.94475  0.62420 -50.50742
C -21.05517 -0.62421 -50.50747
C -29.33764  1.88538 -50.46888
C -18.66229 -1.88534 -50.46885
C -18.81376  2.23429 -50.46393
C -29.18604 -2.23439 -50.46385
C -17.56347  1.55218 -50.44101
C -30.43643 -1.55228 -50.44096
C -17.46596 -1.11244 -50.44476
C -30.53397  1.11236 -50.44472
C -27.21503 -1.45661 -49.29182
C -20.78495  1.45647 -49.29190
C -27.31367  1.26205 -49.29477
C -20.68619 -1.26205 -49.29477
C -28.57304  1.91944 -49.25342
C -19.42682 -1.91940 -49.25337
C -28.42191 -2.20570 -49.24851
C -19.57805  2.20563 -49.24862
C -30.82523  0.48248 -49.16448
C -17.17455 -0.48261 -49.16455
C -30.77378 -0.93970 -49.16314
C -17.22611  0.93961 -49.16330
C -21.14293 -0.63170 -48.10794
C -26.85701  0.63168 -48.10794
C -21.19423  0.79085 -48.10698
C -26.80581 -0.79092 -48.10698
C -29.24633  1.89640 -47.98534
C -18.75355 -1.89651 -47.98532
C -18.90382  2.22820 -47.98157
C -29.09628 -2.22829 -47.98150
C -30.44115  1.12229 -47.91360
C -17.55872 -1.12228 -47.91368
C -17.65539  1.54411 -47.91096
C -30.34468 -1.54418 -47.91087
C -20.82434 -1.27424 -46.88605
C -27.17572  1.27416 -46.88602
C -20.92340  1.45414 -46.88495
C -27.07675 -1.45419 -46.88503
C -19.56416 -1.93858 -46.80322
C -28.43581  1.93858 -46.80314
C -19.71495  2.20829 -46.80053
C -28.28509 -2.20836 -46.80054
C -17.31243 -0.49561 -46.62474
C -30.68758  0.49554 -46.62470
C -17.36320  0.93191 -46.62440
C -30.63686 -0.93184 -46.62440
C -26.69015  0.63776 -45.71512
C -21.30993 -0.63782 -45.71516
C -26.63893 -0.78493 -45.71480
C -21.36114  0.78489 -45.71474
C -29.06421  1.91351 -45.51553
C -18.93580 -1.91350 -45.51557
C -28.91660 -2.22715 -45.51477
C -19.08348  2.22720 -45.51475
C -17.75112 -1.13318 -45.39422
C -30.24889  1.13314 -45.39421
C -30.15404 -1.53346 -45.39360
C -17.84595  1.53350 -45.39363
C -26.96938  1.28097 -44.48133
C -21.03061 -1.28103 -44.48140
C -26.87298 -1.44826 -44.48167
C -21.12696  1.44815 -44.48166
C -28.21055  1.96097 -44.36089
C -19.78945 -1.96113 -44.36089
C -28.06334 -2.21390 -44.36079
C -19.93669  2.21389 -44.36077
C -30.42749  0.50499 -44.08984
C -17.57244 -0.50496 -44.08987
C -30.37821 -0.91724 -44.09046
C -17.62175  0.91725 -44.09051
C -21.53992 -0.64369 -43.31859
C -26.46013  0.64361 -43.31852
C -21.58865  0.77947 -43.31765
C -26.41123 -0.77953 -43.31766
C -19.20481 -1.97150 -43.04925
C -28.79525  1.97136 -43.04925
C -19.34992  2.26685 -43.05127
C -28.65011 -2.26688 -43.05122
C -18.04597 -1.15595 -42.87788
C -29.95397  1.15590 -42.87779
C -18.13745  1.53375 -42.87884
C -29.86253 -1.53374 -42.87875
C -21.30352 -1.29257 -42.08839
C -26.69649  1.29245 -42.08840
C -21.39399  1.44640 -42.08894
C -26.60593 -1.44647 -42.08896
C -20.10409 -2.04798 -41.93486
C -27.89594  2.04787 -41.93492
C -20.24919  2.28200 -41.93640
C -27.75080 -2.28211 -41.93637
C -17.95530 -0.52265 -41.57276
C -30.04470  0.52265 -41.57269
C -18.00170  0.90746 -41.57385
C -29.99836 -0.90754 -41.57377
C -26.21897  0.63957 -40.91908
C -21.78102 -0.63976 -40.91905
C -26.17400 -0.76746 -40.91817
C -21.82593  0.76727 -40.91827
C -28.42397  2.07166 -40.59259
C -19.57594 -2.07180 -40.59244
C -28.28057 -2.34615 -40.59613
C -19.71940  2.34608 -40.59610
C -29.51652  1.18467 -40.39468
C -18.48343 -1.18473 -40.39456
C -29.43022 -1.53469 -40.39633
C -18.56980  1.53455 -40.39639
C -26.30041  1.45833 -39.73996
C -21.69946 -1.45839 -39.73996
C -26.20511 -1.59299 -39.74064
C -21.79484  1.59291 -39.74065
C -27.46462  2.20377 -39.51926
C -20.53533 -2.20389 -39.51920
C -27.31644 -2.41521 -39.52197
C -20.68351  2.41517 -39.52185
C -23.31568  0.02077 -38.69381
C -24.68428 -0.02078 -38.69377
C -22.74538  1.31596 -38.76708
C -25.25467 -1.31599 -38.76702
C -22.66636 -1.23669 -38.76772
C -25.33355  1.23674 -38.76760
C -29.45392  0.53673 -39.10271
C -18.54605 -0.53682 -39.10264
C -29.40974 -0.88546 -39.10352
C -18.59024  0.88539 -39.10357
C -20.15814 -2.19455 -38.10901
C -27.84191  2.19457 -38.10903
C -24.77481  2.27100 -37.93992
C -23.22516 -2.27090 -37.94001
C -24.63367 -2.31529 -37.94046
C -23.36631  2.31532 -37.94046
C -20.30441  2.43759 -38.11227
C -27.69546 -2.43776 -38.11238
C -19.11306 -1.22196 -37.95637
C -28.88702  1.22185 -37.95639
C -19.19766  1.53642 -37.95844
C -28.80224 -1.53651 -37.95843
C -25.57787  2.91749 -36.98607
C -22.42215 -2.91746 -36.98612
C -22.60705  3.01420 -36.98732
C -25.39286 -3.01428 -36.98739
C -27.00092  2.57703 -36.98927
C -20.99914 -2.57697 -36.98926
C -26.83480 -2.76910 -36.99168
C -21.16507  2.76898 -36.99163
C -28.87037 -0.87050 -36.70681
C -19.12960  0.87036 -36.70684
C -28.91262  0.54966 -36.70662
C -19.08737 -0.54977 -36.70663
C -24.83184  3.34272 -35.82458
C -23.16809 -3.34276 -35.82462
C -24.62094 -3.39198 -35.82583
C -23.37901  3.39195 -35.82568
C -20.48092 -2.32352 -35.68106
C -27.51910  2.32361 -35.68102
C -20.62934  2.55814 -35.68313
C -27.37059 -2.55820 -35.68322
C -28.35356 -1.53577 -35.56279
C -19.64633  1.53566 -35.56280
C -28.43520  1.24089 -35.56154
C -19.56471 -1.24091 -35.56155
C -22.68542  3.48347 -34.57766
C -25.31449 -3.48346 -34.57778
C -22.47138 -3.38245 -34.57613
C -25.52860  3.38242 -34.57615
C -21.16372 -2.79919 -34.51671
C -26.83627  2.79921 -34.51668
C -21.34062  2.99215 -34.51873
C -26.65928 -2.99207 -34.51882
C -19.53020  0.86067 -34.32616
C -28.46968 -0.86073 -34.32613
C -19.48910 -0.55716 -34.32628
C -28.51075  0.55711 -34.32624
C -24.59663 -3.70998 -33.35944
C -23.40337  3.70994 -33.35944
C -24.82848  3.65806 -33.35852
C -23.17154 -3.65809 -33.35850
C -20.65551 -2.41615 -33.24092
C -27.34448  2.41608 -33.24090
C -20.80837  2.64695 -33.24165
C -27.19148 -2.64686 -33.24167
C -19.93041  1.53692 -33.15571
C -28.06958 -1.53694 -33.15563
C -19.84841 -1.25390 -33.15514
C -28.15156  1.25383 -33.15505
C -22.48868 -3.58463 -32.09897
C -25.51138  3.58455 -32.09895
C -22.71815  3.68739 -32.09940
C -25.28183 -3.68746 -32.09940
C -21.23344 -2.92476 -32.04506
C -26.76664  2.92473 -32.04503
C -21.41923  3.11746 -32.04590
C -26.58074 -3.11756 -32.04590
C -19.73484 -0.56139 -31.92540
C -28.26514  0.56127 -31.92532
C -19.77685  0.85397 -31.92517
C -28.22307 -0.85406 -31.92506
C -19.99653 -1.26447 -30.73289
C -23.16574 -3.84587 -30.86926
C -27.11107 -2.70741 -30.78838
C -28.00340  1.26434 -30.73284
C -24.83430  3.84578 -30.86922
C -20.88895  2.70719 -30.78844
C -20.72919 -2.48007 -30.78876
C -24.58639 -3.89813 -30.86944
C -27.91915 -1.54089 -30.73249
C -27.27079  2.47994 -30.78871
C -23.41366  3.89803 -30.86944
C -20.08081  1.54070 -30.73253
C -19.86689 -0.56511 -29.50942
C -21.45283  3.19236 -29.57948
C -25.51629  3.71464 -29.61764
C -28.13309  0.56499 -29.50940
C -26.54722 -3.19247 -29.57940
C -22.48378 -3.71466 -29.61768
C -19.90885  0.85172 -29.50853
C -22.72617  3.81676 -29.61693
C -26.74245  3.00212 -29.57992
C -28.09116 -0.85185 -29.50853
C -25.27391 -3.81685 -29.61692
C -21.25758 -3.00222 -29.57994
C -20.16123  1.54237 -28.30102
C -23.41999  4.00663 -28.38239
C -27.23468  2.51116 -28.33474
C -27.83882 -1.54245 -28.30101
C -24.58009 -4.00657 -28.38235
C -20.76544 -2.51118 -28.33473
C -20.93027  2.73649 -28.33315
C -24.83980  3.95435 -28.38238
C -27.92367  1.26947 -28.30180
C -27.06975 -2.73655 -28.33312
C -23.16029 -3.95426 -28.38242
C -20.07634 -1.26952 -28.30176
C -19.92849 -0.56695 -27.08192
C -21.47253  3.22545 -27.11671
C -25.52181  3.77775 -27.13976
C -28.07157  0.56697 -27.08197
C -26.52749 -3.22540 -27.11665
C -22.47833 -3.77762 -27.13978
C -19.97160  0.84985 -27.08112
C -22.73005  3.87951 -27.13846
C -26.73015  3.03662 -27.11804
C -28.02844 -0.84983 -27.08113
C -25.26998 -3.87950 -27.13836
C -21.27002 -3.03648 -27.11801
C -20.21025  1.53635 -25.86450
C -23.42764  4.03690 -25.90180
C -27.20790  2.51253 -25.88075
C -27.78976 -1.53624 -25.86444
C -24.57241 -4.03701 -25.90173
C -20.79227 -2.51239 -25.88074
C -20.96383  2.73368 -25.87883
C -24.84159  3.98567 -25.90188
C -27.88023  1.26765 -25.86541
C -27.03618 -2.73357 -25.87878
C -23.15850 -3.98563 -25.90188
C -20.12002 -1.26754 -25.86537
C -19.99946 -0.58167 -24.63705
C -21.49970  3.17496 -24.64569
C -25.48693  3.75612 -24.65653
C -28.00067  0.58168 -24.63705
C -26.50037 -3.17502 -24.64566
C -22.51314 -3.75622 -24.65650
C -20.04742  0.85881 -24.63645
C -22.77337  3.85178 -24.65437
C -26.71012  2.99114 -24.64602
C -27.95256 -0.85879 -24.63635
C -25.22667 -3.85182 -24.65431
C -21.28999 -2.99110 -24.64604
C -20.22822  1.52390 -23.39987
C -23.43384  4.02841 -23.39987
C -27.20563  2.50451 -23.39987
C -27.77178 -1.52390 -23.39987
C -24.56616 -4.02841 -23.39987
C -20.79437 -2.50451 -23.39987
C -20.97689  2.72202 -23.39987
C -24.84579  3.97910 -23.39987
C -27.86890  1.25708 -23.39987
C -27.02311 -2.72202 -23.39987
C -23.15421 -3.97910 -23.39987
C -20.13110 -1.25708 -23.39987
C -19.97159 16.43384 -78.71304
C -21.49549 20.20563 -78.71304
C -25.52390 20.77178 -78.71304
C -28.02841 17.56616 -78.71304
C -26.50451 13.79437 -78.71304
C -22.47610 13.22822 -78.71304
C -20.02090 17.84578 -78.71304
C -22.74292 20.86890 -78.71304
C -26.72202 20.02311 -78.71304
C -27.97910 16.15421 -78.71304
C -25.25708 13.13110 -78.71304
C -21.27798 13.97689 -78.71304
C -20.12166 18.58785 -77.54956
C -23.45010 21.07414 -77.51467
C -27.19878 19.54692 -77.48466
C -27.87844 15.41204 -77.54962
C -24.54992 12.92596 -77.51468
C -20.80110 14.45313 -77.48470
C -20.87984 19.79184 -77.53864
C -24.88064 20.96937 -77.47079
C -27.92799 18.31173 -77.54201
C -27.12007 14.20822 -77.53857
C -23.11932 13.03076 -77.47079
C -20.07198 15.68834 -77.54198
C -19.87869 16.43579 -76.33512
C -21.43579 20.27470 -76.30664
C -25.52515 20.76778 -76.23231
C -28.12132 17.56422 -76.33524
C -26.56427 13.72541 -76.30647
C -22.47481 13.23228 -76.23232
C -19.90762 17.86269 -76.33839
C -22.71295 20.90840 -76.28525
C -26.73475 20.03700 -76.24984
C -28.09248 16.13736 -76.33849
C -25.28696 13.09161 -76.28515
C -21.26516 13.96306 -76.25004
C -20.13232 18.56117 -75.11544
C -23.40577 21.00498 -75.02748
C -27.24206 19.48811 -75.04700
C -27.86773 15.43888 -75.11552
C -24.59429 12.99500 -75.02738
C -20.75781 14.51189 -75.04706
C -20.90341 19.75537 -75.08519
C -24.82190 20.93952 -75.00354
C -27.94136 18.25550 -75.10133
C -27.09653 14.24462 -75.08510
C -23.17813 13.06040 -75.00356
C -20.05856 15.74466 -75.10123
C -19.85506 16.45319 -73.89695
C -21.43053 20.20368 -73.83648
C -25.50129 20.68836 -73.77667
C -28.14491 17.54678 -73.89708
C -26.56946 13.79643 -73.83637
C -22.49876 13.31157 -73.77680
C -19.89069 17.87194 -73.90358
C -22.71049 20.81821 -73.79458
C -26.73117 19.97416 -73.81185
C -28.10936 16.12811 -73.90371
C -25.28950 13.18185 -73.79446
C -21.26887 14.02589 -73.81187
C -20.06388 18.55885 -72.67802
C -23.40125 20.89096 -72.54111
C -27.26055 19.45198 -72.60879
C -27.93623 15.44111 -72.67821
C -24.59879 13.10904 -72.54096
C -20.73950 14.54803 -72.60878
C -20.86870 19.72320 -72.62406
C -24.81838 20.82437 -72.53200
C -27.99974 18.24392 -72.67280
C -27.13113 14.27688 -72.62402
C -23.18160 13.17543 -72.53200
C -20.00044 15.75612 -72.67269
C -19.73596 16.45630 -71.47783
C -28.26405 17.54361 -71.47794
C -19.76668 17.87054 -71.48085
C -28.23325 16.12936 -71.48095
C -21.40332 20.13129 -71.36331
C -26.59663 13.86873 -71.36324
C -21.24680 14.09868 -71.35462
C -26.75320 19.90122 -71.35461
C -22.50054 13.43708 -71.30295
C -25.49942 20.56275 -71.30297
C -22.70548 20.68986 -71.30738
C -25.29455 13.31014 -71.30722
C -19.85456 15.76265 -70.25082
C -28.14544 18.23722 -70.25094
C -19.91963 18.55195 -70.25147
C -28.08041 15.44809 -70.25155
C -20.66584 14.60288 -70.16264
C -27.33415 19.39700 -70.16268
C -20.79617 19.66286 -70.16678
C -27.20395 14.33708 -70.16672
C -24.60523 13.29045 -70.04969
C -23.39461 20.70962 -70.04976
C -23.18060 13.35340 -70.04713
C -24.81925 20.64646 -70.04717
C -19.49240 16.45662 -69.07852
C -28.50760 17.54333 -69.07868
C -19.52672 17.87158 -69.07948
C -28.47320 16.12836 -69.07963
C -21.17434 14.21582 -68.88812
C -26.82553 19.78401 -68.88808
C -21.33512 20.00353 -68.88899
C -26.66485 13.99646 -68.88899
C -22.67832 20.48789 -68.82914
C -25.32158 13.51223 -68.82906
C -22.47724 13.62935 -68.82984
C -25.52263 20.37056 -68.82985
C -28.43035 18.22995 -67.84360
C -19.56975 15.77013 -67.84346
C -28.35717 15.45302 -67.84241
C -19.64281 18.54703 -67.84240
C -20.48792 14.68822 -67.72361
C -27.51219 19.31172 -67.72378
C -20.62571 19.56951 -67.72250
C -27.37426 14.43056 -67.72251
C -24.62479 13.60706 -67.58078
C -23.37508 20.39321 -67.58078
C -24.82752 20.33833 -67.57993
C -23.17232 13.66191 -67.57984
C -19.12866 17.88005 -66.70050
C -28.87136 16.12000 -66.70062
C -19.09006 16.46023 -66.70047
C -28.91006 17.53975 -66.70054
C -21.00381 14.43132 -66.41794
C -26.99627 19.56871 -66.41811
C -26.83501 14.22247 -66.41713
C -21.16486 19.77766 -66.41707
C -22.42376 14.08311 -66.41944
C -25.57629 19.91693 -66.41956
C -22.60551 20.02066 -66.41883
C -25.39446 13.97963 -66.41890
C -19.11769 15.78752 -65.44983
C -28.88236 18.21242 -65.44991
C -19.19685 18.54800 -65.44909
C -28.80309 15.45205 -65.44916
C -20.16002 14.81599 -65.29749
C -27.83998 19.18399 -65.29760
C -24.63331 14.67902 -65.46400
C -23.36671 19.32099 -65.46409
C -24.77234 19.27518 -65.46144
C -23.22772 14.72476 -65.46126
C -20.30191 19.44613 -65.29568
C -27.69803 14.55385 -65.29578
C -29.41028 16.10366 -64.30378
C -29.45195 17.52644 -64.30410
C -18.58979 17.89626 -64.30380
C -18.54816 16.47356 -64.30409
C -22.74432 18.31655 -64.64481
C -25.25565 15.68336 -64.64481
C -22.66793 15.76517 -64.64076
C -25.33202 18.23486 -64.64089
C -23.31471 17.02223 -64.72169
C -24.68518 16.97770 -64.72173
C -27.46413 19.19630 -63.88726
C -20.53577 14.80369 -63.88711
C -27.31537 14.57585 -63.88791
C -20.68456 19.42404 -63.88783
C -26.29846 18.45214 -63.66656
C -21.70145 15.54778 -63.66647
C -26.20515 15.40195 -63.67054
C -21.79489 18.59806 -63.67042
C -29.51531 18.17357 -63.01361
C -18.48467 15.82646 -63.01369
C -29.42969 15.45424 -63.01310
C -18.57038 18.54574 -63.01316
C -28.42307 19.06169 -62.81515
C -19.57677 14.93825 -62.81511
C -28.27892 14.64379 -62.81438
C -19.72109 19.35621 -62.81424
C -26.21690 17.63096 -62.49089
C -21.78298 16.36894 -62.49090
C -26.17298 16.22338 -62.49268
C -21.82698 17.77651 -62.49260
C -17.95685 16.48978 -61.83576
C -30.04316 17.51021 -61.83571
C -18.00341 17.91819 -61.83503
C -29.99665 16.08172 -61.83505
C -20.10520 14.96499 -61.47317
C -27.89465 19.03487 -61.47314
C -20.25027 19.29205 -61.47406
C -27.74966 14.70790 -61.47414
C -21.30326 15.72008 -61.32066
C -26.69661 18.27978 -61.32062
C -21.39477 18.45771 -61.32241
C -26.60508 15.54212 -61.32238
C -18.04630 15.85585 -60.53075
C -29.95369 18.14408 -60.53071
C -18.13791 18.54613 -60.53026
C -29.86211 15.45375 -60.53027
C -19.20598 15.04033 -60.35887
C -28.79395 18.95960 -60.35895
C -19.35096 19.27904 -60.35800
C -28.64894 14.72092 -60.35805
C -21.54077 16.37028 -60.09079
C -26.45935 17.62957 -60.09077
C -21.59061 17.79413 -60.09166
C -26.40924 16.20571 -60.09164
C -30.42765 17.49204 -59.32055
C -17.57240 16.50796 -59.32054
C -30.37811 16.06962 -59.31973
C -17.62195 17.93036 -59.31969
C -28.20847 18.94746 -59.04929
C -19.79157 15.05246 -59.04917
C -28.06257 14.77174 -59.04920
C -19.93737 19.22822 -59.04910
C -26.96738 18.26650 -58.92874
C -21.03276 15.73340 -58.92873
C -26.87098 15.53607 -58.92903
C -21.12902 18.46389 -58.92902
C -17.75252 15.88022 -58.01600
C -30.24755 18.11973 -58.01604
C -17.84741 18.54607 -58.01578
C -30.15257 15.45390 -58.01580
C -29.06284 18.89813 -57.89539
C -18.93723 15.10186 -57.89532
C -28.91563 14.76078 -57.89405
C -19.08428 19.23918 -57.89395
C -26.68806 17.62149 -57.69546
C -21.31191 16.37858 -57.69550
C -26.63745 16.20006 -57.69563
C -21.36250 17.79994 -57.69558
C -17.31155 16.51689 -56.78584
C -30.68845 17.48301 -56.78581
C -17.36290 17.94505 -56.78482
C -30.63709 16.05487 -56.78481
C -19.56688 15.07645 -56.60872
C -28.43313 18.92357 -56.60877
C -19.71509 19.22119 -56.60715
C -28.28479 14.77882 -56.60720
C -20.82742 15.74128 -56.52476
C -27.17261 18.25879 -56.52471
C -20.92591 18.46882 -56.52367
C -27.07403 15.53127 -56.52360
C -17.55959 15.88935 -55.49958
C -30.44043 18.11061 -55.49951
C -30.34394 15.44526 -55.49816
C -17.65606 18.55456 -55.49820
C -18.75564 15.11769 -55.42920
C -29.24435 18.88230 -55.42918
C -18.90494 19.23780 -55.42618
C -29.09503 14.76209 -55.42616
C -21.19895 17.80487 -55.30272
C -26.80110 16.19512 -55.30263
C -21.14650 16.38211 -55.30337
C -26.85352 17.61789 -55.30329
C -30.77329 16.05278 -54.24600
C -17.22666 17.94707 -54.24602
C -30.82522 17.47374 -54.24722
C -17.17477 16.52615 -54.24718
C -28.42039 14.78794 -54.15817
C -19.57969 19.21191 -54.15821
C -28.57064 18.90716 -54.16167
C -19.42934 15.09287 -54.16164
C -27.21280 15.53438 -54.11508
C -20.78725 18.46548 -54.11511
C -27.31188 18.25075 -54.11764
C -20.68810 15.74926 -54.11772
C -17.46528 15.89186 -52.96953
C -30.53472 18.10812 -52.96959
C -17.56364 18.55585 -52.96630
C -30.43633 15.44413 -52.96624
C -29.33653 18.88015 -52.94730
C -18.66353 15.11984 -52.94727
C -18.81502 19.23831 -52.94265
C -29.18503 14.76155 -52.94265
C -26.88999 16.19591 -52.90160
C -21.10996 17.80393 -52.90167
C -26.94202 17.61889 -52.90267
C -21.05786 16.38100 -52.90269
C -17.12104 16.52203 -51.70652
C -30.87905 17.47798 -51.70649
C -19.38331 15.08161 -51.70816
C -28.61663 18.91832 -51.70821
C -20.74867 18.46739 -51.70352
C -27.25120 15.53253 -51.70334
C -17.17326 17.94927 -51.70469
C -30.82669 16.05073 -51.70467
C -20.64851 15.74013 -51.70708
C -27.35144 18.25980 -51.70711
C -19.53585 19.21864 -51.70321
C -28.46404 14.78124 -51.70321
C -26.89328 16.20243 -50.50622
C -21.10663 17.79750 -50.50637
C -26.94475 17.62420 -50.50742
C -21.05517 16.37579 -50.50747
C -29.33764 18.88538 -50.46888
C -18.66229 15.11466 -50.46885
C -18.81376 19.23429 -50.46393
C -29.18604 14.76561 -50.46385
C -17.56347 18.55218 -50.44101
C -30.43643 15.44772 -50.44096
C -17.46596 15.88756 -50.44476
C -30.53397 18.11236 -50.44472
C -27.21503 15.54339 -49.29182
C -20.78495 18.45647 -49.29190
C -27.31367 18.26205 -49.29477
C -20.68619 15.73795 -49.29477
C -28.57304 18.91944 -49.25342
C -19.42682 15.08060 -49.25337
C -28.42191 14.79430 -49.24851
C -19.57805 19.20563 -49.24862
C -30.82523 17.48248 -49.16448
C -17.17455 16.51739 -49.16455
C -30.77378 16.06030 -49.16314
C -17.22611 17.93961 -49.16330
C -21.14293 16.36830 -48.10794
C -26.85701 17.63168 -48.10794
C -21.19423 17.79085 -48.10698
C -26.80581 16.20908 -48.10698
C -29.24633 18.89640 -47.98534
C -18.75355 15.10349 -47.98532
C -18.90382 19.22820 -47.98157
C -29.09628 14.77171 -47.98150
C -30.44115 18.12229 -47.91360
C -17.55872 15.87772 -47.91368
C -17.65539 18.54411 -47.91096
C -30.34468 15.45582 -47.91087
C -20.82434 15.72576 -46.88605
C -27.17572 18.27416 -46.88602
C -20.92340 18.45414 -46.88495
C -27.07675 15.54581 -46.88503
C -19.56416 15.06142 -46.80322
C -28.43581 18.93858 -46.80314
C -19.71495 19.20829 -46.80053
C -28.28509 14.79164 -46.80054
C -17.31243 16.50439 -46.62474
C -30.68758 17.49554 -46.62470
C -17.36320 17.93191 -46.62440
C -30.63686 16.06816 -46.62440
C -26.69015 17.63776 -45.71512
C -21.30993 16.36218 -45.71516
C -26.63893 16.21507 -45.71480
C -21.36114 17.78489 -45.71474
C -29.06421 18.91351 -45.51553
C -18.93580 15.08650 -45.51557
C -28.91660 14.77285 -45.51477
C -19.08348 19.22720 -45.51475
C -17.75112 15.86682 -45.39422
C -30.24889 18.13314 -45.39421
C -30.15404 15.46654 -45.39360
C -17.84595 18.53350 -45.39363
C -26.96938 18.28097 -44.48133
C -21.03061 15.71897 -44.48140
C -26.87298 15.55174 -44.48167
C -21.12696 18.44815 -44.48166
C -28.21055 18.96097 -44.36089
C -19.78945 15.03887 -44.36089
C -28.06334 14.78610 -44.36079
C -19.93669 19.21389 -44.36077
C -30.42749 17.50499 -44.08984
C -17.57244 16.49504 -44.08987
C -30.37821 16.08276 -44.09046
C -17.62175 17.91725 -44.09051
C -21.53992 16.35631 -43.31859
C -26.46013 17.64361 -43.31852
C -21.58865 17.77947 -43.31765
C -26.41123 16.22047 -43.31766
C -19.20481 15.02850 -43.04925
C -28.79525 18.97136 -43.04925
C -19.34992 19.26685 -43.05127
C -28.65011 14.73312 -43.05122
C -18.04597 15.84405 -42.87788
C -29.95397 18.15590 -42.87779
C -18.13745 18.53375 -42.87884
C -29.86253 15.46626 -42.87875
C -21.30352 15.70743 -42.08839
C -26.69649 18.29245 -42.08840
C -21.39399 18.44640 -42.08894
C -26.60593 15.55353 -42.08896
C -20.10409 14.95202 -41.93486
C -27.89594 19.04787 -41.93492
C -20.24919 19.28200 -41.93640
C -27.75080 14.71789 -41.93637
C -17.95530 16.47735 -41.57276
C -30.04470 17.52265 -41.57269
C -18.00170 17.90746 -41.57385
C -29.99836 16.09246 -41.57377
C -26.21897 17.63957 -40.91908
C -21.78102 16.36024 -40.91905
C -26.17400 16.23254 -40.91817
C -21.82593 17.76727 -40.91827
C -28.42397 19.07166 -40.59259
C -19.57594 14.92820 -40.59244
C -28.28057 14.65385 -40.59613
C -19.71940 19.34608 -40.59610
C -29.51652 18.18467 -40.39468
C -18.48343 15.81527 -40.39456
C -29.43022 15.46531 -40.39633
C -18.56980 18.53455 -40.39639
C -26.30041 18.45833 -39.73996
C -21.69946 15.54161 -39.73996
C -26.20511 15.40701 -39.74064
C -21.79484 18.59291 -39.74065
C -27.46462 19.20377 -39.51926
C -20.53533 14.79611 -39.51920
C -27.31644 14.58479 -39.52197
C -20.68351 19.41517 -39.52185
C -23.31568 17.02077 -38.69381
C -24.68428 16.97922 -38.69377
C -22.74538 18.31596 -38.76708
C -25.25467 15.68401 -38.76702
C -22.66636 15.76331 -38.76772
C -25.33355 18.23674 -38.76760
C -29.45392 17.53673 -39.10271
C -18.54605 16.46318 -39.10264
C -29.40974 16.11454 -39.10352
C -18.59024 17.88539 -39.10357
C -20.15814 14.80545 -38.10901
C -27.84191 19.19457 -38.10903
C -24.77481 19.27100 -37.93992
C -23.22516 14.72910 -37.94001
C -24.63367 14.68471 -37.94046
C -23.36631 19.31532 -37.94046
C -20.30441 19.43759 -38.11227
C -27.69546 14.56224 -38.11238
C -19.11306 15.77804 -37.95637
C -28.88702 18.22185 -37.95639
C -19.19766 18.53642 -37.95844
C -28.80224 15.46349 -37.95843
C -25.57787 19.91749 -36.98607
C -22.42215 14.08254 -36.98612
C -22.60705 20.01420 -36.98732
C -25.39286 13.98572 -36.98739
C -27.00092 19.57703 -36.98927
C -20.99914 14.42303 -36.98926
C -26.83480 14.23090 -36.99168
C -21.16507 19.76898 -36.99163
C -28.87037 16.12950 -36.70681
C -19.12960 17.87036 -36.70684
C -28.91262 17.54966 -36.70662
C -19.08737 16.45023 -36.70663
C -24.83184 20.34272 -35.82458
C -23.16809 13.65724 -35.82462
C -24.62094 13.60802 -35.82583
C -23.37901 20.39195 -35.82568
C -20.48092 14.67648 -35.68106
C -27.51910 19.32361 -35.68102
C -20.62934 19.55814 -35.68313
C -27.37059 14.44180 -35.68322
C -28.35356 15.46423 -35.56279
C -19.64633 18.53566 -35.56280
C -28.43520 18.24089 -35.56154
C -19.56471 15.75909 -35.56155
C -22.68542 20.48347 -34.57766
C -25.31449 13.51654 -34.57778
C -22.47138 13.61755 -34.57613
C -25.52860 20.38242 -34.57615
C -21.16372 14.20081 -34.51671
C -26.83627 19.79921 -34.51668
C -21.34062 19.99215 -34.51873
C -26.65928 14.00793 -34.51882
C -19.53020 17.86067 -34.32616
C -28.46968 16.13927 -34.32613
C -19.48910 16.44284 -34.32628
C -28.51075 17.55711 -34.32624
C -24.59663 13.29002 -33.35944
C -23.40337 20.70994 -33.35944
C -24.82848 20.65806 -33.35852
C -23.17154 13.34191 -33.35850
C -20.65551 14.58385 -33.24092
C -27.34448 19.41608 -33.24090
C -20.80837 19.64695 -33.24165
C -27.19148 14.35314 -33.24167
C -19.93041 18.53692 -33.15571
C -28.06958 15.46306 -33.15563
C -19.84841 15.74610 -33.15514
C -28.15156 18.25383 -33.15505
C -22.48868 13.41537 -32.09897
C -25.51138 20.58455 -32.09895
C -22.71815 20.68739 -32.09940
C -25.28183 13.31254 -32.09940
C -21.23344 14.07524 -32.04506
C -26.76664 19.92473 -32.04503
C -21.41923 20.11746 -32.04590
C -26.58074 13.88244 -32.04590
C -19.73484 16.43861 -31.92540
C -28.26514 17.56127 -31.92532
C -19.77685 17.85397 -31.92517
C -28.22307 16.14594 -31.92506
C -19.99653 15.73553 -30.73289
C -23.16574 13.15413 -30.86926
C -27.11107 14.29259 -30.78838
C -28.00340 18.26434 -30.73284
C -24.83430 20.84578 -30.86922
C -20.88895 19.70719 -30.78844
C -20.72919 14.51993 -30.78876
C -24.58639 13.10187 -30.86944
C -27.91915 15.45911 -30.73249
C -27.27079 19.47994 -30.78871
C -23.41366 20.89803 -30.86944
C -20.08081 18.54070 -30.73253
C -19.86689 16.43489 -29.50942
C -21.45283 20.19236 -29.57948
C -25.51629 20.71464 -29.61764
C -28.13309 17.56499 -29.50940
C -26.54722 13.80753 -29.57940
C -22.48378 13.28534 -29.61768
C -19.90885 17.85172 -29.50853
C -22.72617 20.81676 -29.61693
C -26.74245 20.00212 -29.57992
C -28.09116 16.14815 -29.50853
C -25.27391 13.18315 -29.61692
C -21.25758 13.99778 -29.57994
C -20.16123 18.54237 -28.30102
C -23.41999 21.00663 -28.38239
C -27.23468 19.51116 -28.33474
C -27.83882 15.45755 -28.30101
C -24.58009 12.99343 -28.38235
C -20.76544 14.48882 -28.33473
C -20.93027 19.73649 -28.33315
C -24.83980 20.95435 -28.38238
C -27.92367 18.26947 -28.30180
C -27.06975 14.26345 -28.33312
C -23.16029 13.04574 -28.38242
C -20.07634 15.73048 -28.30176
C -19.92849 16.43305 -27.08192
C -21.47253 20.22545 -27.11671
C -25.52181 20.77775 -27.13976
C -28.07157 17.56697 -27.08197
C -26.52749 13.77460 -27.11665
C -22.47833 13.22238 -27.13978
C -19.97160 17.84985 -27.08112
C -22.73005 20.87951 -27.13846
C -26.73015 20.03662 -27.11804
C -28.02844 16.15017 -27.08113
C -25.26998 13.12050 -27.13836
C -21.27002 13.96352 -27.11801
C -20.21025 18.53635 -25.86450
C -23.42764 21.03690 -25.90180
C -27.20790 19.51253 -25.88075
C -27.78976 15.46376 -25.86444
C -24.57241 12.96299 -25.90173
C -20.79227 14.48761 -25.88074
C -20.96383 19.73368 -25.87883
C -24.84159 20.98567 -25.90188
C -27.88023 18.26765 -25.86541
C -27.03618 14.26643 -25.87878
C -23.15850 13.01437 -25.90188
C -20.12002 15.73246 -25.86537
C -19.99946 16.41833 -24.63705
C -21.49970 20.17496 -24.64569
C -25.48693 20.75612 -24.65653
C -28.00067 17.58168 -24.63705
C -26.50037 13.82498 -24.64566
C -22.51314 13.24378 -24.65650
C -20.04742 17.85881 -24.63645
C -22.77337 20.85178 -24.65437
C -26.71012 19.99114 -24.64602
C -27.95256 16.14121 -24.63635
C -25.22667 13.14818 -24.65431
C -21.28999 14.00890 -24.64604
C -20.22822 18.52390 -23.39987
C -23.43384 21.02841 -23.39987
C -27.20563 19.50451 -23.39987
C -27.77178 15.47610 -23.39987
C -24.56616 12.97159 -23.39987
C -20.79437 14.49549 -23.39987
C -20.97689 19.72202 -23.39987
C -24.84579 20.97910 -23.39987
C -27.86890 18.25708 -23.39987
C -27.02311 14.27798 -23.39987
C -23.15421 13.02090 -23.39987
C -20.13110 15.74292 -23.39987
C  4.02841 -17.56616 -78.71304
C  2.50451 -13.79437 -78.71304
C -1.52390 -13.22822 -78.71304
C -4.02841 -16.43384 -78.71304
C -2.50451 -20.20563 -78.71304
C  1.52390 -20.77178 -78.71304
C  3.97910 -16.15422 -78.71304
C  1.25708 -13.13110 -78.71304
C -2.72202 -13.97689 -78.71304
C -3.97910 -17.84579 -78.71304
C -1.25708 -20.86890 -78.71304
C  2.72202 -20.02311 -78.71304
C  3.87834 -15.41215 -77.54956
C  0.54990 -12.92586 -77.51467
C -3.19878 -14.45308 -77.48466
C -3.87844 -18.58796 -77.54962
C -0.54992 -21.07404 -77.51468
C  3.19890 -19.54687 -77.48470
C  3.12016 -14.20816 -77.53864
C -0.88064 -13.03063 -77.47079
C -3.92799 -15.68827 -77.54201
C -3.12007 -19.79178 -77.53857
C  0.88068 -20.96924 -77.47079
C  3.92802 -18.31166 -77.54198
C  4.12131 -17.56421 -76.33512
C  2.56421 -13.72530 -76.30664
C -1.52515 -13.23222 -76.23231
C -4.12132 -16.43578 -76.33524
C -2.56427 -20.27459 -76.30647
C  1.52519 -20.76772 -76.23232
C  4.09238 -16.13731 -76.33839
C  1.28705 -13.09160 -76.28525
C -2.73475 -13.96300 -76.24984
C -4.09248 -17.86264 -76.33849
C -1.28696 -20.90839 -76.28515
C  2.73484 -20.03694 -76.25004
C  3.86768 -15.43883 -75.11544
C  0.59423 -12.99502 -75.02748
C -3.24206 -14.51189 -75.04700
C -3.86773 -18.56112 -75.11552
C -0.59429 -21.00500 -75.02738
C  3.24219 -19.48811 -75.04706
C  3.09659 -14.24463 -75.08519
C -0.82190 -13.06048 -75.00354
C -3.94136 -15.74450 -75.10133
C -3.09653 -19.75538 -75.08510
C  0.82187 -20.93960 -75.00356
C  3.94144 -18.25534 -75.10123
C  4.14494 -17.54681 -73.89695
C  2.56947 -13.79632 -73.83648
C -1.50129 -13.31164 -73.77667
C -4.14491 -16.45322 -73.89708
C -2.56946 -20.20357 -73.83637
C  1.50124 -20.68843 -73.77680
C  4.10931 -16.12806 -73.90358
C  1.28951 -13.18179 -73.79458
C -2.73117 -14.02584 -73.81185
C -4.10936 -17.87189 -73.90371
C -1.28950 -20.81815 -73.79446
C  2.73113 -19.97411 -73.81187
C  3.93612 -15.44115 -72.67802
C  0.59875 -13.10904 -72.54111
C -3.26055 -14.54802 -72.60879
C -3.93623 -18.55889 -72.67821
C -0.59879 -20.89096 -72.54096
C  3.26050 -19.45197 -72.60878
C  3.13130 -14.27680 -72.62406
C -0.81838 -13.17563 -72.53200
C -3.99974 -15.75608 -72.67280
C -3.13113 -19.72312 -72.62402
C  0.81840 -20.82457 -72.53200
C  3.99956 -18.24388 -72.67269
C  4.26404 -17.54370 -71.47783
C -4.26405 -16.45639 -71.47794
C  4.23332 -16.12946 -71.48085
C -4.23325 -17.87064 -71.48095
C  2.59668 -13.86871 -71.36331
C -2.59663 -20.13127 -71.36324
C  2.75320 -19.90132 -71.35462
C -2.75320 -14.09878 -71.35461
C  1.49946 -20.56292 -71.30295
C -1.49942 -13.43725 -71.30297
C  1.29452 -13.31014 -71.30738
C -1.29455 -20.68986 -71.30722
C  4.14544 -18.23735 -70.25082
C -4.14544 -15.76278 -70.25094
C  4.08037 -15.44805 -70.25147
C -4.08041 -18.55191 -70.25155
C  3.33416 -19.39712 -70.16264
C -3.33415 -14.60300 -70.16268
C  3.20383 -14.33714 -70.16678
C -3.20395 -19.66292 -70.16672
C -0.60523 -20.70955 -70.04969
C  0.60539 -13.29038 -70.04976
C  0.81940 -20.64660 -70.04713
C -0.81925 -13.35354 -70.04717
C  4.50760 -17.54338 -69.07852
C -4.50760 -16.45667 -69.07868
C  4.47328 -16.12842 -69.07948
C -4.47320 -17.87164 -69.07963
C  2.82566 -19.78418 -68.88812
C -2.82553 -14.21599 -68.88808
C  2.66488 -13.99647 -68.88899
C -2.66485 -20.00354 -68.88899
C  1.32168 -13.51211 -68.82914
C -1.32158 -20.48777 -68.82906
C  1.52276 -20.37065 -68.82984
C -1.52263 -13.62944 -68.82985
C -4.43035 -15.77005 -67.84360
C  4.43025 -18.22987 -67.84346
C -4.35717 -18.54698 -67.84241
C  4.35719 -15.45297 -67.84240
C  3.51208 -19.31178 -67.72361
C -3.51219 -14.68828 -67.72378
C  3.37429 -14.43049 -67.72250
C -3.37426 -19.56944 -67.72251
C -0.62479 -20.39294 -67.58078
C  0.62492 -13.60679 -67.58078
C -0.82752 -13.66167 -67.57993
C  0.82768 -20.33809 -67.57984
C  4.87134 -16.11995 -66.70050
C -4.87136 -17.88000 -66.70062
C  4.90994 -17.53977 -66.70047
C -4.91006 -16.46025 -66.70054
C  2.99619 -19.56868 -66.41794
C -2.99627 -14.43129 -66.41811
C -2.83501 -19.77753 -66.41713
C  2.83514 -14.22234 -66.41707
C  1.57624 -19.91689 -66.41944
C -1.57629 -14.08307 -66.41956
C  1.39449 -13.97934 -66.41883
C -1.39446 -20.02037 -66.41890
C  4.88231 -18.21248 -65.44983
C -4.88236 -15.78758 -65.44991
C  4.80315 -15.45200 -65.44909
C -4.80309 -18.54795 -65.44916
C  3.83998 -19.18401 -65.29749
C -3.83998 -14.81601 -65.29760
C -0.63331 -19.32098 -65.46400
C  0.63329 -14.67901 -65.46409
C -0.77234 -14.72482 -65.46144
C  0.77228 -19.27524 -65.46126
C  3.69809 -14.55387 -65.29568
C -3.69803 -19.44615 -65.29578
C -5.41028 -17.89634 -64.30378
C -5.45195 -16.47356 -64.30410
C  5.41021 -16.10374 -64.30380
C  5.45184 -17.52644 -64.30409
C  1.25568 -15.68345 -64.64481
C -1.25565 -18.31664 -64.64481
C  1.33207 -18.23483 -64.64076
C -1.33202 -15.76514 -64.64089
C  0.68529 -16.97777 -64.72169
C -0.68518 -17.02230 -64.72173
C -3.46413 -14.80370 -63.88726
C  3.46423 -19.19631 -63.88711
C -3.31537 -19.42415 -63.88791
C  3.31544 -14.57596 -63.88783
C -2.29846 -15.54786 -63.66656
C  2.29855 -18.45222 -63.66647
C -2.20515 -18.59805 -63.67054
C  2.20511 -15.40194 -63.67042
C -5.51531 -15.82643 -63.01361
C  5.51533 -18.17354 -63.01369
C -5.42969 -18.54576 -63.01310
C  5.42962 -15.45426 -63.01316
C -4.42307 -14.93831 -62.81515
C  4.42323 -19.06175 -62.81511
C -4.27892 -19.35621 -62.81438
C  4.27891 -14.64379 -62.81424
C -2.21690 -16.36904 -62.49089
C  2.21702 -17.63106 -62.49090
C -2.17298 -17.77662 -62.49268
C  2.17302 -16.22349 -62.49260
C  6.04315 -17.51022 -61.83576
C -6.04316 -16.48979 -61.83571
C  5.99659 -16.08181 -61.83503
C -5.99665 -17.91828 -61.83505
C  3.89480 -19.03501 -61.47317
C -3.89465 -14.96513 -61.47314
C  3.74973 -14.70795 -61.47406
C -3.74966 -19.29210 -61.47414
C  2.69674 -18.27992 -61.32066
C -2.69661 -15.72022 -61.32062
C  2.60523 -15.54229 -61.32241
C -2.60508 -18.45788 -61.32238
C  5.95370 -18.14415 -60.53075
C -5.95369 -15.85592 -60.53071
C  5.86209 -15.45387 -60.53026
C -5.86211 -18.54625 -60.53027
C  4.79402 -18.95967 -60.35887
C -4.79395 -15.04040 -60.35895
C  4.64904 -14.72096 -60.35800
C -4.64894 -19.27908 -60.35805
C  2.45923 -17.62972 -60.09079
C -2.45935 -16.37043 -60.09077
C  2.40939 -16.20587 -60.09166
C -2.40924 -17.79429 -60.09164
C -6.42765 -16.50796 -59.32055
C  6.42760 -17.49204 -59.32054
C -6.37811 -17.93038 -59.31973
C  6.37805 -16.06964 -59.31969
C -4.20847 -15.05254 -59.04929
C  4.20843 -18.94754 -59.04917
C -4.06257 -19.22826 -59.04920
C  4.06263 -14.77178 -59.04910
C -2.96738 -15.73350 -58.92874
C  2.96724 -18.26660 -58.92873
C -2.87098 -18.46393 -58.92903
C  2.87098 -15.53611 -58.92902
C  6.24748 -18.11978 -58.01600
C -6.24755 -15.88027 -58.01604
C  6.15259 -15.45393 -58.01578
C -6.15257 -18.54610 -58.01580
C -5.06284 -15.10187 -57.89539
C  5.06277 -18.89814 -57.89532
C -4.91563 -19.23922 -57.89405
C  4.91572 -14.76082 -57.89395
C -2.68806 -16.37851 -57.69546
C  2.68809 -17.62142 -57.69550
C -2.63745 -17.79994 -57.69563
C  2.63750 -16.20006 -57.69558
C  6.68845 -17.48311 -56.78584
C -6.68845 -16.51699 -56.78581
C  6.63710 -16.05495 -56.78482
C -6.63709 -17.94513 -56.78481
C  4.43312 -18.92355 -56.60872
C -4.43313 -15.07643 -56.60877
C  4.28491 -14.77881 -56.60715
C -4.28479 -19.22118 -56.60720
C  3.17258 -18.25872 -56.52476
C -3.17261 -15.74121 -56.52471
C  3.07409 -15.53118 -56.52367
C -3.07403 -18.46873 -56.52360
C  6.44041 -18.11065 -55.49958
C -6.44043 -15.88939 -55.49951
C -6.34394 -18.55474 -55.49816
C  6.34394 -15.44544 -55.49820
C  5.24436 -18.88231 -55.42920
C -5.24435 -15.11770 -55.42918
C  5.09506 -14.76220 -55.42618
C -5.09503 -19.23791 -55.42616
C  2.80105 -16.19513 -55.30272
C -2.80110 -17.80488 -55.30263
C  2.85350 -17.61789 -55.30337
C -2.85352 -16.38211 -55.30329
C -6.77329 -17.94722 -54.24600
C  6.77334 -16.05293 -54.24602
C -6.82522 -16.52626 -54.24722
C  6.82523 -17.47385 -54.24718
C -4.42039 -19.21206 -54.15817
C  4.42031 -14.78809 -54.15821
C -4.57064 -15.09284 -54.16167
C  4.57066 -18.90713 -54.16164
C -3.21280 -18.46562 -54.11508
C  3.21275 -15.53452 -54.11511
C -3.31188 -15.74925 -54.11764
C  3.31190 -18.25074 -54.11772
C  6.53472 -18.10814 -52.96953
C -6.53472 -15.89188 -52.96959
C  6.43636 -15.44415 -52.96630
C -6.43633 -18.55587 -52.96624
C -5.33653 -15.11985 -52.94730
C  5.33647 -18.88016 -52.94727
C  5.18498 -14.76169 -52.94265
C -5.18503 -19.23845 -52.94265
C -2.88999 -17.80409 -52.90160
C  2.89004 -16.19607 -52.90167
C -2.94202 -16.38111 -52.90267
C  2.94214 -17.61900 -52.90269
C  6.87896 -17.47797 -51.70652
C -6.87905 -16.52202 -51.70649
C  4.61669 -18.91839 -51.70816
C -4.61663 -15.08168 -51.70821
C  3.25133 -15.53261 -51.70352
C -3.25120 -18.46747 -51.70334
C  6.82674 -16.05073 -51.70469
C -6.82669 -17.94927 -51.70467
C  3.35149 -18.25987 -51.70708
C -3.35144 -15.74020 -51.70711
C  4.46415 -14.78136 -51.70321
C -4.46404 -19.21876 -51.70321
C -2.89328 -17.79757 -50.50622
C  2.89337 -16.20250 -50.50637
C -2.94475 -16.37580 -50.50742
C  2.94483 -17.62421 -50.50747
C -5.33764 -15.11462 -50.46888
C  5.33771 -18.88534 -50.46885
C  5.18624 -14.76571 -50.46393
C -5.18604 -19.23439 -50.46385
C  6.43653 -15.44782 -50.44101
C -6.43643 -18.55228 -50.44096
C  6.53404 -18.11244 -50.44476
C -6.53397 -15.88764 -50.44472
C -3.21503 -18.45661 -49.29182
C  3.21505 -15.54353 -49.29190
C -3.31367 -15.73795 -49.29477
C  3.31381 -18.26205 -49.29477
C -4.57304 -15.08056 -49.25342
C  4.57318 -18.91940 -49.25337
C -4.42191 -19.20570 -49.24851
C  4.42195 -14.79437 -49.24862
C -6.82523 -16.51752 -49.16448
C  6.82545 -17.48261 -49.16455
C -6.77378 -17.93970 -49.16314
C  6.77389 -16.06039 -49.16330
C  2.85707 -17.63170 -48.10794
C -2.85701 -16.36832 -48.10794
C  2.80577 -16.20915 -48.10698
C -2.80581 -17.79092 -48.10698
C -5.24633 -15.10360 -47.98534
C  5.24645 -18.89651 -47.98532
C  5.09618 -14.77180 -47.98157
C -5.09628 -19.22829 -47.98150
C -6.44115 -15.87771 -47.91360
C  6.44128 -18.12228 -47.91368
C  6.34461 -15.45589 -47.91096
C -6.34468 -18.54418 -47.91087
C  3.17566 -18.27424 -46.88605
C -3.17572 -15.72584 -46.88602
C  3.07660 -15.54586 -46.88495
C -3.07675 -18.45419 -46.88503
C  4.43584 -18.93858 -46.80322
C -4.43581 -15.06142 -46.80314
C  4.28505 -14.79171 -46.80053
C -4.28509 -19.20836 -46.80054
C  6.68757 -17.49561 -46.62474
C -6.68758 -16.50446 -46.62470
C  6.63680 -16.06809 -46.62440
C -6.63686 -17.93184 -46.62440
C -2.69015 -16.36224 -45.71512
C  2.69007 -17.63782 -45.71516
C -2.63893 -17.78493 -45.71480
C  2.63886 -16.21511 -45.71474
C -5.06421 -15.08649 -45.51553
C  5.06420 -18.91350 -45.51557
C -4.91660 -19.22715 -45.51477
C  4.91652 -14.77280 -45.51475
C  6.24888 -18.13318 -45.39422
C -6.24889 -15.86686 -45.39421
C -6.15404 -18.53346 -45.39360
C  6.15405 -15.46650 -45.39363
C -2.96938 -15.71903 -44.48133
C  2.96939 -18.28103 -44.48140
C -2.87298 -18.44826 -44.48167
C  2.87304 -15.55185 -44.48166
C -4.21055 -15.03903 -44.36089
C  4.21055 -18.96113 -44.36089
C -4.06334 -19.21390 -44.36079
C  4.06331 -14.78611 -44.36077
C -6.42749 -16.49501 -44.08984
C  6.42756 -17.50496 -44.08987
C -6.37821 -17.91724 -44.09046
C  6.37825 -16.08275 -44.09051
C  2.46008 -17.64369 -43.31859
C -2.46013 -16.35639 -43.31852
C  2.41135 -16.22053 -43.31765
C -2.41123 -17.77953 -43.31766
C  4.79519 -18.97150 -43.04925
C -4.79525 -15.02864 -43.04925
C  4.65008 -14.73315 -43.05127
C -4.65011 -19.26688 -43.05122
C  5.95403 -18.15595 -42.87788
C -5.95397 -15.84410 -42.87779
C  5.86255 -15.46625 -42.87884
C -5.86253 -18.53374 -42.87875
C  2.69648 -18.29257 -42.08839
C -2.69649 -15.70755 -42.08840
C  2.60601 -15.55360 -42.08894
C -2.60593 -18.44647 -42.08896
C  3.89591 -19.04798 -41.93486
C -3.89594 -14.95213 -41.93492
C  3.75081 -14.71800 -41.93640
C -3.75080 -19.28211 -41.93637
C  6.04470 -17.52265 -41.57276
C -6.04470 -16.47735 -41.57269
C  5.99830 -16.09254 -41.57385
C -5.99836 -17.90754 -41.57377
C -2.21897 -16.36043 -40.91908
C  2.21898 -17.63976 -40.91905
C -2.17400 -17.76746 -40.91817
C  2.17407 -16.23273 -40.91827
C -4.42397 -14.92834 -40.59259
C  4.42406 -19.07180 -40.59244
C -4.28057 -19.34615 -40.59613
C  4.28060 -14.65392 -40.59610
C -5.51652 -15.81533 -40.39468
C  5.51657 -18.18473 -40.39456
C -5.43022 -18.53469 -40.39633
C  5.43020 -15.46545 -40.39639
C -2.30041 -15.54167 -39.73996
C  2.30054 -18.45839 -39.73996
C -2.20511 -18.59299 -39.74064
C  2.20516 -15.40709 -39.74065
C -3.46462 -14.79623 -39.51926
C  3.46467 -19.20389 -39.51920
C -3.31644 -19.41521 -39.52197
C  3.31649 -14.58483 -39.52185
C  0.68432 -16.97923 -38.69381
C -0.68428 -17.02078 -38.69377
C  1.25462 -15.68404 -38.76708
C -1.25467 -18.31599 -38.76702
C  1.33364 -18.23669 -38.76772
C -1.33355 -15.76326 -38.76760
C -5.45392 -16.46327 -39.10271
C  5.45395 -17.53682 -39.10264
C -5.40974 -17.88546 -39.10352
C  5.40976 -16.11461 -39.10357
C  3.84186 -19.19455 -38.10901
C -3.84191 -14.80543 -38.10903
C -0.77481 -14.72900 -37.93992
C  0.77484 -19.27090 -37.94001
C -0.63367 -19.31529 -37.94046
C  0.63369 -14.68468 -37.94046
C  3.69559 -14.56241 -38.11227
C -3.69546 -19.43776 -38.11238
C  4.88694 -18.22196 -37.95637
C -4.88702 -15.77815 -37.95639
C  4.80234 -15.46358 -37.95844
C -4.80224 -18.53651 -37.95843
C -1.57787 -14.08251 -36.98607
C  1.57785 -19.91746 -36.98612
C  1.39295 -13.98580 -36.98732
C -1.39286 -20.01428 -36.98739
C -3.00092 -14.42297 -36.98927
C  3.00086 -19.57697 -36.98926
C -2.83480 -19.76910 -36.99168
C  2.83493 -14.23102 -36.99163
C -4.87037 -17.87050 -36.70681
C  4.87040 -16.12964 -36.70684
C -4.91262 -16.45034 -36.70662
C  4.91263 -17.54977 -36.70663
C -0.83184 -13.65728 -35.82458
C  0.83191 -20.34276 -35.82462
C -0.62094 -20.39198 -35.82583
C  0.62099 -13.60805 -35.82568
C  3.51908 -19.32352 -35.68106
C -3.51910 -14.67639 -35.68102
C  3.37066 -14.44186 -35.68313
C -3.37059 -19.55820 -35.68322
C -4.35356 -18.53577 -35.56279
C  4.35367 -15.46434 -35.56280
C -4.43520 -15.75911 -35.56154
C  4.43529 -18.24091 -35.56155
C  1.31458 -13.51653 -34.57766
C -1.31449 -20.48346 -34.57778
C  1.52862 -20.38245 -34.57613
C -1.52860 -13.61758 -34.57615
C  2.83628 -19.79919 -34.51671
C -2.83627 -14.20079 -34.51668
C  2.65938 -14.00785 -34.51873
C -2.65928 -19.99207 -34.51882
C  4.46980 -16.13933 -34.32616
C -4.46968 -17.86073 -34.32613
C  4.51090 -17.55716 -34.32628
C -4.51075 -16.44289 -34.32624
C -0.59663 -20.70998 -33.35944
C  0.59663 -13.29006 -33.35944
C -0.82848 -13.34194 -33.35852
C  0.82846 -20.65809 -33.35850
C  3.34449 -19.41615 -33.24092
C -3.34448 -14.58392 -33.24090
C  3.19163 -14.35305 -33.24165
C -3.19148 -19.64686 -33.24167
C  4.06959 -15.46308 -33.15571
C -4.06958 -18.53694 -33.15563
C  4.15159 -18.25390 -33.15514
C -4.15156 -15.74617 -33.15505
C  1.51132 -20.58463 -32.09897
C -1.51138 -13.41545 -32.09895
C  1.28185 -13.31261 -32.09940
C -1.28183 -20.68746 -32.09940
C  2.76656 -19.92476 -32.04506
C -2.76664 -14.07527 -32.04503
C  2.58077 -13.88254 -32.04590
C -2.58074 -20.11756 -32.04590
C  4.26516 -17.56139 -31.92540
C -4.26514 -16.43873 -31.92532
C  4.22315 -16.14603 -31.92517
C -4.22307 -17.85406 -31.92506
C  4.00347 -18.26447 -30.73289
C  0.83426 -20.84587 -30.86926
C -3.11107 -19.70741 -30.78838
C -4.00340 -15.73566 -30.73284
C -0.83430 -13.15422 -30.86922
C  3.11105 -14.29281 -30.78844
C  3.27081 -19.48007 -30.78876
C -0.58639 -20.89813 -30.86944
C -3.91915 -18.54089 -30.73249
C -3.27079 -14.52006 -30.78871
C  0.58634 -13.10197 -30.86944
C  3.91919 -15.45930 -30.73253
C  4.13311 -17.56511 -29.50942
C  2.54717 -13.80764 -29.57948
C -1.51629 -13.28536 -29.61764
C -4.13309 -16.43501 -29.50940
C -2.54722 -20.19247 -29.57940
C  1.51622 -20.71466 -29.61768
C  4.09115 -16.14828 -29.50853
C  1.27383 -13.18324 -29.61693
C -2.74245 -13.99788 -29.57992
C -4.09116 -17.85185 -29.50853
C -1.27391 -20.81685 -29.61692
C  2.74242 -20.00222 -29.57994
C  3.83877 -15.45763 -28.30102
C  0.58001 -12.99337 -28.38239
C -3.23468 -14.48884 -28.33474
C -3.83882 -18.54245 -28.30101
C -0.58009 -21.00657 -28.38235
C  3.23456 -19.51118 -28.33473
C  3.06973 -14.26351 -28.33315
C -0.83980 -13.04565 -28.38238
C -3.92367 -15.73053 -28.30180
C -3.06975 -19.73655 -28.33312
C  0.83971 -20.95426 -28.38242
C  3.92366 -18.26952 -28.30176
C  4.07151 -17.56695 -27.08192
C  2.52747 -13.77455 -27.11671
C -1.52181 -13.22225 -27.13976
C -4.07157 -16.43303 -27.08197
C -2.52749 -20.22540 -27.11665
C  1.52167 -20.77762 -27.13978
C  4.02840 -16.15015 -27.08112
C  1.26995 -13.12049 -27.13846
C -2.73015 -13.96338 -27.11804
C -4.02844 -17.84983 -27.08113
C -1.26998 -20.87950 -27.13836
C  2.72998 -20.03648 -27.11801
C  3.78975 -15.46365 -25.86450
C  0.57236 -12.96310 -25.90180
C -3.20790 -14.48747 -25.88075
C -3.78976 -18.53624 -25.86444
C -0.57241 -21.03701 -25.90173
C  3.20773 -19.51239 -25.88074
C  3.03617 -14.26632 -25.87883
C -0.84159 -13.01433 -25.90188
C -3.88023 -15.73235 -25.86541
C -3.03618 -19.73357 -25.87878
C  0.84150 -20.98563 -25.90188
C  3.87998 -18.26754 -25.86537
C  4.00054 -17.58167 -24.63705
C  2.50030 -13.82504 -24.64569
C -1.48693 -13.24388 -24.65653
C -4.00067 -16.41832 -24.63705
C -2.50037 -20.17502 -24.64566
C  1.48686 -20.75622 -24.65650
C  3.95258 -16.14119 -24.63645
C  1.22663 -13.14822 -24.65437
C -2.71012 -14.00886 -24.64602
C -3.95256 -17.85879 -24.63635
C -1.22667 -20.85182 -24.65431
C  2.71001 -19.99110 -24.64604
C  3.77178 -15.47610 -23.39987
C  0.56616 -12.97159 -23.39987
C -3.20563 -14.49549 -23.39987
C -3.77178 -18.52390 -23.39987
C -0.56616 -21.02841 -23.39987
C  3.20563 -19.50451 -23.39987
C  3.02311 -14.27798 -23.39987
C -0.84579 -13.02090 -23.39987
C -3.86890 -15.74292 -23.39987
C -3.02311 -19.72202 -23.39987
C  0.84579 -20.97910 -23.39987
C  3.86890 -18.25708 -23.39987
C  4.02841 -0.56616 -78.71304
C  2.50451  3.20563 -78.71304
C -1.52390  3.77178 -78.71304
C -4.02841  0.56616 -78.71304
C -2.50451 -3.20563 -78.71304
C  1.52390 -3.77178 -78.71304
C  3.97910  0.84578 -78.71304
C  1.25708  3.86890 -78.71304
C -2.72202  3.02311 -78.71304
C -3.97910 -0.84579 -78.71304
C -1.25708 -3.86890 -78.71304
C  2.72202 -3.02311 -78.71304
C  3.87834  1.58785 -77.54956
C  0.54990  4.07414 -77.51467
C -3.19878  2.54692 -77.48466
C -3.87844 -1.58796 -77.54962
C -0.54992 -4.07404 -77.51468
C  3.19890 -2.54687 -77.48470
C  3.12016  2.79184 -77.53864
C -0.88064  3.96937 -77.47079
C -3.92799  1.31173 -77.54201
C -3.12007 -2.79178 -77.53857
C  0.88068 -3.96924 -77.47079
C  3.92802 -1.31166 -77.54198
C  4.12131 -0.56421 -76.33512
C  2.56421  3.27470 -76.30664
C -1.52515  3.76778 -76.23231
C -4.12132  0.56422 -76.33524
C -2.56427 -3.27459 -76.30647
C  1.52519 -3.76772 -76.23232
C  4.09238  0.86269 -76.33839
C  1.28705  3.90840 -76.28525
C -2.73475  3.03700 -76.24984
C -4.09248 -0.86264 -76.33849
C -1.28696 -3.90839 -76.28515
C  2.73484 -3.03694 -76.25004
C  3.86768  1.56117 -75.11544
C  0.59423  4.00498 -75.02748
C -3.24206  2.48811 -75.04700
C -3.86773 -1.56112 -75.11552
C -0.59429 -4.00500 -75.02738
C  3.24219 -2.48811 -75.04706
C  3.09659  2.75537 -75.08519
C -0.82190  3.93952 -75.00354
C -3.94136  1.25550 -75.10133
C -3.09653 -2.75538 -75.08510
C  0.82187 -3.93960 -75.00356
C  3.94144 -1.25534 -75.10123
C  4.14494 -0.54681 -73.89695
C  2.56947  3.20368 -73.83648
C -1.50129  3.68836 -73.77667
C -4.14491  0.54678 -73.89708
C -2.56946 -3.20357 -73.83637
C  1.50124 -3.68843 -73.77680
C  4.10931  0.87194 -73.90358
C  1.28951  3.81821 -73.79458
C -2.73117  2.97416 -73.81185
C -4.10936 -0.87189 -73.90371
C -1.28950 -3.81815 -73.79446
C  2.73113 -2.97411 -73.81187
C  3.93612  1.55885 -72.67802
C  0.59875  3.89096 -72.54111
C -3.26055  2.45198 -72.60879
C -3.93623 -1.55889 -72.67821
C -0.59879 -3.89096 -72.54096
C  3.26050 -2.45197 -72.60878
C  3.13130  2.72320 -72.62406
C -0.81838  3.82437 -72.53200
C -3.99974  1.24392 -72.67280
C -3.13113 -2.72312 -72.62402
C  0.81840 -3.82457 -72.53200
C  3.99956 -1.24388 -72.67269
C  4.26404 -0.54370 -71.47783
C -4.26405  0.54361 -71.47794
C  4.23332  0.87054 -71.48085
C -4.23325 -0.87064 -71.48095
C  2.59668  3.13129 -71.36331
C -2.59663 -3.13127 -71.36324
C  2.75320 -2.90132 -71.35462
C -2.75320  2.90122 -71.35461
C  1.49946 -3.56292 -71.30295
C -1.49942  3.56275 -71.30297
C  1.29452  3.68986 -71.30738
C -1.29455 -3.68986 -71.30722
C  4.14544 -1.23735 -70.25082
C -4.14544  1.23722 -70.25094
C  4.08037  1.55195 -70.25147
C -4.08041 -1.55191 -70.25155
C  3.33416 -2.39712 -70.16264
C -3.33415  2.39700 -70.16268
C  3.20383  2.66286 -70.16678
C -3.20395 -2.66292 -70.16672
C -0.60523 -3.70955 -70.04969
C  0.60539  3.70962 -70.04976
C  0.81940 -3.64660 -70.04713
C -0.81925  3.64646 -70.04717
C  4.50760 -0.54338 -69.07852
C -4.50760  0.54333 -69.07868
C  4.47328  0.87158 -69.07948
C -4.47320 -0.87164 -69.07963
C  2.82566 -2.78418 -68.88812
C -2.82553  2.78401 -68.88808
C  2.66488  3.00353 -68.88899
C -2.66485 -3.00354 -68.88899
C  1.32168  3.48789 -68.82914
C -1.32158 -3.48777 -68.82906
C  1.52276 -3.37065 -68.82984
C -1.52263  3.37056 -68.82985
C -4.43035  1.22995 -67.84360
C  4.43025 -1.22987 -67.84346
C -4.35717 -1.54698 -67.84241
C  4.35719  1.54703 -67.84240
C  3.51208 -2.31178 -67.72361
C -3.51219  2.31172 -67.72378
C  3.37429  2.56951 -67.72250
C -3.37426 -2.56944 -67.72251
C -0.62479 -3.39294 -67.58078
C  0.62492  3.39321 -67.58078
C -0.82752  3.33833 -67.57993
C  0.82768 -3.33809 -67.57984
C  4.87134  0.88005 -66.70050
C -4.87136 -0.88000 -66.70062
C  4.90994 -0.53977 -66.70047
C -4.91006  0.53975 -66.70054
C  2.99619 -2.56868 -66.41794
C -2.99627  2.56871 -66.41811
C -2.83501 -2.77753 -66.41713
C  2.83514  2.77766 -66.41707
C  1.57624 -2.91689 -66.41944
C -1.57629  2.91693 -66.41956
C  1.39449  3.02066 -66.41883
C -1.39446 -3.02037 -66.41890
C  4.88231 -1.21248 -65.44983
C -4.88236  1.21242 -65.44991
C  4.80315  1.54800 -65.44909
C -4.80309 -1.54795 -65.44916
C  3.83998 -2.18401 -65.29749
C -3.83998  2.18399 -65.29760
C -0.63331 -2.32098 -65.46400
C  0.63329  2.32099 -65.46409
C -0.77234  2.27518 -65.46144
C  0.77228 -2.27524 -65.46126
C  3.69809  2.44613 -65.29568
C -3.69803 -2.44615 -65.29578
C -5.41028 -0.89634 -64.30378
C -5.45195  0.52644 -64.30410
C  5.41021  0.89626 -64.30380
C  5.45184 -0.52644 -64.30409
C  1.25568  1.31655 -64.64481
C -1.25565 -1.31664 -64.64481
C  1.33207 -1.23483 -64.64076
C -1.33202  1.23486 -64.64089
C  0.68529  0.02223 -64.72169
C -0.68518 -0.02230 -64.72173
C -3.46413  2.19630 -63.88726
C  3.46423 -2.19631 -63.88711
C -3.31537 -2.42415 -63.88791
C  3.31544  2.42404 -63.88783
C -2.29846  1.45214 -63.66656
C  2.29855 -1.45222 -63.66647
C -2.20515 -1.59805 -63.67054
C  2.20511  1.59806 -63.67042
C -5.51531  1.17357 -63.01361
C  5.51533 -1.17354 -63.01369
C -5.42969 -1.54576 -63.01310
C  5.42962  1.54574 -63.01316
C -4.42307  2.06169 -62.81515
C  4.42323 -2.06175 -62.81511
C -4.27892 -2.35621 -62.81438
C  4.27891  2.35621 -62.81424
C -2.21690  0.63096 -62.49089
C  2.21702 -0.63106 -62.49090
C -2.17298 -0.77662 -62.49268
C  2.17302  0.77651 -62.49260
C  6.04315 -0.51022 -61.83576
C -6.04316  0.51021 -61.83571
C  5.99659  0.91819 -61.83503
C -5.99665 -0.91828 -61.83505
C  3.89480 -2.03501 -61.47317
C -3.89465  2.03487 -61.47314
C  3.74973  2.29205 -61.47406
C -3.74966 -2.29210 -61.47414
C  2.69674 -1.27992 -61.32066
C -2.69661  1.27978 -61.32062
C  2.60523  1.45771 -61.32241
C -2.60508 -1.45788 -61.32238
C  5.95370 -1.14415 -60.53075
C -5.95369  1.14408 -60.53071
C  5.86209  1.54613 -60.53026
C -5.86211 -1.54625 -60.53027
C  4.79402 -1.95967 -60.35887
C -4.79395  1.95960 -60.35895
C  4.64904  2.27904 -60.35800
C -4.64894 -2.27908 -60.35805
C  2.45923 -0.62972 -60.09079
C -2.45935  0.62957 -60.09077
C  2.40939  0.79413 -60.09166
C -2.40924 -0.79429 -60.09164
C -6.42765  0.49204 -59.32055
C  6.42760 -0.49204 -59.32054
C -6.37811 -0.93038 -59.31973
C  6.37805  0.93036 -59.31969
C -4.20847  1.94746 -59.04929
C  4.20843 -1.94754 -59.04917
C -4.06257 -2.22826 -59.04920
C  4.06263  2.22822 -59.04910
C -2.96738  1.26650 -58.92874
C  2.96724 -1.26660 -58.92873
C -2.87098 -1.46393 -58.92903
C  2.87098  1.46389 -58.92902
C  6.24748 -1.11978 -58.01600
C -6.24755  1.11973 -58.01604
C  6.15259  1.54607 -58.01578
C -6.15257 -1.54610 -58.01580
C -5.06284  1.89813 -57.89539
C  5.06277 -1.89814 -57.89532
C -4.91563 -2.23922 -57.89405
C  4.91572  2.23918 -57.89395
C -2.68806  0.62149 -57.69546
C  2.68809 -0.62142 -57.69550
C -2.63745 -0.79994 -57.69563
C  2.63750  0.79994 -57.69558
C  6.68845 -0.48311 -56.78584
C -6.68845  0.48301 -56.78581
C  6.63710  0.94505 -56.78482
C -6.63709 -0.94513 -56.78481
C  4.43312 -1.92355 -56.60872
C -4.43313  1.92357 -56.60877
C  4.28491  2.22119 -56.60715
C -4.28479 -2.22118 -56.60720
C  3.17258 -1.25872 -56.52476
C -3.17261  1.25879 -56.52471
C  3.07409  1.46882 -56.52367
C -3.07403 -1.46873 -56.52360
C  6.44041 -1.11065 -55.49958
C -6.44043  1.11061 -55.49951
C -6.34394 -1.55474 -55.49816
C  6.34394  1.55456 -55.49820
C  5.24436 -1.88231 -55.42920
C -5.24435  1.88230 -55.42918
C  5.09506  2.23780 -55.42618
C -5.09503 -2.23791 -55.42616
C  2.80105  0.80487 -55.30272
C -2.80110 -0.80488 -55.30263
C  2.85350 -0.61789 -55.30337
C -2.85352  0.61789 -55.30329
C -6.77329 -0.94722 -54.24600
C  6.77334  0.94707 -54.24602
C -6.82522  0.47374 -54.24722
C  6.82523 -0.47385 -54.24718
C -4.42039 -2.21206 -54.15817
C  4.42031  2.21191 -54.15821
C -4.57064  1.90716 -54.16167
C  4.57066 -1.90713 -54.16164
C -3.21280 -1.46562 -54.11508
C  3.21275  1.46548 -54.11511
C -3.31188  1.25075 -54.11764
C  3.31190 -1.25074 -54.11772
C  6.53472 -1.10814 -52.96953
C -6.53472  1.10812 -52.96959
C  6.43636  1.55585 -52.96630
C -6.43633 -1.55587 -52.96624
C -5.33653  1.88015 -52.94730
C  5.33647 -1.88016 -52.94727
C  5.18498  2.23831 -52.94265
C -5.18503 -2.23845 -52.94265
C -2.88999 -0.80409 -52.90160
C  2.89004  0.80393 -52.90167
C -2.94202  0.61889 -52.90267
C  2.94214 -0.61900 -52.90269
C  6.87896 -0.47797 -51.70652
C -6.87905  0.47798 -51.70649
C  4.61669 -1.91839 -51.70816
C -4.61663  1.91832 -51.70821
C  3.25133  1.46739 -51.70352
C -3.25120 -1.46747 -51.70334
C  6.82674  0.94927 -51.70469
C -6.82669 -0.94927 -51.70467
C  3.35149 -1.25987 -51.70708
C -3.35144  1.25980 -51.70711
C  4.46415  2.21864 -51.70321
C -4.46404 -2.21876 -51.70321
C -2.89328 -0.79757 -50.50622
C  2.89337  0.79750 -50.50637
C -2.94475  0.62420 -50.50742
C  2.94483 -0.62421 -50.50747
C -5.33764  1.88538 -50.46888
C  5.33771 -1.88534 -50.46885
C  5.18624  2.23429 -50.46393
C -5.18604 -2.23439 -50.46385
C  6.43653  1.55218 -50.44101
C -6.43643 -1.55228 -50.44096
C  6.53404 -1.11244 -50.44476
C -6.53397  1.11236 -50.44472
C -3.21503 -1.45661 -49.29182
C  3.21505  1.45647 -49.29190
C -3.31367  1.26205 -49.29477
C  3.31381 -1.26205 -49.29477
C -4.57304  1.91944 -49.25342
C  4.57318 -1.91940 -49.25337
C -4.42191 -2.20570 -49.24851
C  4.42195  2.20563 -49.24862
C -6.82523  0.48248 -49.16448
C  6.82545 -0.48261 -49.16455
C -6.77378 -0.93970 -49.16314
C  6.77389  0.93961 -49.16330
C  2.85707 -0.63170 -48.10794
C -2.85701  0.63168 -48.10794
C  2.80577  0.79085 -48.10698
C -2.80581 -0.79092 -48.10698
C -5.24633  1.89640 -47.98534
C  5.24645 -1.89651 -47.98532
C  5.09618  2.22820 -47.98157
C -5.09628 -2.22829 -47.98150
C -6.44115  1.12229 -47.91360
C  6.44128 -1.12228 -47.91368
C  6.34461  1.54411 -47.91096
C -6.34468 -1.54418 -47.91087
C  3.17566 -1.27424 -46.88605
C -3.17572  1.27416 -46.88602
C  3.07660  1.45414 -46.88495
C -3.07675 -1.45419 -46.88503
C  4.43584 -1.93858 -46.80322
C -4.43581  1.93858 -46.80314
C  4.28505  2.20829 -46.80053
C -4.28509 -2.20836 -46.80054
C  6.68757 -0.49561 -46.62474
C -6.68758  0.49554 -46.62470
C  6.63680  0.93191 -46.62440
C -6.63686 -0.93184 -46.62440
C -2.69015  0.63776 -45.71512
C  2.69007 -0.63782 -45.71516
C -2.63893 -0.78493 -45.71480
C  2.63886  0.78489 -45.71474
C -5.06421  1.91351 -45.51553
C  5.06420 -1.91350 -45.51557
C -4.91660 -2.22715 -45.51477
C  4.91652  2.22720 -45.51475
C  6.24888 -1.13318 -45.39422
C -6.24889  1.13314 -45.39421
C -6.15404 -1.53346 -45.39360
C  6.15405  1.53350 -45.39363
C -2.96938  1.28097 -44.48133
C  2.96939 -1.28103 -44.48140
C -2.87298 -1.44826 -44.48167
C  2.87304  1.44815 -44.48166
C -4.21055  1.96097 -44.36089
C  4.21055 -1.96113 -44.36089
C -4.06334 -2.21390 -44.36079
C  4.06331  2.21389 -44.36077
C -6.42749  0.50499 -44.08984
C  6.42756 -0.50496 -44.08987
C -6.37821 -0.91724 -44.09046
C  6.37825  0.91725 -44.09051
C  2.46008 -0.64369 -43.31859
C -2.46013  0.64361 -43.31852
C  2.41135  0.77947 -43.31765
C -2.41123 -0.77953 -43.31766
C  4.79519 -1.97150 -43.04925
C -4.79525  1.97136 -43.04925
C  4.65008  2.26685 -43.05127
C -4.65011 -2.26688 -43.05122
C  5.95403 -1.15595 -42.87788
C -5.95397  1.15590 -42.87779
C  5.86255  1.53375 -42.87884
C -5.86253 -1.53374 -42.87875
C  2.69648 -1.29257 -42.08839
C -2.69649  1.29245 -42.08840
C  2.60601  1.44640 -42.08894
C -2.60593 -1.44647 -42.08896
C  3.89591 -2.04798 -41.93486
C -3.89594  2.04787 -41.93492
C  3.75081  2.28200 -41.93640
C -3.75080 -2.28211 -41.93637
C  6.04470 -0.52265 -41.57276
C -6.04470  0.52265 -41.57269
C  5.99830  0.90746 -41.57385
C -5.99836 -0.90754 -41.57377
C -2.21897  0.63957 -40.91908
C  2.21898 -0.63976 -40.91905
C -2.17400 -0.76746 -40.91817
C  2.17407  0.76727 -40.91827
C -4.42397  2.07166 -40.59259
C  4.42406 -2.07180 -40.59244
C -4.28057 -2.34615 -40.59613
C  4.28060  2.34608 -40.59610
C -5.51652  1.18467 -40.39468
C  5.51657 -1.18473 -40.39456
C -5.43022 -1.53469 -40.39633
C  5.43020  1.53455 -40.39639
C -2.30041  1.45833 -39.73996
C  2.30054 -1.45839 -39.73996
C -2.20511 -1.59299 -39.74064
C  2.20516  1.59291 -39.74065
C -3.46462  2.20377 -39.51926
C  3.46467 -2.20389 -39.51920
C -3.31644 -2.41521 -39.52197
C  3.31649  2.41517 -39.52185
C  0.68432  0.02077 -38.69381
C -0.68428 -0.02078 -38.69377
C  1.25462  1.31596 -38.76708
C -1.25467 -1.31599 -38.76702
C  1.33364 -1.23669 -38.76772
C -1.33355  1.23674 -38.76760
C -5.45392  0.53673 -39.10271
C  5.45395 -0.53682 -39.10264
C -5.40974 -0.88546 -39.10352
C  5.40976  0.88539 -39.10357
C  3.84186 -2.19455 -38.10901
C -3.84191  2.19457 -38.10903
C -0.77481  2.27100 -37.93992
C  0.77484 -2.27090 -37.94001
C -0.63367 -2.31529 -37.94046
C  0.63369  2.31532 -37.94046
C  3.69559  2.43759 -38.11227
C -3.69546 -2.43776 -38.11238
C  4.88694 -1.22196 -37.95637
C -4.88702  1.22185 -37.95639
C  4.80234  1.53642 -37.95844
C -4.80224 -1.53651 -37.95843
C -1.57787  2.91749 -36.98607
C  1.57785 -2.91746 -36.98612
C  1.39295  3.01420 -36.98732
C -1.39286 -3.01428 -36.98739
C -3.00092  2.57703 -36.98927
C  3.00086 -2.57697 -36.98926
C -2.83480 -2.76910 -36.99168
C  2.83493  2.76898 -36.99163
C -4.87037 -0.87050 -36.70681
C  4.87040  0.87036 -36.70684
C -4.91262  0.54966 -36.70662
C  4.91263 -0.54977 -36.70663
C -0.83184  3.34272 -35.82458
C  0.83191 -3.34276 -35.82462
C -0.62094 -3.39198 -35.82583
C  0.62099  3.39195 -35.82568
C  3.51908 -2.32352 -35.68106
C -3.51910  2.32361 -35.68102
C  3.37066  2.55814 -35.68313
C -3.37059 -2.55820 -35.68322
C -4.35356 -1.53577 -35.56279
C  4.35367  1.53566 -35.56280
C -4.43520  1.24089 -35.56154
C  4.43529 -1.24091 -35.56155
C  1.31458  3.48347 -34.57766
C -1.31449 -3.48346 -34.57778
C  1.52862 -3.38245 -34.57613
C -1.52860  3.38242 -34.57615
C  2.83628 -2.79919 -34.51671
C -2.83627  2.79921 -34.51668
C  2.65938  2.99215 -34.51873
C -2.65928 -2.99207 -34.51882
C  4.46980  0.86067 -34.32616
C -4.46968 -0.86073 -34.32613
C  4.51090 -0.55716 -34.32628
C -4.51075  0.55711 -34.32624
C -0.59663 -3.70998 -33.35944
C  0.59663  3.70994 -33.35944
C -0.82848  3.65806 -33.35852
C  0.82846 -3.65809 -33.35850
C  3.34449 -2.41615 -33.24092
C -3.34448  2.41608 -33.24090
C  3.19163  2.64695 -33.24165
C -3.19148 -2.64686 -33.24167
C  4.06959  1.53692 -33.15571
C -4.06958 -1.53694 -33.15563
C  4.15159 -1.25390 -33.15514
C -4.15156  1.25383 -33.15505
C  1.51132 -3.58463 -32.09897
C -1.51138  3.58455 -32.09895
C  1.28185  3.68739 -32.09940
C -1.28183 -3.68746 -32.09940
C  2.76656 -2.92476 -32.04506
C -2.76664  2.92473 -32.04503
C  2.58077  3.11746 -32.04590
C -2.58074 -3.11756 -32.04590
C  4.26516 -0.56139 -31.92540
C -4.26514  0.56127 -31.92532
C  4.22315  0.85397 -31.92517
C -4.22307 -0.85406 -31.92506
C  4.00347 -1.26447 -30.73289
C  0.83426 -3.84587 -30.86926
C -3.11107 -2.70741 -30.78838
C -4.00340  1.26434 -30.73284
C -0.83430  3.84578 -30.86922
C  3.11105  2.70719 -30.78844
C  3.27081 -2.48007 -30.78876
C -0.58639 -3.89813 -30.86944
C -3.91915 -1.54089 -30.73249
C -3.27079  2.47994 -30.78871
C  0.58634  3.89803 -30.86944
C  3.91919  1.54070 -30.73253
C  4.13311 -0.56511 -29.50942
C  2.54717  3.19236 -29.57948
C -1.51629  3.71464 -29.61764
C -4.13309  0.56499 -29.50940
C -2.54722 -3.19247 -29.57940
C  1.51622 -3.71466 -29.61768
C  4.09115  0.85172 -29.50853
C  1.27383  3.81676 -29.61693
C -2.74245  3.00212 -29.57992
C -4.09116 -0.85185 -29.50853
C -1.27391 -3.81685 -29.61692
C  2.74242 -3.00222 -29.57994
C  3.83877  1.54237 -28.30102
C  0.58001  4.00663 -28.38239
C -3.23468  2.51116 -28.33474
C -3.83882 -1.54245 -28.30101
C -0.58009 -4.00657 -28.38235
C  3.23456 -2.51118 -28.33473
C  3.06973  2.73649 -28.33315
C -0.83980  3.95435 -28.38238
C -3.92367  1.26947 -28.30180
C -3.06975 -2.73655 -28.33312
C  0.83971 -3.95426 -28.38242
C  3.92366 -1.26952 -28.30176
C  4.07151 -0.56695 -27.08192
C  2.52747  3.22545 -27.11671
C -1.52181  3.77775 -27.13976
C -4.07157  0.56697 -27.08197
C -2.52749 -3.22540 -27.11665
C  1.52167 -3.77762 -27.13978
C  4.02840  0.84985 -27.08112
C  1.26995  3.87951 -27.13846
C -2.73015  3.03662 -27.11804
C -4.02844 -0.84983 -27.08113
C -1.26998 -3.87950 -27.13836
C  2.72998 -3.03648 -27.11801
C  3.78975  1.53635 -25.86450
C  0.57236  4.03690 -25.90180
C -3.20790  2.51253 -25.88075
C -3.78976 -1.53624 -25.86444
C -0.57241 -4.03701 -25.90173
C  3.20773 -2.51239 -25.88074
C  3.03617  2.73368 -25.87883
C -0.84159  3.98567 -25.90188
C -3.88023  1.26765 -25.86541
C -3.03618 -2.73357 -25.87878
C  0.84150 -3.98563 -25.90188
C  3.87998 -1.26754 -25.86537
C  4.00054 -0.58167 -24.63705
C  2.50030  3.17496 -24.64569
C -1.48693  3.75612 -24.65653
C -4.00067  0.58168 -24.63705
C -2.50037 -3.17502 -24.64566
C  1.48686 -3.75622 -24.65650
C  3.95258  0.85881 -24.63645
C  1.22663  3.85178 -24.65437
C -2.71012  2.99114 -24.64602
C -3.95256 -0.85879 -24.63635
C -1.22667 -3.85182 -24.65431
C  2.71001 -2.99110 -24.64604
C  3.77178  1.52390 -23.39987
C  0.56616  4.02841 -23.39987
C -3.20563  2.50451 -23.39987
C -3.77178 -1.52390 -23.39987
C -0.56616 -4.02841 -23.39987
C  3.20563 -2.50451 -23.39987
C  3.02311  2.72202 -23.39987
C -0.84579  3.97910 -23.39987
C -3.86890  1.25708 -23.39987
C -3.02311 -2.72202 -23.39987
C  0.84579 -3.97910 -23.39987
C  3.86890 -1.25708 -23.39987
C  4.02841 16.43384 -78.71304
C  2.50451 20.20563 -78.71304
C -1.52390 20.77178 -78.71304
C -4.02841 17.56616 -78.71304
C -2.50451 13.79437 -78.71304
C  1.52390 13.22822 -78.71304
C  3.97910 17.84578 -78.71304
C  1.25708 20.86890 -78.71304
C -2.72202 20.02311 -78.71304
C -3.97910 16.15421 -78.71304
C -1.25708 13.13110 -78.71304
C  2.72202 13.97689 -78.71304
C  3.87834 18.58785 -77.54956
C  0.54990 21.07414 -77.51467
C -3.19878 19.54692 -77.48466
C -3.87844 15.41204 -77.54962
C -0.54992 12.92596 -77.51468
C  3.19890 14.45313 -77.48470
C  3.12016 19.79184 -77.53864
C -0.88064 20.96937 -77.47079
C -3.92799 18.31173 -77.54201
C -3.12007 14.20822 -77.53857
C  0.88068 13.03076 -77.47079
C  3.92802 15.68834 -77.54198
C  4.12131 16.43579 -76.33512
C  2.56421 20.27470 -76.30664
C -1.52515 20.76778 -76.23231
C -4.12132 17.56422 -76.33524
C -2.56427 13.72541 -76.30647
C  1.52519 13.23228 -76.23232
C  4.09238 17.86269 -76.33839
C  1.28705 20.90840 -76.28525
C -2.73475 20.03700 -76.24984
C -4.09248 16.13736 -76.33849
C -1.28696 13.09161 -76.28515
C  2.73484 13.96306 -76.25004
C  3.86768 18.56117 -75.11544
C  0.59423 21.00498 -75.02748
C -3.24206 19.48811 -75.04700
C -3.86773 15.43888 -75.11552
C -0.59429 12.99500 -75.02738
C  3.24219 14.51189 -75.04706
C  3.09659 19.75537 -75.08519
C -0.82190 20.93952 -75.00354
C -3.94136 18.25550 -75.10133
C -3.09653 14.24462 -75.08510
C  0.82187 13.06040 -75.00356
C  3.94144 15.74466 -75.10123
C  4.14494 16.45319 -73.89695
C  2.56947 20.20368 -73.83648
C -1.50129 20.68836 -73.77667
C -4.14491 17.54678 -73.89708
C -2.56946 13.79643 -73.83637
C  1.50124 13.31157 -73.77680
C  4.10931 17.87194 -73.90358
C  1.28951 20.81821 -73.79458
C -2.73117 19.97416 -73.81185
C -4.10936 16.12811 -73.90371
C -1.28950 13.18185 -73.79446
C  2.73113 14.02589 -73.81187
C  3.93612 18.55885 -72.67802
C  0.59875 20.89096 -72.54111
C -3.26055 19.45198 -72.60879
C -3.93623 15.44111 -72.67821
C -0.59879 13.10904 -72.54096
C  3.26050 14.54803 -72.60878
C  3.13130 19.72320 -72.62406
C -0.81838 20.82437 -72.53200
C -3.99974 18.24392 -72.67280
C -3.13113 14.27688 -72.62402
C  0.81840 13.17543 -72.53200
C  3.99956 15.75612 -72.67269
C  4.26404 16.45630 -71.47783
C -4.26405 17.54361 -71.47794
C  4.23332 17.87054 -71.48085
C -4.23325 16.12936 -71.48095
C  2.59668 20.13129 -71.36331
C -2.59663 13.86873 -71.36324
C  2.75320 14.09868 -71.35462
C -2.75320 19.90122 -71.35461
C  1.49946 13.43708 -71.30295
C -1.49942 20.56275 -71.30297
C  1.29452 20.68986 -71.30738
C -1.29455 13.31014 -71.30722
C  4.14544 15.76265 -70.25082
C -4.14544 18.23722 -70.25094
C  4.08037 18.55195 -70.25147
C -4.08041 15.44809 -70.25155
C  3.33416 14.60288 -70.16264
C -3.33415 19.39700 -70.16268
C  3.20383 19.66286 -70.16678
C -3.20395 14.33708 -70.16672
C -0.60523 13.29045 -70.04969
C  0.60539 20.70962 -70.04976
C  0.81940 13.35340 -70.04713
C -0.81925 20.64646 -70.04717
C  4.50760 16.45662 -69.07852
C -4.50760 17.54333 -69.07868
C  4.47328 17.87158 -69.07948
C -4.47320 16.12836 -69.07963
C  2.82566 14.21582 -68.88812
C -2.82553 19.78401 -68.88808
C  2.66488 20.00353 -68.88899
C -2.66485 13.99646 -68.88899
C  1.32168 20.48789 -68.82914
C -1.32158 13.51223 -68.82906
C  1.52276 13.62935 -68.82984
C -1.52263 20.37056 -68.82985
C -4.43035 18.22995 -67.84360
C  4.43025 15.77013 -67.84346
C -4.35717 15.45302 -67.84241
C  4.35719 18.54703 -67.84240
C  3.51208 14.68822 -67.72361
C -3.51219 19.31172 -67.72378
C  3.37429 19.56951 -67.72250
C -3.37426 14.43056 -67.72251
C -0.62479 13.60706 -67.58078
C  0.62492 20.39321 -67.58078
C -0.82752 20.33833 -67.57993
C  0.82768 13.66191 -67.57984
C  4.87134 17.88005 -66.70050
C -4.87136 16.12000 -66.70062
C  4.90994 16.46023 -66.70047
C -4.91006 17.53975 -66.70054
C  2.99619 14.43132 -66.41794
C -2.99627 19.56871 -66.41811
C -2.83501 14.22247 -66.41713
C  2.83514 19.77766 -66.41707
C  1.57624 14.08311 -66.41944
C -1.57629 19.91693 -66.41956
C  1.39449 20.02066 -66.41883
C -1.39446 13.97963 -66.41890
C  4.88231 15.78752 -65.44983
C -4.88236 18.21242 -65.44991
C  4.80315 18.54800 -65.44909
C -4.80309 15.45205 -65.44916
C  3.83998 14.81599 -65.29749
C -3.83998 19.18399 -65.29760
C -0.63331 14.67902 -65.46400
C  0.63329 19.32099 -65.46409
C -0.77234 19.27518 -65.46144
C  0.77228 14.72476 -65.46126
C  3.69809 19.44613 -65.29568
C -3.69803 14.55385 -65.29578
C -5.41028 16.10366 -64.30378
C -5.45195 17.52644 -64.30410
C  5.41021 17.89626 -64.30380
C  5.45184 16.47356 -64.30409
C  1.25568 18.31655 -64.64481
C -1.25565 15.68336 -64.64481
C  1.33207 15.76517 -64.64076
C -1.33202 18.23486 -64.64089
C  0.68529 17.02223 -64.72169
C -0.68518 16.97770 -64.72173
C -3.46413 19.19630 -63.88726
C  3.46423 14.80369 -63.88711
C -3.31537 14.57585 -63.88791
C  3.31544 19.42404 -63.88783
C -2.29846 18.45214 -63.66656
C  2.29855 15.54778 -63.66647
C -2.20515 15.40195 -63.67054
C  2.20511 18.59806 -63.67042
C -5.51531 18.17357 -63.01361
C  5.51533 15.82646 -63.01369
C -5.42969 15.45424 -63.01310
C  5.42962 18.54574 -63.01316
C -4.42307 19.06169 -62.81515
C  4.42323 14.93825 -62.81511
C -4.27892 14.64379 -62.81438
C  4.27891 19.35621 -62.81424
C -2.21690 17.63096 -62.49089
C  2.21702 16.36894 -62.49090
C -2.17298 16.22338 -62.49268
C  2.17302 17.77651 -62.49260
C  6.04315 16.48978 -61.83576
C -6.04316 17.51021 -61.83571
C  5.99659 17.91819 -61.83503
C -5.99665 16.08172 -61.83505
C  3.89480 14.96499 -61.47317
C -3.89465 19.03487 -61.47314
C  3.74973 19.29205 -61.47406
C -3.74966 14.70790 -61.47414
C  2.69674 15.72008 -61.32066
C -2.69661 18.27978 -61.32062
C  2.60523 18.45771 -61.32241
C -2.60508 15.54212 -61.32238
C  5.95370 15.85585 -60.53075
C -5.95369 18.14408 -60.53071
C  5.86209 18.54613 -60.53026
C -5.86211 15.45375 -60.53027
C  4.79402 15.04033 -60.35887
C -4.79395 18.95960 -60.35895
C  4.64904 19.27904 -60.35800
C -4.64894 14.72092 -60.35805
C  2.45923 16.37028 -60.09079
C -2.45935 17.62957 -60.09077
C  2.40939 17.79413 -60.09166
C -2.40924 16.20571 -60.09164
C -6.42765 17.49204 -59.32055
C  6.42760 16.50796 -59.32054
C -6.37811 16.06962 -59.31973
C  6.37805 17.93036 -59.31969
C -4.20847 18.94746 -59.04929
C  4.20843 15.05246 -59.04917
C -4.06257 14.77174 -59.04920
C  4.06263 19.22822 -59.04910
C -2.96738 18.26650 -58.92874
C  2.96724 15.73340 -58.92873
C -2.87098 15.53607 -58.92903
C  2.87098 18.46389 -58.92902
C  6.24748 15.88022 -58.01600
C -6.24755 18.11973 -58.01604
C  6.15259 18.54607 -58.01578
C -6.15257 15.45390 -58.01580
C -5.06284 18.89813 -57.89539
C  5.06277 15.10186 -57.89532
C -4.91563 14.76078 -57.89405
C  4.91572 19.23918 -57.89395
C -2.68806 17.62149 -57.69546
C  2.68809 16.37858 -57.69550
C -2.63745 16.20006 -57.69563
C  2.63750 17.79994 -57.69558
C  6.68845 16.51689 -56.78584
C -6.68845 17.48301 -56.78581
C  6.63710 17.94505 -56.78482
C -6.63709 16.05487 -56.78481
C  4.43312 15.07645 -56.60872
C -4.43313 18.92357 -56.60877
C  4.28491 19.22119 -56.60715
C -4.28479 14.77882 -56.60720
C  3.17258 15.74128 -56.52476
C -3.17261 18.25879 -56.52471
C  3.07409 18.46882 -56.52367
C -3.07403 15.53127 -56.52360
C  6.44041 15.88935 -55.49958
C -6.44043 18.11061 -55.49951
C -6.34394 15.44526 -55.49816
C  6.34394 18.55456 -55.49820
C  5.24436 15.11769 -55.42920
C -5.24435 18.88230 -55.42918
C  5.09506 19.23780 -55.42618
C -5.09503 14.76209 -55.42616
C  2.80105 17.80487 -55.30272
C -2.80110 16.19512 -55.30263
C  2.85350 16.38211 -55.30337
C -2.85352 17.61789 -55.30329
C -6.77329 16.05278 -54.24600
C  6.77334 17.94707 -54.24602
C -6.82522 17.47374 -54.24722
C  6.82523 16.52615 -54.24718
C -4.42039 14.78794 -54.15817
C  4.42031 19.21191 -54.15821
C -4.57064 18.90716 -54.16167
C  4.57066 15.09287 -54.16164
C -3.21280 15.53438 -54.11508
C  3.21275 18.46548 -54.11511
C -3.31188 18.25075 -54.11764
C  3.31190 15.74926 -54.11772
C  6.53472 15.89186 -52.96953
C -6.53472 18.10812 -52.96959
C  6.43636 18.55585 -52.96630
C -6.43633 15.44413 -52.96624
C -5.33653 18.88015 -52.94730
C  5.33647 15.11984 -52.94727
C  5.18498 19.23831 -52.94265
C -5.18503 14.76155 -52.94265
C -2.88999 16.19591 -52.90160
C  2.89004 17.80393 -52.90167
C -2.94202 17.61889 -52.90267
C  2.94214 16.38100 -52.90269
C  6.87896 16.52203 -51.70652
C -6.87905 17.47798 -51.70649
C  4.61669 15.08161 -51.70816
C -4.61663 18.91832 -51.70821
C  3.25133 18.46739 -51.70352
C -3.25120 15.53253 -51.70334
C  6.82674 17.94927 -51.70469
C -6.82669 16.05073 -51.70467
C  3.35149 15.74013 -51.70708
C -3.35144 18.25980 -51.70711
C  4.46415 19.21864 -51.70321
C -4.46404 14.78124 -51.70321
C -2.89328 16.20243 -50.50622
C  2.89337 17.79750 -50.50637
C -2.94475 17.62420 -50.50742
C  2.94483 16.37579 -50.50747
C -5.33764 18.88538 -50.46888
C  5.33771 15.11466 -50.46885
C  5.18624 19.23429 -50.46393
C -5.18604 14.76561 -50.46385
C  6.43653 18.55218 -50.44101
C -6.43643 15.44772 -50.44096
C  6.53404 15.88756 -50.44476
C -6.53397 18.11236 -50.44472
C -3.21503 15.54339 -49.29182
C  3.21505 18.45647 -49.29190
C -3.31367 18.26205 -49.29477
C  3.31381 15.73795 -49.29477
C -4.57304 18.91944 -49.25342
C  4.57318 15.08060 -49.25337
C -4.42191 14.79430 -49.24851
C  4.42195 19.20563 -49.24862
C -6.82523 17.48248 -49.16448
C  6.82545 16.51739 -49.16455
C -6.77378 16.06030 -49.16314
C  6.77389 17.93961 -49.16330
C  2.85707 16.36830 -48.10794
C -2.85701 17.63168 -48.10794
C  2.80577 17.79085 -48.10698
C -2.80581 16.20908 -48.10698
C -5.24633 18.89640 -47.98534
C  5.24645 15.10349 -47.98532
C  5.09618 19.22820 -47.98157
C -5.09628 14.77171 -47.98150
C -6.44115 18.12229 -47.91360
C  6.44128 15.87772 -47.91368
C  6.34461 18.54411 -47.91096
C -6.34468 15.45582 -47.91087
C  3.17566 15.72576 -46.88605
C -3.17572 18.27416 -46.88602
C  3.07660 18.45414 -46.88495
C -3.07675 15.54581 -46.88503
C  4.43584 15.06142 -46.80322
C -4.43581 18.93858 -46.80314
C  4.28505 19.20829 -46.80053
C -4.28509 14.79164 -46.80054
C  6.68757 16.50439 -46.62474
C -6.68758 17.49554 -46.62470
C  6.63680 17.93191 -46.62440
C -6.63686 16.06816 -46.62440
C -2.69015 17.63776 -45.71512
C  2.69007 16.36218 -45.71516
C -2.63893 16.21507 -45.71480
C  2.63886 17.78489 -45.71474
C -5.06421 18.91351 -45.51553
C  5.06420 15.08650 -45.51557
C -4.91660 14.77285 -45.51477
C  4.91652 19.22720 -45.51475
C  6.24888 15.86682 -45.39422
C -6.24889 18.13314 -45.39421
C -6.15404 15.46654 -45.39360
C  6.15405 18.53350 -45.39363
C -2.96938 18.28097 -44.48133
C  2.96939 15.71897 -44.48140
C -2.87298 15.55174 -44.48167
C  2.87304 18.44815 -44.48166
C -4.21055 18.96097 -44.36089
C  4.21055 15.03887 -44.36089
C -4.06334 14.78610 -44.36079
C  4.06331 19.21389 -44.36077
C -6.42749 17.50499 -44.08984
C  6.42756 16.49504 -44.08987
C -6.37821 16.08276 -44.09046
C  6.37825 17.91725 -44.09051
C  2.46008 16.35631 -43.31859
C -2.46013 17.64361 -43.31852
C  2.41135 17.77947 -43.31765
C -2.41123 16.22047 -43.31766
C  4.79519 15.02850 -43.04925
C -4.79525 18.97136 -43.04925
C  4.65008 19.26685 -43.05127
C -4.65011 14.73312 -43.05122
C  5.95403 15.84405 -42.87788
C -5.95397 18.15590 -42.87779
C  5.86255 18.53375 -42.87884
C -5.86253 15.46626 -42.87875
C  2.69648 15.70743 -42.08839
C -2.69649 18.29245 -42.08840
C  2.60601 18.44640 -42.08894
C -2.60593 15.55353 -42.08896
C  3.89591 14.95202 -41.93486
C -3.89594 19.04787 -41.93492
C  3.75081 19.28200 -41.93640
C -3.75080 14.71789 -41.93637
C  6.04470 16.47735 -41.57276
C -6.04470 17.52265 -41.57269
C  5.99830 17.90746 -41.57385
C -5.99836 16.09246 -41.57377
C -2.21897 17.63957 -40.91908
C  2.21898 16.36024 -40.91905
C -2.17400 16.23254 -40.91817
C  2.17407 17.76727 -40.91827
C -4.42397 19.07166 -40.59259
C  4.42406 14.92820 -40.59244
C -4.28057 14.65385 -40.59613
C  4.28060 19.34608 -40.59610
C -5.51652 18.18467 -40.39468
C  5.51657 15.81527 -40.39456
C -5.43022 15.46531 -40.39633
C  5.43020 18.53455 -40.39639
C -2.30041 18.45833 -39.73996
C  2.30054 15.54161 -39.73996
C -2.20511 15.40701 -39.74064
C  2.20516 18.59291 -39.74065
C -3.46462 19.20377 -39.51926
C  3.46467 14.79611 -39.51920
C -3.31644 14.58479 -39.52197
C  3.31649 19.41517 -39.52185
C  0.68432 17.02077 -38.69381
C -0.68428 16.97922 -38.69377
C  1.25462 18.31596 -38.76708
C -1.25467 15.68401 -38.76702
C  1.33364 15.76331 -38.76772
C -1.33355 18.23674 -38.76760
C -5.45392 17.53673 -39.10271
C  5.45395 16.46318 -39.10264
C -5.40974 16.11454 -39.10352
C  5.40976 17.88539 -39.10357
C  3.84186 14.80545 -38.10901
C -3.84191 19.19457 -38.10903
C -0.77481 19.27100 -37.93992
C  0.77484 14.72910 -37.94001
C -0.63367 14.68471 -37.94046
C  0.63369 19.31532 -37.94046
C  3.69559 19.43759 -38.11227
C -3.69546 14.56224 -38.11238
C  4.88694 15.77804 -37.95637
C -4.88702 18.22185 -37.95639
C  4.80234 18.53642 -37.95844
C -4.80224 15.46349 -37.95843
C -1.57787 19.91749 -36.98607
C  1.57785 14.08254 -36.98612
C  1.39295 20.01420 -36.98732
C -1.39286 13.98572 -36.98739
C -3.00092 19.57703 -36.98927
C  3.00086 14.42303 -36.98926
C -2.83480 14.23090 -36.99168
C  2.83493 19.76898 -36.99163
C -4.87037 16.12950 -36.70681
C  4.87040 17.87036 -36.70684
C -4.91262 17.54966 -36.70662
C  4.91263 16.45023 -36.70663
C -0.83184 20.34272 -35.82458
C  0.83191 13.65724 -35.82462
C -0.62094 13.60802 -35.82583
C  0.62099 20.39195 -35.82568
C  3.51908 14.67648 -35.68106
C -3.51910 19.32361 -35.68102
C  3.37066 19.55814 -35.68313
C -3.37059 14.44180 -35.68322
C -4.35356 15.46423 -35.56279
C  4.35367 18.53566 -35.56280
C -4.43520 18.24089 -35.56154
C  4.43529 15.75909 -35.56155
C  1.31458 20.48347 -34.57766
C -1.31449 13.51654 -34.57778
C  1.52862 13.61755 -34.57613
C -1.52860 20.38242 -34.57615
C  2.83628 14.20081 -34.51671
C -2.83627 19.79921 -34.51668
C  2.65938 19.99215 -34.51873
C -2.65928 14.00793 -34.51882
C  4.46980 17.86067 -34.32616
C -4.46968 16.13927 -34.32613
C  4.51090 16.44284 -34.32628
C -4.51075 17.55711 -34.32624
C -0.59663 13.29002 -33.35944
C  0.59663 20.70994 -33.35944
C -0.82848 20.65806 -33.35852
C  0.82846 13.34191 -33.35850
C  3.34449 14.58385 -33.24092
C -3.34448 19.41608 -33.24090
C  3.19163 19.64695 -33.24165
C -3.19148 14.35314 -33.24167
C  4.06959 18.53692 -33.15571
C -4.06958 15.46306 -33.15563
C  4.15159 15.74610 -33.15514
C -4.15156 18.25383 -33.15505
C  1.51132 13.41537 -32.09897
C -1.51138 20.58455 -32.09895
C  1.28185 20.68739 -32.09940
C -1.28183 13.31254 -32.09940
C  2.76656 14.07524 -32.04506
C -2.76664 19.92473 -32.04503
C  2.58077 20.11746 -32.04590
C -2.58074 13.88244 -32.04590
C  4.26516 16.43861 -31.92540
C -4.26514 17.56127 -31.92532
C  4.22315 17.85397 -31.92517
C -4.22307 16.14594 -31.92506
C  4.00347 15.73553 -30.73289
C  0.83426 13.15413 -30.86926
C -3.11107 14.29259 -30.78838
C -4.00340 18.26434 -30.73284
C -0.83430 20.84578 -30.86922
C  3.11105 19.70719 -30.78844
C  3.27081 14.51993 -30.78876
C -0.58639 13.10187 -30.86944
C -3.91915 15.45911 -30.73249
C -3.27079 19.47994 -30.78871
C  0.58634 20.89803 -30.86944
C  3.91919 18.54070 -30.73253
C  4.13311 16.43489 -29.50942
C  2.54717 20.19236 -29.57948
C -1.51629 20.71464 -29.61764
C -4.13309 17.56499 -29.50940
C -2.54722 13.80753 -29.57940
C  1.51622 13.28534 -29.61768
C  4.09115 17.85172 -29.50853
C  1.27383 20.81676 -29.61693
C -2.74245 20.00212 -29.57992
C -4.09116 16.14815 -29.50853
C -1.27391 13.18315 -29.61692
C  2.74242 13.99778 -29.57994
C  3.83877 18.54237 -28.30102
C  0.58001 21.00663 -28.38239
C -3.23468 19.51116 -28.33474
C -3.83882 15.45755 -28.30101
C -0.58009 12.99343 -28.38235
C  3.23456 14.48882 -28.33473
C  3.06973 19.73649 -28.33315
C -0.83980 20.95435 -28.38238
C -3.92367 18.26947 -28.30180
C -3.06975 14.26345 -28.33312
C  0.83971 13.04574 -28.38242
C  3.92366 15.73048 -28.30176
C  4.07151 16.43305 -27.08192
C  2.52747 20.22545 -27.11671
C -1.52181 20.77775 -27.13976
C -4.07157 17.56697 -27.08197
C -2.52749 13.77460 -27.11665
C  1.52167 13.22238 -27.13978
C  4.02840 17.84985 -27.08112
C  1.26995 20.87951 -27.13846
C -2.73015 20.03662 -27.11804
C -4.02844 16.15017 -27.08113
C -1.26998 13.12050 -27.13836
C  2.72998 13.96352 -27.11801
C  3.78975 18.53635 -25.86450
C  0.57236 21.03690 -25.90180
C -3.20790 19.51253 -25.88075
C -3.78976 15.46376 -25.86444
C -0.57241 12.96299 -25.90173
C  3.20773 14.48761 -25.88074
C  3.03617 19.73368 -25.87883
C -0.84159 20.98567 -25.90188
C -3.88023 18.26765 -25.86541
C -3.03618 14.26643 -25.87878
C  0.84150 13.01437 -25.90188
C  3.87998 15.73246 -25.86537
C  4.00054 16.41833 -24.63705
C  2.50030 20.17496 -24.64569
C -1.48693 20.75612 -24.65653
C -4.00067 17.58168 -24.63705
C -2.50037 13.82498 -24.64566
C  1.48686 13.24378 -24.65650
C  3.95258 17.85881 -24.63645
C  1.22663 20.85178 -24.65437
C -2.71012 19.99114 -24.64602
C -3.95256 16.14121 -24.63635
C -1.22667 13.14818 -24.65431
C  2.71001 14.00890 -24.64604
C  3.77178 18.52390 -23.39987
C  0.56616 21.02841 -23.39987
C -3.20563 19.50451 -23.39987
C -3.77178 15.47610 -23.39987
C -0.56616 12.97159 -23.39987
C  3.20563 14.49549 -23.39987
C  3.02311 19.72202 -23.39987
C -0.84579 20.97910 -23.39987
C -3.86890 18.25708 -23.39987
C -3.02311 14.27798 -23.39987
C  0.84579 13.02090 -23.39987
C  3.86890 15.74292 -23.39987
C 28.02841 -17.56616 -78.71304
C 26.50451 -13.79437 -78.71304
C 22.47610 -13.22822 -78.71304
C 19.97159 -16.43384 -78.71304
C 21.49549 -20.20563 -78.71304
C 25.52390 -20.77178 -78.71304
C 27.97910 -16.15422 -78.71304
C 25.25708 -13.13110 -78.71304
C 21.27798 -13.97689 -78.71304
C 20.02090 -17.84579 -78.71304
C 22.74292 -20.86890 -78.71304
C 26.72202 -20.02311 -78.71304
C 27.87834 -15.41215 -77.54956
C 24.54990 -12.92586 -77.51467
C 20.80122 -14.45308 -77.48466
C 20.12156 -18.58796 -77.54962
C 23.45008 -21.07404 -77.51468
C 27.19890 -19.54687 -77.48470
C 27.12016 -14.20816 -77.53864
C 23.11936 -13.03063 -77.47079
C 20.07201 -15.68827 -77.54201
C 20.87993 -19.79178 -77.53857
C 24.88068 -20.96924 -77.47079
C 27.92802 -18.31166 -77.54198
C 28.12131 -17.56421 -76.33512
C 26.56421 -13.72530 -76.30664
C 22.47485 -13.23222 -76.23231
C 19.87868 -16.43578 -76.33524
C 21.43573 -20.27459 -76.30647
C 25.52519 -20.76772 -76.23232
C 28.09238 -16.13731 -76.33839
C 25.28705 -13.09160 -76.28525
C 21.26525 -13.96300 -76.24984
C 19.90752 -17.86264 -76.33849
C 22.71304 -20.90839 -76.28515
C 26.73484 -20.03694 -76.25004
C 27.86768 -15.43883 -75.11544
C 24.59423 -12.99502 -75.02748
C 20.75794 -14.51189 -75.04700
C 20.13227 -18.56112 -75.11552
C 23.40571 -21.00500 -75.02738
C 27.24219 -19.48811 -75.04706
C 27.09659 -14.24463 -75.08519
C 23.17810 -13.06048 -75.00354
C 20.05864 -15.74450 -75.10133
C 20.90347 -19.75538 -75.08510
C 24.82187 -20.93960 -75.00356
C 27.94144 -18.25534 -75.10123
C 28.14494 -17.54681 -73.89695
C 26.56947 -13.79632 -73.83648
C 22.49871 -13.31164 -73.77667
C 19.85509 -16.45322 -73.89708
C 21.43054 -20.20357 -73.83637
C 25.50124 -20.68843 -73.77680
C 28.10931 -16.12806 -73.90358
C 25.28951 -13.18179 -73.79458
C 21.26883 -14.02584 -73.81185
C 19.89064 -17.87189 -73.90371
C 22.71050 -20.81815 -73.79446
C 26.73113 -19.97411 -73.81187
C 27.93612 -15.44115 -72.67802
C 24.59875 -13.10904 -72.54111
C 20.73945 -14.54802 -72.60879
C 20.06377 -18.55889 -72.67821
C 23.40121 -20.89096 -72.54096
C 27.26050 -19.45197 -72.60878
C 27.13130 -14.27680 -72.62406
C 23.18162 -13.17563 -72.53200
C 20.00026 -15.75608 -72.67280
C 20.86887 -19.72312 -72.62402
C 24.81840 -20.82457 -72.53200
C 27.99956 -18.24388 -72.67269
C 28.26404 -17.54370 -71.47783
C 19.73595 -16.45639 -71.47794
C 28.23332 -16.12946 -71.48085
C 19.76675 -17.87064 -71.48095
C 26.59668 -13.86871 -71.36331
C 21.40337 -20.13127 -71.36324
C 26.75320 -19.90132 -71.35462
C 21.24680 -14.09878 -71.35461
C 25.49946 -20.56292 -71.30295
C 22.50058 -13.43725 -71.30297
C 25.29452 -13.31014 -71.30738
C 22.70545 -20.68986 -71.30722
C 28.14544 -18.23735 -70.25082
C 19.85456 -15.76278 -70.25094
C 28.08037 -15.44805 -70.25147
C 19.91959 -18.55191 -70.25155
C 27.33416 -19.39712 -70.16264
C 20.66585 -14.60300 -70.16268
C 27.20383 -14.33714 -70.16678
C 20.79605 -19.66292 -70.16672
C 23.39477 -20.70955 -70.04969
C 24.60539 -13.29038 -70.04976
C 24.81940 -20.64660 -70.04713
C 23.18075 -13.35354 -70.04717
C 28.50760 -17.54338 -69.07852
C 19.49240 -16.45667 -69.07868
C 28.47328 -16.12842 -69.07948
C 19.52680 -17.87164 -69.07963
C 26.82566 -19.78418 -68.88812
C 21.17447 -14.21599 -68.88808
C 26.66488 -13.99647 -68.88899
C 21.33515 -20.00354 -68.88899
C 25.32168 -13.51211 -68.82914
C 22.67842 -20.48777 -68.82906
C 25.52276 -20.37065 -68.82984
C 22.47737 -13.62944 -68.82985
C 19.56965 -15.77005 -67.84360
C 28.43025 -18.22987 -67.84346
C 19.64283 -18.54698 -67.84241
C 28.35719 -15.45297 -67.84240
C 27.51208 -19.31178 -67.72361
C 20.48781 -14.68828 -67.72378
C 27.37429 -14.43049 -67.72250
C 20.62574 -19.56944 -67.72251
C 23.37521 -20.39294 -67.58078
C 24.62492 -13.60679 -67.58078
C 23.17248 -13.66167 -67.57993
C 24.82768 -20.33809 -67.57984
C 28.87134 -16.11995 -66.70050
C 19.12864 -17.88000 -66.70062
C 28.90994 -17.53977 -66.70047
C 19.08994 -16.46025 -66.70054
C 26.99619 -19.56868 -66.41794
C 21.00373 -14.43129 -66.41811
C 21.16499 -19.77753 -66.41713
C 26.83514 -14.22234 -66.41707
C 25.57624 -19.91689 -66.41944
C 22.42371 -14.08307 -66.41956
C 25.39449 -13.97934 -66.41883
C 22.60554 -20.02037 -66.41890
C 28.88231 -18.21248 -65.44983
C 19.11764 -15.78758 -65.44991
C 28.80315 -15.45200 -65.44909
C 19.19691 -18.54795 -65.44916
C 27.83998 -19.18401 -65.29749
C 20.16002 -14.81601 -65.29760
C 23.36669 -19.32098 -65.46400
C 24.63329 -14.67901 -65.46409
C 23.22766 -14.72482 -65.46144
C 24.77228 -19.27524 -65.46126
C 27.69809 -14.55387 -65.29568
C 20.30197 -19.44615 -65.29578
C 18.58972 -17.89634 -64.30378
C 18.54805 -16.47356 -64.30410
C 29.41021 -16.10374 -64.30380
C 29.45184 -17.52644 -64.30409
C 25.25568 -15.68345 -64.64481
C 22.74435 -18.31664 -64.64481
C 25.33207 -18.23483 -64.64076
C 22.66798 -15.76514 -64.64089
C 24.68529 -16.97777 -64.72169
C 23.31482 -17.02230 -64.72173
C 20.53587 -14.80370 -63.88726
C 27.46423 -19.19631 -63.88711
C 20.68463 -19.42415 -63.88791
C 27.31544 -14.57596 -63.88783
C 21.70154 -15.54786 -63.66656
C 26.29855 -18.45222 -63.66647
C 21.79485 -18.59805 -63.67054
C 26.20511 -15.40194 -63.67042
C 18.48469 -15.82643 -63.01361
C 29.51533 -18.17354 -63.01369
C 18.57031 -18.54576 -63.01310
C 29.42962 -15.45426 -63.01316
C 19.57693 -14.93831 -62.81515
C 28.42323 -19.06175 -62.81511
C 19.72108 -19.35621 -62.81438
C 28.27891 -14.64379 -62.81424
C 21.78310 -16.36904 -62.49089
C 26.21702 -17.63106 -62.49090
C 21.82702 -17.77662 -62.49268
C 26.17302 -16.22349 -62.49260
C 30.04315 -17.51022 -61.83576
C 17.95684 -16.48979 -61.83571
C 29.99659 -16.08181 -61.83503
C 18.00335 -17.91828 -61.83505
C 27.89480 -19.03501 -61.47317
C 20.10535 -14.96513 -61.47314
C 27.74973 -14.70795 -61.47406
C 20.25034 -19.29210 -61.47414
C 26.69674 -18.27992 -61.32066
C 21.30339 -15.72022 -61.32062
C 26.60523 -15.54229 -61.32241
C 21.39492 -18.45788 -61.32238
C 29.95370 -18.14415 -60.53075
C 18.04631 -15.85592 -60.53071
C 29.86209 -15.45387 -60.53026
C 18.13789 -18.54625 -60.53027
C 28.79402 -18.95967 -60.35887
C 19.20605 -15.04040 -60.35895
C 28.64904 -14.72096 -60.35800
C 19.35106 -19.27908 -60.35805
C 26.45923 -17.62972 -60.09079
C 21.54065 -16.37043 -60.09077
C 26.40939 -16.20587 -60.09166
C 21.59076 -17.79429 -60.09164
C 17.57235 -16.50796 -59.32055
C 30.42760 -17.49204 -59.32054
C 17.62189 -17.93038 -59.31973
C 30.37805 -16.06964 -59.31969
C 19.79153 -15.05254 -59.04929
C 28.20843 -18.94754 -59.04917
C 19.93743 -19.22826 -59.04920
C 28.06263 -14.77178 -59.04910
C 21.03262 -15.73350 -58.92874
C 26.96724 -18.26660 -58.92873
C 21.12902 -18.46393 -58.92903
C 26.87098 -15.53611 -58.92902
C 30.24748 -18.11978 -58.01600
C 17.75245 -15.88027 -58.01604
C 30.15259 -15.45393 -58.01578
C 17.84743 -18.54610 -58.01580
C 18.93716 -15.10187 -57.89539
C 29.06277 -18.89814 -57.89532
C 19.08437 -19.23922 -57.89405
C 28.91572 -14.76082 -57.89395
C 21.31194 -16.37851 -57.69546
C 26.68809 -17.62142 -57.69550
C 21.36255 -17.79994 -57.69563
C 26.63750 -16.20006 -57.69558
C 30.68845 -17.48311 -56.78584
C 17.31155 -16.51699 -56.78581
C 30.63710 -16.05495 -56.78482
C 17.36291 -17.94513 -56.78481
C 28.43312 -18.92355 -56.60872
C 19.56687 -15.07643 -56.60877
C 28.28491 -14.77881 -56.60715
C 19.71521 -19.22118 -56.60720
C 27.17258 -18.25872 -56.52476
C 20.82739 -15.74121 -56.52471
C 27.07409 -15.53118 -56.52367
C 20.92597 -18.46873 -56.52360
C 30.44041 -18.11065 -55.49958
C 17.55957 -15.88939 -55.49951
C 17.65606 -18.55474 -55.49816
C 30.34394 -15.44544 -55.49820
C 29.24436 -18.88231 -55.42920
C 18.75565 -15.11770 -55.42918
C 29.09506 -14.76220 -55.42618
C 18.90497 -19.23791 -55.42616
C 26.80105 -16.19513 -55.30272
C 21.19890 -17.80488 -55.30263
C 26.85350 -17.61789 -55.30337
C 21.14648 -16.38211 -55.30329
C 17.22671 -17.94722 -54.24600
C 30.77334 -16.05293 -54.24602
C 17.17478 -16.52626 -54.24722
C 30.82523 -17.47385 -54.24718
C 19.57961 -19.21206 -54.15817
C 28.42031 -14.78809 -54.15821
C 19.42936 -15.09284 -54.16167
C 28.57066 -18.90713 -54.16164
C 20.78720 -18.46562 -54.11508
C 27.21275 -15.53452 -54.11511
C 20.68812 -15.74925 -54.11764
C 27.31190 -18.25074 -54.11772
C 30.53472 -18.10814 -52.96953
C 17.46528 -15.89188 -52.96959
C 30.43636 -15.44415 -52.96630
C 17.56367 -18.55587 -52.96624
C 18.66347 -15.11985 -52.94730
C 29.33647 -18.88016 -52.94727
C 29.18498 -14.76169 -52.94265
C 18.81497 -19.23845 -52.94265
C 21.11001 -17.80409 -52.90160
C 26.89004 -16.19607 -52.90167
C 21.05798 -16.38111 -52.90267
C 26.94214 -17.61900 -52.90269
C 30.87896 -17.47797 -51.70652
C 17.12095 -16.52202 -51.70649
C 28.61669 -18.91839 -51.70816
C 19.38337 -15.08168 -51.70821
C 27.25133 -15.53261 -51.70352
C 20.74880 -18.46747 -51.70334
C 30.82674 -16.05073 -51.70469
C 17.17331 -17.94927 -51.70467
C 27.35149 -18.25987 -51.70708
C 20.64856 -15.74020 -51.70711
C 28.46415 -14.78136 -51.70321
C 19.53596 -19.21876 -51.70321
C 21.10672 -17.79757 -50.50622
C 26.89337 -16.20250 -50.50637
C 21.05525 -16.37580 -50.50742
C 26.94483 -17.62421 -50.50747
C 18.66236 -15.11462 -50.46888
C 29.33771 -18.88534 -50.46885
C 29.18624 -14.76571 -50.46393
C 18.81396 -19.23439 -50.46385
C 30.43653 -15.44782 -50.44101
C 17.56357 -18.55228 -50.44096
C 30.53404 -18.11244 -50.44476
C 17.46603 -15.88764 -50.44472
C 20.78497 -18.45661 -49.29182
C 27.21505 -15.54353 -49.29190
C 20.68633 -15.73795 -49.29477
C 27.31381 -18.26205 -49.29477
C 19.42696 -15.08056 -49.25342
C 28.57318 -18.91940 -49.25337
C 19.57809 -19.20570 -49.24851
C 28.42195 -14.79437 -49.24862
C 17.17477 -16.51752 -49.16448
C 30.82545 -17.48261 -49.16455
C 17.22622 -17.93970 -49.16314
C 30.77389 -16.06039 -49.16330
C 26.85707 -17.63170 -48.10794
C 21.14299 -16.36832 -48.10794
C 26.80577 -16.20915 -48.10698
C 21.19419 -17.79092 -48.10698
C 18.75367 -15.10360 -47.98534
C 29.24645 -18.89651 -47.98532
C 29.09618 -14.77180 -47.98157
C 18.90372 -19.22829 -47.98150
C 17.55885 -15.87771 -47.91360
C 30.44128 -18.12228 -47.91368
C 30.34461 -15.45589 -47.91096
C 17.65532 -18.54418 -47.91087
C 27.17566 -18.27424 -46.88605
C 20.82428 -15.72584 -46.88602
C 27.07660 -15.54586 -46.88495
C 20.92325 -18.45419 -46.88503
C 28.43584 -18.93858 -46.80322
C 19.56419 -15.06142 -46.80314
C 28.28505 -14.79171 -46.80053
C 19.71491 -19.20836 -46.80054
C 30.68757 -17.49561 -46.62474
C 17.31242 -16.50446 -46.62470
C 30.63680 -16.06809 -46.62440
C 17.36314 -17.93184 -46.62440
C 21.30985 -16.36224 -45.71512
C 26.69007 -17.63782 -45.71516
C 21.36107 -17.78493 -45.71480
C 26.63886 -16.21511 -45.71474
C 18.93579 -15.08649 -45.51553
C 29.06420 -18.91350 -45.51557
C 19.08340 -19.22715 -45.51477
C 28.91652 -14.77280 -45.51475
C 30.24888 -18.13318 -45.39422
C 17.75111 -15.86686 -45.39421
C 17.84596 -18.53346 -45.39360
C 30.15405 -15.46650 -45.39363
C 21.03062 -15.71903 -44.48133
C 26.96939 -18.28103 -44.48140
C 21.12702 -18.44826 -44.48167
C 26.87304 -15.55185 -44.48166
C 19.78945 -15.03903 -44.36089
C 28.21055 -18.96113 -44.36089
C 19.93666 -19.21390 -44.36079
C 28.06331 -14.78611 -44.36077
C 17.57251 -16.49501 -44.08984
C 30.42756 -17.50496 -44.08987
C 17.62179 -17.91724 -44.09046
C 30.37825 -16.08275 -44.09051
C 26.46008 -17.64369 -43.31859
C 21.53987 -16.35639 -43.31852
C 26.41135 -16.22053 -43.31765
C 21.58877 -17.77953 -43.31766
C 28.79519 -18.97150 -43.04925
C 19.20475 -15.02864 -43.04925
C 28.65008 -14.73315 -43.05127
C 19.34989 -19.26688 -43.05122
C 29.95403 -18.15595 -42.87788
C 18.04603 -15.84410 -42.87779
C 29.86255 -15.46625 -42.87884
C 18.13747 -18.53374 -42.87875
C 26.69648 -18.29257 -42.08839
C 21.30351 -15.70755 -42.08840
C 26.60601 -15.55360 -42.08894
C 21.39407 -18.44647 -42.08896
C 27.89591 -19.04798 -41.93486
C 20.10406 -14.95213 -41.93492
C 27.75081 -14.71800 -41.93640
C 20.24920 -19.28211 -41.93637
C 30.04470 -17.52265 -41.57276
C 17.95530 -16.47735 -41.57269
C 29.99830 -16.09254 -41.57385
C 18.00164 -17.90754 -41.57377
C 21.78103 -16.36043 -40.91908
C 26.21898 -17.63976 -40.91905
C 21.82600 -17.76746 -40.91817
C 26.17407 -16.23273 -40.91827
C 19.57603 -14.92834 -40.59259
C 28.42406 -19.07180 -40.59244
C 19.71943 -19.34615 -40.59613
C 28.28060 -14.65392 -40.59610
C 18.48348 -15.81533 -40.39468
C 29.51657 -18.18473 -40.39456
C 18.56978 -18.53469 -40.39633
C 29.43020 -15.46545 -40.39639
C 21.69959 -15.54167 -39.73996
C 26.30054 -18.45839 -39.73996
C 21.79489 -18.59299 -39.74064
C 26.20516 -15.40709 -39.74065
C 20.53538 -14.79623 -39.51926
C 27.46467 -19.20389 -39.51920
C 20.68356 -19.41521 -39.52197
C 27.31649 -14.58483 -39.52185
C 24.68432 -16.97923 -38.69381
C 23.31572 -17.02078 -38.69377
C 25.25462 -15.68404 -38.76708
C 22.74533 -18.31599 -38.76702
C 25.33364 -18.23669 -38.76772
C 22.66645 -15.76326 -38.76760
C 18.54608 -16.46327 -39.10271
C 29.45395 -17.53682 -39.10264
C 18.59026 -17.88546 -39.10352
C 29.40976 -16.11461 -39.10357
C 27.84186 -19.19455 -38.10901
C 20.15809 -14.80543 -38.10903
C 23.22519 -14.72900 -37.93992
C 24.77484 -19.27090 -37.94001
C 23.36633 -19.31529 -37.94046
C 24.63369 -14.68468 -37.94046
C 27.69559 -14.56241 -38.11227
C 20.30454 -19.43776 -38.11238
C 28.88694 -18.22196 -37.95637
C 19.11298 -15.77815 -37.95639
C 28.80234 -15.46358 -37.95844
C 19.19776 -18.53651 -37.95843
C 22.42213 -14.08251 -36.98607
C 25.57785 -19.91746 -36.98612
C 25.39295 -13.98580 -36.98732
C 22.60714 -20.01428 -36.98739
C 20.99908 -14.42297 -36.98927
C 27.00086 -19.57697 -36.98926
C 21.16520 -19.76910 -36.99168
C 26.83493 -14.23102 -36.99163
C 19.12963 -17.87050 -36.70681
C 28.87040 -16.12964 -36.70684
C 19.08738 -16.45034 -36.70662
C 28.91263 -17.54977 -36.70663
C 23.16816 -13.65728 -35.82458
C 24.83191 -20.34276 -35.82462
C 23.37906 -20.39198 -35.82583
C 24.62099 -13.60805 -35.82568
C 27.51908 -19.32352 -35.68106
C 20.48090 -14.67639 -35.68102
C 27.37066 -14.44186 -35.68313
C 20.62941 -19.55820 -35.68322
C 19.64644 -18.53577 -35.56279
C 28.35367 -15.46434 -35.56280
C 19.56480 -15.75911 -35.56154
C 28.43529 -18.24091 -35.56155
C 25.31458 -13.51653 -34.57766
C 22.68551 -20.48346 -34.57778
C 25.52862 -20.38245 -34.57613
C 22.47140 -13.61758 -34.57615
C 26.83628 -19.79919 -34.51671
C 21.16373 -14.20079 -34.51668
C 26.65938 -14.00785 -34.51873
C 21.34072 -19.99207 -34.51882
C 28.46980 -16.13933 -34.32616
C 19.53032 -17.86073 -34.32613
C 28.51090 -17.55716 -34.32628
C 19.48925 -16.44289 -34.32624
C 23.40337 -20.70998 -33.35944
C 24.59663 -13.29006 -33.35944
C 23.17152 -13.34194 -33.35852
C 24.82846 -20.65809 -33.35850
C 27.34449 -19.41615 -33.24092
C 20.65552 -14.58392 -33.24090
C 27.19163 -14.35305 -33.24165
C 20.80852 -19.64686 -33.24167
C 28.06959 -15.46308 -33.15571
C 19.93042 -18.53694 -33.15563
C 28.15159 -18.25390 -33.15514
C 19.84844 -15.74617 -33.15505
C 25.51132 -20.58463 -32.09897
C 22.48862 -13.41545 -32.09895
C 25.28185 -13.31261 -32.09940
C 22.71817 -20.68746 -32.09940
C 26.76656 -19.92476 -32.04506
C 21.23336 -14.07527 -32.04503
C 26.58077 -13.88254 -32.04590
C 21.41926 -20.11756 -32.04590
C 28.26516 -17.56139 -31.92540
C 19.73486 -16.43873 -31.92532
C 28.22315 -16.14603 -31.92517
C 19.77693 -17.85406 -31.92506
C 28.00347 -18.26447 -30.73289
C 24.83426 -20.84587 -30.86926
C 20.88893 -19.70741 -30.78838
C 19.99660 -15.73566 -30.73284
C 23.16570 -13.15422 -30.86922
C 27.11105 -14.29281 -30.78844
C 27.27081 -19.48007 -30.78876
C 23.41361 -20.89813 -30.86944
C 20.08085 -18.54089 -30.73249
C 20.72921 -14.52006 -30.78871
C 24.58634 -13.10197 -30.86944
C 27.91919 -15.45930 -30.73253
C 28.13311 -17.56511 -29.50942
C 26.54717 -13.80764 -29.57948
C 22.48371 -13.28536 -29.61764
C 19.86691 -16.43501 -29.50940
C 21.45278 -20.19247 -29.57940
C 25.51622 -20.71466 -29.61768
C 28.09115 -16.14828 -29.50853
C 25.27383 -13.18324 -29.61693
C 21.25755 -13.99788 -29.57992
C 19.90884 -17.85185 -29.50853
C 22.72609 -20.81685 -29.61692
C 26.74242 -20.00222 -29.57994
C 27.83877 -15.45763 -28.30102
C 24.58001 -12.99337 -28.38239
C 20.76532 -14.48884 -28.33474
C 20.16118 -18.54245 -28.30101
C 23.41991 -21.00657 -28.38235
C 27.23456 -19.51118 -28.33473
C 27.06973 -14.26351 -28.33315
C 23.16020 -13.04565 -28.38238
C 20.07633 -15.73053 -28.30180
C 20.93025 -19.73655 -28.33312
C 24.83971 -20.95426 -28.38242
C 27.92366 -18.26952 -28.30176
C 28.07151 -17.56695 -27.08192
C 26.52747 -13.77455 -27.11671
C 22.47819 -13.22225 -27.13976
C 19.92843 -16.43303 -27.08197
C 21.47251 -20.22540 -27.11665
C 25.52167 -20.77762 -27.13978
C 28.02840 -16.15015 -27.08112
C 25.26995 -13.12049 -27.13846
C 21.26985 -13.96338 -27.11804
C 19.97156 -17.84983 -27.08113
C 22.73002 -20.87950 -27.13836
C 26.72998 -20.03648 -27.11801
C 27.78975 -15.46365 -25.86450
C 24.57236 -12.96310 -25.90180
C 20.79210 -14.48747 -25.88075
C 20.21024 -18.53624 -25.86444
C 23.42759 -21.03701 -25.90173
C 27.20773 -19.51239 -25.88074
C 27.03617 -14.26632 -25.87883
C 23.15841 -13.01433 -25.90188
C 20.11977 -15.73235 -25.86541
C 20.96382 -19.73357 -25.87878
C 24.84150 -20.98563 -25.90188
C 27.87998 -18.26754 -25.86537
C 28.00054 -17.58167 -24.63705
C 26.50030 -13.82504 -24.64569
C 22.51307 -13.24388 -24.65653
C 19.99933 -16.41832 -24.63705
C 21.49963 -20.17502 -24.64566
C 25.48686 -20.75622 -24.65650
C 27.95258 -16.14119 -24.63645
C 25.22663 -13.14822 -24.65437
C 21.28988 -14.00886 -24.64602
C 20.04744 -17.85879 -24.63635
C 22.77333 -20.85182 -24.65431
C 26.71001 -19.99110 -24.64604
C 27.77178 -15.47610 -23.39987
C 24.56616 -12.97159 -23.39987
C 20.79437 -14.49549 -23.39987
C 20.22822 -18.52390 -23.39987
C 23.43384 -21.02841 -23.39987
C 27.20563 -19.50451 -23.39987
C 27.02311 -14.27798 -23.39987
C 23.15421 -13.02090 -23.39987
C 20.13110 -15.74292 -23.39987
C 20.97689 -19.72202 -23.39987
C 24.84579 -20.97910 -23.39987
C 27.86890 -18.25708 -23.39987
C 28.02841 -0.56616 -78.71304
C 26.50451  3.20563 -78.71304
C 22.47610  3.77178 -78.71304
C 19.97159  0.56616 -78.71304
C 21.49549 -3.20563 -78.71304
C 25.52390 -3.77178 -78.71304
C 27.97910  0.84578 -78.71304
C 25.25708  3.86890 -78.71304
C 21.27798  3.02311 -78.71304
C 20.02090 -0.84579 -78.71304
C 22.74292 -3.86890 -78.71304
C 26.72202 -3.02311 -78.71304
C 27.87834  1.58785 -77.54956
C 24.54990  4.07414 -77.51467
C 20.80122  2.54692 -77.48466
C 20.12156 -1.58796 -77.54962
C 23.45008 -4.07404 -77.51468
C 27.19890 -2.54687 -77.48470
C 27.12016  2.79184 -77.53864
C 23.11936  3.96937 -77.47079
C 20.07201  1.31173 -77.54201
C 20.87993 -2.79178 -77.53857
C 24.88068 -3.96924 -77.47079
C 27.92802 -1.31166 -77.54198
C 28.12131 -0.56421 -76.33512
C 26.56421  3.27470 -76.30664
C 22.47485  3.76778 -76.23231
C 19.87868  0.56422 -76.33524
C 21.43573 -3.27459 -76.30647
C 25.52519 -3.76772 -76.23232
C 28.09238  0.86269 -76.33839
C 25.28705  3.90840 -76.28525
C 21.26525  3.03700 -76.24984
C 19.90752 -0.86264 -76.33849
C 22.71304 -3.90839 -76.28515
C 26.73484 -3.03694 -76.25004
C 27.86768  1.56117 -75.11544
C 24.59423  4.00498 -75.02748
C 20.75794  2.48811 -75.04700
C 20.13227 -1.56112 -75.11552
C 23.40571 -4.00500 -75.02738
C 27.24219 -2.48811 -75.04706
C 27.09659  2.75537 -75.08519
C 23.17810  3.93952 -75.00354
C 20.05864  1.25550 -75.10133
C 20.90347 -2.75538 -75.08510
C 24.82187 -3.93960 -75.00356
C 27.94144 -1.25534 -75.10123
C 28.14494 -0.54681 -73.89695
C 26.56947  3.20368 -73.83648
C 22.49871  3.68836 -73.77667
C 19.85509  0.54678 -73.89708
C 21.43054 -3.20357 -73.83637
C 25.50124 -3.68843 -73.77680
C 28.10931  0.87194 -73.90358
C 25.28951  3.81821 -73.79458
C 21.26883  2.97416 -73.81185
C 19.89064 -0.87189 -73.90371
C 22.71050 -3.81815 -73.79446
C 26.73113 -2.97411 -73.81187
C 27.93612  1.55885 -72.67802
C 24.59875  3.89096 -72.54111
C 20.73945  2.45198 -72.60879
C 20.06377 -1.55889 -72.67821
C 23.40121 -3.89096 -72.54096
C 27.26050 -2.45197 -72.60878
C 27.13130  2.72320 -72.62406
C 23.18162  3.82437 -72.53200
C 20.00026  1.24392 -72.67280
C 20.86887 -2.72312 -72.62402
C 24.81840 -3.82457 -72.53200
C 27.99956 -1.24388 -72.67269
C 28.26404 -0.54370 -71.47783
C 19.73595  0.54361 -71.47794
C 28.23332  0.87054 -71.48085
C 19.76675 -0.87064 -71.48095
C 26.59668  3.13129 -71.36331
C 21.40337 -3.13127 -71.36324
C 26.75320 -2.90132 -71.35462
C 21.24680  2.90122 -71.35461
C 25.49946 -3.56292 -71.30295
C 22.50058  3.56275 -71.30297
C 25.29452  3.68986 -71.30738
C 22.70545 -3.68986 -71.30722
C 28.14544 -1.23735 -70.25082
C 19.85456  1.23722 -70.25094
C 28.08037  1.55195 -70.25147
C 19.91959 -1.55191 -70.25155
C 27.33416 -2.39712 -70.16264
C 20.66585  2.39700 -70.16268
C 27.20383  2.66286 -70.16678
C 20.79605 -2.66292 -70.16672
C 23.39477 -3.70955 -70.04969
C 24.60539  3.70962 -70.04976
C 24.81940 -3.64660 -70.04713
C 23.18075  3.64646 -70.04717
C 28.50760 -0.54338 -69.07852
C 19.49240  0.54333 -69.07868
C 28.47328  0.87158 -69.07948
C 19.52680 -0.87164 -69.07963
C 26.82566 -2.78418 -68.88812
C 21.17447  2.78401 -68.88808
C 26.66488  3.00353 -68.88899
C 21.33515 -3.00354 -68.88899
C 25.32168  3.48789 -68.82914
C 22.67842 -3.48777 -68.82906
C 25.52276 -3.37065 -68.82984
C 22.47737  3.37056 -68.82985
C 19.56965  1.22995 -67.84360
C 28.43025 -1.22987 -67.84346
C 19.64283 -1.54698 -67.84241
C 28.35719  1.54703 -67.84240
C 27.51208 -2.31178 -67.72361
C 20.48781  2.31172 -67.72378
C 27.37429  2.56951 -67.72250
C 20.62574 -2.56944 -67.72251
C 23.37521 -3.39294 -67.58078
C 24.62492  3.39321 -67.58078
C 23.17248  3.33833 -67.57993
C 24.82768 -3.33809 -67.57984
C 28.87134  0.88005 -66.70050
C 19.12864 -0.88000 -66.70062
C 28.90994 -0.53977 -66.70047
C 19.08994  0.53975 -66.70054
C 26.99619 -2.56868 -66.41794
C 21.00373  2.56871 -66.41811
C 21.16499 -2.77753 -66.41713
C 26.83514  2.77766 -66.41707
C 25.57624 -2.91689 -66.41944
C 22.42371  2.91693 -66.41956
C 25.39449  3.02066 -66.41883
C 22.60554 -3.02037 -66.41890
C 28.88231 -1.21248 -65.44983
C 19.11764  1.21242 -65.44991
C 28.80315  1.54800 -65.44909
C 19.19691 -1.54795 -65.44916
C 27.83998 -2.18401 -65.29749
C 20.16002  2.18399 -65.29760
C 23.36669 -2.32098 -65.46400
C 24.63329  2.32099 -65.46409
C 23.22766  2.27518 -65.46144
C 24.77228 -2.27524 -65.46126
C 27.69809  2.44613 -65.29568
C 20.30197 -2.44615 -65.29578
C 18.58972 -0.89634 -64.30378
C 18.54805  0.52644 -64.30410
C 29.41021  0.89626 -64.30380
C 29.45184 -0.52644 -64.30409
C 25.25568  1.31655 -64.64481
C 22.74435 -1.31664 -64.64481
C 25.33207 -1.23483 -64.64076
C 22.66798  1.23486 -64.64089
C 24.68529  0.02223 -64.72169
C 23.31482 -0.02230 -64.72173
C 20.53587  2.19630 -63.88726
C 27.46423 -2.19631 -63.88711
C 20.68463 -2.42415 -63.88791
C 27.31544  2.42404 -63.88783
C 21.70154  1.45214 -63.66656
C 26.29855 -1.45222 -63.66647
C 21.79485 -1.59805 -63.67054
C 26.20511  1.59806 -63.67042
C 18.48469  1.17357 -63.01361
C 29.51533 -1.17354 -63.01369
C 18.57031 -1.54576 -63.01310
C 29.42962  1.54574 -63.01316
C 19.57693  2.06169 -62.81515
C 28.42323 -2.06175 -62.81511
C 19.72108 -2.35621 -62.81438
C 28.27891  2.35621 -62.81424
C 21.78310  0.63096 -62.49089
C 26.21702 -0.63106 -62.49090
C 21.82702 -0.77662 -62.49268
C 26.17302  0.77651 -62.49260
C 30.04315 -0.51022 -61.83576
C 17.95684  0.51021 -61.83571
C 29.99659  0.91819 -61.83503
C 18.00335 -0.91828 -61.83505
C 27.89480 -2.03501 -61.47317
C 20.10535  2.03487 -61.47314
C 27.74973  2.29205 -61.47406
C 20.25034 -2.29210 -61.47414
C 26.69674 -1.27992 -61.32066
C 21.30339  1.27978 -61.32062
C 26.60523  1.45771 -61.32241
C 21.39492 -1.45788 -61.32238
C 29.95370 -1.14415 -60.53075
C 18.04631  1.14408 -60.53071
C 29.86209  1.54613 -60.53026
C 18.13789 -1.54625 -60.53027
C 28.79402 -1.95967 -60.35887
C 19.20605  1.95960 -60.35895
C 28.64904  2.27904 -60.35800
C 19.35106 -2.27908 -60.35805
C 26.45923 -0.62972 -60.09079
C 21.54065  0.62957 -60.09077
C 26.40939  0.79413 -60.09166
C 21.59076 -0.79429 -60.09164
C 17.57235  0.49204 -59.32055
C 30.42760 -0.49204 -59.32054
C 17.62189 -0.93038 -59.31973
C 30.37805  0.93036 -59.31969
C 19.79153  1.94746 -59.04929
C 28.20843 -1.94754 -59.04917
C 19.93743 -2.22826 -59.04920
C 28.06263  2.22822 -59.04910
C 21.03262  1.26650 -58.92874
C 26.96724 -1.26660 -58.92873
C 21.12902 -1.46393 -58.92903
C 26.87098  1.46389 -58.92902
C 30.24748 -1.11978 -58.01600
C 17.75245  1.11973 -58.01604
C 30.15259  1.54607 -58.01578
C 17.84743 -1.54610 -58.01580
C 18.93716  1.89813 -57.89539
C 29.06277 -1.89814 -57.89532
C 19.08437 -2.23922 -57.89405
C 28.91572  2.23918 -57.89395
C 21.31194  0.62149 -57.69546
C 26.68809 -0.62142 -57.69550
C 21.36255 -0.79994 -57.69563
C 26.63750  0.79994 -57.69558
C 30.68845 -0.48311 -56.78584
C 17.31155  0.48301 -56.78581
C 30.63710  0.94505 -56.78482
C 17.36291 -0.94513 -56.78481
C 28.43312 -1.92355 -56.60872
C 19.56687  1.92357 -56.60877
C 28.28491  2.22119 -56.60715
C 19.71521 -2.22118 -56.60720
C 27.17258 -1.25872 -56.52476
C 20.82739  1.25879 -56.52471
C 27.07409  1.46882 -56.52367
C 20.92597 -1.46873 -56.52360
C 30.44041 -1.11065 -55.49958
C 17.55957  1.11061 -55.49951
C 17.65606 -1.55474 -55.49816
C 30.34394  1.55456 -55.49820
C 29.24436 -1.88231 -55.42920
C 18.75565  1.88230 -55.42918
C 29.09506  2.23780 -55.42618
C 18.90497 -2.23791 -55.42616
C 26.80105  0.80487 -55.30272
C 21.19890 -0.80488 -55.30263
C 26.85350 -0.61789 -55.30337
C 21.14648  0.61789 -55.30329
C 17.22671 -0.94722 -54.24600
C 30.77334  0.94707 -54.24602
C 17.17478  0.47374 -54.24722
C 30.82523 -0.47385 -54.24718
C 19.57961 -2.21206 -54.15817
C 28.42031  2.21191 -54.15821
C 19.42936  1.90716 -54.16167
C 28.57066 -1.90713 -54.16164
C 20.78720 -1.46562 -54.11508
C 27.21275  1.46548 -54.11511
C 20.68812  1.25075 -54.11764
C 27.31190 -1.25074 -54.11772
C 30.53472 -1.10814 -52.96953
C 17.46528  1.10812 -52.96959
C 30.43636  1.55585 -52.96630
C 17.56367 -1.55587 -52.96624
C 18.66347  1.88015 -52.94730
C 29.33647 -1.88016 -52.94727
C 29.18498  2.23831 -52.94265
C 18.81497 -2.23845 -52.94265
C 21.11001 -0.80409 -52.90160
C 26.89004  0.80393 -52.90167
C 21.05798  0.61889 -52.90267
C 26.94214 -0.61900 -52.90269
C 30.87896 -0.47797 -51.70652
C 17.12095  0.47798 -51.70649
C 28.61669 -1.91839 -51.70816
C 19.38337  1.91832 -51.70821
C 27.25133  1.46739 -51.70352
C 20.74880 -1.46747 -51.70334
C 30.82674  0.94927 -51.70469
C 17.17331 -0.94927 -51.70467
C 27.35149 -1.25987 -51.70708
C 20.64856  1.25980 -51.70711
C 28.46415  2.21864 -51.70321
C 19.53596 -2.21876 -51.70321
C 21.10672 -0.79757 -50.50622
C 26.89337  0.79750 -50.50637
C 21.05525  0.62420 -50.50742
C 26.94483 -0.62421 -50.50747
C 18.66236  1.88538 -50.46888
C 29.33771 -1.88534 -50.46885
C 29.18624  2.23429 -50.46393
C 18.81396 -2.23439 -50.46385
C 30.43653  1.55218 -50.44101
C 17.56357 -1.55228 -50.44096
C 30.53404 -1.11244 -50.44476
C 17.46603  1.11236 -50.44472
C 20.78497 -1.45661 -49.29182
C 27.21505  1.45647 -49.29190
C 20.68633  1.26205 -49.29477
C 27.31381 -1.26205 -49.29477
C 19.42696  1.91944 -49.25342
C 28.57318 -1.91940 -49.25337
C 19.57809 -2.20570 -49.24851
C 28.42195  2.20563 -49.24862
C 17.17477  0.48248 -49.16448
C 30.82545 -0.48261 -49.16455
C 17.22622 -0.93970 -49.16314
C 30.77389  0.93961 -49.16330
C 26.85707 -0.63170 -48.10794
C 21.14299  0.63168 -48.10794
C 26.80577  0.79085 -48.10698
C 21.19419 -0.79092 -48.10698
C 18.75367  1.89640 -47.98534
C 29.24645 -1.89651 -47.98532
C 29.09618  2.22820 -47.98157
C 18.90372 -2.22829 -47.98150
C 17.55885  1.12229 -47.91360
C 30.44128 -1.12228 -47.91368
C 30.34461  1.54411 -47.91096
C 17.65532 -1.54418 -47.91087
C 27.17566 -1.27424 -46.88605
C 20.82428  1.27416 -46.88602
C 27.07660  1.45414 -46.88495
C 20.92325 -1.45419 -46.88503
C 28.43584 -1.93858 -46.80322
C 19.56419  1.93858 -46.80314
C 28.28505  2.20829 -46.80053
C 19.71491 -2.20836 -46.80054
C 30.68757 -0.49561 -46.62474
C 17.31242  0.49554 -46.62470
C 30.63680  0.93191 -46.62440
C 17.36314 -0.93184 -46.62440
C 21.30985  0.63776 -45.71512
C 26.69007 -0.63782 -45.71516
C 21.36107 -0.78493 -45.71480
C 26.63886  0.78489 -45.71474
C 18.93579  1.91351 -45.51553
C 29.06420 -1.91350 -45.51557
C 19.08340 -2.22715 -45.51477
C 28.91652  2.22720 -45.51475
C 30.24888 -1.13318 -45.39422
C 17.75111  1.13314 -45.39421
C 17.84596 -1.53346 -45.39360
C 30.15405  1.53350 -45.39363
C 21.03062  1.28097 -44.48133
C 26.96939 -1.28103 -44.48140
C 21.12702 -1.44826 -44.48167
C 26.87304  1.44815 -44.48166
C 19.78945  1.96097 -44.36089
C 28.21055 -1.96113 -44.36089
C 19.93666 -2.21390 -44.36079
C 28.06331  2.21389 -44.36077
C 17.57251  0.50499 -44.08984
C 30.42756 -0.50496 -44.08987
C 17.62179 -0.91724 -44.09046
C 30.37825  0.91725 -44.09051
C 26.46008 -0.64369 -43.31859
C 21.53987  0.64361 -43.31852
C 26.41135  0.77947 -43.31765
C 21.58877 -0.77953 -43.31766
C 28.79519 -1.97150 -43.04925
C 19.20475  1.97136 -43.04925
C 28.65008  2.26685 -43.05127
C 19.34989 -2.26688 -43.05122
C 29.95403 -1.15595 -42.87788
C 18.04603  1.15590 -42.87779
C 29.86255  1.53375 -42.87884
C 18.13747 -1.53374 -42.87875
C 26.69648 -1.29257 -42.08839
C 21.30351  1.29245 -42.08840
C 26.60601  1.44640 -42.08894
C 21.39407 -1.44647 -42.08896
C 27.89591 -2.04798 -41.93486
C 20.10406  2.04787 -41.93492
C 27.75081  2.28200 -41.93640
C 20.24920 -2.28211 -41.93637
C 30.04470 -0.52265 -41.57276
C 17.95530  0.52265 -41.57269
C 29.99830  0.90746 -41.57385
C 18.00164 -0.90754 -41.57377
C 21.78103  0.63957 -40.91908
C 26.21898 -0.63976 -40.91905
C 21.82600 -0.76746 -40.91817
C 26.17407  0.76727 -40.91827
C 19.57603  2.07166 -40.59259
C 28.42406 -2.07180 -40.59244
C 19.71943 -2.34615 -40.59613
C 28.28060  2.34608 -40.59610
C 18.48348  1.18467 -40.39468
C 29.51657 -1.18473 -40.39456
C 18.56978 -1.53469 -40.39633
C 29.43020  1.53455 -40.39639
C 21.69959  1.45833 -39.73996
C 26.30054 -1.45839 -39.73996
C 21.79489 -1.59299 -39.74064
C 26.20516  1.59291 -39.74065
C 20.53538  2.20377 -39.51926
C 27.46467 -2.20389 -39.51920
C 20.68356 -2.41521 -39.52197
C 27.31649  2.41517 -39.52185
C 24.68432  0.02077 -38.69381
C 23.31572 -0.02078 -38.69377
C 25.25462  1.31596 -38.76708
C 22.74533 -1.31599 -38.76702
C 25.33364 -1.23669 -38.76772
C 22.66645  1.23674 -38.76760
C 18.54608  0.53673 -39.10271
C 29.45395 -0.53682 -39.10264
C 18.59026 -0.88546 -39.10352
C 29.40976  0.88539 -39.10357
C 27.84186 -2.19455 -38.10901
C 20.15809  2.19457 -38.10903
C 23.22519  2.27100 -37.93992
C 24.77484 -2.27090 -37.94001
C 23.36633 -2.31529 -37.94046
C 24.63369  2.31532 -37.94046
C 27.69559  2.43759 -38.11227
C 20.30454 -2.43776 -38.11238
C 28.88694 -1.22196 -37.95637
C 19.11298  1.22185 -37.95639
C 28.80234  1.53642 -37.95844
C 19.19776 -1.53651 -37.95843
C 22.42213  2.91749 -36.98607
C 25.57785 -2.91746 -36.98612
C 25.39295  3.01420 -36.98732
C 22.60714 -3.01428 -36.98739
C 20.99908  2.57703 -36.98927
C 27.00086 -2.57697 -36.98926
C 21.16520 -2.76910 -36.99168
C 26.83493  2.76898 -36.99163
C 19.12963 -0.87050 -36.70681
C 28.87040  0.87036 -36.70684
C 19.08738  0.54966 -36.70662
C 28.91263 -0.54977 -36.70663
C 23.16816  3.34272 -35.82458
C 24.83191 -3.34276 -35.82462
C 23.37906 -3.39198 -35.82583
C 24.62099  3.39195 -35.82568
C 27.51908 -2.32352 -35.68106
C 20.48090  2.32361 -35.68102
C 27.37066  2.55814 -35.68313
C 20.62941 -2.55820 -35.68322
C 19.64644 -1.53577 -35.56279
C 28.35367  1.53566 -35.56280
C 19.56480  1.24089 -35.56154
C 28.43529 -1.24091 -35.56155
C 25.31458  3.48347 -34.57766
C 22.68551 -3.48346 -34.57778
C 25.52862 -3.38245 -34.57613
C 22.47140  3.38242 -34.57615
C 26.83628 -2.79919 -34.51671
C 21.16373  2.79921 -34.51668
C 26.65938  2.99215 -34.51873
C 21.34072 -2.99207 -34.51882
C 28.46980  0.86067 -34.32616
C 19.53032 -0.86073 -34.32613
C 28.51090 -0.55716 -34.32628
C 19.48925  0.55711 -34.32624
C 23.40337 -3.70998 -33.35944
C 24.59663  3.70994 -33.35944
C 23.17152  3.65806 -33.35852
C 24.82846 -3.65809 -33.35850
C 27.34449 -2.41615 -33.24092
C 20.65552  2.41608 -33.24090
C 27.19163  2.64695 -33.24165
C 20.80852 -2.64686 -33.24167
C 28.06959  1.53692 -33.15571
C 19.93042 -1.53694 -33.15563
C 28.15159 -1.25390 -33.15514
C 19.84844  1.25383 -33.15505
C 25.51132 -3.58463 -32.09897
C 22.48862  3.58455 -32.09895
C 25.28185  3.68739 -32.09940
C 22.71817 -3.68746 -32.09940
C 26.76656 -2.92476 -32.04506
C 21.23336  2.92473 -32.04503
C 26.58077  3.11746 -32.04590
C 21.41926 -3.11756 -32.04590
C 28.26516 -0.56139 -31.92540
C 19.73486  0.56127 -31.92532
C 28.22315  0.85397 -31.92517
C 19.77693 -0.85406 -31.92506
C 28.00347 -1.26447 -30.73289
C 24.83426 -3.84587 -30.86926
C 20.88893 -2.70741 -30.78838
C 19.99660  1.26434 -30.73284
C 23.16570  3.84578 -30.86922
C 27.11105  2.70719 -30.78844
C 27.27081 -2.48007 -30.78876
C 23.41361 -3.89813 -30.86944
C 20.08085 -1.54089 -30.73249
C 20.72921  2.47994 -30.78871
C 24.58634  3.89803 -30.86944
C 27.91919  1.54070 -30.73253
C 28.13311 -0.56511 -29.50942
C 26.54717  3.19236 -29.57948
C 22.48371  3.71464 -29.61764
C 19.86691  0.56499 -29.50940
C 21.45278 -3.19247 -29.57940
C 25.51622 -3.71466 -29.61768
C 28.09115  0.85172 -29.50853
C 25.27383  3.81676 -29.61693
C 21.25755  3.00212 -29.57992
C 19.90884 -0.85185 -29.50853
C 22.72609 -3.81685 -29.61692
C 26.74242 -3.00222 -29.57994
C 27.83877  1.54237 -28.30102
C 24.58001  4.00663 -28.38239
C 20.76532  2.51116 -28.33474
C 20.16118 -1.54245 -28.30101
C 23.41991 -4.00657 -28.38235
C 27.23456 -2.51118 -28.33473
C 27.06973  2.73649 -28.33315
C 23.16020  3.95435 -28.38238
C 20.07633  1.26947 -28.30180
C 20.93025 -2.73655 -28.33312
C 24.83971 -3.95426 -28.38242
C 27.92366 -1.26952 -28.30176
C 28.07151 -0.56695 -27.08192
C 26.52747  3.22545 -27.11671
C 22.47819  3.77775 -27.13976
C 19.92843  0.56697 -27.08197
C 21.47251 -3.22540 -27.11665
C 25.52167 -3.77762 -27.13978
C 28.02840  0.84985 -27.08112
C 25.26995  3.87951 -27.13846
C 21.26985  3.03662 -27.11804
C 19.97156 -0.84983 -27.08113
C 22.73002 -3.87950 -27.13836
C 26.72998 -3.03648 -27.11801
C 27.78975  1.53635 -25.86450
C 24.57236  4.03690 -25.90180
C 20.79210  2.51253 -25.88075
C 20.21024 -1.53624 -25.86444
C 23.42759 -4.03701 -25.90173
C 27.20773 -2.51239 -25.88074
C 27.03617  2.73368 -25.87883
C 23.15841  3.98567 -25.90188
C 20.11977  1.26765 -25.86541
C 20.96382 -2.73357 -25.87878
C 24.84150 -3.98563 -25.90188
C 27.87998 -1.26754 -25.86537
C 28.00054 -0.58167 -24.63705
C 26.50030  3.17496 -24.64569
C 22.51307  3.75612 -24.65653
C 19.99933  0.58168 -24.63705
C 21.49963 -3.17502 -24.64566
C 25.48686 -3.75622 -24.65650
C 27.95258  0.85881 -24.63645
C 25.22663  3.85178 -24.65437
C 21.28988  2.99114 -24.64602
C 20.04744 -0.85879 -24.63635
C 22.77333 -3.85182 -24.65431
C 26.71001 -2.99110 -24.64604
C 27.77178  1.52390 -23.39987
C 24.56616  4.02841 -23.39987
C 20.79437  2.50451 -23.39987
C 20.22822 -1.52390 -23.39987
C 23.43384 -4.02841 -23.39987
C 27.20563 -2.50451 -23.39987
C 27.02311  2.72202 -23.39987
C 23.15421  3.97910 -23.39987
C 20.13110  1.25708 -23.39987
C 20.97689 -2.72202 -23.39987
C 24.84579 -3.97910 -23.39987
C 27.86890 -1.25708 -23.39987
C 28.02841 16.43384 -78.71304
C 26.50451 20.20563 -78.71304
C 22.47610 20.77178 -78.71304
C 19.97159 17.56616 -78.71304
C 21.49549 13.79437 -78.71304
C 25.52390 13.22822 -78.71304
C 27.97910 17.84578 -78.71304
C 25.25708 20.86890 -78.71304
C 21.27798 20.02311 -78.71304
C 20.02090 16.15421 -78.71304
C 22.74292 13.13110 -78.71304
C 26.72202 13.97689 -78.71304
C 27.87834 18.58785 -77.54956
C 24.54990 21.07414 -77.51467
C 20.80122 19.54692 -77.48466
C 20.12156 15.41204 -77.54962
C 23.45008 12.92596 -77.51468
C 27.19890 14.45313 -77.48470
C 27.12016 19.79184 -77.53864
C 23.11936 20.96937 -77.47079
C 20.07201 18.31173 -77.54201
C 20.87993 14.20822 -77.53857
C 24.88068 13.03076 -77.47079
C 27.92802 15.68834 -77.54198
C 28.12131 16.43579 -76.33512
C 26.56421 20.27470 -76.30664
C 22.47485 20.76778 -76.23231
C 19.87868 17.56422 -76.33524
C 21.43573 13.72541 -76.30647
C 25.52519 13.23228 -76.23232
C 28.09238 17.86269 -76.33839
C 25.28705 20.90840 -76.28525
C 21.26525 20.03700 -76.24984
C 19.90752 16.13736 -76.33849
C 22.71304 13.09161 -76.28515
C 26.73484 13.96306 -76.25004
C 27.86768 18.56117 -75.11544
C 24.59423 21.00498 -75.02748
C 20.75794 19.48811 -75.04700
C 20.13227 15.43888 -75.11552
C 23.40571 12.99500 -75.02738
C 27.24219 14.51189 -75.04706
C 27.09659 19.75537 -75.08519
C 23.17810 20.93952 -75.00354
C 20.05864 18.25550 -75.10133
C 20.90347 14.24462 -75.08510
C 24.82187 13.06040 -75.00356
C 27.94144 15.74466 -75.10123
C 28.14494 16.45319 -73.89695
C 26.56947 20.20368 -73.83648
C 22.49871 20.68836 -73.77667
C 19.85509 17.54678 -73.89708
C 21.43054 13.79643 -73.83637
C 25.50124 13.31157 -73.77680
C 28.10931 17.87194 -73.90358
C 25.28951 20.81821 -73.79458
C 21.26883 19.97416 -73.81185
C 19.89064 16.12811 -73.90371
C 22.71050 13.18185 -73.79446
C 26.73113 14.02589 -73.81187
C 27.93612 18.55885 -72.67802
C 24.59875 20.89096 -72.54111
C 20.73945 19.45198 -72.60879
C 20.06377 15.44111 -72.67821
C 23.40121 13.10904 -72.54096
C 27.26050 14.54803 -72.60878
C 27.13130 19.72320 -72.62406
C 23.18162 20.82437 -72.53200
C 20.00026 18.24392 -72.67280
C 20.86887 14.27688 -72.62402
C 24.81840 13.17543 -72.53200
C 27.99956 15.75612 -72.67269
C 28.26404 16.45630 -71.47783
C 19.73595 17.54361 -71.47794
C 28.23332 17.87054 -71.48085
C 19.76675 16.12936 -71.48095
C 26.59668 20.13129 -71.36331
C 21.40337 13.86873 -71.36324
C 26.75320 14.09868 -71.35462
C 21.24680 19.90122 -71.35461
C 25.49946 13.43708 -71.30295
C 22.50058 20.56275 -71.30297
C 25.29452 20.68986 -71.30738
C 22.70545 13.31014 -71.30722
C 28.14544 15.76265 -70.25082
C 19.85456 18.23722 -70.25094
C 28.08037 18.55195 -70.25147
C 19.91959 15.44809 -70.25155
C 27.33416 14.60288 -70.16264
C 20.66585 19.39700 -70.16268
C 27.20383 19.66286 -70.16678
C 20.79605 14.33708 -70.16672
C 23.39477 13.29045 -70.04969
C 24.60539 20.70962 -70.04976
C 24.81940 13.35340 -70.04713
C 23.18075 20.64646 -70.04717
C 28.50760 16.45662 -69.07852
C 19.49240 17.54333 -69.07868
C 28.47328 17.87158 -69.07948
C 19.52680 16.12836 -69.07963
C 26.82566 14.21582 -68.88812
C 21.17447 19.78401 -68.88808
C 26.66488 20.00353 -68.88899
C 21.33515 13.99646 -68.88899
C 25.32168 20.48789 -68.82914
C 22.67842 13.51223 -68.82906
C 25.52276 13.62935 -68.82984
C 22.47737 20.37056 -68.82985
C 19.56965 18.22995 -67.84360
C 28.43025 15.77013 -67.84346
C 19.64283 15.45302 -67.84241
C 28.35719 18.54703 -67.84240
C 27.51208 14.68822 -67.72361
C 20.48781 19.31172 -67.72378
C 27.37429 19.56951 -67.72250
C 20.62574 14.43056 -67.72251
C 23.37521 13.60706 -67.58078
C 24.62492 20.39321 -67.58078
C 23.17248 20.33833 -67.57993
C 24.82768 13.66191 -67.57984
C 28.87134 17.88005 -66.70050
C 19.12864 16.12000 -66.70062
C 28.90994 16.46023 -66.70047
C 19.08994 17.53975 -66.70054
C 26.99619 14.43132 -66.41794
C 21.00373 19.56871 -66.41811
C 21.16499 14.22247 -66.41713
C 26.83514 19.77766 -66.41707
C 25.57624 14.08311 -66.41944
C 22.42371 19.91693 -66.41956
C 25.39449 20.02066 -66.41883
C 22.60554 13.97963 -66.41890
C 28.88231 15.78752 -65.44983
C 19.11764 18.21242 -65.44991
C 28.80315 18.54800 -65.44909
C 19.19691 15.45205 -65.44916
C 27.83998 14.81599 -65.29749
C 20.16002 19.18399 -65.29760
C 23.36669 14.67902 -65.46400
C 24.63329 19.32099 -65.46409
C 23.22766 19.27518 -65.46144
C 24.77228 14.72476 -65.46126
C 27.69809 19.44613 -65.29568
C 20.30197 14.55385 -65.29578
C 18.58972 16.10366 -64.30378
C 18.54805 17.52644 -64.30410
C 29.41021 17.89626 -64.30380
C 29.45184 16.47356 -64.30409
C 25.25568 18.31655 -64.64481
C 22.74435 15.68336 -64.64481
C 25.33207 15.76517 -64.64076
C 22.66798 18.23486 -64.64089
C 24.68529 17.02223 -64.72169
C 23.31482 16.97770 -64.72173
C 20.53587 19.19630 -63.88726
C 27.46423 14.80369 -63.88711
C 20.68463 14.57585 -63.88791
C 27.31544 19.42404 -63.88783
C 21.70154 18.45214 -63.66656
C 26.29855 15.54778 -63.66647
C 21.79485 15.40195 -63.67054
C 26.20511 18.59806 -63.67042
C 18.48469 18.17357 -63.01361
C 29.51533 15.82646 -63.01369
C 18.57031 15.45424 -63.01310
C 29.42962 18.54574 -63.01316
C 19.57693 19.06169 -62.81515
C 28.42323 14.93825 -62.81511
C 19.72108 14.64379 -62.81438
C 28.27891 19.35621 -62.81424
C 21.78310 17.63096 -62.49089
C 26.21702 16.36894 -62.49090
C 21.82702 16.22338 -62.49268
C 26.17302 17.77651 -62.49260
C 30.04315 16.48978 -61.83576
C 17.95684 17.51021 -61.83571
C 29.99659 17.91819 -61.83503
C 18.00335 16.08172 -61.83505
C 27.89480 14.96499 -61.47317
C 20.10535 19.03487 -61.47314
C 27.74973 19.29205 -61.47406
C 20.25034 14.70790 -61.47414
C 26.69674 15.72008 -61.32066
C 21.30339 18.27978 -61.32062
C 26.60523 18.45771 -61.32241
C 21.39492 15.54212 -61.32238
C 29.95370 15.85585 -60.53075
C 18.04631 18.14408 -60.53071
C 29.86209 18.54613 -60.53026
C 18.13789 15.45375 -60.53027
C 28.79402 15.04033 -60.35887
C 19.20605 18.95960 -60.35895
C 28.64904 19.27904 -60.35800
C 19.35106 14.72092 -60.35805
C 26.45923 16.37028 -60.09079
C 21.54065 17.62957 -60.09077
C 26.40939 17.79413 -60.09166
C 21.59076 16.20571 -60.09164
C 17.57235 17.49204 -59.32055
C 30.42760 16.50796 -59.32054
C 17.62189 16.06962 -59.31973
C 30.37805 17.93036 -59.31969
C 19.79153 18.94746 -59.04929
C 28.20843 15.05246 -59.04917
C 19.93743 14.77174 -59.04920
C 28.06263 19.22822 -59.04910
C 21.03262 18.26650 -58.92874
C 26.96724 15.73340 -58.92873
C 21.12902 15.53607 -58.92903
C 26.87098 18.46389 -58.92902
C 30.24748 15.88022 -58.01600
C 17.75245 18.11973 -58.01604
C 30.15259 18.54607 -58.01578
C 17.84743 15.45390 -58.01580
C 18.93716 18.89813 -57.89539
C 29.06277 15.10186 -57.89532
C 19.08437 14.76078 -57.89405
C 28.91572 19.23918 -57.89395
C 21.31194 17.62149 -57.69546
C 26.68809 16.37858 -57.69550
C 21.36255 16.20006 -57.69563
C 26.63750 17.79994 -57.69558
C 30.68845 16.51689 -56.78584
C 17.31155 17.48301 -56.78581
C 30.63710 17.94505 -56.78482
C 17.36291 16.05487 -56.78481
C 28.43312 15.07645 -56.60872
C 19.56687 18.92357 -56.60877
C 28.28491 19.22119 -56.60715
C 19.71521 14.77882 -56.60720
C 27.17258 15.74128 -56.52476
C 20.82739 18.25879 -56.52471
C 27.07409 18.46882 -56.52367
C 20.92597 15.53127 -56.52360
C 30.44041 15.88935 -55.49958
C 17.55957 18.11061 -55.49951
C 17.65606 15.44526 -55.49816
C 30.34394 18.55456 -55.49820
C 29.24436 15.11769 -55.42920
C 18.75565 18.88230 -55.42918
C 29.09506 19.23780 -55.42618
C 18.90497 14.76209 -55.42616
C 26.80105 17.80487 -55.30272
C 21.19890 16.19512 -55.30263
C 26.85350 16.38211 -55.30337
C 21.14648 17.61789 -55.30329
C 17.22671 16.05278 -54.24600
C 30.77334 17.94707 -54.24602
C 17.17478 17.47374 -54.24722
C 30.82523 16.52615 -54.24718
C 19.57961 14.78794 -54.15817
C 28.42031 19.21191 -54.15821
C 19.42936 18.90716 -54.16167
C 28.57066 15.09287 -54.16164
C 20.78720 15.53438 -54.11508
C 27.21275 18.46548 -54.11511
C 20.68812 18.25075 -54.11764
C 27.31190 15.74926 -54.11772
C 30.53472 15.89186 -52.96953
C 17.46528 18.10812 -52.96959
C 30.43636 18.55585 -52.96630
C 17.56367 15.44413 -52.96624
C 18.66347 18.88015 -52.94730
C 29.33647 15.11984 -52.94727
C 29.18498 19.23831 -52.94265
C 18.81497 14.76155 -52.94265
C 21.11001 16.19591 -52.90160
C 26.89004 17.80393 -52.90167
C 21.05798 17.61889 -52.90267
C 26.94214 16.38100 -52.90269
C 30.87896 16.52203 -51.70652
C 17.12095 17.47798 -51.70649
C 28.61669 15.08161 -51.70816
C 19.38337 18.91832 -51.70821
C 27.25133 18.46739 -51.70352
C 20.74880 15.53253 -51.70334
C 30.82674 17.94927 -51.70469
C 17.17331 16.05073 -51.70467
C 27.35149 15.74013 -51.70708
C 20.64856 18.25980 -51.70711
C 28.46415 19.21864 -51.70321
C 19.53596 14.78124 -51.70321
C 21.10672 16.20243 -50.50622
C 26.89337 17.79750 -50.50637
C 21.05525 17.62420 -50.50742
C 26.94483 16.37579 -50.50747
C 18.66236 18.88538 -50.46888
C 29.33771 15.11466 -50.46885
C 29.18624 19.23429 -50.46393
C 18.81396 14.76561 -50.46385
C 30.43653 18.55218 -50.44101
C 17.56357 15.44772 -50.44096
C 30.53404 15.88756 -50.44476
C 17.46603 18.11236 -50.44472
C 20.78497 15.54339 -49.29182
C 27.21505 18.45647 -49.29190
C 20.68633 18.26205 -49.29477
C 27.31381 15.73795 -49.29477
C 19.42696 18.91944 -49.25342
C 28.57318 15.08060 -49.25337
C 19.57809 14.79430 -49.24851
C 28.42195 19.20563 -49.24862
C 17.17477 17.48248 -49.16448
C 30.82545 16.51739 -49.16455
C 17.22622 16.06030 -49.16314
C 30.77389 17.93961 -49.16330
C 26.85707 16.36830 -48.10794
C 21.14299 17.63168 -48.10794
C 26.80577 17.79085 -48.10698
C 21.19419 16.20908 -48.10698
C 18.75367 18.89640 -47.98534
C 29.24645 15.10349 -47.98532
C 29.09618 19.22820 -47.98157
C 18.90372 14.77171 -47.98150
C 17.55885 18.12229 -47.91360
C 30.44128 15.87772 -47.91368
C 30.34461 18.54411 -47.91096
C 17.65532 15.45582 -47.91087
C 27.17566 15.72576 -46.88605
C 20.82428 18.27416 -46.88602
C 27.07660 18.45414 -46.88495
C 20.92325 15.54581 -46.88503
C 28.43584 15.06142 -46.80322
C 19.56419 18.93858 -46.80314
C 28.28505 19.20829 -46.80053
C 19.71491 14.79164 -46.80054
C 30.68757 16.50439 -46.62474
C 17.31242 17.49554 -46.62470
C 30.63680 17.93191 -46.62440
C 17.36314 16.06816 -46.62440
C 21.30985 17.63776 -45.71512
C 26.69007 16.36218 -45.71516
C 21.36107 16.21507 -45.71480
C 26.63886 17.78489 -45.71474
C 18.93579 18.91351 -45.51553
C 29.06420 15.08650 -45.51557
C 19.08340 14.77285 -45.51477
C 28.91652 19.22720 -45.51475
C 30.24888 15.86682 -45.39422
C 17.75111 18.13314 -45.39421
C 17.84596 15.46654 -45.39360
C 30.15405 18.53350 -45.39363
C 21.03062 18.28097 -44.48133
C 26.96939 15.71897 -44.48140
C 21.12702 15.55174 -44.48167
C 26.87304 18.44815 -44.48166
C 19.78945 18.96097 -44.36089
C 28.21055 15.03887 -44.36089
C 19.93666 14.78610 -44.36079
C 28.06331 19.21389 -44.36077
C 17.57251 17.50499 -44.08984
C 30.42756 16.49504 -44.08987
C 17.62179 16.08276 -44.09046
C 30.37825 17.91725 -44.09051
C 26.46008 16.35631 -43.31859
C 21.53987 17.64361 -43.31852
C 26.41135 17.77947 -43.31765
C 21.58877 16.22047 -43.31766
C 28.79519 15.02850 -43.04925
C 19.20475 18.97136 -43.04925
C 28.65008 19.26685 -43.05127
C 19.34989 14.73312 -43.05122
C 29.95403 15.84405 -42.87788
C 18.04603 18.15590 -42.87779
C 29.86255 18.53375 -42.87884
C 18.13747 15.46626 -42.87875
C 26.69648 15.70743 -42.08839
C 21.30351 18.29245 -42.08840
C 26.60601 18.44640 -42.08894
C 21.39407 15.55353 -42.08896
C 27.89591 14.95202 -41.93486
C 20.10406 19.04787 -41.93492
C 27.75081 19.28200 -41.93640
C 20.24920 14.71789 -41.93637
C 30.04470 16.47735 -41.57276
C 17.95530 17.52265 -41.57269
C 29.99830 17.90746 -41.57385
C 18.00164 16.09246 -41.57377
C 21.78103 17.63957 -40.91908
C 26.21898 16.36024 -40.91905
C 21.82600 16.23254 -40.91817
C 26.17407 17.76727 -40.91827
C 19.57603 19.07166 -40.59259
C 28.42406 14.92820 -40.59244
C 19.71943 14.65385 -40.59613
C 28.28060 19.34608 -40.59610
C 18.48348 18.18467 -40.39468
C 29.51657 15.81527 -40.39456
C 18.56978 15.46531 -40.39633
C 29.43020 18.53455 -40.39639
C 21.69959 18.45833 -39.73996
C 26.30054 15.54161 -39.73996
C 21.79489 15.40701 -39.74064
C 26.20516 18.59291 -39.74065
C 20.53538 19.20377 -39.51926
C 27.46467 14.79611 -39.51920
C 20.68356 14.58479 -39.52197
C 27.31649 19.41517 -39.52185
C 24.68432 17.02077 -38.69381
C 23.31572 16.97922 -38.69377
C 25.25462 18.31596 -38.76708
C 22.74533 15.68401 -38.76702
C 25.33364 15.76331 -38.76772
C 22.66645 18.23674 -38.76760
C 18.54608 17.53673 -39.10271
C 29.45395 16.46318 -39.10264
C 18.59026 16.11454 -39.10352
C 29.40976 17.88539 -39.10357
C 27.84186 14.80545 -38.10901
C 20.15809 19.19457 -38.10903
C 23.22519 19.27100 -37.93992
C 24.77484 14.72910 -37.94001
C 23.36633 14.68471 -37.94046
C 24.63369 19.31532 -37.94046
C 27.69559 19.43759 -38.11227
C 20.30454 14.56224 -38.11238
C 28.88694 15.77804 -37.95637
C 19.11298 18.22185 -37.95639
C 28.80234 18.53642 -37.95844
C 19.19776 15.46349 -37.95843
C 22.42213 19.91749 -36.98607
C 25.57785 14.08254 -36.98612
C 25.39295 20.01420 -36.98732
C 22.60714 13.98572 -36.98739
C 20.99908 19.57703 -36.98927
C 27.00086 14.42303 -36.98926
C 21.16520 14.23090 -36.99168
C 26.83493 19.76898 -36.99163
C 19.12963 16.12950 -36.70681
C 28.87040 17.87036 -36.70684
C 19.08738 17.54966 -36.70662
C 28.91263 16.45023 -36.70663
C 23.16816 20.34272 -35.82458
C 24.83191 13.65724 -35.82462
C 23.37906 13.60802 -35.82583
C 24.62099 20.39195 -35.82568
C 27.51908 14.67648 -35.68106
C 20.48090 19.32361 -35.68102
C 27.37066 19.55814 -35.68313
C 20.62941 14.44180 -35.68322
C 19.64644 15.46423 -35.56279
C 28.35367 18.53566 -35.56280
C 19.56480 18.24089 -35.56154
C 28.43529 15.75909 -35.56155
C 25.31458 20.48347 -34.57766
C 22.68551 13.51654 -34.57778
C 25.52862 13.61755 -34.57613
C 22.47140 20.38242 -34.57615
C 26.83628 14.20081 -34.51671
C 21.16373 19.79921 -34.51668
C 26.65938 19.99215 -34.51873
C 21.34072 14.00793 -34.51882
C 28.46980 17.86067 -34.32616
C 19.53032 16.13927 -34.32613
C 28.51090 16.44284 -34.32628
C 19.48925 17.55711 -34.32624
C 23.40337 13.29002 -33.35944
C 24.59663 20.70994 -33.35944
C 23.17152 20.65806 -33.35852
C 24.82846 13.34191 -33.35850
C 27.34449 14.58385 -33.24092
C 20.65552 19.41608 -33.24090
C 27.19163 19.64695 -33.24165
C 20.80852 14.35314 -33.24167
C 28.06959 18.53692 -33.15571
C 19.93042 15.46306 -33.15563
C 28.15159 15.74610 -33.15514
C 19.84844 18.25383 -33.15505
C 25.51132 13.41537 -32.09897
C 22.48862 20.58455 -32.09895
C 25.28185 20.68739 -32.09940
C 22.71817 13.31254 -32.09940
C 26.76656 14.07524 -32.04506
C 21.23336 19.92473 -32.04503
C 26.58077 20.11746 -32.04590
C 21.41926 13.88244 -32.04590
C 28.26516 16.43861 -31.92540
C 19.73486 17.56127 -31.92532
C 28.22315 17.85397 -31.92517
C 19.77693 16.14594 -31.92506
C 28.00347 15.73553 -30.73289
C 24.83426 13.15413 -30.86926
C 20.88893 14.29259 -30.78838
C 19.99660 18.26434 -30.73284
C 23.16570 20.84578 -30.86922
C 27.11105 19.70719 -30.78844
C 27.27081 14.51993 -30.78876
C 23.41361 13.10187 -30.86944
C 20.08085 15.45911 -30.73249
C 20.72921 19.47994 -30.78871
C 24.58634 20.89803 -30.86944
C 27.91919 18.54070 -30.73253
C 28.13311 16.43489 -29.50942
C 26.54717 20.19236 -29.57948
C 22.48371 20.71464 -29.61764
C 19.86691 17.56499 -29.50940
C 21.45278 13.80753 -29.57940
C 25.51622 13.28534 -29.61768
C 28.09115 17.85172 -29.50853
C 25.27383 20.81676 -29.61693
C 21.25755 20.00212 -29.57992
C 19.90884 16.14815 -29.50853
C 22.72609 13.18315 -29.61692
C 26.74242 13.99778 -29.57994
C 27.83877 18.54237 -28.30102
C 24.58001 21.00663 -28.38239
C 20.76532 19.51116 -28.33474
C 20.16118 15.45755 -28.30101
C 23.41991 12.99343 -28.38235
C 27.23456 14.48882 -28.33473
C 27.06973 19.73649 -28.33315
C 23.16020 20.95435 -28.38238
C 20.07633 18.26947 -28.30180
C 20.93025 14.26345 -28.33312
C 24.83971 13.04574 -28.38242
C 27.92366 15.73048 -28.30176
C 28.07151 16.43305 -27.08192
C 26.52747 20.22545 -27.11671
C 22.47819 20.77775 -27.13976
C 19.92843 17.56697 -27.08197
C 21.47251 13.77460 -27.11665
C 25.52167 13.22238 -27.13978
C 28.02840 17.84985 -27.08112
C 25.26995 20.87951 -27.13846
C 21.26985 20.03662 -27.11804
C 19.97156 16.15017 -27.08113
C 22.73002 13.12050 -27.13836
C 26.72998 13.96352 -27.11801
C 27.78975 18.53635 -25.86450
C 24.57236 21.03690 -25.90180
C 20.79210 19.51253 -25.88075
C 20.21024 15.46376 -25.86444
C 23.42759 12.96299 -25.90173
C 27.20773 14.48761 -25.88074
C 27.03617 19.73368 -25.87883
C 23.15841 20.98567 -25.90188
C 20.11977 18.26765 -25.86541
C 20.96382 14.26643 -25.87878
C 24.84150 13.01437 -25.90188
C 27.87998 15.73246 -25.86537
C 28.00054 16.41833 -24.63705
C 26.50030 20.17496 -24.64569
C 22.51307 20.75612 -24.65653
C 19.99933 17.58168 -24.63705
C 21.49963 13.82498 -24.64566
C 25.48686 13.24378 -24.65650
C 27.95258 17.85881 -24.63645
C 25.22663 20.85178 -24.65437
C 21.28988 19.99114 -24.64602
C 20.04744 16.14121 -24.63635
C 22.77333 13.14818 -24.65431
C 26.71001 14.00890 -24.64604
C 27.77178 18.52390 -23.39987
C 24.56616 21.02841 -23.39987
C 20.79437 19.50451 -23.39987
C 20.22822 15.47610 -23.39987
C 23.43384 12.97159 -23.39987
C 27.20563 14.49549 -23.39987
C 27.02311 19.72202 -23.39987
C 23.15421 20.97910 -23.39987
C 20.13110 18.25708 -23.39987
C 20.97689 14.27798 -23.39987
C 24.84579 13.02090 -23.39987
C 27.86890 15.74292 -23.39987
C -19.97159 -17.56616 -22.17392
C -21.49549 -13.79437 -22.17392
C -25.52390 -13.22822 -22.17392
C -28.02841 -16.43384 -22.17392
C -26.50451 -20.20563 -22.17392
C -22.47610 -20.77178 -22.17392
C -20.02090 -16.15422 -22.17392
C -22.74292 -13.13110 -22.17392
C -26.72202 -13.97689 -22.17392
C -27.97910 -17.84579 -22.17392
C -25.25708 -20.86890 -22.17392
C -21.27798 -20.02311 -22.17392
C -20.12166 -15.41215 -21.01044
C -23.45010 -12.92586 -20.97555
C -27.19878 -14.45308 -20.94554
C -27.87844 -18.58796 -21.01050
C -24.54992 -21.07404 -20.97556
C -20.80110 -19.54687 -20.94558
C -20.87984 -14.20816 -20.99952
C -24.88064 -13.03063 -20.93167
C -27.92799 -15.68827 -21.00289
C -27.12007 -19.79178 -20.99945
C -23.11932 -20.96924 -20.93167
C -20.07198 -18.31166 -21.00286
C -19.87869 -17.56421 -19.79600
C -21.43579 -13.72530 -19.76752
C -25.52515 -13.23222 -19.69319
C -28.12132 -16.43578 -19.79612
C -26.56427 -20.27459 -19.76735
C -22.47481 -20.76772 -19.69320
C -19.90762 -16.13731 -19.79927
C -22.71295 -13.09160 -19.74613
C -26.73475 -13.96300 -19.71072
C -28.09248 -17.86264 -19.79937
C -25.28696 -20.90839 -19.74603
C -21.26516 -20.03694 -19.71092
C -20.13232 -15.43883 -18.57632
C -23.40577 -12.99502 -18.48836
C -27.24206 -14.51189 -18.50788
C -27.86773 -18.56112 -18.57640
C -24.59429 -21.00500 -18.48826
C -20.75781 -19.48811 -18.50794
C -20.90341 -14.24463 -18.54607
C -24.82190 -13.06048 -18.46442
C -27.94136 -15.74450 -18.56221
C -27.09653 -19.75538 -18.54598
C -23.17813 -20.93960 -18.46444
C -20.05856 -18.25534 -18.56211
C -19.85506 -17.54681 -17.35783
C -21.43053 -13.79632 -17.29736
C -25.50129 -13.31164 -17.23755
C -28.14491 -16.45322 -17.35796
C -26.56946 -20.20357 -17.29725
C -22.49876 -20.68843 -17.23768
C -19.89069 -16.12806 -17.36446
C -22.71049 -13.18179 -17.25546
C -26.73117 -14.02584 -17.27273
C -28.10936 -17.87189 -17.36459
C -25.28950 -20.81815 -17.25534
C -21.26887 -19.97411 -17.27275
C -20.06388 -15.44115 -16.13890
C -23.40125 -13.10904 -16.00199
C -27.26055 -14.54802 -16.06967
C -27.93623 -18.55889 -16.13909
C -24.59879 -20.89096 -16.00184
C -20.73950 -19.45197 -16.06966
C -20.86870 -14.27680 -16.08494
C -24.81838 -13.17563 -15.99288
C -27.99974 -15.75608 -16.13368
C -27.13113 -19.72312 -16.08490
C -23.18160 -20.82457 -15.99288
C -20.00044 -18.24388 -16.13357
C -19.73596 -17.54370 -14.93871
C -28.26405 -16.45639 -14.93882
C -19.76668 -16.12946 -14.94173
C -28.23325 -17.87064 -14.94183
C -21.40332 -13.86871 -14.82419
C -26.59663 -20.13127 -14.82412
C -21.24680 -19.90132 -14.81550
C -26.75320 -14.09878 -14.81549
C -22.50054 -20.56292 -14.76383
C -25.49942 -13.43725 -14.76385
C -22.70548 -13.31014 -14.76826
C -25.29455 -20.68986 -14.76810
C -19.85456 -18.23735 -13.71170
C -28.14544 -15.76278 -13.71182
C -19.91963 -15.44805 -13.71235
C -28.08041 -18.55191 -13.71243
C -20.66584 -19.39712 -13.62352
C -27.33415 -14.60300 -13.62356
C -20.79617 -14.33714 -13.62766
C -27.20395 -19.66292 -13.62760
C -24.60523 -20.70955 -13.51057
C -23.39461 -13.29038 -13.51064
C -23.18060 -20.64660 -13.50801
C -24.81925 -13.35354 -13.50805
C -19.49240 -17.54338 -12.53940
C -28.50760 -16.45667 -12.53956
C -19.52672 -16.12842 -12.54036
C -28.47320 -17.87164 -12.54051
C -21.17434 -19.78418 -12.34900
C -26.82553 -14.21599 -12.34896
C -21.33512 -13.99647 -12.34987
C -26.66485 -20.00354 -12.34987
C -22.67832 -13.51211 -12.29002
C -25.32158 -20.48777 -12.28994
C -22.47724 -20.37065 -12.29072
C -25.52263 -13.62944 -12.29073
C -28.43035 -15.77005 -11.30448
C -19.56975 -18.22987 -11.30434
C -28.35717 -18.54698 -11.30329
C -19.64281 -15.45297 -11.30328
C -20.48792 -19.31178 -11.18449
C -27.51219 -14.68828 -11.18466
C -20.62571 -14.43049 -11.18338
C -27.37426 -19.56944 -11.18339
C -24.62479 -20.39294 -11.04166
C -23.37508 -13.60679 -11.04166
C -24.82752 -13.66167 -11.04081
C -23.17232 -20.33809 -11.04072
C -19.12866 -16.11995 -10.16138
C -28.87136 -17.88000 -10.16150
C -19.09006 -17.53977 -10.16135
C -28.91006 -16.46025 -10.16142
C -21.00381 -19.56868 -9.87882
C -26.99627 -14.43129 -9.87899
C -26.83501 -19.77753 -9.87801
C -21.16486 -14.22234 -9.87795
C -22.42376 -19.91689 -9.88032
C -25.57629 -14.08307 -9.88044
C -22.60551 -13.97934 -9.87971
C -25.39446 -20.02037 -9.87978
C -19.11769 -18.21248 -8.91071
C -28.88236 -15.78758 -8.91079
C -19.19685 -15.45200 -8.90997
C -28.80309 -18.54795 -8.91004
C -20.16002 -19.18401 -8.75837
C -27.83998 -14.81601 -8.75848
C -24.63331 -19.32098 -8.92488
C -23.36671 -14.67901 -8.92497
C -24.77234 -14.72482 -8.92232
C -23.22772 -19.27524 -8.92214
C -20.30191 -14.55387 -8.75656
C -27.69803 -19.44615 -8.75666
C -29.41028 -17.89634 -7.76466
C -29.45195 -16.47356 -7.76498
C -18.58979 -16.10374 -7.76468
C -18.54816 -17.52644 -7.76497
C -22.74432 -15.68345 -8.10569
C -25.25565 -18.31664 -8.10569
C -22.66793 -18.23483 -8.10164
C -25.33202 -15.76514 -8.10177
C -23.31471 -16.97777 -8.18257
C -24.68518 -17.02230 -8.18261
C -27.46413 -14.80370 -7.34814
C -20.53577 -19.19631 -7.34799
C -27.31537 -19.42415 -7.34879
C -20.68456 -14.57596 -7.34871
C -26.29846 -15.54786 -7.12744
C -21.70145 -18.45222 -7.12735
C -26.20515 -18.59805 -7.13142
C -21.79489 -15.40194 -7.13130
C -29.51531 -15.82643 -6.47449
C -18.48467 -18.17354 -6.47457
C -29.42969 -18.54576 -6.47398
C -18.57038 -15.45426 -6.47404
C -28.42307 -14.93831 -6.27603
C -19.57677 -19.06175 -6.27599
C -28.27892 -19.35621 -6.27526
C -19.72109 -14.64379 -6.27512
C -26.21690 -16.36904 -5.95177
C -21.78298 -17.63106 -5.95178
C -26.17298 -17.77662 -5.95356
C -21.82698 -16.22349 -5.95348
C -17.95685 -17.51022 -5.29664
C -30.04316 -16.48979 -5.29659
C -18.00341 -16.08181 -5.29591
C -29.99665 -17.91828 -5.29593
C -20.10520 -19.03501 -4.93405
C -27.89465 -14.96513 -4.93402
C -20.25027 -14.70795 -4.93494
C -27.74966 -19.29210 -4.93502
C -21.30326 -18.27992 -4.78154
C -26.69661 -15.72022 -4.78150
C -21.39477 -15.54229 -4.78329
C -26.60508 -18.45788 -4.78326
C -18.04630 -18.14415 -3.99163
C -29.95369 -15.85592 -3.99159
C -18.13791 -15.45387 -3.99114
C -29.86211 -18.54625 -3.99115
C -19.20598 -18.95967 -3.81975
C -28.79395 -15.04040 -3.81983
C -19.35096 -14.72096 -3.81888
C -28.64894 -19.27908 -3.81893
C -21.54077 -17.62972 -3.55167
C -26.45935 -16.37043 -3.55165
C -21.59061 -16.20587 -3.55254
C -26.40924 -17.79429 -3.55252
C -30.42765 -16.50796 -2.78143
C -17.57240 -17.49204 -2.78142
C -30.37811 -17.93038 -2.78061
C -17.62195 -16.06964 -2.78057
C -28.20847 -15.05254 -2.51017
C -19.79157 -18.94754 -2.51005
C -28.06257 -19.22826 -2.51008
C -19.93737 -14.77178 -2.50998
C -26.96738 -15.73350 -2.38962
C -21.03276 -18.26660 -2.38961
C -26.87098 -18.46393 -2.38991
C -21.12902 -15.53611 -2.38990
C -17.75252 -18.11978 -1.47688
C -30.24755 -15.88027 -1.47692
C -17.84741 -15.45393 -1.47666
C -30.15257 -18.54610 -1.47668
C -29.06284 -15.10187 -1.35627
C -18.93723 -18.89814 -1.35620
C -28.91563 -19.23922 -1.35493
C -19.08428 -14.76082 -1.35483
C -26.68806 -16.37851 -1.15634
C -21.31191 -17.62142 -1.15638
C -26.63745 -17.79994 -1.15651
C -21.36250 -16.20006 -1.15646
C -17.31155 -17.48311 -0.24672
C -30.68845 -16.51699 -0.24669
C -17.36290 -16.05495 -0.24570
C -30.63709 -17.94513 -0.24569
C -19.56688 -18.92355 -0.06960
C -28.43313 -15.07643 -0.06965
C -19.71509 -14.77881 -0.06803
C -28.28479 -19.22118 -0.06808
C -20.82742 -18.25872  0.01436
C -27.17261 -15.74121  0.01441
C -20.92591 -15.53118  0.01545
C -27.07403 -18.46873  0.01552
C -17.55959 -18.11065  1.03954
C -30.44043 -15.88939  1.03961
C -30.34394 -18.55474  1.04096
C -17.65606 -15.44544  1.04092
C -18.75564 -18.88231  1.10992
C -29.24435 -15.11770  1.10994
C -18.90494 -14.76220  1.11294
C -29.09503 -19.23791  1.11296
C -21.19895 -16.19513  1.23640
C -26.80110 -17.80488  1.23649
C -21.14650 -17.61789  1.23575
C -26.85352 -16.38211  1.23583
C -30.77329 -17.94722  2.29312
C -17.22666 -16.05293  2.29310
C -30.82522 -16.52626  2.29190
C -17.17477 -17.47385  2.29194
C -28.42039 -19.21206  2.38095
C -19.57969 -14.78809  2.38091
C -28.57064 -15.09284  2.37745
C -19.42934 -18.90713  2.37748
C -27.21280 -18.46562  2.42404
C -20.78725 -15.53452  2.42401
C -27.31188 -15.74925  2.42148
C -20.68810 -18.25074  2.42140
C -17.46528 -18.10814  3.56959
C -30.53472 -15.89188  3.56953
C -17.56364 -15.44415  3.57282
C -30.43633 -18.55587  3.57288
C -29.33653 -15.11985  3.59182
C -18.66353 -18.88016  3.59185
C -18.81502 -14.76169  3.59647
C -29.18503 -19.23845  3.59647
C -26.88999 -17.80409  3.63752
C -21.10996 -16.19607  3.63745
C -26.94202 -16.38111  3.63645
C -21.05786 -17.61900  3.63643
C -17.12104 -17.47797  4.83260
C -30.87905 -16.52202  4.83263
C -19.38331 -18.91839  4.83096
C -28.61663 -15.08168  4.83091
C -20.74867 -15.53261  4.83560
C -27.25120 -18.46747  4.83578
C -17.17326 -16.05073  4.83443
C -30.82669 -17.94927  4.83445
C -20.64851 -18.25987  4.83204
C -27.35144 -15.74020  4.83201
C -19.53585 -14.78136  4.83591
C -28.46404 -19.21876  4.83591
C -26.89328 -17.79757  6.03290
C -21.10663 -16.20250  6.03275
C -26.94475 -16.37580  6.03170
C -21.05517 -17.62421  6.03165
C -29.33764 -15.11462  6.07024
C -18.66229 -18.88534  6.07027
C -18.81376 -14.76571  6.07519
C -29.18604 -19.23439  6.07527
C -17.56347 -15.44782  6.09811
C -30.43643 -18.55228  6.09816
C -17.46596 -18.11244  6.09436
C -30.53397 -15.88764  6.09440
C -27.21503 -18.45661  7.24730
C -20.78495 -15.54353  7.24722
C -27.31367 -15.73795  7.24435
C -20.68619 -18.26205  7.24435
C -28.57304 -15.08056  7.28570
C -19.42682 -18.91940  7.28575
C -28.42191 -19.20570  7.29061
C -19.57805 -14.79437  7.29050
C -30.82523 -16.51752  7.37464
C -17.17455 -17.48261  7.37457
C -30.77378 -17.93970  7.37598
C -17.22611 -16.06039  7.37582
C -21.14293 -17.63170  8.43118
C -26.85701 -16.36832  8.43118
C -21.19423 -16.20915  8.43214
C -26.80581 -17.79092  8.43214
C -29.24633 -15.10360  8.55378
C -18.75355 -18.89651  8.55380
C -18.90382 -14.77180  8.55755
C -29.09628 -19.22829  8.55762
C -30.44115 -15.87771  8.62552
C -17.55872 -18.12228  8.62544
C -17.65539 -15.45589  8.62816
C -30.34468 -18.54418  8.62825
C -20.82434 -18.27424  9.65307
C -27.17572 -15.72584  9.65310
C -20.92340 -15.54586  9.65417
C -27.07675 -18.45419  9.65409
C -19.56416 -18.93858  9.73590
C -28.43581 -15.06142  9.73598
C -19.71495 -14.79171  9.73859
C -28.28509 -19.20836  9.73858
C -17.31243 -17.49561  9.91438
C -30.68758 -16.50446  9.91442
C -17.36320 -16.06809  9.91472
C -30.63686 -17.93184  9.91472
C -26.69015 -16.36224 10.82400
C -21.30993 -17.63782 10.82396
C -26.63893 -17.78493 10.82432
C -21.36114 -16.21511 10.82438
C -29.06421 -15.08649 11.02359
C -18.93580 -18.91350 11.02355
C -28.91660 -19.22715 11.02435
C -19.08348 -14.77280 11.02437
C -17.75112 -18.13318 11.14490
C -30.24889 -15.86686 11.14491
C -30.15404 -18.53346 11.14552
C -17.84595 -15.46650 11.14549
C -26.96938 -15.71903 12.05779
C -21.03061 -18.28103 12.05772
C -26.87298 -18.44826 12.05745
C -21.12696 -15.55185 12.05746
C -28.21055 -15.03903 12.17823
C -19.78945 -18.96113 12.17823
C -28.06334 -19.21390 12.17833
C -19.93669 -14.78611 12.17835
C -30.42749 -16.49501 12.44928
C -17.57244 -17.50496 12.44925
C -30.37821 -17.91724 12.44866
C -17.62175 -16.08275 12.44861
C -21.53992 -17.64369 13.22053
C -26.46013 -16.35639 13.22060
C -21.58865 -16.22053 13.22147
C -26.41123 -17.77953 13.22146
C -19.20481 -18.97150 13.48987
C -28.79525 -15.02864 13.48987
C -19.34992 -14.73315 13.48785
C -28.65011 -19.26688 13.48790
C -18.04597 -18.15595 13.66124
C -29.95397 -15.84410 13.66133
C -18.13745 -15.46625 13.66028
C -29.86253 -18.53374 13.66037
C -21.30352 -18.29257 14.45073
C -26.69649 -15.70755 14.45072
C -21.39399 -15.55360 14.45018
C -26.60593 -18.44647 14.45016
C -20.10409 -19.04798 14.60426
C -27.89594 -14.95213 14.60420
C -20.24919 -14.71800 14.60272
C -27.75080 -19.28211 14.60275
C -17.95530 -17.52265 14.96636
C -30.04470 -16.47735 14.96643
C -18.00170 -16.09254 14.96527
C -29.99836 -17.90754 14.96535
C -26.21897 -16.36043 15.62004
C -21.78102 -17.63976 15.62007
C -26.17400 -17.76746 15.62095
C -21.82593 -16.23273 15.62085
C -28.42397 -14.92834 15.94653
C -19.57594 -19.07180 15.94668
C -28.28057 -19.34615 15.94299
C -19.71940 -14.65392 15.94302
C -29.51652 -15.81533 16.14444
C -18.48343 -18.18473 16.14456
C -29.43022 -18.53469 16.14279
C -18.56980 -15.46545 16.14273
C -26.30041 -15.54167 16.79916
C -21.69946 -18.45839 16.79916
C -26.20511 -18.59299 16.79848
C -21.79484 -15.40709 16.79847
C -27.46462 -14.79623 17.01986
C -20.53533 -19.20389 17.01992
C -27.31644 -19.41521 17.01715
C -20.68351 -14.58483 17.01727
C -23.31568 -16.97923 17.84531
C -24.68428 -17.02078 17.84535
C -22.74538 -15.68404 17.77204
C -25.25467 -18.31599 17.77210
C -22.66636 -18.23669 17.77140
C -25.33355 -15.76326 17.77152
C -29.45392 -16.46327 17.43641
C -18.54605 -17.53682 17.43648
C -29.40974 -17.88546 17.43560
C -18.59024 -16.11461 17.43555
C -20.15814 -19.19455 18.43011
C -27.84191 -14.80543 18.43009
C -24.77481 -14.72900 18.59920
C -23.22516 -19.27090 18.59911
C -24.63367 -19.31529 18.59866
C -23.36631 -14.68468 18.59866
C -20.30441 -14.56241 18.42685
C -27.69546 -19.43776 18.42674
C -19.11306 -18.22196 18.58275
C -28.88702 -15.77815 18.58273
C -19.19766 -15.46358 18.58068
C -28.80224 -18.53651 18.58069
C -25.57787 -14.08251 19.55305
C -22.42215 -19.91746 19.55300
C -22.60705 -13.98580 19.55180
C -25.39286 -20.01428 19.55173
C -27.00092 -14.42297 19.54985
C -20.99914 -19.57697 19.54986
C -26.83480 -19.76910 19.54744
C -21.16507 -14.23102 19.54749
C -28.87037 -17.87050 19.83231
C -19.12960 -16.12964 19.83228
C -28.91262 -16.45034 19.83250
C -19.08737 -17.54977 19.83249
C -24.83184 -13.65728 20.71454
C -23.16809 -20.34276 20.71450
C -24.62094 -20.39198 20.71329
C -23.37901 -13.60805 20.71344
C -20.48092 -19.32352 20.85806
C -27.51910 -14.67639 20.85810
C -20.62934 -14.44186 20.85599
C -27.37059 -19.55820 20.85590
C -28.35356 -18.53577 20.97633
C -19.64633 -15.46434 20.97632
C -28.43520 -15.75911 20.97758
C -19.56471 -18.24091 20.97757
C -22.68542 -13.51653 21.96146
C -25.31449 -20.48346 21.96134
C -22.47138 -20.38245 21.96299
C -25.52860 -13.61758 21.96297
C -21.16372 -19.79919 22.02241
C -26.83627 -14.20079 22.02244
C -21.34062 -14.00785 22.02039
C -26.65928 -19.99207 22.02030
C -19.53020 -16.13933 22.21296
C -28.46968 -17.86073 22.21299
C -19.48910 -17.55716 22.21284
C -28.51075 -16.44289 22.21288
C -24.59663 -20.70998 23.17968
C -23.40337 -13.29006 23.17968
C -24.82848 -13.34194 23.18060
C -23.17154 -20.65809 23.18062
C -20.65551 -19.41615 23.29820
C -27.34448 -14.58392 23.29822
C -20.80837 -14.35305 23.29747
C -27.19148 -19.64686 23.29745
C -19.93041 -15.46308 23.38341
C -28.06958 -18.53694 23.38349
C -19.84841 -18.25390 23.38398
C -28.15156 -15.74617 23.38407
C -22.48868 -20.58463 24.44015
C -25.51138 -13.41545 24.44017
C -22.71815 -13.31261 24.43972
C -25.28183 -20.68746 24.43972
C -21.23344 -19.92476 24.49406
C -26.76664 -14.07527 24.49409
C -21.41923 -13.88254 24.49322
C -26.58074 -20.11756 24.49322
C -19.73484 -17.56139 24.61372
C -28.26514 -16.43873 24.61380
C -19.77685 -16.14603 24.61395
C -28.22307 -17.85406 24.61406
C -19.99653 -18.26447 25.80623
C -23.16574 -20.84587 25.66986
C -27.11107 -19.70741 25.75074
C -28.00340 -15.73566 25.80628
C -24.83430 -13.15422 25.66990
C -20.88895 -14.29281 25.75068
C -20.72919 -19.48007 25.75036
C -24.58639 -20.89813 25.66968
C -27.91915 -18.54089 25.80663
C -27.27079 -14.52006 25.75041
C -23.41366 -13.10197 25.66968
C -20.08081 -15.45930 25.80659
C -19.86689 -17.56511 27.02970
C -21.45283 -13.80764 26.95964
C -25.51629 -13.28536 26.92148
C -28.13309 -16.43501 27.02972
C -26.54722 -20.19247 26.95972
C -22.48378 -20.71466 26.92144
C -19.90885 -16.14828 27.03059
C -22.72617 -13.18324 26.92219
C -26.74245 -13.99788 26.95920
C -28.09116 -17.85185 27.03059
C -25.27391 -20.81685 26.92220
C -21.25758 -20.00222 26.95918
C -20.16123 -15.45763 28.23810
C -23.41999 -12.99337 28.15673
C -27.23468 -14.48884 28.20438
C -27.83882 -18.54245 28.23811
C -24.58009 -21.00657 28.15677
C -20.76544 -19.51118 28.20439
C -20.93027 -14.26351 28.20597
C -24.83980 -13.04565 28.15674
C -27.92367 -15.73053 28.23732
C -27.06975 -19.73655 28.20600
C -23.16029 -20.95426 28.15670
C -20.07634 -18.26952 28.23736
C -19.92849 -17.56695 29.45720
C -21.47253 -13.77455 29.42241
C -25.52181 -13.22225 29.39936
C -28.07157 -16.43303 29.45715
C -26.52749 -20.22540 29.42247
C -22.47833 -20.77762 29.39934
C -19.97160 -16.15015 29.45800
C -22.73005 -13.12049 29.40066
C -26.73015 -13.96338 29.42108
C -28.02844 -17.84983 29.45799
C -25.26998 -20.87950 29.40076
C -21.27002 -20.03648 29.42111
C -20.21025 -15.46365 30.67462
C -23.42764 -12.96310 30.63732
C -27.20790 -14.48747 30.65837
C -27.78976 -18.53624 30.67468
C -24.57241 -21.03701 30.63739
C -20.79227 -19.51239 30.65838
C -20.96383 -14.26632 30.66029
C -24.84159 -13.01433 30.63724
C -27.88023 -15.73235 30.67371
C -27.03618 -19.73357 30.66034
C -23.15850 -20.98563 30.63724
C -20.12002 -18.26754 30.67375
C -19.99946 -17.58167 31.90207
C -21.49970 -13.82504 31.89343
C -25.48693 -13.24388 31.88259
C -28.00067 -16.41832 31.90207
C -26.50037 -20.17502 31.89346
C -22.51314 -20.75622 31.88262
C -20.04742 -16.14119 31.90267
C -22.77337 -13.14822 31.88475
C -26.71012 -14.00886 31.89310
C -27.95256 -17.85879 31.90277
C -25.22667 -20.85182 31.88481
C -21.28999 -19.99110 31.89308
C -20.22822 -15.47610 33.13925
C -23.43384 -12.97159 33.13925
C -27.20563 -14.49549 33.13925
C -27.77178 -18.52390 33.13925
C -24.56616 -21.02841 33.13925
C -20.79437 -19.50451 33.13925
C -20.97689 -14.27798 33.13925
C -24.84579 -13.02090 33.13925
C -27.86890 -15.74292 33.13925
C -27.02311 -19.72202 33.13925
C -23.15421 -20.97910 33.13925
C -20.13110 -18.25708 33.13925
C -19.97159 -0.56616 -22.17392
C -21.49549  3.20563 -22.17392
C -25.52390  3.77178 -22.17392
C -28.02841  0.56616 -22.17392
C -26.50451 -3.20563 -22.17392
C -22.47610 -3.77178 -22.17392
C -20.02090  0.84578 -22.17392
C -22.74292  3.86890 -22.17392
C -26.72202  3.02311 -22.17392
C -27.97910 -0.84579 -22.17392
C -25.25708 -3.86890 -22.17392
C -21.27798 -3.02311 -22.17392
C -20.12166  1.58785 -21.01044
C -23.45010  4.07414 -20.97555
C -27.19878  2.54692 -20.94554
C -27.87844 -1.58796 -21.01050
C -24.54992 -4.07404 -20.97556
C -20.80110 -2.54687 -20.94558
C -20.87984  2.79184 -20.99952
C -24.88064  3.96937 -20.93167
C -27.92799  1.31173 -21.00289
C -27.12007 -2.79178 -20.99945
C -23.11932 -3.96924 -20.93167
C -20.07198 -1.31166 -21.00286
C -19.87869 -0.56421 -19.79600
C -21.43579  3.27470 -19.76752
C -25.52515  3.76778 -19.69319
C -28.12132  0.56422 -19.79612
C -26.56427 -3.27459 -19.76735
C -22.47481 -3.76772 -19.69320
C -19.90762  0.86269 -19.79927
C -22.71295  3.90840 -19.74613
C -26.73475  3.03700 -19.71072
C -28.09248 -0.86264 -19.79937
C -25.28696 -3.90839 -19.74603
C -21.26516 -3.03694 -19.71092
C -20.13232  1.56117 -18.57632
C -23.40577  4.00498 -18.48836
C -27.24206  2.48811 -18.50788
C -27.86773 -1.56112 -18.57640
C -24.59429 -4.00500 -18.48826
C -20.75781 -2.48811 -18.50794
C -20.90341  2.75537 -18.54607
C -24.82190  3.93952 -18.46442
C -27.94136  1.25550 -18.56221
C -27.09653 -2.75538 -18.54598
C -23.17813 -3.93960 -18.46444
C -20.05856 -1.25534 -18.56211
C -19.85506 -0.54681 -17.35783
C -21.43053  3.20368 -17.29736
C -25.50129  3.68836 -17.23755
C -28.14491  0.54678 -17.35796
C -26.56946 -3.20357 -17.29725
C -22.49876 -3.68843 -17.23768
C -19.89069  0.87194 -17.36446
C -22.71049  3.81821 -17.25546
C -26.73117  2.97416 -17.27273
C -28.10936 -0.87189 -17.36459
C -25.28950 -3.81815 -17.25534
C -21.26887 -2.97411 -17.27275
C -20.06388  1.55885 -16.13890
C -23.40125  3.89096 -16.00199
C -27.26055  2.45198 -16.06967
C -27.93623 -1.55889 -16.13909
C -24.59879 -3.89096 -16.00184
C -20.73950 -2.45197 -16.06966
C -20.86870  2.72320 -16.08494
C -24.81838  3.82437 -15.99288
C -27.99974  1.24392 -16.13368
C -27.13113 -2.72312 -16.08490
C -23.18160 -3.82457 -15.99288
C -20.00044 -1.24388 -16.13357
C -19.73596 -0.54370 -14.93871
C -28.26405  0.54361 -14.93882
C -19.76668  0.87054 -14.94173
C -28.23325 -0.87064 -14.94183
C -21.40332  3.13129 -14.82419
C -26.59663 -3.13127 -14.82412
C -21.24680 -2.90132 -14.81550
C -26.75320  2.90122 -14.81549
C -22.50054 -3.56292 -14.76383
C -25.49942  3.56275 -14.76385
C -22.70548  3.68986 -14.76826
C -25.29455 -3.68986 -14.76810
C -19.85456 -1.23735 -13.71170
C -28.14544  1.23722 -13.71182
C -19.91963  1.55195 -13.71235
C -28.08041 -1.55191 -13.71243
C -20.66584 -2.39712 -13.62352
C -27.33415  2.39700 -13.62356
C -20.79617  2.66286 -13.62766
C -27.20395 -2.66292 -13.62760
C -24.60523 -3.70955 -13.51057
C -23.39461  3.70962 -13.51064
C -23.18060 -3.64660 -13.50801
C -24.81925  3.64646 -13.50805
C -19.49240 -0.54338 -12.53940
C -28.50760  0.54333 -12.53956
C -19.52672  0.87158 -12.54036
C -28.47320 -0.87164 -12.54051
C -21.17434 -2.78418 -12.34900
C -26.82553  2.78401 -12.34896
C -21.33512  3.00353 -12.34987
C -26.66485 -3.00354 -12.34987
C -22.67832  3.48789 -12.29002
C -25.32158 -3.48777 -12.28994
C -22.47724 -3.37065 -12.29072
C -25.52263  3.37056 -12.29073
C -28.43035  1.22995 -11.30448
C -19.56975 -1.22987 -11.30434
C -28.35717 -1.54698 -11.30329
C -19.64281  1.54703 -11.30328
C -20.48792 -2.31178 -11.18449
C -27.51219  2.31172 -11.18466
C -20.62571  2.56951 -11.18338
C -27.37426 -2.56944 -11.18339
C -24.62479 -3.39294 -11.04166
C -23.37508  3.39321 -11.04166
C -24.82752  3.33833 -11.04081
C -23.17232 -3.33809 -11.04072
C -19.12866  0.88005 -10.16138
C -28.87136 -0.88000 -10.16150
C -19.09006 -0.53977 -10.16135
C -28.91006  0.53975 -10.16142
C -21.00381 -2.56868 -9.87882
C -26.99627  2.56871 -9.87899
C -26.83501 -2.77753 -9.87801
C -21.16486  2.77766 -9.87795
C -22.42376 -2.91689 -9.88032
C -25.57629  2.91693 -9.88044
C -22.60551  3.02066 -9.87971
C -25.39446 -3.02037 -9.87978
C -19.11769 -1.21248 -8.91071
C -28.88236  1.21242 -8.91079
C -19.19685  1.54800 -8.90997
C -28.80309 -1.54795 -8.91004
C -20.16002 -2.18401 -8.75837
C -27.83998  2.18399 -8.75848
C -24.63331 -2.32098 -8.92488
C -23.36671  2.32099 -8.92497
C -24.77234  2.27518 -8.92232
C -23.22772 -2.27524 -8.92214
C -20.30191  2.44613 -8.75656
C -27.69803 -2.44615 -8.75666
C -29.41028 -0.89634 -7.76466
C -29.45195  0.52644 -7.76498
C -18.58979  0.89626 -7.76468
C -18.54816 -0.52644 -7.76497
C -22.74432  1.31655 -8.10569
C -25.25565 -1.31664 -8.10569
C -22.66793 -1.23483 -8.10164
C -25.33202  1.23486 -8.10177
C -23.31471  0.02223 -8.18257
C -24.68518 -0.02230 -8.18261
C -27.46413  2.19630 -7.34814
C -20.53577 -2.19631 -7.34799
C -27.31537 -2.42415 -7.34879
C -20.68456  2.42404 -7.34871
C -26.29846  1.45214 -7.12744
C -21.70145 -1.45222 -7.12735
C -26.20515 -1.59805 -7.13142
C -21.79489  1.59806 -7.13130
C -29.51531  1.17357 -6.47449
C -18.48467 -1.17354 -6.47457
C -29.42969 -1.54576 -6.47398
C -18.57038  1.54574 -6.47404
C -28.42307  2.06169 -6.27603
C -19.57677 -2.06175 -6.27599
C -28.27892 -2.35621 -6.27526
C -19.72109  2.35621 -6.27512
C -26.21690  0.63096 -5.95177
C -21.78298 -0.63106 -5.95178
C -26.17298 -0.77662 -5.95356
C -21.82698  0.77651 -5.95348
C -17.95685 -0.51022 -5.29664
C -30.04316  0.51021 -5.29659
C -18.00341  0.91819 -5.29591
C -29.99665 -0.91828 -5.29593
C -20.10520 -2.03501 -4.93405
C -27.89465  2.03487 -4.93402
C -20.25027  2.29205 -4.93494
C -27.74966 -2.29210 -4.93502
C -21.30326 -1.27992 -4.78154
C -26.69661  1.27978 -4.78150
C -21.39477  1.45771 -4.78329
C -26.60508 -1.45788 -4.78326
C -18.04630 -1.14415 -3.99163
C -29.95369  1.14408 -3.99159
C -18.13791  1.54613 -3.99114
C -29.86211 -1.54625 -3.99115
C -19.20598 -1.95967 -3.81975
C -28.79395  1.95960 -3.81983
C -19.35096  2.27904 -3.81888
C -28.64894 -2.27908 -3.81893
C -21.54077 -0.62972 -3.55167
C -26.45935  0.62957 -3.55165
C -21.59061  0.79413 -3.55254
C -26.40924 -0.79429 -3.55252
C -30.42765  0.49204 -2.78143
C -17.57240 -0.49204 -2.78142
C -30.37811 -0.93038 -2.78061
C -17.62195  0.93036 -2.78057
C -28.20847  1.94746 -2.51017
C -19.79157 -1.94754 -2.51005
C -28.06257 -2.22826 -2.51008
C -19.93737  2.22822 -2.50998
C -26.96738  1.26650 -2.38962
C -21.03276 -1.26660 -2.38961
C -26.87098 -1.46393 -2.38991
C -21.12902  1.46389 -2.38990
C -17.75252 -1.11978 -1.47688
C -30.24755  1.11973 -1.47692
C -17.84741  1.54607 -1.47666
C -30.15257 -1.54610 -1.47668
C -29.06284  1.89813 -1.35627
C -18.93723 -1.89814 -1.35620
C -28.91563 -2.23922 -1.35493
C -19.08428  2.23918 -1.35483
C -26.68806  0.62149 -1.15634
C -21.31191 -0.62142 -1.15638
C -26.63745 -0.79994 -1.15651
C -21.36250  0.79994 -1.15646
C -17.31155 -0.48311 -0.24672
C -30.68845  0.48301 -0.24669
C -17.36290  0.94505 -0.24570
C -30.63709 -0.94513 -0.24569
C -19.56688 -1.92355 -0.06960
C -28.43313  1.92357 -0.06965
C -19.71509  2.22119 -0.06803
C -28.28479 -2.22118 -0.06808
C -20.82742 -1.25872  0.01436
C -27.17261  1.25879  0.01441
C -20.92591  1.46882  0.01545
C -27.07403 -1.46873  0.01552
C -17.55959 -1.11065  1.03954
C -30.44043  1.11061  1.03961
C -30.34394 -1.55474  1.04096
C -17.65606  1.55456  1.04092
C -18.75564 -1.88231  1.10992
C -29.24435  1.88230  1.10994
C -18.90494  2.23780  1.11294
C -29.09503 -2.23791  1.11296
C -21.19895  0.80487  1.23640
C -26.80110 -0.80488  1.23649
C -21.14650 -0.61789  1.23575
C -26.85352  0.61789  1.23583
C -30.77329 -0.94722  2.29312
C -17.22666  0.94707  2.29310
C -30.82522  0.47374  2.29190
C -17.17477 -0.47385  2.29194
C -28.42039 -2.21206  2.38095
C -19.57969  2.21191  2.38091
C -28.57064  1.90716  2.37745
C -19.42934 -1.90713  2.37748
C -27.21280 -1.46562  2.42404
C -20.78725  1.46548  2.42401
C -27.31188  1.25075  2.42148
C -20.68810 -1.25074  2.42140
C -17.46528 -1.10814  3.56959
C -30.53472  1.10812  3.56953
C -17.56364  1.55585  3.57282
C -30.43633 -1.55587  3.57288
C -29.33653  1.88015  3.59182
C -18.66353 -1.88016  3.59185
C -18.81502  2.23831  3.59647
C -29.18503 -2.23845  3.59647
C -26.88999 -0.80409  3.63752
C -21.10996  0.80393  3.63745
C -26.94202  0.61889  3.63645
C -21.05786 -0.61900  3.63643
C -17.12104 -0.47797  4.83260
C -30.87905  0.47798  4.83263
C -19.38331 -1.91839  4.83096
C -28.61663  1.91832  4.83091
C -20.74867  1.46739  4.83560
C -27.25120 -1.46747  4.83578
C -17.17326  0.94927  4.83443
C -30.82669 -0.94927  4.83445
C -20.64851 -1.25987  4.83204
C -27.35144  1.25980  4.83201
C -19.53585  2.21864  4.83591
C -28.46404 -2.21876  4.83591
C -26.89328 -0.79757  6.03290
C -21.10663  0.79750  6.03275
C -26.94475  0.62420  6.03170
C -21.05517 -0.62421  6.03165
C -29.33764  1.88538  6.07024
C -18.66229 -1.88534  6.07027
C -18.81376  2.23429  6.07519
C -29.18604 -2.23439  6.07527
C -17.56347  1.55218  6.09811
C -30.43643 -1.55228  6.09816
C -17.46596 -1.11244  6.09436
C -30.53397  1.11236  6.09440
C -27.21503 -1.45661  7.24730
C -20.78495  1.45647  7.24722
C -27.31367  1.26205  7.24435
C -20.68619 -1.26205  7.24435
C -28.57304  1.91944  7.28570
C -19.42682 -1.91940  7.28575
C -28.42191 -2.20570  7.29061
C -19.57805  2.20563  7.29050
C -30.82523  0.48248  7.37464
C -17.17455 -0.48261  7.37457
C -30.77378 -0.93970  7.37598
C -17.22611  0.93961  7.37582
C -21.14293 -0.63170  8.43118
C -26.85701  0.63168  8.43118
C -21.19423  0.79085  8.43214
C -26.80581 -0.79092  8.43214
C -29.24633  1.89640  8.55378
C -18.75355 -1.89651  8.55380
C -18.90382  2.22820  8.55755
C -29.09628 -2.22829  8.55762
C -30.44115  1.12229  8.62552
C -17.55872 -1.12228  8.62544
C -17.65539  1.54411  8.62816
C -30.34468 -1.54418  8.62825
C -20.82434 -1.27424  9.65307
C -27.17572  1.27416  9.65310
C -20.92340  1.45414  9.65417
C -27.07675 -1.45419  9.65409
C -19.56416 -1.93858  9.73590
C -28.43581  1.93858  9.73598
C -19.71495  2.20829  9.73859
C -28.28509 -2.20836  9.73858
C -17.31243 -0.49561  9.91438
C -30.68758  0.49554  9.91442
C -17.36320  0.93191  9.91472
C -30.63686 -0.93184  9.91472
C -26.69015  0.63776 10.82400
C -21.30993 -0.63782 10.82396
C -26.63893 -0.78493 10.82432
C -21.36114  0.78489 10.82438
C -29.06421  1.91351 11.02359
C -18.93580 -1.91350 11.02355
C -28.91660 -2.22715 11.02435
C -19.08348  2.22720 11.02437
C -17.75112 -1.13318 11.14490
C -30.24889  1.13314 11.14491
C -30.15404 -1.53346 11.14552
C -17.84595  1.53350 11.14549
C -26.96938  1.28097 12.05779
C -21.03061 -1.28103 12.05772
C -26.87298 -1.44826 12.05745
C -21.12696  1.44815 12.05746
C -28.21055  1.96097 12.17823
C -19.78945 -1.96113 12.17823
C -28.06334 -2.21390 12.17833
C -19.93669  2.21389 12.17835
C -30.42749  0.50499 12.44928
C -17.57244 -0.50496 12.44925
C -30.37821 -0.91724 12.44866
C -17.62175  0.91725 12.44861
C -21.53992 -0.64369 13.22053
C -26.46013  0.64361 13.22060
C -21.58865  0.77947 13.22147
C -26.41123 -0.77953 13.22146
C -19.20481 -1.97150 13.48987
C -28.79525  1.97136 13.48987
C -19.34992  2.26685 13.48785
C -28.65011 -2.26688 13.48790
C -18.04597 -1.15595 13.66124
C -29.95397  1.15590 13.66133
C -18.13745  1.53375 13.66028
C -29.86253 -1.53374 13.66037
C -21.30352 -1.29257 14.45073
C -26.69649  1.29245 14.45072
C -21.39399  1.44640 14.45018
C -26.60593 -1.44647 14.45016
C -20.10409 -2.04798 14.60426
C -27.89594  2.04787 14.60420
C -20.24919  2.28200 14.60272
C -27.75080 -2.28211 14.60275
C -17.95530 -0.52265 14.96636
C -30.04470  0.52265 14.96643
C -18.00170  0.90746 14.96527
C -29.99836 -0.90754 14.96535
C -26.21897  0.63957 15.62004
C -21.78102 -0.63976 15.62007
C -26.17400 -0.76746 15.62095
C -21.82593  0.76727 15.62085
C -28.42397  2.07166 15.94653
C -19.57594 -2.07180 15.94668
C -28.28057 -2.34615 15.94299
C -19.71940  2.34608 15.94302
C -29.51652  1.18467 16.14444
C -18.48343 -1.18473 16.14456
C -29.43022 -1.53469 16.14279
C -18.56980  1.53455 16.14273
C -26.30041  1.45833 16.79916
C -21.69946 -1.45839 16.79916
C -26.20511 -1.59299 16.79848
C -21.79484  1.59291 16.79847
C -27.46462  2.20377 17.01986
C -20.53533 -2.20389 17.01992
C -27.31644 -2.41521 17.01715
C -20.68351  2.41517 17.01727
C -23.31568  0.02077 17.84531
C -24.68428 -0.02078 17.84535
C -22.74538  1.31596 17.77204
C -25.25467 -1.31599 17.77210
C -22.66636 -1.23669 17.77140
C -25.33355  1.23674 17.77152
C -29.45392  0.53673 17.43641
C -18.54605 -0.53682 17.43648
C -29.40974 -0.88546 17.43560
C -18.59024  0.88539 17.43555
C -20.15814 -2.19455 18.43011
C -27.84191  2.19457 18.43009
C -24.77481  2.27100 18.59920
C -23.22516 -2.27090 18.59911
C -24.63367 -2.31529 18.59866
C -23.36631  2.31532 18.59866
C -20.30441  2.43759 18.42685
C -27.69546 -2.43776 18.42674
C -19.11306 -1.22196 18.58275
C -28.88702  1.22185 18.58273
C -19.19766  1.53642 18.58068
C -28.80224 -1.53651 18.58069
C -25.57787  2.91749 19.55305
C -22.42215 -2.91746 19.55300
C -22.60705  3.01420 19.55180
C -25.39286 -3.01428 19.55173
C -27.00092  2.57703 19.54985
C -20.99914 -2.57697 19.54986
C -26.83480 -2.76910 19.54744
C -21.16507  2.76898 19.54749
C -28.87037 -0.87050 19.83231
C -19.12960  0.87036 19.83228
C -28.91262  0.54966 19.83250
C -19.08737 -0.54977 19.83249
C -24.83184  3.34272 20.71454
C -23.16809 -3.34276 20.71450
C -24.62094 -3.39198 20.71329
C -23.37901  3.39195 20.71344
C -20.48092 -2.32352 20.85806
C -27.51910  2.32361 20.85810
C -20.62934  2.55814 20.85599
C -27.37059 -2.55820 20.85590
C -28.35356 -1.53577 20.97633
C -19.64633  1.53566 20.97632
C -28.43520  1.24089 20.97758
C -19.56471 -1.24091 20.97757
C -22.68542  3.48347 21.96146
C -25.31449 -3.48346 21.96134
C -22.47138 -3.38245 21.96299
C -25.52860  3.38242 21.96297
C -21.16372 -2.79919 22.02241
C -26.83627  2.79921 22.02244
C -21.34062  2.99215 22.02039
C -26.65928 -2.99207 22.02030
C -19.53020  0.86067 22.21296
C -28.46968 -0.86073 22.21299
C -19.48910 -0.55716 22.21284
C -28.51075  0.55711 22.21288
C -24.59663 -3.70998 23.17968
C -23.40337  3.70994 23.17968
C -24.82848  3.65806 23.18060
C -23.17154 -3.65809 23.18062
C -20.65551 -2.41615 23.29820
C -27.34448  2.41608 23.29822
C -20.80837  2.64695 23.29747
C -27.19148 -2.64686 23.29745
C -19.93041  1.53692 23.38341
C -28.06958 -1.53694 23.38349
C -19.84841 -1.25390 23.38398
C -28.15156  1.25383 23.38407
C -22.48868 -3.58463 24.44015
C -25.51138  3.58455 24.44017
C -22.71815  3.68739 24.43972
C -25.28183 -3.68746 24.43972
C -21.23344 -2.92476 24.49406
C -26.76664  2.92473 24.49409
C -21.41923  3.11746 24.49322
C -26.58074 -3.11756 24.49322
C -19.73484 -0.56139 24.61372
C -28.26514  0.56127 24.61380
C -19.77685  0.85397 24.61395
C -28.22307 -0.85406 24.61406
C -19.99653 -1.26447 25.80623
C -23.16574 -3.84587 25.66986
C -27.11107 -2.70741 25.75074
C -28.00340  1.26434 25.80628
C -24.83430  3.84578 25.66990
C -20.88895  2.70719 25.75068
C -20.72919 -2.48007 25.75036
C -24.58639 -3.89813 25.66968
C -27.91915 -1.54089 25.80663
C -27.27079  2.47994 25.75041
C -23.41366  3.89803 25.66968
C -20.08081  1.54070 25.80659
C -19.86689 -0.56511 27.02970
C -21.45283  3.19236 26.95964
C -25.51629  3.71464 26.92148
C -28.13309  0.56499 27.02972
C -26.54722 -3.19247 26.95972
C -22.48378 -3.71466 26.92144
C -19.90885  0.85172 27.03059
C -22.72617  3.81676 26.92219
C -26.74245  3.00212 26.95920
C -28.09116 -0.85185 27.03059
C -25.27391 -3.81685 26.92220
C -21.25758 -3.00222 26.95918
C -20.16123  1.54237 28.23810
C -23.41999  4.00663 28.15673
C -27.23468  2.51116 28.20438
C -27.83882 -1.54245 28.23811
C -24.58009 -4.00657 28.15677
C -20.76544 -2.51118 28.20439
C -20.93027  2.73649 28.20597
C -24.83980  3.95435 28.15674
C -27.92367  1.26947 28.23732
C -27.06975 -2.73655 28.20600
C -23.16029 -3.95426 28.15670
C -20.07634 -1.26952 28.23736
C -19.92849 -0.56695 29.45720
C -21.47253  3.22545 29.42241
C -25.52181  3.77775 29.39936
C -28.07157  0.56697 29.45715
C -26.52749 -3.22540 29.42247
C -22.47833 -3.77762 29.39934
C -19.97160  0.84985 29.45800
C -22.73005  3.87951 29.40066
C -26.73015  3.03662 29.42108
C -28.02844 -0.84983 29.45799
C -25.26998 -3.87950 29.40076
C -21.27002 -3.03648 29.42111
C -20.21025  1.53635 30.67462
C -23.42764  4.03690 30.63732
C -27.20790  2.51253 30.65837
C -27.78976 -1.53624 30.67468
C -24.57241 -4.03701 30.63739
C -20.79227 -2.51239 30.65838
C -20.96383  2.73368 30.66029
C -24.84159  3.98567 30.63724
C -27.88023  1.26765 30.67371
C -27.03618 -2.73357 30.66034
C -23.15850 -3.98563 30.63724
C -20.12002 -1.26754 30.67375
C -19.99946 -0.58167 31.90207
C -21.49970  3.17496 31.89343
C -25.48693  3.75612 31.88259
C -28.00067  0.58168 31.90207
C -26.50037 -3.17502 31.89346
C -22.51314 -3.75622 31.88262
C -20.04742  0.85881 31.90267
C -22.77337  3.85178 31.88475
C -26.71012  2.99114 31.89310
C -27.95256 -0.85879 31.90277
C -25.22667 -3.85182 31.88481
C -21.28999 -2.99110 31.89308
C -20.22822  1.52390 33.13925
C -23.43384  4.02841 33.13925
C -27.20563  2.50451 33.13925
C -27.77178 -1.52390 33.13925
C -24.56616 -4.02841 33.13925
C -20.79437 -2.50451 33.13925
C -20.97689  2.72202 33.13925
C -24.84579  3.97910 33.13925
C -27.86890  1.25708 33.13925
C -27.02311 -2.72202 33.13925
C -23.15421 -3.97910 33.13925
C -20.13110 -1.25708 33.13925
C -19.97159 16.43384 -22.17392
C -21.49549 20.20563 -22.17392
C -25.52390 20.77178 -22.17392
C -28.02841 17.56616 -22.17392
C -26.50451 13.79437 -22.17392
C -22.47610 13.22822 -22.17392
C -20.02090 17.84578 -22.17392
C -22.74292 20.86890 -22.17392
C -26.72202 20.02311 -22.17392
C -27.97910 16.15421 -22.17392
C -25.25708 13.13110 -22.17392
C -21.27798 13.97689 -22.17392
C -20.12166 18.58785 -21.01044
C -23.45010 21.07414 -20.97555
C -27.19878 19.54692 -20.94554
C -27.87844 15.41204 -21.01050
C -24.54992 12.92596 -20.97556
C -20.80110 14.45313 -20.94558
C -20.87984 19.79184 -20.99952
C -24.88064 20.96937 -20.93167
C -27.92799 18.31173 -21.00289
C -27.12007 14.20822 -20.99945
C -23.11932 13.03076 -20.93167
C -20.07198 15.68834 -21.00286
C -19.87869 16.43579 -19.79600
C -21.43579 20.27470 -19.76752
C -25.52515 20.76778 -19.69319
C -28.12132 17.56422 -19.79612
C -26.56427 13.72541 -19.76735
C -22.47481 13.23228 -19.69320
C -19.90762 17.86269 -19.79927
C -22.71295 20.90840 -19.74613
C -26.73475 20.03700 -19.71072
C -28.09248 16.13736 -19.79937
C -25.28696 13.09161 -19.74603
C -21.26516 13.96306 -19.71092
C -20.13232 18.56117 -18.57632
C -23.40577 21.00498 -18.48836
C -27.24206 19.48811 -18.50788
C -27.86773 15.43888 -18.57640
C -24.59429 12.99500 -18.48826
C -20.75781 14.51189 -18.50794
C -20.90341 19.75537 -18.54607
C -24.82190 20.93952 -18.46442
C -27.94136 18.25550 -18.56221
C -27.09653 14.24462 -18.54598
C -23.17813 13.06040 -18.46444
C -20.05856 15.74466 -18.56211
C -19.85506 16.45319 -17.35783
C -21.43053 20.20368 -17.29736
C -25.50129 20.68836 -17.23755
C -28.14491 17.54678 -17.35796
C -26.56946 13.79643 -17.29725
C -22.49876 13.31157 -17.23768
C -19.89069 17.87194 -17.36446
C -22.71049 20.81821 -17.25546
C -26.73117 19.97416 -17.27273
C -28.10936 16.12811 -17.36459
C -25.28950 13.18185 -17.25534
C -21.26887 14.02589 -17.27275
C -20.06388 18.55885 -16.13890
C -23.40125 20.89096 -16.00199
C -27.26055 19.45198 -16.06967
C -27.93623 15.44111 -16.13909
C -24.59879 13.10904 -16.00184
C -20.73950 14.54803 -16.06966
C -20.86870 19.72320 -16.08494
C -24.81838 20.82437 -15.99288
C -27.99974 18.24392 -16.13368
C -27.13113 14.27688 -16.08490
C -23.18160 13.17543 -15.99288
C -20.00044 15.75612 -16.13357
C -19.73596 16.45630 -14.93871
C -28.26405 17.54361 -14.93882
C -19.76668 17.87054 -14.94173
C -28.23325 16.12936 -14.94183
C -21.40332 20.13129 -14.82419
C -26.59663 13.86873 -14.82412
C -21.24680 14.09868 -14.81550
C -26.75320 19.90122 -14.81549
C -22.50054 13.43708 -14.76383
C -25.49942 20.56275 -14.76385
C -22.70548 20.68986 -14.76826
C -25.29455 13.31014 -14.76810
C -19.85456 15.76265 -13.71170
C -28.14544 18.23722 -13.71182
C -19.91963 18.55195 -13.71235
C -28.08041 15.44809 -13.71243
C -20.66584 14.60288 -13.62352
C -27.33415 19.39700 -13.62356
C -20.79617 19.66286 -13.62766
C -27.20395 14.33708 -13.62760
C -24.60523 13.29045 -13.51057
C -23.39461 20.70962 -13.51064
C -23.18060 13.35340 -13.50801
C -24.81925 20.64646 -13.50805
C -19.49240 16.45662 -12.53940
C -28.50760 17.54333 -12.53956
C -19.52672 17.87158 -12.54036
C -28.47320 16.12836 -12.54051
C -21.17434 14.21582 -12.34900
C -26.82553 19.78401 -12.34896
C -21.33512 20.00353 -12.34987
C -26.66485 13.99646 -12.34987
C -22.67832 20.48789 -12.29002
C -25.32158 13.51223 -12.28994
C -22.47724 13.62935 -12.29072
C -25.52263 20.37056 -12.29073
C -28.43035 18.22995 -11.30448
C -19.56975 15.77013 -11.30434
C -28.35717 15.45302 -11.30329
C -19.64281 18.54703 -11.30328
C -20.48792 14.68822 -11.18449
C -27.51219 19.31172 -11.18466
C -20.62571 19.56951 -11.18338
C -27.37426 14.43056 -11.18339
C -24.62479 13.60706 -11.04166
C -23.37508 20.39321 -11.04166
C -24.82752 20.33833 -11.04081
C -23.17232 13.66191 -11.04072
C -19.12866 17.88005 -10.16138
C -28.87136 16.12000 -10.16150
C -19.09006 16.46023 -10.16135
C -28.91006 17.53975 -10.16142
C -21.00381 14.43132 -9.87882
C -26.99627 19.56871 -9.87899
C -26.83501 14.22247 -9.87801
C -21.16486 19.77766 -9.87795
C -22.42376 14.08311 -9.88032
C -25.57629 19.91693 -9.88044
C -22.60551 20.02066 -9.87971
C -25.39446 13.97963 -9.87978
C -19.11769 15.78752 -8.91071
C -28.88236 18.21242 -8.91079
C -19.19685 18.54800 -8.90997
C -28.80309 15.45205 -8.91004
C -20.16002 14.81599 -8.75837
C -27.83998 19.18399 -8.75848
C -24.63331 14.67902 -8.92488
C -23.36671 19.32099 -8.92497
C -24.77234 19.27518 -8.92232
C -23.22772 14.72476 -8.92214
C -20.30191 19.44613 -8.75656
C -27.69803 14.55385 -8.75666
C -29.41028 16.10366 -7.76466
C -29.45195 17.52644 -7.76498
C -18.58979 17.89626 -7.76468
C -18.54816 16.47356 -7.76497
C -22.74432 18.31655 -8.10569
C -25.25565 15.68336 -8.10569
C -22.66793 15.76517 -8.10164
C -25.33202 18.23486 -8.10177
C -23.31471 17.02223 -8.18257
C -24.68518 16.97770 -8.18261
C -27.46413 19.19630 -7.34814
C -20.53577 14.80369 -7.34799
C -27.31537 14.57585 -7.34879
C -20.68456 19.42404 -7.34871
C -26.29846 18.45214 -7.12744
C -21.70145 15.54778 -7.12735
C -26.20515 15.40195 -7.13142
C -21.79489 18.59806 -7.13130
C -29.51531 18.17357 -6.47449
C -18.48467 15.82646 -6.47457
C -29.42969 15.45424 -6.47398
C -18.57038 18.54574 -6.47404
C -28.42307 19.06169 -6.27603
C -19.57677 14.93825 -6.27599
C -28.27892 14.64379 -6.27526
C -19.72109 19.35621 -6.27512
C -26.21690 17.63096 -5.95177
C -21.78298 16.36894 -5.95178
C -26.17298 16.22338 -5.95356
C -21.82698 17.77651 -5.95348
C -17.95685 16.48978 -5.29664
C -30.04316 17.51021 -5.29659
C -18.00341 17.91819 -5.29591
C -29.99665 16.08172 -5.29593
C -20.10520 14.96499 -4.93405
C -27.89465 19.03487 -4.93402
C -20.25027 19.29205 -4.93494
C -27.74966 14.70790 -4.93502
C -21.30326 15.72008 -4.78154
C -26.69661 18.27978 -4.78150
C -21.39477 18.45771 -4.78329
C -26.60508 15.54212 -4.78326
C -18.04630 15.85585 -3.99163
C -29.95369 18.14408 -3.99159
C -18.13791 18.54613 -3.99114
C -29.86211 15.45375 -3.99115
C -19.20598 15.04033 -3.81975
C -28.79395 18.95960 -3.81983
C -19.35096 19.27904 -3.81888
C -28.64894 14.72092 -3.81893
C -21.54077 16.37028 -3.55167
C -26.45935 17.62957 -3.55165
C -21.59061 17.79413 -3.55254
C -26.40924 16.20571 -3.55252
C -30.42765 17.49204 -2.78143
C -17.57240 16.50796 -2.78142
C -30.37811 16.06962 -2.78061
C -17.62195 17.93036 -2.78057
C -28.20847 18.94746 -2.51017
C -19.79157 15.05246 -2.51005
C -28.06257 14.77174 -2.51008
C -19.93737 19.22822 -2.50998
C -26.96738 18.26650 -2.38962
C -21.03276 15.73340 -2.38961
C -26.87098 15.53607 -2.38991
C -21.12902 18.46389 -2.38990
C -17.75252 15.88022 -1.47688
C -30.24755 18.11973 -1.47692
C -17.84741 18.54607 -1.47666
C -30.15257 15.45390 -1.47668
C -29.06284 18.89813 -1.35627
C -18.93723 15.10186 -1.35620
C -28.91563 14.76078 -1.35493
C -19.08428 19.23918 -1.35483
C -26.68806 17.62149 -1.15634
C -21.31191 16.37858 -1.15638
C -26.63745 16.20006 -1.15651
C -21.36250 17.79994 -1.15646
C -17.31155 16.51689 -0.24672
C -30.68845 17.48301 -0.24669
C -17.36290 17.94505 -0.24570
C -30.63709 16.05487 -0.24569
C -19.56688 15.07645 -0.06960
C -28.43313 18.92357 -0.06965
C -19.71509 19.22119 -0.06803
C -28.28479 14.77882 -0.06808
C -20.82742 15.74128  0.01436
C -27.17261 18.25879  0.01441
C -20.92591 18.46882  0.01545
C -27.07403 15.53127  0.01552
C -17.55959 15.88935  1.03954
C -30.44043 18.11061  1.03961
C -30.34394 15.44526  1.04096
C -17.65606 18.55456  1.04092
C -18.75564 15.11769  1.10992
C -29.24435 18.88230  1.10994
C -18.90494 19.23780  1.11294
C -29.09503 14.76209  1.11296
C -21.19895 17.80487  1.23640
C -26.80110 16.19512  1.23649
C -21.14650 16.38211  1.23575
C -26.85352 17.61789  1.23583
C -30.77329 16.05278  2.29312
C -17.22666 17.94707  2.29310
C -30.82522 17.47374  2.29190
C -17.17477 16.52615  2.29194
C -28.42039 14.78794  2.38095
C -19.57969 19.21191  2.38091
C -28.57064 18.90716  2.37745
C -19.42934 15.09287  2.37748
C -27.21280 15.53438  2.42404
C -20.78725 18.46548  2.42401
C -27.31188 18.25075  2.42148
C -20.68810 15.74926  2.42140
C -17.46528 15.89186  3.56959
C -30.53472 18.10812  3.56953
C -17.56364 18.55585  3.57282
C -30.43633 15.44413  3.57288
C -29.33653 18.88015  3.59182
C -18.66353 15.11984  3.59185
C -18.81502 19.23831  3.59647
C -29.18503 14.76155  3.59647
C -26.88999 16.19591  3.63752
C -21.10996 17.80393  3.63745
C -26.94202 17.61889  3.63645
C -21.05786 16.38100  3.63643
C -17.12104 16.52203  4.83260
C -30.87905 17.47798  4.83263
C -19.38331 15.08161  4.83096
C -28.61663 18.91832  4.83091
C -20.74867 18.46739  4.83560
C -27.25120 15.53253  4.83578
C -17.17326 17.94927  4.83443
C -30.82669 16.05073  4.83445
C -20.64851 15.74013  4.83204
C -27.35144 18.25980  4.83201
C -19.53585 19.21864  4.83591
C -28.46404 14.78124  4.83591
C -26.89328 16.20243  6.03290
C -21.10663 17.79750  6.03275
C -26.94475 17.62420  6.03170
C -21.05517 16.37579  6.03165
C -29.33764 18.88538  6.07024
C -18.66229 15.11466  6.07027
C -18.81376 19.23429  6.07519
C -29.18604 14.76561  6.07527
C -17.56347 18.55218  6.09811
C -30.43643 15.44772  6.09816
C -17.46596 15.88756  6.09436
C -30.53397 18.11236  6.09440
C -27.21503 15.54339  7.24730
C -20.78495 18.45647  7.24722
C -27.31367 18.26205  7.24435
C -20.68619 15.73795  7.24435
C -28.57304 18.91944  7.28570
C -19.42682 15.08060  7.28575
C -28.42191 14.79430  7.29061
C -19.57805 19.20563  7.29050
C -30.82523 17.48248  7.37464
C -17.17455 16.51739  7.37457
C -30.77378 16.06030  7.37598
C -17.22611 17.93961  7.37582
C -21.14293 16.36830  8.43118
C -26.85701 17.63168  8.43118
C -21.19423 17.79085  8.43214
C -26.80581 16.20908  8.43214
C -29.24633 18.89640  8.55378
C -18.75355 15.10349  8.55380
C -18.90382 19.22820  8.55755
C -29.09628 14.77171  8.55762
C -30.44115 18.12229  8.62552
C -17.55872 15.87772  8.62544
C -17.65539 18.54411  8.62816
C -30.34468 15.45582  8.62825
C -20.82434 15.72576  9.65307
C -27.17572 18.27416  9.65310
C -20.92340 18.45414  9.65417
C -27.07675 15.54581  9.65409
C -19.56416 15.06142  9.73590
C -28.43581 18.93858  9.73598
C -19.71495 19.20829  9.73859
C -28.28509 14.79164  9.73858
C -17.31243 16.50439  9.91438
C -30.68758 17.49554  9.91442
C -17.36320 17.93191  9.91472
C -30.63686 16.06816  9.91472
C -26.69015 17.63776 10.82400
C -21.30993 16.36218 10.82396
C -26.63893 16.21507 10.82432
C -21.36114 17.78489 10.82438
C -29.06421 18.91351 11.02359
C -18.93580 15.08650 11.02355
C -28.91660 14.77285 11.02435
C -19.08348 19.22720 11.02437
C -17.75112 15.86682 11.14490
C -30.24889 18.13314 11.14491
C -30.15404 15.46654 11.14552
C -17.84595 18.53350 11.14549
C -26.96938 18.28097 12.05779
C -21.03061 15.71897 12.05772
C -26.87298 15.55174 12.05745
C -21.12696 18.44815 12.05746
C -28.21055 18.96097 12.17823
C -19.78945 15.03887 12.17823
C -28.06334 14.78610 12.17833
C -19.93669 19.21389 12.17835
C -30.42749 17.50499 12.44928
C -17.57244 16.49504 12.44925
C -30.37821 16.08276 12.44866
C -17.62175 17.91725 12.44861
C -21.53992 16.35631 13.22053
C -26.46013 17.64361 13.22060
C -21.58865 17.77947 13.22147
C -26.41123 16.22047 13.22146
C -19.20481 15.02850 13.48987
C -28.79525 18.97136 13.48987
C -19.34992 19.26685 13.48785
C -28.65011 14.73312 13.48790
C -18.04597 15.84405 13.66124
C -29.95397 18.15590 13.66133
C -18.13745 18.53375 13.66028
C -29.86253 15.46626 13.66037
C -21.30352 15.70743 14.45073
C -26.69649 18.29245 14.45072
C -21.39399 18.44640 14.45018
C -26.60593 15.55353 14.45016
C -20.10409 14.95202 14.60426
C -27.89594 19.04787 14.60420
C -20.24919 19.28200 14.60272
C -27.75080 14.71789 14.60275
C -17.95530 16.47735 14.96636
C -30.04470 17.52265 14.96643
C -18.00170 17.90746 14.96527
C -29.99836 16.09246 14.96535
C -26.21897 17.63957 15.62004
C -21.78102 16.36024 15.62007
C -26.17400 16.23254 15.62095
C -21.82593 17.76727 15.62085
C -28.42397 19.07166 15.94653
C -19.57594 14.92820 15.94668
C -28.28057 14.65385 15.94299
C -19.71940 19.34608 15.94302
C -29.51652 18.18467 16.14444
C -18.48343 15.81527 16.14456
C -29.43022 15.46531 16.14279
C -18.56980 18.53455 16.14273
C -26.30041 18.45833 16.79916
C -21.69946 15.54161 16.79916
C -26.20511 15.40701 16.79848
C -21.79484 18.59291 16.79847
C -27.46462 19.20377 17.01986
C -20.53533 14.79611 17.01992
C -27.31644 14.58479 17.01715
C -20.68351 19.41517 17.01727
C -23.31568 17.02077 17.84531
C -24.68428 16.97922 17.84535
C -22.74538 18.31596 17.77204
C -25.25467 15.68401 17.77210
C -22.66636 15.76331 17.77140
C -25.33355 18.23674 17.77152
C -29.45392 17.53673 17.43641
C -18.54605 16.46318 17.43648
C -29.40974 16.11454 17.43560
C -18.59024 17.88539 17.43555
C -20.15814 14.80545 18.43011
C -27.84191 19.19457 18.43009
C -24.77481 19.27100 18.59920
C -23.22516 14.72910 18.59911
C -24.63367 14.68471 18.59866
C -23.36631 19.31532 18.59866
C -20.30441 19.43759 18.42685
C -27.69546 14.56224 18.42674
C -19.11306 15.77804 18.58275
C -28.88702 18.22185 18.58273
C -19.19766 18.53642 18.58068
C -28.80224 15.46349 18.58069
C -25.57787 19.91749 19.55305
C -22.42215 14.08254 19.55300
C -22.60705 20.01420 19.55180
C -25.39286 13.98572 19.55173
C -27.00092 19.57703 19.54985
C -20.99914 14.42303 19.54986
C -26.83480 14.23090 19.54744
C -21.16507 19.76898 19.54749
C -28.87037 16.12950 19.83231
C -19.12960 17.87036 19.83228
C -28.91262 17.54966 19.83250
C -19.08737 16.45023 19.83249
C -24.83184 20.34272 20.71454
C -23.16809 13.65724 20.71450
C -24.62094 13.60802 20.71329
C -23.37901 20.39195 20.71344
C -20.48092 14.67648 20.85806
C -27.51910 19.32361 20.85810
C -20.62934 19.55814 20.85599
C -27.37059 14.44180 20.85590
C -28.35356 15.46423 20.97633
C -19.64633 18.53566 20.97632
C -28.43520 18.24089 20.97758
C -19.56471 15.75909 20.97757
C -22.68542 20.48347 21.96146
C -25.31449 13.51654 21.96134
C -22.47138 13.61755 21.96299
C -25.52860 20.38242 21.96297
C -21.16372 14.20081 22.02241
C -26.83627 19.79921 22.02244
C -21.34062 19.99215 22.02039
C -26.65928 14.00793 22.02030
C -19.53020 17.86067 22.21296
C -28.46968 16.13927 22.21299
C -19.48910 16.44284 22.21284
C -28.51075 17.55711 22.21288
C -24.59663 13.29002 23.17968
C -23.40337 20.70994 23.17968
C -24.82848 20.65806 23.18060
C -23.17154 13.34191 23.18062
C -20.65551 14.58385 23.29820
C -27.34448 19.41608 23.29822
C -20.80837 19.64695 23.29747
C -27.19148 14.35314 23.29745
C -19.93041 18.53692 23.38341
C -28.06958 15.46306 23.38349
C -19.84841 15.74610 23.38398
C -28.15156 18.25383 23.38407
C -22.48868 13.41537 24.44015
C -25.51138 20.58455 24.44017
C -22.71815 20.68739 24.43972
C -25.28183 13.31254 24.43972
C -21.23344 14.07524 24.49406
C -26.76664 19.92473 24.49409
C -21.41923 20.11746 24.49322
C -26.58074 13.88244 24.49322
C -19.73484 16.43861 24.61372
C -28.26514 17.56127 24.61380
C -19.77685 17.85397 24.61395
C -28.22307 16.14594 24.61406
C -19.99653 15.73553 25.80623
C -23.16574 13.15413 25.66986
C -27.11107 14.29259 25.75074
C -28.00340 18.26434 25.80628
C -24.83430 20.84578 25.66990
C -20.88895 19.70719 25.75068
C -20.72919 14.51993 25.75036
C -24.58639 13.10187 25.66968
C -27.91915 15.45911 25.80663
C -27.27079 19.47994 25.75041
C -23.41366 20.89803 25.66968
C -20.08081 18.54070 25.80659
C -19.86689 16.43489 27.02970
C -21.45283 20.19236 26.95964
C -25.51629 20.71464 26.92148
C -28.13309 17.56499 27.02972
C -26.54722 13.80753 26.95972
C -22.48378 13.28534 26.92144
C -19.90885 17.85172 27.03059
C -22.72617 20.81676 26.92219
C -26.74245 20.00212 26.95920
C -28.09116 16.14815 27.03059
C -25.27391 13.18315 26.92220
C -21.25758 13.99778 26.95918
C -20.16123 18.54237 28.23810
C -23.41999 21.00663 28.15673
C -27.23468 19.51116 28.20438
C -27.83882 15.45755 28.23811
C -24.58009 12.99343 28.15677
C -20.76544 14.48882 28.20439
C -20.93027 19.73649 28.20597
C -24.83980 20.95435 28.15674
C -27.92367 18.26947 28.23732
C -27.06975 14.26345 28.20600
C -23.16029 13.04574 28.15670
C -20.07634 15.73048 28.23736
C -19.92849 16.43305 29.45720
C -21.47253 20.22545 29.42241
C -25.52181 20.77775 29.39936
C -28.07157 17.56697 29.45715
C -26.52749 13.77460 29.42247
C -22.47833 13.22238 29.39934
C -19.97160 17.84985 29.45800
C -22.73005 20.87951 29.40066
C -26.73015 20.03662 29.42108
C -28.02844 16.15017 29.45799
C -25.26998 13.12050 29.40076
C -21.27002 13.96352 29.42111
C -20.21025 18.53635 30.67462
C -23.42764 21.03690 30.63732
C -27.20790 19.51253 30.65837
C -27.78976 15.46376 30.67468
C -24.57241 12.96299 30.63739
C -20.79227 14.48761 30.65838
C -20.96383 19.73368 30.66029
C -24.84159 20.98567 30.63724
C -27.88023 18.26765 30.67371
C -27.03618 14.26643 30.66034
C -23.15850 13.01437 30.63724
C -20.12002 15.73246 30.67375
C -19.99946 16.41833 31.90207
C -21.49970 20.17496 31.89343
C -25.48693 20.75612 31.88259
C -28.00067 17.58168 31.90207
C -26.50037 13.82498 31.89346
C -22.51314 13.24378 31.88262
C -20.04742 17.85881 31.90267
C -22.77337 20.85178 31.88475
C -26.71012 19.99114 31.89310
C -27.95256 16.14121 31.90277
C -25.22667 13.14818 31.88481
C -21.28999 14.00890 31.89308
C -20.22822 18.52390 33.13925
C -23.43384 21.02841 33.13925
C -27.20563 19.50451 33.13925
C -27.77178 15.47610 33.13925
C -24.56616 12.97159 33.13925
C -20.79437 14.49549 33.13925
C -20.97689 19.72202 33.13925
C -24.84579 20.97910 33.13925
C -27.86890 18.25708 33.13925
C -27.02311 14.27798 33.13925
C -23.15421 13.02090 33.13925
C -20.13110 15.74292 33.13925
C  4.02841 -17.56616 -22.17392
C  2.50451 -13.79437 -22.17392
C -1.52390 -13.22822 -22.17392
C -4.02841 -16.43384 -22.17392
C -2.50451 -20.20563 -22.17392
C  1.52390 -20.77178 -22.17392
C  3.97910 -16.15422 -22.17392
C  1.25708 -13.13110 -22.17392
C -2.72202 -13.97689 -22.17392
C -3.97910 -17.84579 -22.17392
C -1.25708 -20.86890 -22.17392
C  2.72202 -20.02311 -22.17392
C  3.87834 -15.41215 -21.01044
C  0.54990 -12.92586 -20.97555
C -3.19878 -14.45308 -20.94554
C -3.87844 -18.58796 -21.01050
C -0.54992 -21.07404 -20.97556
C  3.19890 -19.54687 -20.94558
C  3.12016 -14.20816 -20.99952
C -0.88064 -13.03063 -20.93167
C -3.92799 -15.68827 -21.00289
C -3.12007 -19.79178 -20.99945
C  0.88068 -20.96924 -20.93167
C  3.92802 -18.31166 -21.00286
C  4.12131 -17.56421 -19.79600
C  2.56421 -13.72530 -19.76752
C -1.52515 -13.23222 -19.69319
C -4.12132 -16.43578 -19.79612
C -2.56427 -20.27459 -19.76735
C  1.52519 -20.76772 -19.69320
C  4.09238 -16.13731 -19.79927
C  1.28705 -13.09160 -19.74613
C -2.73475 -13.96300 -19.71072
C -4.09248 -17.86264 -19.79937
C -1.28696 -20.90839 -19.74603
C  2.73484 -20.03694 -19.71092
C  3.86768 -15.43883 -18.57632
C  0.59423 -12.99502 -18.48836
C -3.24206 -14.51189 -18.50788
C -3.86773 -18.56112 -18.57640
C -0.59429 -21.00500 -18.48826
C  3.24219 -19.48811 -18.50794
C  3.09659 -14.24463 -18.54607
C -0.82190 -13.06048 -18.46442
C -3.94136 -15.74450 -18.56221
C -3.09653 -19.75538 -18.54598
C  0.82187 -20.93960 -18.46444
C  3.94144 -18.25534 -18.56211
C  4.14494 -17.54681 -17.35783
C  2.56947 -13.79632 -17.29736
C -1.50129 -13.31164 -17.23755
C -4.14491 -16.45322 -17.35796
C -2.56946 -20.20357 -17.29725
C  1.50124 -20.68843 -17.23768
C  4.10931 -16.12806 -17.36446
C  1.28951 -13.18179 -17.25546
C -2.73117 -14.02584 -17.27273
C -4.10936 -17.87189 -17.36459
C -1.28950 -20.81815 -17.25534
C  2.73113 -19.97411 -17.27275
C  3.93612 -15.44115 -16.13890
C  0.59875 -13.10904 -16.00199
C -3.26055 -14.54802 -16.06967
C -3.93623 -18.55889 -16.13909
C -0.59879 -20.89096 -16.00184
C  3.26050 -19.45197 -16.06966
C  3.13130 -14.27680 -16.08494
C -0.81838 -13.17563 -15.99288
C -3.99974 -15.75608 -16.13368
C -3.13113 -19.72312 -16.08490
C  0.81840 -20.82457 -15.99288
C  3.99956 -18.24388 -16.13357
C  4.26404 -17.54370 -14.93871
C -4.26405 -16.45639 -14.93882
C  4.23332 -16.12946 -14.94173
C -4.23325 -17.87064 -14.94183
C  2.59668 -13.86871 -14.82419
C -2.59663 -20.13127 -14.82412
C  2.75320 -19.90132 -14.81550
C -2.75320 -14.09878 -14.81549
C  1.49946 -20.56292 -14.76383
C -1.49942 -13.43725 -14.76385
C  1.29452 -13.31014 -14.76826
C -1.29455 -20.68986 -14.76810
C  4.14544 -18.23735 -13.71170
C -4.14544 -15.76278 -13.71182
C  4.08037 -15.44805 -13.71235
C -4.08041 -18.55191 -13.71243
C  3.33416 -19.39712 -13.62352
C -3.33415 -14.60300 -13.62356
C  3.20383 -14.33714 -13.62766
C -3.20395 -19.66292 -13.62760
C -0.60523 -20.70955 -13.51057
C  0.60539 -13.29038 -13.51064
C  0.81940 -20.64660 -13.50801
C -0.81925 -13.35354 -13.50805
C  4.50760 -17.54338 -12.53940
C -4.50760 -16.45667 -12.53956
C  4.47328 -16.12842 -12.54036
C -4.47320 -17.87164 -12.54051
C  2.82566 -19.78418 -12.34900
C -2.82553 -14.21599 -12.34896
C  2.66488 -13.99647 -12.34987
C -2.66485 -20.00354 -12.34987
C  1.32168 -13.51211 -12.29002
C -1.32158 -20.48777 -12.28994
C  1.52276 -20.37065 -12.29072
C -1.52263 -13.62944 -12.29073
C -4.43035 -15.77005 -11.30448
C  4.43025 -18.22987 -11.30434
C -4.35717 -18.54698 -11.30329
C  4.35719 -15.45297 -11.30328
C  3.51208 -19.31178 -11.18449
C -3.51219 -14.68828 -11.18466
C  3.37429 -14.43049 -11.18338
C -3.37426 -19.56944 -11.18339
C -0.62479 -20.39294 -11.04166
C  0.62492 -13.60679 -11.04166
C -0.82752 -13.66167 -11.04081
C  0.82768 -20.33809 -11.04072
C  4.87134 -16.11995 -10.16138
C -4.87136 -17.88000 -10.16150
C  4.90994 -17.53977 -10.16135
C -4.91006 -16.46025 -10.16142
C  2.99619 -19.56868 -9.87882
C -2.99627 -14.43129 -9.87899
C -2.83501 -19.77753 -9.87801
C  2.83514 -14.22234 -9.87795
C  1.57624 -19.91689 -9.88032
C -1.57629 -14.08307 -9.88044
C  1.39449 -13.97934 -9.87971
C -1.39446 -20.02037 -9.87978
C  4.88231 -18.21248 -8.91071
C -4.88236 -15.78758 -8.91079
C  4.80315 -15.45200 -8.90997
C -4.80309 -18.54795 -8.91004
C  3.83998 -19.18401 -8.75837
C -3.83998 -14.81601 -8.75848
C -0.63331 -19.32098 -8.92488
C  0.63329 -14.67901 -8.92497
C -0.77234 -14.72482 -8.92232
C  0.77228 -19.27524 -8.92214
C  3.69809 -14.55387 -8.75656
C -3.69803 -19.44615 -8.75666
C -5.41028 -17.89634 -7.76466
C -5.45195 -16.47356 -7.76498
C  5.41021 -16.10374 -7.76468
C  5.45184 -17.52644 -7.76497
C  1.25568 -15.68345 -8.10569
C -1.25565 -18.31664 -8.10569
C  1.33207 -18.23483 -8.10164
C -1.33202 -15.76514 -8.10177
C  0.68529 -16.97777 -8.18257
C -0.68518 -17.02230 -8.18261
C -3.46413 -14.80370 -7.34814
C  3.46423 -19.19631 -7.34799
C -3.31537 -19.42415 -7.34879
C  3.31544 -14.57596 -7.34871
C -2.29846 -15.54786 -7.12744
C  2.29855 -18.45222 -7.12735
C -2.20515 -18.59805 -7.13142
C  2.20511 -15.40194 -7.13130
C -5.51531 -15.82643 -6.47449
C  5.51533 -18.17354 -6.47457
C -5.42969 -18.54576 -6.47398
C  5.42962 -15.45426 -6.47404
C -4.42307 -14.93831 -6.27603
C  4.42323 -19.06175 -6.27599
C -4.27892 -19.35621 -6.27526
C  4.27891 -14.64379 -6.27512
C -2.21690 -16.36904 -5.95177
C  2.21702 -17.63106 -5.95178
C -2.17298 -17.77662 -5.95356
C  2.17302 -16.22349 -5.95348
C  6.04315 -17.51022 -5.29664
C -6.04316 -16.48979 -5.29659
C  5.99659 -16.08181 -5.29591
C -5.99665 -17.91828 -5.29593
C  3.89480 -19.03501 -4.93405
C -3.89465 -14.96513 -4.93402
C  3.74973 -14.70795 -4.93494
C -3.74966 -19.29210 -4.93502
C  2.69674 -18.27992 -4.78154
C -2.69661 -15.72022 -4.78150
C  2.60523 -15.54229 -4.78329
C -2.60508 -18.45788 -4.78326
C  5.95370 -18.14415 -3.99163
C -5.95369 -15.85592 -3.99159
C  5.86209 -15.45387 -3.99114
C -5.86211 -18.54625 -3.99115
C  4.79402 -18.95967 -3.81975
C -4.79395 -15.04040 -3.81983
C  4.64904 -14.72096 -3.81888
C -4.64894 -19.27908 -3.81893
C  2.45923 -17.62972 -3.55167
C -2.45935 -16.37043 -3.55165
C  2.40939 -16.20587 -3.55254
C -2.40924 -17.79429 -3.55252
C -6.42765 -16.50796 -2.78143
C  6.42760 -17.49204 -2.78142
C -6.37811 -17.93038 -2.78061
C  6.37805 -16.06964 -2.78057
C -4.20847 -15.05254 -2.51017
C  4.20843 -18.94754 -2.51005
C -4.06257 -19.22826 -2.51008
C  4.06263 -14.77178 -2.50998
C -2.96738 -15.73350 -2.38962
C  2.96724 -18.26660 -2.38961
C -2.87098 -18.46393 -2.38991
C  2.87098 -15.53611 -2.38990
C  6.24748 -18.11978 -1.47688
C -6.24755 -15.88027 -1.47692
C  6.15259 -15.45393 -1.47666
C -6.15257 -18.54610 -1.47668
C -5.06284 -15.10187 -1.35627
C  5.06277 -18.89814 -1.35620
C -4.91563 -19.23922 -1.35493
C  4.91572 -14.76082 -1.35483
C -2.68806 -16.37851 -1.15634
C  2.68809 -17.62142 -1.15638
C -2.63745 -17.79994 -1.15651
C  2.63750 -16.20006 -1.15646
C  6.68845 -17.48311 -0.24672
C -6.68845 -16.51699 -0.24669
C  6.63710 -16.05495 -0.24570
C -6.63709 -17.94513 -0.24569
C  4.43312 -18.92355 -0.06960
C -4.43313 -15.07643 -0.06965
C  4.28491 -14.77881 -0.06803
C -4.28479 -19.22118 -0.06808
C  3.17258 -18.25872  0.01436
C -3.17261 -15.74121  0.01441
C  3.07409 -15.53118  0.01545
C -3.07403 -18.46873  0.01552
C  6.44041 -18.11065  1.03954
C -6.44043 -15.88939  1.03961
C -6.34394 -18.55474  1.04096
C  6.34394 -15.44544  1.04092
C  5.24436 -18.88231  1.10992
C -5.24435 -15.11770  1.10994
C  5.09506 -14.76220  1.11294
C -5.09503 -19.23791  1.11296
C  2.80105 -16.19513  1.23640
C -2.80110 -17.80488  1.23649
C  2.85350 -17.61789  1.23575
C -2.85352 -16.38211  1.23583
C -6.77329 -17.94722  2.29312
C  6.77334 -16.05293  2.29310
C -6.82522 -16.52626  2.29190
C  6.82523 -17.47385  2.29194
C -4.42039 -19.21206  2.38095
C  4.42031 -14.78809  2.38091
C -4.57064 -15.09284  2.37745
C  4.57066 -18.90713  2.37748
C -3.21280 -18.46562  2.42404
C  3.21275 -15.53452  2.42401
C -3.31188 -15.74925  2.42148
C  3.31190 -18.25074  2.42140
C  6.53472 -18.10814  3.56959
C -6.53472 -15.89188  3.56953
C  6.43636 -15.44415  3.57282
C -6.43633 -18.55587  3.57288
C -5.33653 -15.11985  3.59182
C  5.33647 -18.88016  3.59185
C  5.18498 -14.76169  3.59647
C -5.18503 -19.23845  3.59647
C -2.88999 -17.80409  3.63752
C  2.89004 -16.19607  3.63745
C -2.94202 -16.38111  3.63645
C  2.94214 -17.61900  3.63643
C  6.87896 -17.47797  4.83260
C -6.87905 -16.52202  4.83263
C  4.61669 -18.91839  4.83096
C -4.61663 -15.08168  4.83091
C  3.25133 -15.53261  4.83560
C -3.25120 -18.46747  4.83578
C  6.82674 -16.05073  4.83443
C -6.82669 -17.94927  4.83445
C  3.35149 -18.25987  4.83204
C -3.35144 -15.74020  4.83201
C  4.46415 -14.78136  4.83591
C -4.46404 -19.21876  4.83591
C -2.89328 -17.79757  6.03290
C  2.89337 -16.20250  6.03275
C -2.94475 -16.37580  6.03170
C  2.94483 -17.62421  6.03165
C -5.33764 -15.11462  6.07024
C  5.33771 -18.88534  6.07027
C  5.18624 -14.76571  6.07519
C -5.18604 -19.23439  6.07527
C  6.43653 -15.44782  6.09811
C -6.43643 -18.55228  6.09816
C  6.53404 -18.11244  6.09436
C -6.53397 -15.88764  6.09440
C -3.21503 -18.45661  7.24730
C  3.21505 -15.54353  7.24722
C -3.31367 -15.73795  7.24435
C  3.31381 -18.26205  7.24435
C -4.57304 -15.08056  7.28570
C  4.57318 -18.91940  7.28575
C -4.42191 -19.20570  7.29061
C  4.42195 -14.79437  7.29050
C -6.82523 -16.51752  7.37464
C  6.82545 -17.48261  7.37457
C -6.77378 -17.93970  7.37598
C  6.77389 -16.06039  7.37582
C  2.85707 -17.63170  8.43118
C -2.85701 -16.36832  8.43118
C  2.80577 -16.20915  8.43214
C -2.80581 -17.79092  8.43214
C -5.24633 -15.10360  8.55378
C  5.24645 -18.89651  8.55380
C  5.09618 -14.77180  8.55755
C -5.09628 -19.22829  8.55762
C -6.44115 -15.87771  8.62552
C  6.44128 -18.12228  8.62544
C  6.34461 -15.45589  8.62816
C -6.34468 -18.54418  8.62825
C  3.17566 -18.27424  9.65307
C -3.17572 -15.72584  9.65310
C  3.07660 -15.54586  9.65417
C -3.07675 -18.45419  9.65409
C  4.43584 -18.93858  9.73590
C -4.43581 -15.06142  9.73598
C  4.28505 -14.79171  9.73859
C -4.28509 -19.20836  9.73858
C  6.68757 -17.49561  9.91438
C -6.68758 -16.50446  9.91442
C  6.63680 -16.06809  9.91472
C -6.63686 -17.93184  9.91472
C -2.69015 -16.36224 10.82400
C  2.69007 -17.63782 10.82396
C -2.63893 -17.78493 10.82432
C  2.63886 -16.21511 10.82438
C -5.06421 -15.08649 11.02359
C  5.06420 -18.91350 11.02355
C -4.91660 -19.22715 11.02435
C  4.91652 -14.77280 11.02437
C  6.24888 -18.13318 11.14490
C -6.24889 -15.86686 11.14491
C -6.15404 -18.53346 11.14552
C  6.15405 -15.46650 11.14549
C -2.96938 -15.71903 12.05779
C  2.96939 -18.28103 12.05772
C -2.87298 -18.44826 12.05745
C  2.87304 -15.55185 12.05746
C -4.21055 -15.03903 12.17823
C  4.21055 -18.96113 12.17823
C -4.06334 -19.21390 12.17833
C  4.06331 -14.78611 12.17835
C -6.42749 -16.49501 12.44928
C  6.42756 -17.50496 12.44925
C -6.37821 -17.91724 12.44866
C  6.37825 -16.08275 12.44861
C  2.46008 -17.64369 13.22053
C -2.46013 -16.35639 13.22060
C  2.41135 -16.22053 13.22147
C -2.41123 -17.77953 13.22146
C  4.79519 -18.97150 13.48987
C -4.79525 -15.02864 13.48987
C  4.65008 -14.73315 13.48785
C -4.65011 -19.26688 13.48790
C  5.95403 -18.15595 13.66124
C -5.95397 -15.84410 13.66133
C  5.86255 -15.46625 13.66028
C -5.86253 -18.53374 13.66037
C  2.69648 -18.29257 14.45073
C -2.69649 -15.70755 14.45072
C  2.60601 -15.55360 14.45018
C -2.60593 -18.44647 14.45016
C  3.89591 -19.04798 14.60426
C -3.89594 -14.95213 14.60420
C  3.75081 -14.71800 14.60272
C -3.75080 -19.28211 14.60275
C  6.04470 -17.52265 14.96636
C -6.04470 -16.47735 14.96643
C  5.99830 -16.09254 14.96527
C -5.99836 -17.90754 14.96535
C -2.21897 -16.36043 15.62004
C  2.21898 -17.63976 15.62007
C -2.17400 -17.76746 15.62095
C  2.17407 -16.23273 15.62085
C -4.42397 -14.92834 15.94653
C  4.42406 -19.07180 15.94668
C -4.28057 -19.34615 15.94299
C  4.28060 -14.65392 15.94302
C -5.51652 -15.81533 16.14444
C  5.51657 -18.18473 16.14456
C -5.43022 -18.53469 16.14279
C  5.43020 -15.46545 16.14273
C -2.30041 -15.54167 16.79916
C  2.30054 -18.45839 16.79916
C -2.20511 -18.59299 16.79848
C  2.20516 -15.40709 16.79847
C -3.46462 -14.79623 17.01986
C  3.46467 -19.20389 17.01992
C -3.31644 -19.41521 17.01715
C  3.31649 -14.58483 17.01727
C  0.68432 -16.97923 17.84531
C -0.68428 -17.02078 17.84535
C  1.25462 -15.68404 17.77204
C -1.25467 -18.31599 17.77210
C  1.33364 -18.23669 17.77140
C -1.33355 -15.76326 17.77152
C -5.45392 -16.46327 17.43641
C  5.45395 -17.53682 17.43648
C -5.40974 -17.88546 17.43560
C  5.40976 -16.11461 17.43555
C  3.84186 -19.19455 18.43011
C -3.84191 -14.80543 18.43009
C -0.77481 -14.72900 18.59920
C  0.77484 -19.27090 18.59911
C -0.63367 -19.31529 18.59866
C  0.63369 -14.68468 18.59866
C  3.69559 -14.56241 18.42685
C -3.69546 -19.43776 18.42674
C  4.88694 -18.22196 18.58275
C -4.88702 -15.77815 18.58273
C  4.80234 -15.46358 18.58068
C -4.80224 -18.53651 18.58069
C -1.57787 -14.08251 19.55305
C  1.57785 -19.91746 19.55300
C  1.39295 -13.98580 19.55180
C -1.39286 -20.01428 19.55173
C -3.00092 -14.42297 19.54985
C  3.00086 -19.57697 19.54986
C -2.83480 -19.76910 19.54744
C  2.83493 -14.23102 19.54749
C -4.87037 -17.87050 19.83231
C  4.87040 -16.12964 19.83228
C -4.91262 -16.45034 19.83250
C  4.91263 -17.54977 19.83249
C -0.83184 -13.65728 20.71454
C  0.83191 -20.34276 20.71450
C -0.62094 -20.39198 20.71329
C  0.62099 -13.60805 20.71344
C  3.51908 -19.32352 20.85806
C -3.51910 -14.67639 20.85810
C  3.37066 -14.44186 20.85599
C -3.37059 -19.55820 20.85590
C -4.35356 -18.53577 20.97633
C  4.35367 -15.46434 20.97632
C -4.43520 -15.75911 20.97758
C  4.43529 -18.24091 20.97757
C  1.31458 -13.51653 21.96146
C -1.31449 -20.48346 21.96134
C  1.52862 -20.38245 21.96299
C -1.52860 -13.61758 21.96297
C  2.83628 -19.79919 22.02241
C -2.83627 -14.20079 22.02244
C  2.65938 -14.00785 22.02039
C -2.65928 -19.99207 22.02030
C  4.46980 -16.13933 22.21296
C -4.46968 -17.86073 22.21299
C  4.51090 -17.55716 22.21284
C -4.51075 -16.44289 22.21288
C -0.59663 -20.70998 23.17968
C  0.59663 -13.29006 23.17968
C -0.82848 -13.34194 23.18060
C  0.82846 -20.65809 23.18062
C  3.34449 -19.41615 23.29820
C -3.34448 -14.58392 23.29822
C  3.19163 -14.35305 23.29747
C -3.19148 -19.64686 23.29745
C  4.06959 -15.46308 23.38341
C -4.06958 -18.53694 23.38349
C  4.15159 -18.25390 23.38398
C -4.15156 -15.74617 23.38407
C  1.51132 -20.58463 24.44015
C -1.51138 -13.41545 24.44017
C  1.28185 -13.31261 24.43972
C -1.28183 -20.68746 24.43972
C  2.76656 -19.92476 24.49406
C -2.76664 -14.07527 24.49409
C  2.58077 -13.88254 24.49322
C -2.58074 -20.11756 24.49322
C  4.26516 -17.56139 24.61372
C -4.26514 -16.43873 24.61380
C  4.22315 -16.14603 24.61395
C -4.22307 -17.85406 24.61406
C  4.00347 -18.26447 25.80623
C  0.83426 -20.84587 25.66986
C -3.11107 -19.70741 25.75074
C -4.00340 -15.73566 25.80628
C -0.83430 -13.15422 25.66990
C  3.11105 -14.29281 25.75068
C  3.27081 -19.48007 25.75036
C -0.58639 -20.89813 25.66968
C -3.91915 -18.54089 25.80663
C -3.27079 -14.52006 25.75041
C  0.58634 -13.10197 25.66968
C  3.91919 -15.45930 25.80659
C  4.13311 -17.56511 27.02970
C  2.54717 -13.80764 26.95964
C -1.51629 -13.28536 26.92148
C -4.13309 -16.43501 27.02972
C -2.54722 -20.19247 26.95972
C  1.51622 -20.71466 26.92144
C  4.09115 -16.14828 27.03059
C  1.27383 -13.18324 26.92219
C -2.74245 -13.99788 26.95920
C -4.09116 -17.85185 27.03059
C -1.27391 -20.81685 26.92220
C  2.74242 -20.00222 26.95918
C  3.83877 -15.45763 28.23810
C  0.58001 -12.99337 28.15673
C -3.23468 -14.48884 28.20438
C -3.83882 -18.54245 28.23811
C -0.58009 -21.00657 28.15677
C  3.23456 -19.51118 28.20439
C  3.06973 -14.26351 28.20597
C -0.83980 -13.04565 28.15674
C -3.92367 -15.73053 28.23732
C -3.06975 -19.73655 28.20600
C  0.83971 -20.95426 28.15670
C  3.92366 -18.26952 28.23736
C  4.07151 -17.56695 29.45720
C  2.52747 -13.77455 29.42241
C -1.52181 -13.22225 29.39936
C -4.07157 -16.43303 29.45715
C -2.52749 -20.22540 29.42247
C  1.52167 -20.77762 29.39934
C  4.02840 -16.15015 29.45800
C  1.26995 -13.12049 29.40066
C -2.73015 -13.96338 29.42108
C -4.02844 -17.84983 29.45799
C -1.26998 -20.87950 29.40076
C  2.72998 -20.03648 29.42111
C  3.78975 -15.46365 30.67462
C  0.57236 -12.96310 30.63732
C -3.20790 -14.48747 30.65837
C -3.78976 -18.53624 30.67468
C -0.57241 -21.03701 30.63739
C  3.20773 -19.51239 30.65838
C  3.03617 -14.26632 30.66029
C -0.84159 -13.01433 30.63724
C -3.88023 -15.73235 30.67371
C -3.03618 -19.73357 30.66034
C  0.84150 -20.98563 30.63724
C  3.87998 -18.26754 30.67375
C  4.00054 -17.58167 31.90207
C  2.50030 -13.82504 31.89343
C -1.48693 -13.24388 31.88259
C -4.00067 -16.41832 31.90207
C -2.50037 -20.17502 31.89346
C  1.48686 -20.75622 31.88262
C  3.95258 -16.14119 31.90267
C  1.22663 -13.14822 31.88475
C -2.71012 -14.00886 31.89310
C -3.95256 -17.85879 31.90277
C -1.22667 -20.85182 31.88481
C  2.71001 -19.99110 31.89308
C  3.77178 -15.47610 33.13925
C  0.56616 -12.97159 33.13925
C -3.20563 -14.49549 33.13925
C -3.77178 -18.52390 33.13925
C -0.56616 -21.02841 33.13925
C  3.20563 -19.50451 33.13925
C  3.02311 -14.27798 33.13925
C -0.84579 -13.02090 33.13925
C -3.86890 -15.74292 33.13925
C -3.02311 -19.72202 33.13925
C  0.84579 -20.97910 33.13925
C  3.86890 -18.25708 33.13925
C  4.02841 -0.56616 -22.17392
C  2.50451  3.20563 -22.17392
C -1.52390  3.77178 -22.17392
C -4.02841  0.56616 -22.17392
C -2.50451 -3.20563 -22.17392
C  1.52390 -3.77178 -22.17392
C  3.97910  0.84578 -22.17392
C  1.25708  3.86890 -22.17392
C -2.72202  3.02311 -22.17392
C -3.97910 -0.84579 -22.17392
C -1.25708 -3.86890 -22.17392
C  2.72202 -3.02311 -22.17392
C  3.87834  1.58785 -21.01044
C  0.54990  4.07414 -20.97555
C -3.19878  2.54692 -20.94554
C -3.87844 -1.58796 -21.01050
C -0.54992 -4.07404 -20.97556
C  3.19890 -2.54687 -20.94558
C  3.12016  2.79184 -20.99952
C -0.88064  3.96937 -20.93167
C -3.92799  1.31173 -21.00289
C -3.12007 -2.79178 -20.99945
C  0.88068 -3.96924 -20.93167
C  3.92802 -1.31166 -21.00286
C  4.12131 -0.56421 -19.79600
C  2.56421  3.27470 -19.76752
C -1.52515  3.76778 -19.69319
C -4.12132  0.56422 -19.79612
C -2.56427 -3.27459 -19.76735
C  1.52519 -3.76772 -19.69320
C  4.09238  0.86269 -19.79927
C  1.28705  3.90840 -19.74613
C -2.73475  3.03700 -19.71072
C -4.09248 -0.86264 -19.79937
C -1.28696 -3.90839 -19.74603
C  2.73484 -3.03694 -19.71092
C  3.86768  1.56117 -18.57632
C  0.59423  4.00498 -18.48836
C -3.24206  2.48811 -18.50788
C -3.86773 -1.56112 -18.57640
C -0.59429 -4.00500 -18.48826
C  3.24219 -2.48811 -18.50794
C  3.09659  2.75537 -18.54607
C -0.82190  3.93952 -18.46442
C -3.94136  1.25550 -18.56221
C -3.09653 -2.75538 -18.54598
C  0.82187 -3.93960 -18.46444
C  3.94144 -1.25534 -18.56211
C  4.14494 -0.54681 -17.35783
C  2.56947  3.20368 -17.29736
C -1.50129  3.68836 -17.23755
C -4.14491  0.54678 -17.35796
C -2.56946 -3.20357 -17.29725
C  1.50124 -3.68843 -17.23768
C  4.10931  0.87194 -17.36446
C  1.28951  3.81821 -17.25546
C -2.73117  2.97416 -17.27273
C -4.10936 -0.87189 -17.36459
C -1.28950 -3.81815 -17.25534
C  2.73113 -2.97411 -17.27275
C  3.93612  1.55885 -16.13890
C  0.59875  3.89096 -16.00199
C -3.26055  2.45198 -16.06967
C -3.93623 -1.55889 -16.13909
C -0.59879 -3.89096 -16.00184
C  3.26050 -2.45197 -16.06966
C  3.13130  2.72320 -16.08494
C -0.81838  3.82437 -15.99288
C -3.99974  1.24392 -16.13368
C -3.13113 -2.72312 -16.08490
C  0.81840 -3.82457 -15.99288
C  3.99956 -1.24388 -16.13357
C  4.26404 -0.54370 -14.93871
C -4.26405  0.54361 -14.93882
C  4.23332  0.87054 -14.94173
C -4.23325 -0.87064 -14.94183
C  2.59668  3.13129 -14.82419
C -2.59663 -3.13127 -14.82412
C  2.75320 -2.90132 -14.81550
C -2.75320  2.90122 -14.81549
C  1.49946 -3.56292 -14.76383
C -1.49942  3.56275 -14.76385
C  1.29452  3.68986 -14.76826
C -1.29455 -3.68986 -14.76810
C  4.14544 -1.23735 -13.71170
C -4.14544  1.23722 -13.71182
C  4.08037  1.55195 -13.71235
C -4.08041 -1.55191 -13.71243
C  3.33416 -2.39712 -13.62352
C -3.33415  2.39700 -13.62356
C  3.20383  2.66286 -13.62766
C -3.20395 -2.66292 -13.62760
C -0.60523 -3.70955 -13.51057
C  0.60539  3.70962 -13.51064
C  0.81940 -3.64660 -13.50801
C -0.81925  3.64646 -13.50805
C  4.50760 -0.54338 -12.53940
C -4.50760  0.54333 -12.53956
C  4.47328  0.87158 -12.54036
C -4.47320 -0.87164 -12.54051
C  2.82566 -2.78418 -12.34900
C -2.82553  2.78401 -12.34896
C  2.66488  3.00353 -12.34987
C -2.66485 -3.00354 -12.34987
C  1.32168  3.48789 -12.29002
C -1.32158 -3.48777 -12.28994
C  1.52276 -3.37065 -12.29072
C -1.52263  3.37056 -12.29073
C -4.43035  1.22995 -11.30448
C  4.43025 -1.22987 -11.30434
C -4.35717 -1.54698 -11.30329
C  4.35719  1.54703 -11.30328
C  3.51208 -2.31178 -11.18449
C -3.51219  2.31172 -11.18466
C  3.37429  2.56951 -11.18338
C -3.37426 -2.56944 -11.18339
C -0.62479 -3.39294 -11.04166
C  0.62492  3.39321 -11.04166
C -0.82752  3.33833 -11.04081
C  0.82768 -3.33809 -11.04072
C  4.87134  0.88005 -10.16138
C -4.87136 -0.88000 -10.16150
C  4.90994 -0.53977 -10.16135
C -4.91006  0.53975 -10.16142
C  2.99619 -2.56868 -9.87882
C -2.99627  2.56871 -9.87899
C -2.83501 -2.77753 -9.87801
C  2.83514  2.77766 -9.87795
C  1.57624 -2.91689 -9.88032
C -1.57629  2.91693 -9.88044
C  1.39449  3.02066 -9.87971
C -1.39446 -3.02037 -9.87978
C  4.88231 -1.21248 -8.91071
C -4.88236  1.21242 -8.91079
C  4.80315  1.54800 -8.90997
C -4.80309 -1.54795 -8.91004
C  3.83998 -2.18401 -8.75837
C -3.83998  2.18399 -8.75848
C -0.63331 -2.32098 -8.92488
C  0.63329  2.32099 -8.92497
C -0.77234  2.27518 -8.92232
C  0.77228 -2.27524 -8.92214
C  3.69809  2.44613 -8.75656
C -3.69803 -2.44615 -8.75666
C -5.41028 -0.89634 -7.76466
C -5.45195  0.52644 -7.76498
C  5.41021  0.89626 -7.76468
C  5.45184 -0.52644 -7.76497
C  1.25568  1.31655 -8.10569
C -1.25565 -1.31664 -8.10569
C  1.33207 -1.23483 -8.10164
C -1.33202  1.23486 -8.10177
C  0.68529  0.02223 -8.18257
C -0.68518 -0.02230 -8.18261
C -3.46413  2.19630 -7.34814
C  3.46423 -2.19631 -7.34799
C -3.31537 -2.42415 -7.34879
C  3.31544  2.42404 -7.34871
C -2.29846  1.45214 -7.12744
C  2.29855 -1.45222 -7.12735
C -2.20515 -1.59805 -7.13142
C  2.20511  1.59806 -7.13130
C -5.51531  1.17357 -6.47449
C  5.51533 -1.17354 -6.47457
C -5.42969 -1.54576 -6.47398
C  5.42962  1.54574 -6.47404
C -4.42307  2.06169 -6.27603
C  4.42323 -2.06175 -6.27599
C -4.27892 -2.35621 -6.27526
C  4.27891  2.35621 -6.27512
C -2.21690  0.63096 -5.95177
C  2.21702 -0.63106 -5.95178
C -2.17298 -0.77662 -5.95356
C  2.17302  0.77651 -5.95348
C  6.04315 -0.51022 -5.29664
C -6.04316  0.51021 -5.29659
C  5.99659  0.91819 -5.29591
C -5.99665 -0.91828 -5.29593
C  3.89480 -2.03501 -4.93405
C -3.89465  2.03487 -4.93402
C  3.74973  2.29205 -4.93494
C -3.74966 -2.29210 -4.93502
C  2.69674 -1.27992 -4.78154
C -2.69661  1.27978 -4.78150
C  2.60523  1.45771 -4.78329
C -2.60508 -1.45788 -4.78326
C  5.95370 -1.14415 -3.99163
C -5.95369  1.14408 -3.99159
C  5.86209  1.54613 -3.99114
C -5.86211 -1.54625 -3.99115
C  4.79402 -1.95967 -3.81975
C -4.79395  1.95960 -3.81983
C  4.64904  2.27904 -3.81888
C -4.64894 -2.27908 -3.81893
C  2.45923 -0.62972 -3.55167
C -2.45935  0.62957 -3.55165
C  2.40939  0.79413 -3.55254
C -2.40924 -0.79429 -3.55252
C -6.42765  0.49204 -2.78143
C  6.42760 -0.49204 -2.78142
C -6.37811 -0.93038 -2.78061
C  6.37805  0.93036 -2.78057
C -4.20847  1.94746 -2.51017
C  4.20843 -1.94754 -2.51005
C -4.06257 -2.22826 -2.51008
C  4.06263  2.22822 -2.50998
C -2.96738  1.26650 -2.38962
C  2.96724 -1.26660 -2.38961
C -2.87098 -1.46393 -2.38991
C  2.87098  1.46389 -2.38990
C  6.24748 -1.11978 -1.47688
C -6.24755  1.11973 -1.47692
C  6.15259  1.54607 -1.47666
C -6.15257 -1.54610 -1.47668
C -5.06284  1.89813 -1.35627
C  5.06277 -1.89814 -1.35620
C -4.91563 -2.23922 -1.35493
C  4.91572  2.23918 -1.35483
C -2.68806  0.62149 -1.15634
C  2.68809 -0.62142 -1.15638
C -2.63745 -0.79994 -1.15651
C  2.63750  0.79994 -1.15646
C  6.68845 -0.48311 -0.24672
C -6.68845  0.48301 -0.24669
C  6.63710  0.94505 -0.24570
C -6.63709 -0.94513 -0.24569
C  4.43312 -1.92355 -0.06960
C -4.43313  1.92357 -0.06965
C  4.28491  2.22119 -0.06803
C -4.28479 -2.22118 -0.06808
C  3.17258 -1.25872  0.01436
C -3.17261  1.25879  0.01441
C  3.07409  1.46882  0.01545
C -3.07403 -1.46873  0.01552
C  6.44041 -1.11065  1.03954
C -6.44043  1.11061  1.03961
C -6.34394 -1.55474  1.04096
C  6.34394  1.55456  1.04092
C  5.24436 -1.88231  1.10992
C -5.24435  1.88230  1.10994
C  5.09506  2.23780  1.11294
C -5.09503 -2.23791  1.11296
C  2.80105  0.80487  1.23640
C -2.80110 -0.80488  1.23649
C  2.85350 -0.61789  1.23575
C -2.85352  0.61789  1.23583
C -6.77329 -0.94722  2.29312
C  6.77334  0.94707  2.29310
C -6.82522  0.47374  2.29190
C  6.82523 -0.47385  2.29194
C -4.42039 -2.21206  2.38095
C  4.42031  2.21191  2.38091
C -4.57064  1.90716  2.37745
C  4.57066 -1.90713  2.37748
C -3.21280 -1.46562  2.42404
C  3.21275  1.46548  2.42401
C -3.31188  1.25075  2.42148
C  3.31190 -1.25074  2.42140
C  6.53472 -1.10814  3.56959
C -6.53472  1.10812  3.56953
C  6.43636  1.55585  3.57282
C -6.43633 -1.55587  3.57288
C -5.33653  1.88015  3.59182
C  5.33647 -1.88016  3.59185
C  5.18498  2.23831  3.59647
C -5.18503 -2.23845  3.59647
C -2.88999 -0.80409  3.63752
C  2.89004  0.80393  3.63745
C -2.94202  0.61889  3.63645
C  2.94214 -0.61900  3.63643
C  6.87896 -0.47797  4.83260
C -6.87905  0.47798  4.83263
C  4.61669 -1.91839  4.83096
C -4.61663  1.91832  4.83091
C  3.25133  1.46739  4.83560
C -3.25120 -1.46747  4.83578
C  6.82674  0.94927  4.83443
C -6.82669 -0.94927  4.83445
C  3.35149 -1.25987  4.83204
C -3.35144  1.25980  4.83201
C  4.46415  2.21864  4.83591
C -4.46404 -2.21876  4.83591
C -2.89328 -0.79757  6.03290
C  2.89337  0.79750  6.03275
C -2.94475  0.62420  6.03170
C  2.94483 -0.62421  6.03165
C -5.33764  1.88538  6.07024
C  5.33771 -1.88534  6.07027
C  5.18624  2.23429  6.07519
C -5.18604 -2.23439  6.07527
C  6.43653  1.55218  6.09811
C -6.43643 -1.55228  6.09816
C  6.53404 -1.11244  6.09436
C -6.53397  1.11236  6.09440
C -3.21503 -1.45661  7.24730
C  3.21505  1.45647  7.24722
C -3.31367  1.26205  7.24435
C  3.31381 -1.26205  7.24435
C -4.57304  1.91944  7.28570
C  4.57318 -1.91940  7.28575
C -4.42191 -2.20570  7.29061
C  4.42195  2.20563  7.29050
C -6.82523  0.48248  7.37464
C  6.82545 -0.48261  7.37457
C -6.77378 -0.93970  7.37598
C  6.77389  0.93961  7.37582
C  2.85707 -0.63170  8.43118
C -2.85701  0.63168  8.43118
C  2.80577  0.79085  8.43214
C -2.80581 -0.79092  8.43214
C -5.24633  1.89640  8.55378
C  5.24645 -1.89651  8.55380
C  5.09618  2.22820  8.55755
C -5.09628 -2.22829  8.55762
C -6.44115  1.12229  8.62552
C  6.44128 -1.12228  8.62544
C  6.34461  1.54411  8.62816
C -6.34468 -1.54418  8.62825
C  3.17566 -1.27424  9.65307
C -3.17572  1.27416  9.65310
C  3.07660  1.45414  9.65417
C -3.07675 -1.45419  9.65409
C  4.43584 -1.93858  9.73590
C -4.43581  1.93858  9.73598
C  4.28505  2.20829  9.73859
C -4.28509 -2.20836  9.73858
C  6.68757 -0.49561  9.91438
C -6.68758  0.49554  9.91442
C  6.63680  0.93191  9.91472
C -6.63686 -0.93184  9.91472
C -2.69015  0.63776 10.82400
C  2.69007 -0.63782 10.82396
C -2.63893 -0.78493 10.82432
C  2.63886  0.78489 10.82438
C -5.06421  1.91351 11.02359
C  5.06420 -1.91350 11.02355
C -4.91660 -2.22715 11.02435
C  4.91652  2.22720 11.02437
C  6.24888 -1.13318 11.14490
C -6.24889  1.13314 11.14491
C -6.15404 -1.53346 11.14552
C  6.15405  1.53350 11.14549
C -2.96938  1.28097 12.05779
C  2.96939 -1.28103 12.05772
C -2.87298 -1.44826 12.05745
C  2.87304  1.44815 12.05746
C -4.21055  1.96097 12.17823
C  4.21055 -1.96113 12.17823
C -4.06334 -2.21390 12.17833
C  4.06331  2.21389 12.17835
C -6.42749  0.50499 12.44928
C  6.42756 -0.50496 12.44925
C -6.37821 -0.91724 12.44866
C  6.37825  0.91725 12.44861
C  2.46008 -0.64369 13.22053
C -2.46013  0.64361 13.22060
C  2.41135  0.77947 13.22147
C -2.41123 -0.77953 13.22146
C  4.79519 -1.97150 13.48987
C -4.79525  1.97136 13.48987
C  4.65008  2.26685 13.48785
C -4.65011 -2.26688 13.48790
C  5.95403 -1.15595 13.66124
C -5.95397  1.15590 13.66133
C  5.86255  1.53375 13.66028
C -5.86253 -1.53374 13.66037
C  2.69648 -1.29257 14.45073
C -2.69649  1.29245 14.45072
C  2.60601  1.44640 14.45018
C -2.60593 -1.44647 14.45016
C  3.89591 -2.04798 14.60426
C -3.89594  2.04787 14.60420
C  3.75081  2.28200 14.60272
C -3.75080 -2.28211 14.60275
C  6.04470 -0.52265 14.96636
C -6.04470  0.52265 14.96643
C  5.99830  0.90746 14.96527
C -5.99836 -0.90754 14.96535
C -2.21897  0.63957 15.62004
C  2.21898 -0.63976 15.62007
C -2.17400 -0.76746 15.62095
C  2.17407  0.76727 15.62085
C -4.42397  2.07166 15.94653
C  4.42406 -2.07180 15.94668
C -4.28057 -2.34615 15.94299
C  4.28060  2.34608 15.94302
C -5.51652  1.18467 16.14444
C  5.51657 -1.18473 16.14456
C -5.43022 -1.53469 16.14279
C  5.43020  1.53455 16.14273
C -2.30041  1.45833 16.79916
C  2.30054 -1.45839 16.79916
C -2.20511 -1.59299 16.79848
C  2.20516  1.59291 16.79847
C -3.46462  2.20377 17.01986
C  3.46467 -2.20389 17.01992
C -3.31644 -2.41521 17.01715
C  3.31649  2.41517 17.01727
C  0.68432  0.02077 17.84531
C -0.68428 -0.02078 17.84535
C  1.25462  1.31596 17.77204
C -1.25467 -1.31599 17.77210
C  1.33364 -1.23669 17.77140
C -1.33355  1.23674 17.77152
C -5.45392  0.53673 17.43641
C  5.45395 -0.53682 17.43648
C -5.40974 -0.88546 17.43560
C  5.40976  0.88539 17.43555
C  3.84186 -2.19455 18.43011
C -3.84191  2.19457 18.43009
C -0.77481  2.27100 18.59920
C  0.77484 -2.27090 18.59911
C -0.63367 -2.31529 18.59866
C  0.63369  2.31532 18.59866
C  3.69559  2.43759 18.42685
C -3.69546 -2.43776 18.42674
C  4.88694 -1.22196 18.58275
C -4.88702  1.22185 18.58273
C  4.80234  1.53642 18.58068
C -4.80224 -1.53651 18.58069
C -1.57787  2.91749 19.55305
C  1.57785 -2.91746 19.55300
C  1.39295  3.01420 19.55180
C -1.39286 -3.01428 19.55173
C -3.00092  2.57703 19.54985
C  3.00086 -2.57697 19.54986
C -2.83480 -2.76910 19.54744
C  2.83493  2.76898 19.54749
C -4.87037 -0.87050 19.83231
C  4.87040  0.87036 19.83228
C -4.91262  0.54966 19.83250
C  4.91263 -0.54977 19.83249
C -0.83184  3.34272 20.71454
C  0.83191 -3.34276 20.71450
C -0.62094 -3.39198 20.71329
C  0.62099  3.39195 20.71344
C  3.51908 -2.32352 20.85806
C -3.51910  2.32361 20.85810
C  3.37066  2.55814 20.85599
C -3.37059 -2.55820 20.85590
C -4.35356 -1.53577 20.97633
C  4.35367  1.53566 20.97632
C -4.43520  1.24089 20.97758
C  4.43529 -1.24091 20.97757
C  1.31458  3.48347 21.96146
C -1.31449 -3.48346 21.96134
C  1.52862 -3.38245 21.96299
C -1.52860  3.38242 21.96297
C  2.83628 -2.79919 22.02241
C -2.83627  2.79921 22.02244
C  2.65938  2.99215 22.02039
C -2.65928 -2.99207 22.02030
C  4.46980  0.86067 22.21296
C -4.46968 -0.86073 22.21299
C  4.51090 -0.55716 22.21284
C -4.51075  0.55711 22.21288
C -0.59663 -3.70998 23.17968
C  0.59663  3.70994 23.17968
C -0.82848  3.65806 23.18060
C  0.82846 -3.65809 23.18062
C  3.34449 -2.41615 23.29820
C -3.34448  2.41608 23.29822
C  3.19163  2.64695 23.29747
C -3.19148 -2.64686 23.29745
C  4.06959  1.53692 23.38341
C -4.06958 -1.53694 23.38349
C  4.15159 -1.25390 23.38398
C -4.15156  1.25383 23.38407
C  1.51132 -3.58463 24.44015
C -1.51138  3.58455 24.44017
C  1.28185  3.68739 24.43972
C -1.28183 -3.68746 24.43972
C  2.76656 -2.92476 24.49406
C -2.76664  2.92473 24.49409
C  2.58077  3.11746 24.49322
C -2.58074 -3.11756 24.49322
C  4.26516 -0.56139 24.61372
C -4.26514  0.56127 24.61380
C  4.22315  0.85397 24.61395
C -4.22307 -0.85406 24.61406
C  4.00347 -1.26447 25.80623
C  0.83426 -3.84587 25.66986
C -3.11107 -2.70741 25.75074
C -4.00340  1.26434 25.80628
C -0.83430  3.84578 25.66990
C  3.11105  2.70719 25.75068
C  3.27081 -2.48007 25.75036
C -0.58639 -3.89813 25.66968
C -3.91915 -1.54089 25.80663
C -3.27079  2.47994 25.75041
C  0.58634  3.89803 25.66968
C  3.91919  1.54070 25.80659
C  4.13311 -0.56511 27.02970
C  2.54717  3.19236 26.95964
C -1.51629  3.71464 26.92148
C -4.13309  0.56499 27.02972
C -2.54722 -3.19247 26.95972
C  1.51622 -3.71466 26.92144
C  4.09115  0.85172 27.03059
C  1.27383  3.81676 26.92219
C -2.74245  3.00212 26.95920
C -4.09116 -0.85185 27.03059
C -1.27391 -3.81685 26.92220
C  2.74242 -3.00222 26.95918
C  3.83877  1.54237 28.23810
C  0.58001  4.00663 28.15673
C -3.23468  2.51116 28.20438
C -3.83882 -1.54245 28.23811
C -0.58009 -4.00657 28.15677
C  3.23456 -2.51118 28.20439
C  3.06973  2.73649 28.20597
C -0.83980  3.95435 28.15674
C -3.92367  1.26947 28.23732
C -3.06975 -2.73655 28.20600
C  0.83971 -3.95426 28.15670
C  3.92366 -1.26952 28.23736
C  4.07151 -0.56695 29.45720
C  2.52747  3.22545 29.42241
C -1.52181  3.77775 29.39936
C -4.07157  0.56697 29.45715
C -2.52749 -3.22540 29.42247
C  1.52167 -3.77762 29.39934
C  4.02840  0.84985 29.45800
C  1.26995  3.87951 29.40066
C -2.73015  3.03662 29.42108
C -4.02844 -0.84983 29.45799
C -1.26998 -3.87950 29.40076
C  2.72998 -3.03648 29.42111
C  3.78975  1.53635 30.67462
C  0.57236  4.03690 30.63732
C -3.20790  2.51253 30.65837
C -3.78976 -1.53624 30.67468
C -0.57241 -4.03701 30.63739
C  3.20773 -2.51239 30.65838
C  3.03617  2.73368 30.66029
C -0.84159  3.98567 30.63724
C -3.88023  1.26765 30.67371
C -3.03618 -2.73357 30.66034
C  0.84150 -3.98563 30.63724
C  3.87998 -1.26754 30.67375
C  4.00054 -0.58167 31.90207
C  2.50030  3.17496 31.89343
C -1.48693  3.75612 31.88259
C -4.00067  0.58168 31.90207
C -2.50037 -3.17502 31.89346
C  1.48686 -3.75622 31.88262
C  3.95258  0.85881 31.90267
C  1.22663  3.85178 31.88475
C -2.71012  2.99114 31.89310
C -3.95256 -0.85879 31.90277
C -1.22667 -3.85182 31.88481
C  2.71001 -2.99110 31.89308
C  3.77178  1.52390 33.13925
C  0.56616  4.02841 33.13925
C -3.20563  2.50451 33.13925
C -3.77178 -1.52390 33.13925
C -0.56616 -4.02841 33.13925
C  3.20563 -2.50451 33.13925
C  3.02311  2.72202 33.13925
C -0.84579  3.97910 33.13925
C -3.86890  1.25708 33.13925
C -3.02311 -2.72202 33.13925
C  0.84579 -3.97910 33.13925
C  3.86890 -1.25708 33.13925
C  4.02841 16.43384 -22.17392
C  2.50451 20.20563 -22.17392
C -1.52390 20.77178 -22.17392
C -4.02841 17.56616 -22.17392
C -2.50451 13.79437 -22.17392
C  1.52390 13.22822 -22.17392
C  3.97910 17.84578 -22.17392
C  1.25708 20.86890 -22.17392
C -2.72202 20.02311 -22.17392
C -3.97910 16.15421 -22.17392
C -1.25708 13.13110 -22.17392
C  2.72202 13.97689 -22.17392
C  3.87834 18.58785 -21.01044
C  0.54990 21.07414 -20.97555
C -3.19878 19.54692 -20.94554
C -3.87844 15.41204 -21.01050
C -0.54992 12.92596 -20.97556
C  3.19890 14.45313 -20.94558
C  3.12016 19.79184 -20.99952
C -0.88064 20.96937 -20.93167
C -3.92799 18.31173 -21.00289
C -3.12007 14.20822 -20.99945
C  0.88068 13.03076 -20.93167
C  3.92802 15.68834 -21.00286
C  4.12131 16.43579 -19.79600
C  2.56421 20.27470 -19.76752
C -1.52515 20.76778 -19.69319
C -4.12132 17.56422 -19.79612
C -2.56427 13.72541 -19.76735
C  1.52519 13.23228 -19.69320
C  4.09238 17.86269 -19.79927
C  1.28705 20.90840 -19.74613
C -2.73475 20.03700 -19.71072
C -4.09248 16.13736 -19.79937
C -1.28696 13.09161 -19.74603
C  2.73484 13.96306 -19.71092
C  3.86768 18.56117 -18.57632
C  0.59423 21.00498 -18.48836
C -3.24206 19.48811 -18.50788
C -3.86773 15.43888 -18.57640
C -0.59429 12.99500 -18.48826
C  3.24219 14.51189 -18.50794
C  3.09659 19.75537 -18.54607
C -0.82190 20.93952 -18.46442
C -3.94136 18.25550 -18.56221
C -3.09653 14.24462 -18.54598
C  0.82187 13.06040 -18.46444
C  3.94144 15.74466 -18.56211
C  4.14494 16.45319 -17.35783
C  2.56947 20.20368 -17.29736
C -1.50129 20.68836 -17.23755
C -4.14491 17.54678 -17.35796
C -2.56946 13.79643 -17.29725
C  1.50124 13.31157 -17.23768
C  4.10931 17.87194 -17.36446
C  1.28951 20.81821 -17.25546
C -2.73117 19.97416 -17.27273
C -4.10936 16.12811 -17.36459
C -1.28950 13.18185 -17.25534
C  2.73113 14.02589 -17.27275
C  3.93612 18.55885 -16.13890
C  0.59875 20.89096 -16.00199
C -3.26055 19.45198 -16.06967
C -3.93623 15.44111 -16.13909
C -0.59879 13.10904 -16.00184
C  3.26050 14.54803 -16.06966
C  3.13130 19.72320 -16.08494
C -0.81838 20.82437 -15.99288
C -3.99974 18.24392 -16.13368
C -3.13113 14.27688 -16.08490
C  0.81840 13.17543 -15.99288
C  3.99956 15.75612 -16.13357
C  4.26404 16.45630 -14.93871
C -4.26405 17.54361 -14.93882
C  4.23332 17.87054 -14.94173
C -4.23325 16.12936 -14.94183
C  2.59668 20.13129 -14.82419
C -2.59663 13.86873 -14.82412
C  2.75320 14.09868 -14.81550
C -2.75320 19.90122 -14.81549
C  1.49946 13.43708 -14.76383
C -1.49942 20.56275 -14.76385
C  1.29452 20.68986 -14.76826
C -1.29455 13.31014 -14.76810
C  4.14544 15.76265 -13.71170
C -4.14544 18.23722 -13.71182
C  4.08037 18.55195 -13.71235
C -4.08041 15.44809 -13.71243
C  3.33416 14.60288 -13.62352
C -3.33415 19.39700 -13.62356
C  3.20383 19.66286 -13.62766
C -3.20395 14.33708 -13.62760
C -0.60523 13.29045 -13.51057
C  0.60539 20.70962 -13.51064
C  0.81940 13.35340 -13.50801
C -0.81925 20.64646 -13.50805
C  4.50760 16.45662 -12.53940
C -4.50760 17.54333 -12.53956
C  4.47328 17.87158 -12.54036
C -4.47320 16.12836 -12.54051
C  2.82566 14.21582 -12.34900
C -2.82553 19.78401 -12.34896
C  2.66488 20.00353 -12.34987
C -2.66485 13.99646 -12.34987
C  1.32168 20.48789 -12.29002
C -1.32158 13.51223 -12.28994
C  1.52276 13.62935 -12.29072
C -1.52263 20.37056 -12.29073
C -4.43035 18.22995 -11.30448
C  4.43025 15.77013 -11.30434
C -4.35717 15.45302 -11.30329
C  4.35719 18.54703 -11.30328
C  3.51208 14.68822 -11.18449
C -3.51219 19.31172 -11.18466
C  3.37429 19.56951 -11.18338
C -3.37426 14.43056 -11.18339
C -0.62479 13.60706 -11.04166
C  0.62492 20.39321 -11.04166
C -0.82752 20.33833 -11.04081
C  0.82768 13.66191 -11.04072
C  4.87134 17.88005 -10.16138
C -4.87136 16.12000 -10.16150
C  4.90994 16.46023 -10.16135
C -4.91006 17.53975 -10.16142
C  2.99619 14.43132 -9.87882
C -2.99627 19.56871 -9.87899
C -2.83501 14.22247 -9.87801
C  2.83514 19.77766 -9.87795
C  1.57624 14.08311 -9.88032
C -1.57629 19.91693 -9.88044
C  1.39449 20.02066 -9.87971
C -1.39446 13.97963 -9.87978
C  4.88231 15.78752 -8.91071
C -4.88236 18.21242 -8.91079
C  4.80315 18.54800 -8.90997
C -4.80309 15.45205 -8.91004
C  3.83998 14.81599 -8.75837
C -3.83998 19.18399 -8.75848
C -0.63331 14.67902 -8.92488
C  0.63329 19.32099 -8.92497
C -0.77234 19.27518 -8.92232
C  0.77228 14.72476 -8.92214
C  3.69809 19.44613 -8.75656
C -3.69803 14.55385 -8.75666
C -5.41028 16.10366 -7.76466
C -5.45195 17.52644 -7.76498
C  5.41021 17.89626 -7.76468
C  5.45184 16.47356 -7.76497
C  1.25568 18.31655 -8.10569
C -1.25565 15.68336 -8.10569
C  1.33207 15.76517 -8.10164
C -1.33202 18.23486 -8.10177
C  0.68529 17.02223 -8.18257
C -0.68518 16.97770 -8.18261
C -3.46413 19.19630 -7.34814
C  3.46423 14.80369 -7.34799
C -3.31537 14.57585 -7.34879
C  3.31544 19.42404 -7.34871
C -2.29846 18.45214 -7.12744
C  2.29855 15.54778 -7.12735
C -2.20515 15.40195 -7.13142
C  2.20511 18.59806 -7.13130
C -5.51531 18.17357 -6.47449
C  5.51533 15.82646 -6.47457
C -5.42969 15.45424 -6.47398
C  5.42962 18.54574 -6.47404
C -4.42307 19.06169 -6.27603
C  4.42323 14.93825 -6.27599
C -4.27892 14.64379 -6.27526
C  4.27891 19.35621 -6.27512
C -2.21690 17.63096 -5.95177
C  2.21702 16.36894 -5.95178
C -2.17298 16.22338 -5.95356
C  2.17302 17.77651 -5.95348
C  6.04315 16.48978 -5.29664
C -6.04316 17.51021 -5.29659
C  5.99659 17.91819 -5.29591
C -5.99665 16.08172 -5.29593
C  3.89480 14.96499 -4.93405
C -3.89465 19.03487 -4.93402
C  3.74973 19.29205 -4.93494
C -3.74966 14.70790 -4.93502
C  2.69674 15.72008 -4.78154
C -2.69661 18.27978 -4.78150
C  2.60523 18.45771 -4.78329
C -2.60508 15.54212 -4.78326
C  5.95370 15.85585 -3.99163
C -5.95369 18.14408 -3.99159
C  5.86209 18.54613 -3.99114
C -5.86211 15.45375 -3.99115
C  4.79402 15.04033 -3.81975
C -4.79395 18.95960 -3.81983
C  4.64904 19.27904 -3.81888
C -4.64894 14.72092 -3.81893
C  2.45923 16.37028 -3.55167
C -2.45935 17.62957 -3.55165
C  2.40939 17.79413 -3.55254
C -2.40924 16.20571 -3.55252
C -6.42765 17.49204 -2.78143
C  6.42760 16.50796 -2.78142
C -6.37811 16.06962 -2.78061
C  6.37805 17.93036 -2.78057
C -4.20847 18.94746 -2.51017
C  4.20843 15.05246 -2.51005
C -4.06257 14.77174 -2.51008
C  4.06263 19.22822 -2.50998
C -2.96738 18.26650 -2.38962
C  2.96724 15.73340 -2.38961
C -2.87098 15.53607 -2.38991
C  2.87098 18.46389 -2.38990
C  6.24748 15.88022 -1.47688
C -6.24755 18.11973 -1.47692
C  6.15259 18.54607 -1.47666
C -6.15257 15.45390 -1.47668
C -5.06284 18.89813 -1.35627
C  5.06277 15.10186 -1.35620
C -4.91563 14.76078 -1.35493
C  4.91572 19.23918 -1.35483
C -2.68806 17.62149 -1.15634
C  2.68809 16.37858 -1.15638
C -2.63745 16.20006 -1.15651
C  2.63750 17.79994 -1.15646
C  6.68845 16.51689 -0.24672
C -6.68845 17.48301 -0.24669
C  6.63710 17.94505 -0.24570
C -6.63709 16.05487 -0.24569
C  4.43312 15.07645 -0.06960
C -4.43313 18.92357 -0.06965
C  4.28491 19.22119 -0.06803
C -4.28479 14.77882 -0.06808
C  3.17258 15.74128  0.01436
C -3.17261 18.25879  0.01441
C  3.07409 18.46882  0.01545
C -3.07403 15.53127  0.01552
C  6.44041 15.88935  1.03954
C -6.44043 18.11061  1.03961
C -6.34394 15.44526  1.04096
C  6.34394 18.55456  1.04092
C  5.24436 15.11769  1.10992
C -5.24435 18.88230  1.10994
C  5.09506 19.23780  1.11294
C -5.09503 14.76209  1.11296
C  2.80105 17.80487  1.23640
C -2.80110 16.19512  1.23649
C  2.85350 16.38211  1.23575
C -2.85352 17.61789  1.23583
C -6.77329 16.05278  2.29312
C  6.77334 17.94707  2.29310
C -6.82522 17.47374  2.29190
C  6.82523 16.52615  2.29194
C -4.42039 14.78794  2.38095
C  4.42031 19.21191  2.38091
C -4.57064 18.90716  2.37745
C  4.57066 15.09287  2.37748
C -3.21280 15.53438  2.42404
C  3.21275 18.46548  2.42401
C -3.31188 18.25075  2.42148
C  3.31190 15.74926  2.42140
C  6.53472 15.89186  3.56959
C -6.53472 18.10812  3.56953
C  6.43636 18.55585  3.57282
C -6.43633 15.44413  3.57288
C -5.33653 18.88015  3.59182
C  5.33647 15.11984  3.59185
C  5.18498 19.23831  3.59647
C -5.18503 14.76155  3.59647
C -2.88999 16.19591  3.63752
C  2.89004 17.80393  3.63745
C -2.94202 17.61889  3.63645
C  2.94214 16.38100  3.63643
C  6.87896 16.52203  4.83260
C -6.87905 17.47798  4.83263
C  4.61669 15.08161  4.83096
C -4.61663 18.91832  4.83091
C  3.25133 18.46739  4.83560
C -3.25120 15.53253  4.83578
C  6.82674 17.94927  4.83443
C -6.82669 16.05073  4.83445
C  3.35149 15.74013  4.83204
C -3.35144 18.25980  4.83201
C  4.46415 19.21864  4.83591
C -4.46404 14.78124  4.83591
C -2.89328 16.20243  6.03290
C  2.89337 17.79750  6.03275
C -2.94475 17.62420  6.03170
C  2.94483 16.37579  6.03165
C -5.33764 18.88538  6.07024
C  5.33771 15.11466  6.07027
C  5.18624 19.23429  6.07519
C -5.18604 14.76561  6.07527
C  6.43653 18.55218  6.09811
C -6.43643 15.44772  6.09816
C  6.53404 15.88756  6.09436
C -6.53397 18.11236  6.09440
C -3.21503 15.54339  7.24730
C  3.21505 18.45647  7.24722
C -3.31367 18.26205  7.24435
C  3.31381 15.73795  7.24435
C -4.57304 18.91944  7.28570
C  4.57318 15.08060  7.28575
C -4.42191 14.79430  7.29061
C  4.42195 19.20563  7.29050
C -6.82523 17.48248  7.37464
C  6.82545 16.51739  7.37457
C -6.77378 16.06030  7.37598
C  6.77389 17.93961  7.37582
C  2.85707 16.36830  8.43118
C -2.85701 17.63168  8.43118
C  2.80577 17.79085  8.43214
C -2.80581 16.20908  8.43214
C -5.24633 18.89640  8.55378
C  5.24645 15.10349  8.55380
C  5.09618 19.22820  8.55755
C -5.09628 14.77171  8.55762
C -6.44115 18.12229  8.62552
C  6.44128 15.87772  8.62544
C  6.34461 18.54411  8.62816
C -6.34468 15.45582  8.62825
C  3.17566 15.72576  9.65307
C -3.17572 18.27416  9.65310
C  3.07660 18.45414  9.65417
C -3.07675 15.54581  9.65409
C  4.43584 15.06142  9.73590
C -4.43581 18.93858  9.73598
C  4.28505 19.20829  9.73859
C -4.28509 14.79164  9.73858
C  6.68757 16.50439  9.91438
C -6.68758 17.49554  9.91442
C  6.63680 17.93191  9.91472
C -6.63686 16.06816  9.91472
C -2.69015 17.63776 10.82400
C  2.69007 16.36218 10.82396
C -2.63893 16.21507 10.82432
C  2.63886 17.78489 10.82438
C -5.06421 18.91351 11.02359
C  5.06420 15.08650 11.02355
C -4.91660 14.77285 11.02435
C  4.91652 19.22720 11.02437
C  6.24888 15.86682 11.14490
C -6.24889 18.13314 11.14491
C -6.15404 15.46654 11.14552
C  6.15405 18.53350 11.14549
C -2.96938 18.28097 12.05779
C  2.96939 15.71897 12.05772
C -2.87298 15.55174 12.05745
C  2.87304 18.44815 12.05746
C -4.21055 18.96097 12.17823
C  4.21055 15.03887 12.17823
C -4.06334 14.78610 12.17833
C  4.06331 19.21389 12.17835
C -6.42749 17.50499 12.44928
C  6.42756 16.49504 12.44925
C -6.37821 16.08276 12.44866
C  6.37825 17.91725 12.44861
C  2.46008 16.35631 13.22053
C -2.46013 17.64361 13.22060
C  2.41135 17.77947 13.22147
C -2.41123 16.22047 13.22146
C  4.79519 15.02850 13.48987
C -4.79525 18.97136 13.48987
C  4.65008 19.26685 13.48785
C -4.65011 14.73312 13.48790
C  5.95403 15.84405 13.66124
C -5.95397 18.15590 13.66133
C  5.86255 18.53375 13.66028
C -5.86253 15.46626 13.66037
C  2.69648 15.70743 14.45073
C -2.69649 18.29245 14.45072
C  2.60601 18.44640 14.45018
C -2.60593 15.55353 14.45016
C  3.89591 14.95202 14.60426
C -3.89594 19.04787 14.60420
C  3.75081 19.28200 14.60272
C -3.75080 14.71789 14.60275
C  6.04470 16.47735 14.96636
C -6.04470 17.52265 14.96643
C  5.99830 17.90746 14.96527
C -5.99836 16.09246 14.96535
C -2.21897 17.63957 15.62004
C  2.21898 16.36024 15.62007
C -2.17400 16.23254 15.62095
C  2.17407 17.76727 15.62085
C -4.42397 19.07166 15.94653
C  4.42406 14.92820 15.94668
C -4.28057 14.65385 15.94299
C  4.28060 19.34608 15.94302
C -5.51652 18.18467 16.14444
C  5.51657 15.81527 16.14456
C -5.43022 15.46531 16.14279
C  5.43020 18.53455 16.14273
C -2.30041 18.45833 16.79916
C  2.30054 15.54161 16.79916
C -2.20511 15.40701 16.79848
C  2.20516 18.59291 16.79847
C -3.46462 19.20377 17.01986
C  3.46467 14.79611 17.01992
C -3.31644 14.58479 17.01715
C  3.31649 19.41517 17.01727
C  0.68432 17.02077 17.84531
C -0.68428 16.97922 17.84535
C  1.25462 18.31596 17.77204
C -1.25467 15.68401 17.77210
C  1.33364 15.76331 17.77140
C -1.33355 18.23674 17.77152
C -5.45392 17.53673 17.43641
C  5.45395 16.46318 17.43648
C -5.40974 16.11454 17.43560
C  5.40976 17.88539 17.43555
C  3.84186 14.80545 18.43011
C -3.84191 19.19457 18.43009
C -0.77481 19.27100 18.59920
C  0.77484 14.72910 18.59911
C -0.63367 14.68471 18.59866
C  0.63369 19.31532 18.59866
C  3.69559 19.43759 18.42685
C -3.69546 14.56224 18.42674
C  4.88694 15.77804 18.58275
C -4.88702 18.22185 18.58273
C  4.80234 18.53642 18.58068
C -4.80224 15.46349 18.58069
C -1.57787 19.91749 19.55305
C  1.57785 14.08254 19.55300
C  1.39295 20.01420 19.55180
C -1.39286 13.98572 19.55173
C -3.00092 19.57703 19.54985
C  3.00086 14.42303 19.54986
C -2.83480 14.23090 19.54744
C  2.83493 19.76898 19.54749
C -4.87037 16.12950 19.83231
C  4.87040 17.87036 19.83228
C -4.91262 17.54966 19.83250
C  4.91263 16.45023 19.83249
C -0.83184 20.34272 20.71454
C  0.83191 13.65724 20.71450
C -0.62094 13.60802 20.71329
C  0.62099 20.39195 20.71344
C  3.51908 14.67648 20.85806
C -3.51910 19.32361 20.85810
C  3.37066 19.55814 20.85599
C -3.37059 14.44180 20.85590
C -4.35356 15.46423 20.97633
C  4.35367 18.53566 20.97632
C -4.43520 18.24089 20.97758
C  4.43529 15.75909 20.97757
C  1.31458 20.48347 21.96146
C -1.31449 13.51654 21.96134
C  1.52862 13.61755 21.96299
C -1.52860 20.38242 21.96297
C  2.83628 14.20081 22.02241
C -2.83627 19.79921 22.02244
C  2.65938 19.99215 22.02039
C -2.65928 14.00793 22.02030
C  4.46980 17.86067 22.21296
C -4.46968 16.13927 22.21299
C  4.51090 16.44284 22.21284
C -4.51075 17.55711 22.21288
C -0.59663 13.29002 23.17968
C  0.59663 20.70994 23.17968
C -0.82848 20.65806 23.18060
C  0.82846 13.34191 23.18062
C  3.34449 14.58385 23.29820
C -3.34448 19.41608 23.29822
C  3.19163 19.64695 23.29747
C -3.19148 14.35314 23.29745
C  4.06959 18.53692 23.38341
C -4.06958 15.46306 23.38349
C  4.15159 15.74610 23.38398
C -4.15156 18.25383 23.38407
C  1.51132 13.41537 24.44015
C -1.51138 20.58455 24.44017
C  1.28185 20.68739 24.43972
C -1.28183 13.31254 24.43972
C  2.76656 14.07524 24.49406
C -2.76664 19.92473 24.49409
C  2.58077 20.11746 24.49322
C -2.58074 13.88244 24.49322
C  4.26516 16.43861 24.61372
C -4.26514 17.56127 24.61380
C  4.22315 17.85397 24.61395
C -4.22307 16.14594 24.61406
C  4.00347 15.73553 25.80623
C  0.83426 13.15413 25.66986
C -3.11107 14.29259 25.75074
C -4.00340 18.26434 25.80628
C -0.83430 20.84578 25.66990
C  3.11105 19.70719 25.75068
C  3.27081 14.51993 25.75036
C -0.58639 13.10187 25.66968
C -3.91915 15.45911 25.80663
C -3.27079 19.47994 25.75041
C  0.58634 20.89803 25.66968
C  3.91919 18.54070 25.80659
C  4.13311 16.43489 27.02970
C  2.54717 20.19236 26.95964
C -1.51629 20.71464 26.92148
C -4.13309 17.56499 27.02972
C -2.54722 13.80753 26.95972
C  1.51622 13.28534 26.92144
C  4.09115 17.85172 27.03059
C  1.27383 20.81676 26.92219
C -2.74245 20.00212 26.95920
C -4.09116 16.14815 27.03059
C -1.27391 13.18315 26.92220
C  2.74242 13.99778 26.95918
C  3.83877 18.54237 28.23810
C  0.58001 21.00663 28.15673
C -3.23468 19.51116 28.20438
C -3.83882 15.45755 28.23811
C -0.58009 12.99343 28.15677
C  3.23456 14.48882 28.20439
C  3.06973 19.73649 28.20597
C -0.83980 20.95435 28.15674
C -3.92367 18.26947 28.23732
C -3.06975 14.26345 28.20600
C  0.83971 13.04574 28.15670
C  3.92366 15.73048 28.23736
C  4.07151 16.43305 29.45720
C  2.52747 20.22545 29.42241
C -1.52181 20.77775 29.39936
C -4.07157 17.56697 29.45715
C -2.52749 13.77460 29.42247
C  1.52167 13.22238 29.39934
C  4.02840 17.84985 29.45800
C  1.26995 20.87951 29.40066
C -2.73015 20.03662 29.42108
C -4.02844 16.15017 29.45799
C -1.26998 13.12050 29.40076
C  2.72998 13.96352 29.42111
C  3.78975 18.53635 30.67462
C  0.57236 21.03690 30.63732
C -3.20790 19.51253 30.65837
C -3.78976 15.46376 30.67468
C -0.57241 12.96299 30.63739
C  3.20773 14.48761 30.65838
C  3.03617 19.73368 30.66029
C -0.84159 20.98567 30.63724
C -3.88023 18.26765 30.67371
C -3.03618 14.26643 30.66034
C  0.84150 13.01437 30.63724
C  3.87998 15.73246 30.67375
C  4.00054 16.41833 31.90207
C  2.50030 20.17496 31.89343
C -1.48693 20.75612 31.88259
C -4.00067 17.58168 31.90207
C -2.50037 13.82498 31.89346
C  1.48686 13.24378 31.88262
C  3.95258 17.85881 31.90267
C  1.22663 20.85178 31.88475
C -2.71012 19.99114 31.89310
C -3.95256 16.14121 31.90277
C -1.22667 13.14818 31.88481
C  2.71001 14.00890 31.89308
C  3.77178 18.52390 33.13925
C  0.56616 21.02841 33.13925
C -3.20563 19.50451 33.13925
C -3.77178 15.47610 33.13925
C -0.56616 12.97159 33.13925
C  3.20563 14.49549 33.13925
C  3.02311 19.72202 33.13925
C -0.84579 20.97910 33.13925
C -3.86890 18.25708 33.13925
C -3.02311 14.27798 33.13925
C  0.84579 13.02090 33.13925
C  3.86890 15.74292 33.13925
C 28.02841 -17.56616 -22.17392
C 26.50451 -13.79437 -22.17392
C 22.47610 -13.22822 -22.17392
C 19.97159 -16.43384 -22.17392
C 21.49549 -20.20563 -22.17392
C 25.52390 -20.77178 -22.17392
C 27.97910 -16.15422 -22.17392
C 25.25708 -13.13110 -22.17392
C 21.27798 -13.97689 -22.17392
C 20.02090 -17.84579 -22.17392
C 22.74292 -20.86890 -22.17392
C 26.72202 -20.02311 -22.17392
C 27.87834 -15.41215 -21.01044
C 24.54990 -12.92586 -20.97555
C 20.80122 -14.45308 -20.94554
C 20.12156 -18.58796 -21.01050
C 23.45008 -21.07404 -20.97556
C 27.19890 -19.54687 -20.94558
C 27.12016 -14.20816 -20.99952
C 23.11936 -13.03063 -20.93167
C 20.07201 -15.68827 -21.00289
C 20.87993 -19.79178 -20.99945
C 24.88068 -20.96924 -20.93167
C 27.92802 -18.31166 -21.00286
C 28.12131 -17.56421 -19.79600
C 26.56421 -13.72530 -19.76752
C 22.47485 -13.23222 -19.69319
C 19.87868 -16.43578 -19.79612
C 21.43573 -20.27459 -19.76735
C 25.52519 -20.76772 -19.69320
C 28.09238 -16.13731 -19.79927
C 25.28705 -13.09160 -19.74613
C 21.26525 -13.96300 -19.71072
C 19.90752 -17.86264 -19.79937
C 22.71304 -20.90839 -19.74603
C 26.73484 -20.03694 -19.71092
C 27.86768 -15.43883 -18.57632
C 24.59423 -12.99502 -18.48836
C 20.75794 -14.51189 -18.50788
C 20.13227 -18.56112 -18.57640
C 23.40571 -21.00500 -18.48826
C 27.24219 -19.48811 -18.50794
C 27.09659 -14.24463 -18.54607
C 23.17810 -13.06048 -18.46442
C 20.05864 -15.74450 -18.56221
C 20.90347 -19.75538 -18.54598
C 24.82187 -20.93960 -18.46444
C 27.94144 -18.25534 -18.56211
C 28.14494 -17.54681 -17.35783
C 26.56947 -13.79632 -17.29736
C 22.49871 -13.31164 -17.23755
C 19.85509 -16.45322 -17.35796
C 21.43054 -20.20357 -17.29725
C 25.50124 -20.68843 -17.23768
C 28.10931 -16.12806 -17.36446
C 25.28951 -13.18179 -17.25546
C 21.26883 -14.02584 -17.27273
C 19.89064 -17.87189 -17.36459
C 22.71050 -20.81815 -17.25534
C 26.73113 -19.97411 -17.27275
C 27.93612 -15.44115 -16.13890
C 24.59875 -13.10904 -16.00199
C 20.73945 -14.54802 -16.06967
C 20.06377 -18.55889 -16.13909
C 23.40121 -20.89096 -16.00184
C 27.26050 -19.45197 -16.06966
C 27.13130 -14.27680 -16.08494
C 23.18162 -13.17563 -15.99288
C 20.00026 -15.75608 -16.13368
C 20.86887 -19.72312 -16.08490
C 24.81840 -20.82457 -15.99288
C 27.99956 -18.24388 -16.13357
C 28.26404 -17.54370 -14.93871
C 19.73595 -16.45639 -14.93882
C 28.23332 -16.12946 -14.94173
C 19.76675 -17.87064 -14.94183
C 26.59668 -13.86871 -14.82419
C 21.40337 -20.13127 -14.82412
C 26.75320 -19.90132 -14.81550
C 21.24680 -14.09878 -14.81549
C 25.49946 -20.56292 -14.76383
C 22.50058 -13.43725 -14.76385
C 25.29452 -13.31014 -14.76826
C 22.70545 -20.68986 -14.76810
C 28.14544 -18.23735 -13.71170
C 19.85456 -15.76278 -13.71182
C 28.08037 -15.44805 -13.71235
C 19.91959 -18.55191 -13.71243
C 27.33416 -19.39712 -13.62352
C 20.66585 -14.60300 -13.62356
C 27.20383 -14.33714 -13.62766
C 20.79605 -19.66292 -13.62760
C 23.39477 -20.70955 -13.51057
C 24.60539 -13.29038 -13.51064
C 24.81940 -20.64660 -13.50801
C 23.18075 -13.35354 -13.50805
C 28.50760 -17.54338 -12.53940
C 19.49240 -16.45667 -12.53956
C 28.47328 -16.12842 -12.54036
C 19.52680 -17.87164 -12.54051
C 26.82566 -19.78418 -12.34900
C 21.17447 -14.21599 -12.34896
C 26.66488 -13.99647 -12.34987
C 21.33515 -20.00354 -12.34987
C 25.32168 -13.51211 -12.29002
C 22.67842 -20.48777 -12.28994
C 25.52276 -20.37065 -12.29072
C 22.47737 -13.62944 -12.29073
C 19.56965 -15.77005 -11.30448
C 28.43025 -18.22987 -11.30434
C 19.64283 -18.54698 -11.30329
C 28.35719 -15.45297 -11.30328
C 27.51208 -19.31178 -11.18449
C 20.48781 -14.68828 -11.18466
C 27.37429 -14.43049 -11.18338
C 20.62574 -19.56944 -11.18339
C 23.37521 -20.39294 -11.04166
C 24.62492 -13.60679 -11.04166
C 23.17248 -13.66167 -11.04081
C 24.82768 -20.33809 -11.04072
C 28.87134 -16.11995 -10.16138
C 19.12864 -17.88000 -10.16150
C 28.90994 -17.53977 -10.16135
C 19.08994 -16.46025 -10.16142
C 26.99619 -19.56868 -9.87882
C 21.00373 -14.43129 -9.87899
C 21.16499 -19.77753 -9.87801
C 26.83514 -14.22234 -9.87795
C 25.57624 -19.91689 -9.88032
C 22.42371 -14.08307 -9.88044
C 25.39449 -13.97934 -9.87971
C 22.60554 -20.02037 -9.87978
C 28.88231 -18.21248 -8.91071
C 19.11764 -15.78758 -8.91079
C 28.80315 -15.45200 -8.90997
C 19.19691 -18.54795 -8.91004
C 27.83998 -19.18401 -8.75837
C 20.16002 -14.81601 -8.75848
C 23.36669 -19.32098 -8.92488
C 24.63329 -14.67901 -8.92497
C 23.22766 -14.72482 -8.92232
C 24.77228 -19.27524 -8.92214
C 27.69809 -14.55387 -8.75656
C 20.30197 -19.44615 -8.75666
C 18.58972 -17.89634 -7.76466
C 18.54805 -16.47356 -7.76498
C 29.41021 -16.10374 -7.76468
C 29.45184 -17.52644 -7.76497
C 25.25568 -15.68345 -8.10569
C 22.74435 -18.31664 -8.10569
C 25.33207 -18.23483 -8.10164
C 22.66798 -15.76514 -8.10177
C 24.68529 -16.97777 -8.18257
C 23.31482 -17.02230 -8.18261
C 20.53587 -14.80370 -7.34814
C 27.46423 -19.19631 -7.34799
C 20.68463 -19.42415 -7.34879
C 27.31544 -14.57596 -7.34871
C 21.70154 -15.54786 -7.12744
C 26.29855 -18.45222 -7.12735
C 21.79485 -18.59805 -7.13142
C 26.20511 -15.40194 -7.13130
C 18.48469 -15.82643 -6.47449
C 29.51533 -18.17354 -6.47457
C 18.57031 -18.54576 -6.47398
C 29.42962 -15.45426 -6.47404
C 19.57693 -14.93831 -6.27603
C 28.42323 -19.06175 -6.27599
C 19.72108 -19.35621 -6.27526
C 28.27891 -14.64379 -6.27512
C 21.78310 -16.36904 -5.95177
C 26.21702 -17.63106 -5.95178
C 21.82702 -17.77662 -5.95356
C 26.17302 -16.22349 -5.95348
C 30.04315 -17.51022 -5.29664
C 17.95684 -16.48979 -5.29659
C 29.99659 -16.08181 -5.29591
C 18.00335 -17.91828 -5.29593
C 27.89480 -19.03501 -4.93405
C 20.10535 -14.96513 -4.93402
C 27.74973 -14.70795 -4.93494
C 20.25034 -19.29210 -4.93502
C 26.69674 -18.27992 -4.78154
C 21.30339 -15.72022 -4.78150
C 26.60523 -15.54229 -4.78329
C 21.39492 -18.45788 -4.78326
C 29.95370 -18.14415 -3.99163
C 18.04631 -15.85592 -3.99159
C 29.86209 -15.45387 -3.99114
C 18.13789 -18.54625 -3.99115
C 28.79402 -18.95967 -3.81975
C 19.20605 -15.04040 -3.81983
C 28.64904 -14.72096 -3.81888
C 19.35106 -19.27908 -3.81893
C 26.45923 -17.62972 -3.55167
C 21.54065 -16.37043 -3.55165
C 26.40939 -16.20587 -3.55254
C 21.59076 -17.79429 -3.55252
C 17.57235 -16.50796 -2.78143
C 30.42760 -17.49204 -2.78142
C 17.62189 -17.93038 -2.78061
C 30.37805 -16.06964 -2.78057
C 19.79153 -15.05254 -2.51017
C 28.20843 -18.94754 -2.51005
C 19.93743 -19.22826 -2.51008
C 28.06263 -14.77178 -2.50998
C 21.03262 -15.73350 -2.38962
C 26.96724 -18.26660 -2.38961
C 21.12902 -18.46393 -2.38991
C 26.87098 -15.53611 -2.38990
C 30.24748 -18.11978 -1.47688
C 17.75245 -15.88027 -1.47692
C 30.15259 -15.45393 -1.47666
C 17.84743 -18.54610 -1.47668
C 18.93716 -15.10187 -1.35627
C 29.06277 -18.89814 -1.35620
C 19.08437 -19.23922 -1.35493
C 28.91572 -14.76082 -1.35483
C 21.31194 -16.37851 -1.15634
C 26.68809 -17.62142 -1.15638
C 21.36255 -17.79994 -1.15651
C 26.63750 -16.20006 -1.15646
C 30.68845 -17.48311 -0.24672
C 17.31155 -16.51699 -0.24669
C 30.63710 -16.05495 -0.24570
C 17.36291 -17.94513 -0.24569
C 28.43312 -18.92355 -0.06960
C 19.56687 -15.07643 -0.06965
C 28.28491 -14.77881 -0.06803
C 19.71521 -19.22118 -0.06808
C 27.17258 -18.25872  0.01436
C 20.82739 -15.74121  0.01441
C 27.07409 -15.53118  0.01545
C 20.92597 -18.46873  0.01552
C 30.44041 -18.11065  1.03954
C 17.55957 -15.88939  1.03961
C 17.65606 -18.55474  1.04096
C 30.34394 -15.44544  1.04092
C 29.24436 -18.88231  1.10992
C 18.75565 -15.11770  1.10994
C 29.09506 -14.76220  1.11294
C 18.90497 -19.23791  1.11296
C 26.80105 -16.19513  1.23640
C 21.19890 -17.80488  1.23649
C 26.85350 -17.61789  1.23575
C 21.14648 -16.38211  1.23583
C 17.22671 -17.94722  2.29312
C 30.77334 -16.05293  2.29310
C 17.17478 -16.52626  2.29190
C 30.82523 -17.47385  2.29194
C 19.57961 -19.21206  2.38095
C 28.42031 -14.78809  2.38091
C 19.42936 -15.09284  2.37745
C 28.57066 -18.90713  2.37748
C 20.78720 -18.46562  2.42404
C 27.21275 -15.53452  2.42401
C 20.68812 -15.74925  2.42148
C 27.31190 -18.25074  2.42140
C 30.53472 -18.10814  3.56959
C 17.46528 -15.89188  3.56953
C 30.43636 -15.44415  3.57282
C 17.56367 -18.55587  3.57288
C 18.66347 -15.11985  3.59182
C 29.33647 -18.88016  3.59185
C 29.18498 -14.76169  3.59647
C 18.81497 -19.23845  3.59647
C 21.11001 -17.80409  3.63752
C 26.89004 -16.19607  3.63745
C 21.05798 -16.38111  3.63645
C 26.94214 -17.61900  3.63643
C 30.87896 -17.47797  4.83260
C 17.12095 -16.52202  4.83263
C 28.61669 -18.91839  4.83096
C 19.38337 -15.08168  4.83091
C 27.25133 -15.53261  4.83560
C 20.74880 -18.46747  4.83578
C 30.82674 -16.05073  4.83443
C 17.17331 -17.94927  4.83445
C 27.35149 -18.25987  4.83204
C 20.64856 -15.74020  4.83201
C 28.46415 -14.78136  4.83591
C 19.53596 -19.21876  4.83591
C 21.10672 -17.79757  6.03290
C 26.89337 -16.20250  6.03275
C 21.05525 -16.37580  6.03170
C 26.94483 -17.62421  6.03165
C 18.66236 -15.11462  6.07024
C 29.33771 -18.88534  6.07027
C 29.18624 -14.76571  6.07519
C 18.81396 -19.23439  6.07527
C 30.43653 -15.44782  6.09811
C 17.56357 -18.55228  6.09816
C 30.53404 -18.11244  6.09436
C 17.46603 -15.88764  6.09440
C 20.78497 -18.45661  7.24730
C 27.21505 -15.54353  7.24722
C 20.68633 -15.73795  7.24435
C 27.31381 -18.26205  7.24435
C 19.42696 -15.08056  7.28570
C 28.57318 -18.91940  7.28575
C 19.57809 -19.20570  7.29061
C 28.42195 -14.79437  7.29050
C 17.17477 -16.51752  7.37464
C 30.82545 -17.48261  7.37457
C 17.22622 -17.93970  7.37598
C 30.77389 -16.06039  7.37582
C 26.85707 -17.63170  8.43118
C 21.14299 -16.36832  8.43118
C 26.80577 -16.20915  8.43214
C 21.19419 -17.79092  8.43214
C 18.75367 -15.10360  8.55378
C 29.24645 -18.89651  8.55380
C 29.09618 -14.77180  8.55755
C 18.90372 -19.22829  8.55762
C 17.55885 -15.87771  8.62552
C 30.44128 -18.12228  8.62544
C 30.34461 -15.45589  8.62816
C 17.65532 -18.54418  8.62825
C 27.17566 -18.27424  9.65307
C 20.82428 -15.72584  9.65310
C 27.07660 -15.54586  9.65417
C 20.92325 -18.45419  9.65409
C 28.43584 -18.93858  9.73590
C 19.56419 -15.06142  9.73598
C 28.28505 -14.79171  9.73859
C 19.71491 -19.20836  9.73858
C 30.68757 -17.49561  9.91438
C 17.31242 -16.50446  9.91442
C 30.63680 -16.06809  9.91472
C 17.36314 -17.93184  9.91472
C 21.30985 -16.36224 10.82400
C 26.69007 -17.63782 10.82396
C 21.36107 -17.78493 10.82432
C 26.63886 -16.21511 10.82438
C 18.93579 -15.08649 11.02359
C 29.06420 -18.91350 11.02355
C 19.08340 -19.22715 11.02435
C 28.91652 -14.77280 11.02437
C 30.24888 -18.13318 11.14490
C 17.75111 -15.86686 11.14491
C 17.84596 -18.53346 11.14552
C 30.15405 -15.46650 11.14549
C 21.03062 -15.71903 12.05779
C 26.96939 -18.28103 12.05772
C 21.12702 -18.44826 12.05745
C 26.87304 -15.55185 12.05746
C 19.78945 -15.03903 12.17823
C 28.21055 -18.96113 12.17823
C 19.93666 -19.21390 12.17833
C 28.06331 -14.78611 12.17835
C 17.57251 -16.49501 12.44928
C 30.42756 -17.50496 12.44925
C 17.62179 -17.91724 12.44866
C 30.37825 -16.08275 12.44861
C 26.46008 -17.64369 13.22053
C 21.53987 -16.35639 13.22060
C 26.41135 -16.22053 13.22147
C 21.58877 -17.77953 13.22146
C 28.79519 -18.97150 13.48987
C 19.20475 -15.02864 13.48987
C 28.65008 -14.73315 13.48785
C 19.34989 -19.26688 13.48790
C 29.95403 -18.15595 13.66124
C 18.04603 -15.84410 13.66133
C 29.86255 -15.46625 13.66028
C 18.13747 -18.53374 13.66037
C 26.69648 -18.29257 14.45073
C 21.30351 -15.70755 14.45072
C 26.60601 -15.55360 14.45018
C 21.39407 -18.44647 14.45016
C 27.89591 -19.04798 14.60426
C 20.10406 -14.95213 14.60420
C 27.75081 -14.71800 14.60272
C 20.24920 -19.28211 14.60275
C 30.04470 -17.52265 14.96636
C 17.95530 -16.47735 14.96643
C 29.99830 -16.09254 14.96527
C 18.00164 -17.90754 14.96535
C 21.78103 -16.36043 15.62004
C 26.21898 -17.63976 15.62007
C 21.82600 -17.76746 15.62095
C 26.17407 -16.23273 15.62085
C 19.57603 -14.92834 15.94653
C 28.42406 -19.07180 15.94668
C 19.71943 -19.34615 15.94299
C 28.28060 -14.65392 15.94302
C 18.48348 -15.81533 16.14444
C 29.51657 -18.18473 16.14456
C 18.56978 -18.53469 16.14279
C 29.43020 -15.46545 16.14273
C 21.69959 -15.54167 16.79916
C 26.30054 -18.45839 16.79916
C 21.79489 -18.59299 16.79848
C 26.20516 -15.40709 16.79847
C 20.53538 -14.79623 17.01986
C 27.46467 -19.20389 17.01992
C 20.68356 -19.41521 17.01715
C 27.31649 -14.58483 17.01727
C 24.68432 -16.97923 17.84531
C 23.31572 -17.02078 17.84535
C 25.25462 -15.68404 17.77204
C 22.74533 -18.31599 17.77210
C 25.33364 -18.23669 17.77140
C 22.66645 -15.76326 17.77152
C 18.54608 -16.46327 17.43641
C 29.45395 -17.53682 17.43648
C 18.59026 -17.88546 17.43560
C 29.40976 -16.11461 17.43555
C 27.84186 -19.19455 18.43011
C 20.15809 -14.80543 18.43009
C 23.22519 -14.72900 18.59920
C 24.77484 -19.27090 18.59911
C 23.36633 -19.31529 18.59866
C 24.63369 -14.68468 18.59866
C 27.69559 -14.56241 18.42685
C 20.30454 -19.43776 18.42674
C 28.88694 -18.22196 18.58275
C 19.11298 -15.77815 18.58273
C 28.80234 -15.46358 18.58068
C 19.19776 -18.53651 18.58069
C 22.42213 -14.08251 19.55305
C 25.57785 -19.91746 19.55300
C 25.39295 -13.98580 19.55180
C 22.60714 -20.01428 19.55173
C 20.99908 -14.42297 19.54985
C 27.00086 -19.57697 19.54986
C 21.16520 -19.76910 19.54744
C 26.83493 -14.23102 19.54749
C 19.12963 -17.87050 19.83231
C 28.87040 -16.12964 19.83228
C 19.08738 -16.45034 19.83250
C 28.91263 -17.54977 19.83249
C 23.16816 -13.65728 20.71454
C 24.83191 -20.34276 20.71450
C 23.37906 -20.39198 20.71329
C 24.62099 -13.60805 20.71344
C 27.51908 -19.32352 20.85806
C 20.48090 -14.67639 20.85810
C 27.37066 -14.44186 20.85599
C 20.62941 -19.55820 20.85590
C 19.64644 -18.53577 20.97633
C 28.35367 -15.46434 20.97632
C 19.56480 -15.75911 20.97758
C 28.43529 -18.24091 20.97757
C 25.31458 -13.51653 21.96146
C 22.68551 -20.48346 21.96134
C 25.52862 -20.38245 21.96299
C 22.47140 -13.61758 21.96297
C 26.83628 -19.79919 22.02241
C 21.16373 -14.20079 22.02244
C 26.65938 -14.00785 22.02039
C 21.34072 -19.99207 22.02030
C 28.46980 -16.13933 22.21296
C 19.53032 -17.86073 22.21299
C 28.51090 -17.55716 22.21284
C 19.48925 -16.44289 22.21288
C 23.40337 -20.70998 23.17968
C 24.59663 -13.29006 23.17968
C 23.17152 -13.34194 23.18060
C 24.82846 -20.65809 23.18062
C 27.34449 -19.41615 23.29820
C 20.65552 -14.58392 23.29822
C 27.19163 -14.35305 23.29747
C 20.80852 -19.64686 23.29745
C 28.06959 -15.46308 23.38341
C 19.93042 -18.53694 23.38349
C 28.15159 -18.25390 23.38398
C 19.84844 -15.74617 23.38407
C 25.51132 -20.58463 24.44015
C 22.48862 -13.41545 24.44017
C 25.28185 -13.31261 24.43972
C 22.71817 -20.68746 24.43972
C 26.76656 -19.92476 24.49406
C 21.23336 -14.07527 24.49409
C 26.58077 -13.88254 24.49322
C 21.41926 -20.11756 24.49322
C 28.26516 -17.56139 24.61372
C 19.73486 -16.43873 24.61380
C 28.22315 -16.14603 24.61395
C 19.77693 -17.85406 24.61406
C 28.00347 -18.26447 25.80623
C 24.83426 -20.84587 25.66986
C 20.88893 -19.70741 25.75074
C 19.99660 -15.73566 25.80628
C 23.16570 -13.15422 25.66990
C 27.11105 -14.29281 25.75068
C 27.27081 -19.48007 25.75036
C 23.41361 -20.89813 25.66968
C 20.08085 -18.54089 25.80663
C 20.72921 -14.52006 25.75041
C 24.58634 -13.10197 25.66968
C 27.91919 -15.45930 25.80659
C 28.13311 -17.56511 27.02970
C 26.54717 -13.80764 26.95964
C 22.48371 -13.28536 26.92148
C 19.86691 -16.43501 27.02972
C 21.45278 -20.19247 26.95972
C 25.51622 -20.71466 26.92144
C 28.09115 -16.14828 27.03059
C 25.27383 -13.18324 26.92219
C 21.25755 -13.99788 26.95920
C 19.90884 -17.85185 27.03059
C 22.72609 -20.81685 26.92220
C 26.74242 -20.00222 26.95918
C 27.83877 -15.45763 28.23810
C 24.58001 -12.99337 28.15673
C 20.76532 -14.48884 28.20438
C 20.16118 -18.54245 28.23811
C 23.41991 -21.00657 28.15677
C 27.23456 -19.51118 28.20439
C 27.06973 -14.26351 28.20597
C 23.16020 -13.04565 28.15674
C 20.07633 -15.73053 28.23732
C 20.93025 -19.73655 28.20600
C 24.83971 -20.95426 28.15670
C 27.92366 -18.26952 28.23736
C 28.07151 -17.56695 29.45720
C 26.52747 -13.77455 29.42241
C 22.47819 -13.22225 29.39936
C 19.92843 -16.43303 29.45715
C 21.47251 -20.22540 29.42247
C 25.52167 -20.77762 29.39934
C 28.02840 -16.15015 29.45800
C 25.26995 -13.12049 29.40066
C 21.26985 -13.96338 29.42108
C 19.97156 -17.84983 29.45799
C 22.73002 -20.87950 29.40076
C 26.72998 -20.03648 29.42111
C 27.78975 -15.46365 30.67462
C 24.57236 -12.96310 30.63732
C 20.79210 -14.48747 30.65837
C 20.21024 -18.53624 30.67468
C 23.42759 -21.03701 30.63739
C 27.20773 -19.51239 30.65838
C 27.03617 -14.26632 30.66029
C 23.15841 -13.01433 30.63724
C 20.11977 -15.73235 30.67371
C 20.96382 -19.73357 30.66034
C 24.84150 -20.98563 30.63724
C 27.87998 -18.26754 30.67375
C 28.00054 -17.58167 31.90207
C 26.50030 -13.82504 31.89343
C 22.51307 -13.24388 31.88259
C 19.99933 -16.41832 31.90207
C 21.49963 -20.17502 31.89346
C 25.48686 -20.75622 31.88262
C 27.95258 -16.14119 31.90267
C 25.22663 -13.14822 31.88475
C 21.28988 -14.00886 31.89310
C 20.04744 -17.85879 31.90277
C 22.77333 -20.85182 31.88481
C 26.71001 -19.99110 31.89308
C 27.77178 -15.47610 33.13925
C 24.56616 -12.97159 33.13925
C 20.79437 -14.49549 33.13925
C 20.22822 -18.52390 33.13925
C 23.43384 -21.02841 33.13925
C 27.20563 -19.50451 33.13925
C 27.02311 -14.27798 33.13925
C 23.15421 -13.02090 33.13925
C 20.13110 -15.74292 33.13925
C 20.97689 -19.72202 33.13925
C 24.84579 -20.97910 33.13925
C 27.86890 -18.25708 33.13925
C 28.02841 -0.56616 -22.17392
C 26.50451  3.20563 -22.17392
C 22.47610  3.77178 -22.17392
C 19.97159  0.56616 -22.17392
C 21.49549 -3.20563 -22.17392
C 25.52390 -3.77178 -22.17392
C 27.97910  0.84578 -22.17392
C 25.25708  3.86890 -22.17392
C 21.27798  3.02311 -22.17392
C 20.02090 -0.84579 -22.17392
C 22.74292 -3.86890 -22.17392
C 26.72202 -3.02311 -22.17392
C 27.87834  1.58785 -21.01044
C 24.54990  4.07414 -20.97555
C 20.80122  2.54692 -20.94554
C 20.12156 -1.58796 -21.01050
C 23.45008 -4.07404 -20.97556
C 27.19890 -2.54687 -20.94558
C 27.12016  2.79184 -20.99952
C 23.11936  3.96937 -20.93167
C 20.07201  1.31173 -21.00289
C 20.87993 -2.79178 -20.99945
C 24.88068 -3.96924 -20.93167
C 27.92802 -1.31166 -21.00286
C 28.12131 -0.56421 -19.79600
C 26.56421  3.27470 -19.76752
C 22.47485  3.76778 -19.69319
C 19.87868  0.56422 -19.79612
C 21.43573 -3.27459 -19.76735
C 25.52519 -3.76772 -19.69320
C 28.09238  0.86269 -19.79927
C 25.28705  3.90840 -19.74613
C 21.26525  3.03700 -19.71072
C 19.90752 -0.86264 -19.79937
C 22.71304 -3.90839 -19.74603
C 26.73484 -3.03694 -19.71092
C 27.86768  1.56117 -18.57632
C 24.59423  4.00498 -18.48836
C 20.75794  2.48811 -18.50788
C 20.13227 -1.56112 -18.57640
C 23.40571 -4.00500 -18.48826
C 27.24219 -2.48811 -18.50794
C 27.09659  2.75537 -18.54607
C 23.17810  3.93952 -18.46442
C 20.05864  1.25550 -18.56221
C 20.90347 -2.75538 -18.54598
C 24.82187 -3.93960 -18.46444
C 27.94144 -1.25534 -18.56211
C 28.14494 -0.54681 -17.35783
C 26.56947  3.20368 -17.29736
C 22.49871  3.68836 -17.23755
C 19.85509  0.54678 -17.35796
C 21.43054 -3.20357 -17.29725
C 25.50124 -3.68843 -17.23768
C 28.10931  0.87194 -17.36446
C 25.28951  3.81821 -17.25546
C 21.26883  2.97416 -17.27273
C 19.89064 -0.87189 -17.36459
C 22.71050 -3.81815 -17.25534
C 26.73113 -2.97411 -17.27275
C 27.93612  1.55885 -16.13890
C 24.59875  3.89096 -16.00199
C 20.73945  2.45198 -16.06967
C 20.06377 -1.55889 -16.13909
C 23.40121 -3.89096 -16.00184
C 27.26050 -2.45197 -16.06966
C 27.13130  2.72320 -16.08494
C 23.18162  3.82437 -15.99288
C 20.00026  1.24392 -16.13368
C 20.86887 -2.72312 -16.08490
C 24.81840 -3.82457 -15.99288
C 27.99956 -1.24388 -16.13357
C 28.26404 -0.54370 -14.93871
C 19.73595  0.54361 -14.93882
C 28.23332  0.87054 -14.94173
C 19.76675 -0.87064 -14.94183
C 26.59668  3.13129 -14.82419
C 21.40337 -3.13127 -14.82412
C 26.75320 -2.90132 -14.81550
C 21.24680  2.90122 -14.81549
C 25.49946 -3.56292 -14.76383
C 22.50058  3.56275 -14.76385
C 25.29452  3.68986 -14.76826
C 22.70545 -3.68986 -14.76810
C 28.14544 -1.23735 -13.71170
C 19.85456  1.23722 -13.71182
C 28.08037  1.55195 -13.71235
C 19.91959 -1.55191 -13.71243
C 27.33416 -2.39712 -13.62352
C 20.66585  2.39700 -13.62356
C 27.20383  2.66286 -13.62766
C 20.79605 -2.66292 -13.62760
C 23.39477 -3.70955 -13.51057
C 24.60539  3.70962 -13.51064
C 24.81940 -3.64660 -13.50801
C 23.18075  3.64646 -13.50805
C 28.50760 -0.54338 -12.53940
C 19.49240  0.54333 -12.53956
C 28.47328  0.87158 -12.54036
C 19.52680 -0.87164 -12.54051
C 26.82566 -2.78418 -12.34900
C 21.17447  2.78401 -12.34896
C 26.66488  3.00353 -12.34987
C 21.33515 -3.00354 -12.34987
C 25.32168  3.48789 -12.29002
C 22.67842 -3.48777 -12.28994
C 25.52276 -3.37065 -12.29072
C 22.47737  3.37056 -12.29073
C 19.56965  1.22995 -11.30448
C 28.43025 -1.22987 -11.30434
C 19.64283 -1.54698 -11.30329
C 28.35719  1.54703 -11.30328
C 27.51208 -2.31178 -11.18449
C 20.48781  2.31172 -11.18466
C 27.37429  2.56951 -11.18338
C 20.62574 -2.56944 -11.18339
C 23.37521 -3.39294 -11.04166
C 24.62492  3.39321 -11.04166
C 23.17248  3.33833 -11.04081
C 24.82768 -3.33809 -11.04072
C 28.87134  0.88005 -10.16138
C 19.12864 -0.88000 -10.16150
C 28.90994 -0.53977 -10.16135
C 19.08994  0.53975 -10.16142
C 26.99619 -2.56868 -9.87882
C 21.00373  2.56871 -9.87899
C 21.16499 -2.77753 -9.87801
C 26.83514  2.77766 -9.87795
C 25.57624 -2.91689 -9.88032
C 22.42371  2.91693 -9.88044
C 25.39449  3.02066 -9.87971
C 22.60554 -3.02037 -9.87978
C 28.88231 -1.21248 -8.91071
C 19.11764  1.21242 -8.91079
C 28.80315  1.54800 -8.90997
C 19.19691 -1.54795 -8.91004
C 27.83998 -2.18401 -8.75837
C 20.16002  2.18399 -8.75848
C 23.36669 -2.32098 -8.92488
C 24.63329  2.32099 -8.92497
C 23.22766  2.27518 -8.92232
C 24.77228 -2.27524 -8.92214
C 27.69809  2.44613 -8.75656
C 20.30197 -2.44615 -8.75666
C 18.58972 -0.89634 -7.76466
C 18.54805  0.52644 -7.76498
C 29.41021  0.89626 -7.76468
C 29.45184 -0.52644 -7.76497
C 25.25568  1.31655 -8.10569
C 22.74435 -1.31664 -8.10569
C 25.33207 -1.23483 -8.10164
C 22.66798  1.23486 -8.10177
C 24.68529  0.02223 -8.18257
C 23.31482 -0.02230 -8.18261
C 20.53587  2.19630 -7.34814
C 27.46423 -2.19631 -7.34799
C 20.68463 -2.42415 -7.34879
C 27.31544  2.42404 -7.34871
C 21.70154  1.45214 -7.12744
C 26.29855 -1.45222 -7.12735
C 21.79485 -1.59805 -7.13142
C 26.20511  1.59806 -7.13130
C 18.48469  1.17357 -6.47449
C 29.51533 -1.17354 -6.47457
C 18.57031 -1.54576 -6.47398
C 29.42962  1.54574 -6.47404
C 19.57693  2.06169 -6.27603
C 28.42323 -2.06175 -6.27599
C 19.72108 -2.35621 -6.27526
C 28.27891  2.35621 -6.27512
C 21.78310  0.63096 -5.95177
C 26.21702 -0.63106 -5.95178
C 21.82702 -0.77662 -5.95356
C 26.17302  0.77651 -5.95348
C 30.04315 -0.51022 -5.29664
C 17.95684  0.51021 -5.29659
C 29.99659  0.91819 -5.29591
C 18.00335 -0.91828 -5.29593
C 27.89480 -2.03501 -4.93405
C 20.10535  2.03487 -4.93402
C 27.74973  2.29205 -4.93494
C 20.25034 -2.29210 -4.93502
C 26.69674 -1.27992 -4.78154
C 21.30339  1.27978 -4.78150
C 26.60523  1.45771 -4.78329
C 21.39492 -1.45788 -4.78326
C 29.95370 -1.14415 -3.99163
C 18.04631  1.14408 -3.99159
C 29.86209  1.54613 -3.99114
C 18.13789 -1.54625 -3.99115
C 28.79402 -1.95967 -3.81975
C 19.20605  1.95960 -3.81983
C 28.64904  2.27904 -3.81888
C 19.35106 -2.27908 -3.81893
C 26.45923 -0.62972 -3.55167
C 21.54065  0.62957 -3.55165
C 26.40939  0.79413 -3.55254
C 21.59076 -0.79429 -3.55252
C 17.57235  0.49204 -2.78143
C 30.42760 -0.49204 -2.78142
C 17.62189 -0.93038 -2.78061
C 30.37805  0.93036 -2.78057
C 19.79153  1.94746 -2.51017
C 28.20843 -1.94754 -2.51005
C 19.93743 -2.22826 -2.51008
C 28.06263  2.22822 -2.50998
C 21.03262  1.26650 -2.38962
C 26.96724 -1.26660 -2.38961
C 21.12902 -1.46393 -2.38991
C 26.87098  1.46389 -2.38990
C 30.24748 -1.11978 -1.47688
C 17.75245  1.11973 -1.47692
C 30.15259  1.54607 -1.47666
C 17.84743 -1.54610 -1.47668
C 18.93716  1.89813 -1.35627
C 29.06277 -1.89814 -1.35620
C 19.08437 -2.23922 -1.35493
C 28.91572  2.23918 -1.35483
C 21.31194  0.62149 -1.15634
C 26.68809 -0.62142 -1.15638
C 21.36255 -0.79994 -1.15651
C 26.63750  0.79994 -1.15646
C 30.68845 -0.48311 -0.24672
C 17.31155  0.48301 -0.24669
C 30.63710  0.94505 -0.24570
C 17.36291 -0.94513 -0.24569
C 28.43312 -1.92355 -0.06960
C 19.56687  1.92357 -0.06965
C 28.28491  2.22119 -0.06803
C 19.71521 -2.22118 -0.06808
C 27.17258 -1.25872  0.01436
C 20.82739  1.25879  0.01441
C 27.07409  1.46882  0.01545
C 20.92597 -1.46873  0.01552
C 30.44041 -1.11065  1.03954
C 17.55957  1.11061  1.03961
C 17.65606 -1.55474  1.04096
C 30.34394  1.55456  1.04092
C 29.24436 -1.88231  1.10992
C 18.75565  1.88230  1.10994
C 29.09506  2.23780  1.11294
C 18.90497 -2.23791  1.11296
C 26.80105  0.80487  1.23640
C 21.19890 -0.80488  1.23649
C 26.85350 -0.61789  1.23575
C 21.14648  0.61789  1.23583
C 17.22671 -0.94722  2.29312
C 30.77334  0.94707  2.29310
C 17.17478  0.47374  2.29190
C 30.82523 -0.47385  2.29194
C 19.57961 -2.21206  2.38095
C 28.42031  2.21191  2.38091
C 19.42936  1.90716  2.37745
C 28.57066 -1.90713  2.37748
C 20.78720 -1.46562  2.42404
C 27.21275  1.46548  2.42401
C 20.68812  1.25075  2.42148
C 27.31190 -1.25074  2.42140
C 30.53472 -1.10814  3.56959
C 17.46528  1.10812  3.56953
C 30.43636  1.55585  3.57282
C 17.56367 -1.55587  3.57288
C 18.66347  1.88015  3.59182
C 29.33647 -1.88016  3.59185
C 29.18498  2.23831  3.59647
C 18.81497 -2.23845  3.59647
C 21.11001 -0.80409  3.63752
C 26.89004  0.80393  3.63745
C 21.05798  0.61889  3.63645
C 26.94214 -0.61900  3.63643
C 30.87896 -0.47797  4.83260
C 17.12095  0.47798  4.83263
C 28.61669 -1.91839  4.83096
C 19.38337  1.91832  4.83091
C 27.25133  1.46739  4.83560
C 20.74880 -1.46747  4.83578
C 30.82674  0.94927  4.83443
C 17.17331 -0.94927  4.83445
C 27.35149 -1.25987  4.83204
C 20.64856  1.25980  4.83201
C 28.46415  2.21864  4.83591
C 19.53596 -2.21876  4.83591
C 21.10672 -0.79757  6.03290
C 26.89337  0.79750  6.03275
C 21.05525  0.62420  6.03170
C 26.94483 -0.62421  6.03165
C 18.66236  1.88538  6.07024
C 29.33771 -1.88534  6.07027
C 29.18624  2.23429  6.07519
C 18.81396 -2.23439  6.07527
C 30.43653  1.55218  6.09811
C 17.56357 -1.55228  6.09816
C 30.53404 -1.11244  6.09436
C 17.46603  1.11236  6.09440
C 20.78497 -1.45661  7.24730
C 27.21505  1.45647  7.24722
C 20.68633  1.26205  7.24435
C 27.31381 -1.26205  7.24435
C 19.42696  1.91944  7.28570
C 28.57318 -1.91940  7.28575
C 19.57809 -2.20570  7.29061
C 28.42195  2.20563  7.29050
C 17.17477  0.48248  7.37464
C 30.82545 -0.48261  7.37457
C 17.22622 -0.93970  7.37598
C 30.77389  0.93961  7.37582
C 26.85707 -0.63170  8.43118
C 21.14299  0.63168  8.43118
C 26.80577  0.79085  8.43214
C 21.19419 -0.79092  8.43214
C 18.75367  1.89640  8.55378
C 29.24645 -1.89651  8.55380
C 29.09618  2.22820  8.55755
C 18.90372 -2.22829  8.55762
C 17.55885  1.12229  8.62552
C 30.44128 -1.12228  8.62544
C 30.34461  1.54411  8.62816
C 17.65532 -1.54418  8.62825
C 27.17566 -1.27424  9.65307
C 20.82428  1.27416  9.65310
C 27.07660  1.45414  9.65417
C 20.92325 -1.45419  9.65409
C 28.43584 -1.93858  9.73590
C 19.56419  1.93858  9.73598
C 28.28505  2.20829  9.73859
C 19.71491 -2.20836  9.73858
C 30.68757 -0.49561  9.91438
C 17.31242  0.49554  9.91442
C 30.63680  0.93191  9.91472
C 17.36314 -0.93184  9.91472
C 21.30985  0.63776 10.82400
C 26.69007 -0.63782 10.82396
C 21.36107 -0.78493 10.82432
C 26.63886  0.78489 10.82438
C 18.93579  1.91351 11.02359
C 29.06420 -1.91350 11.02355
C 19.08340 -2.22715 11.02435
C 28.91652  2.22720 11.02437
C 30.24888 -1.13318 11.14490
C 17.75111  1.13314 11.14491
C 17.84596 -1.53346 11.14552
C 30.15405  1.53350 11.14549
C 21.03062  1.28097 12.05779
C 26.96939 -1.28103 12.05772
C 21.12702 -1.44826 12.05745
C 26.87304  1.44815 12.05746
C 19.78945  1.96097 12.17823
C 28.21055 -1.96113 12.17823
C 19.93666 -2.21390 12.17833
C 28.06331  2.21389 12.17835
C 17.57251  0.50499 12.44928
C 30.42756 -0.50496 12.44925
C 17.62179 -0.91724 12.44866
C 30.37825  0.91725 12.44861
C 26.46008 -0.64369 13.22053
C 21.53987  0.64361 13.22060
C 26.41135  0.77947 13.22147
C 21.58877 -0.77953 13.22146
C 28.79519 -1.97150 13.48987
C 19.20475  1.97136 13.48987
C 28.65008  2.26685 13.48785
C 19.34989 -2.26688 13.48790
C 29.95403 -1.15595 13.66124
C 18.04603  1.15590 13.66133
C 29.86255  1.53375 13.66028
C 18.13747 -1.53374 13.66037
C 26.69648 -1.29257 14.45073
C 21.30351  1.29245 14.45072
C 26.60601  1.44640 14.45018
C 21.39407 -1.44647 14.45016
C 27.89591 -2.04798 14.60426
C 20.10406  2.04787 14.60420
C 27.75081  2.28200 14.60272
C 20.24920 -2.28211 14.60275
C 30.04470 -0.52265 14.96636
C 17.95530  0.52265 14.96643
C 29.99830  0.90746 14.96527
C 18.00164 -0.90754 14.96535
C 21.78103  0.63957 15.62004
C 26.21898 -0.63976 15.62007
C 21.82600 -0.76746 15.62095
C 26.17407  0.76727 15.62085
C 19.57603  2.07166 15.94653
C 28.42406 -2.07180 15.94668
C 19.71943 -2.34615 15.94299
C 28.28060  2.34608 15.94302
C 18.48348  1.18467 16.14444
C 29.51657 -1.18473 16.14456
C 18.56978 -1.53469 16.14279
C 29.43020  1.53455 16.14273
C 21.69959  1.45833 16.79916
C 26.30054 -1.45839 16.79916
C 21.79489 -1.59299 16.79848
C 26.20516  1.59291 16.79847
C 20.53538  2.20377 17.01986
C 27.46467 -2.20389 17.01992
C 20.68356 -2.41521 17.01715
C 27.31649  2.41517 17.01727
C 24.68432  0.02077 17.84531
C 23.31572 -0.02078 17.84535
C 25.25462  1.31596 17.77204
C 22.74533 -1.31599 17.77210
C 25.33364 -1.23669 17.77140
C 22.66645  1.23674 17.77152
C 18.54608  0.53673 17.43641
C 29.45395 -0.53682 17.43648
C 18.59026 -0.88546 17.43560
C 29.40976  0.88539 17.43555
C 27.84186 -2.19455 18.43011
C 20.15809  2.19457 18.43009
C 23.22519  2.27100 18.59920
C 24.77484 -2.27090 18.59911
C 23.36633 -2.31529 18.59866
C 24.63369  2.31532 18.59866
C 27.69559  2.43759 18.42685
C 20.30454 -2.43776 18.42674
C 28.88694 -1.22196 18.58275
C 19.11298  1.22185 18.58273
C 28.80234  1.53642 18.58068
C 19.19776 -1.53651 18.58069
C 22.42213  2.91749 19.55305
C 25.57785 -2.91746 19.55300
C 25.39295  3.01420 19.55180
C 22.60714 -3.01428 19.55173
C 20.99908  2.57703 19.54985
C 27.00086 -2.57697 19.54986
C 21.16520 -2.76910 19.54744
C 26.83493  2.76898 19.54749
C 19.12963 -0.87050 19.83231
C 28.87040  0.87036 19.83228
C 19.08738  0.54966 19.83250
C 28.91263 -0.54977 19.83249
C 23.16816  3.34272 20.71454
C 24.83191 -3.34276 20.71450
C 23.37906 -3.39198 20.71329
C 24.62099  3.39195 20.71344
C 27.51908 -2.32352 20.85806
C 20.48090  2.32361 20.85810
C 27.37066  2.55814 20.85599
C 20.62941 -2.55820 20.85590
C 19.64644 -1.53577 20.97633
C 28.35367  1.53566 20.97632
C 19.56480  1.24089 20.97758
C 28.43529 -1.24091 20.97757
C 25.31458  3.48347 21.96146
C 22.68551 -3.48346 21.96134
C 25.52862 -3.38245 21.96299
C 22.47140  3.38242 21.96297
C 26.83628 -2.79919 22.02241
C 21.16373  2.79921 22.02244
C 26.65938  2.99215 22.02039
C 21.34072 -2.99207 22.02030
C 28.46980  0.86067 22.21296
C 19.53032 -0.86073 22.21299
C 28.51090 -0.55716 22.21284
C 19.48925  0.55711 22.21288
C 23.40337 -3.70998 23.17968
C 24.59663  3.70994 23.17968
C 23.17152  3.65806 23.18060
C 24.82846 -3.65809 23.18062
C 27.34449 -2.41615 23.29820
C 20.65552  2.41608 23.29822
C 27.19163  2.64695 23.29747
C 20.80852 -2.64686 23.29745
C 28.06959  1.53692 23.38341
C 19.93042 -1.53694 23.38349
C 28.15159 -1.25390 23.38398
C 19.84844  1.25383 23.38407
C 25.51132 -3.58463 24.44015
C 22.48862  3.58455 24.44017
C 25.28185  3.68739 24.43972
C 22.71817 -3.68746 24.43972
C 26.76656 -2.92476 24.49406
C 21.23336  2.92473 24.49409
C 26.58077  3.11746 24.49322
C 21.41926 -3.11756 24.49322
C 28.26516 -0.56139 24.61372
C 19.73486  0.56127 24.61380
C 28.22315  0.85397 24.61395
C 19.77693 -0.85406 24.61406
C 28.00347 -1.26447 25.80623
C 24.83426 -3.84587 25.66986
C 20.88893 -2.70741 25.75074
C 19.99660  1.26434 25.80628
C 23.16570  3.84578 25.66990
C 27.11105  2.70719 25.75068
C 27.27081 -2.48007 25.75036
C 23.41361 -3.89813 25.66968
C 20.08085 -1.54089 25.80663
C 20.72921  2.47994 25.75041
C 24.58634  3.89803 25.66968
C 27.91919  1.54070 25.80659
C 28.13311 -0.56511 27.02970
C 26.54717  3.19236 26.95964
C 22.48371  3.71464 26.92148
C 19.86691  0.56499 27.02972
C 21.45278 -3.19247 26.95972
C 25.51622 -3.71466 26.92144
C 28.09115  0.85172 27.03059
C 25.27383  3.81676 26.92219
C 21.25755  3.00212 26.95920
C 19.90884 -0.85185 27.03059
C 22.72609 -3.81685 26.92220
C 26.74242 -3.00222 26.95918
C 27.83877  1.54237 28.23810
C 24.58001  4.00663 28.15673
C 20.76532  2.51116 28.20438
C 20.16118 -1.54245 28.23811
C 23.41991 -4.00657 28.15677
C 27.23456 -2.51118 28.20439
C 27.06973  2.73649 28.20597
C 23.16020  3.95435 28.15674
C 20.07633  1.26947 28.23732
C 20.93025 -2.73655 28.20600
C 24.83971 -3.95426 28.15670
C 27.92366 -1.26952 28.23736
C 28.07151 -0.56695 29.45720
C 26.52747  3.22545 29.42241
C 22.47819  3.77775 29.39936
C 19.92843  0.56697 29.45715
C 21.47251 -3.22540 29.42247
C 25.52167 -3.77762 29.39934
C 28.02840  0.84985 29.45800
C 25.26995  3.87951 29.40066
C 21.26985  3.03662 29.42108
C 19.97156 -0.84983 29.45799
C 22.73002 -3.87950 29.40076
C 26.72998 -3.03648 29.42111
C 27.78975  1.53635 30.67462
C 24.57236  4.03690 30.63732
C 20.79210  2.51253 30.65837
C 20.21024 -1.53624 30.67468
C 23.42759 -4.03701 30.63739
C 27.20773 -2.51239 30.65838
C 27.03617  2.73368 30.66029
C 23.15841  3.98567 30.63724
C 20.11977  1.26765 30.67371
C 20.96382 -2.73357 30.66034
C 24.84150 -3.98563 30.63724
C 27.87998 -1.26754 30.67375
C 28.00054 -0.58167 31.90207
C 26.50030  3.17496 31.89343
C 22.51307  3.75612 31.88259
C 19.99933  0.58168 31.90207
C 21.49963 -3.17502 31.89346
C 25.48686 -3.75622 31.88262
C 27.95258  0.85881 31.90267
C 25.22663  3.85178 31.88475
C 21.28988  2.99114 31.89310
C 20.04744 -0.85879 31.90277
C 22.77333 -3.85182 31.88481
C 26.71001 -2.99110 31.89308
C 27.77178  1.52390 33.13925
C 24.56616  4.02841 33.13925
C 20.79437  2.50451 33.13925
C 20.22822 -1.52390 33.13925
C 23.43384 -4.02841 33.13925
C 27.20563 -2.50451 33.13925
C 27.02311  2.72202 33.13925
C 23.15421  3.97910 33.13925
C 20.13110  1.25708 33.13925
C 20.97689 -2.72202 33.13925
C 24.84579 -3.97910 33.13925
C 27.86890 -1.25708 33.13925
C 28.02841 16.43384 -22.17392
C 26.50451 20.20563 -22.17392
C 22.47610 20.77178 -22.17392
C 19.97159 17.56616 -22.17392
C 21.49549 13.79437 -22.17392
C 25.52390 13.22822 -22.17392
C 27.97910 17.84578 -22.17392
C 25.25708 20.86890 -22.17392
C 21.27798 20.02311 -22.17392
C 20.02090 16.15421 -22.17392
C 22.74292 13.13110 -22.17392
C 26.72202 13.97689 -22.17392
C 27.87834 18.58785 -21.01044
C 24.54990 21.07414 -20.97555
C 20.80122 19.54692 -20.94554
C 20.12156 15.41204 -21.01050
C 23.45008 12.92596 -20.97556
C 27.19890 14.45313 -20.94558
C 27.12016 19.79184 -20.99952
C 23.11936 20.96937 -20.93167
C 20.07201 18.31173 -21.00289
C 20.87993 14.20822 -20.99945
C 24.88068 13.03076 -20.93167
C 27.92802 15.68834 -21.00286
C 28.12131 16.43579 -19.79600
C 26.56421 20.27470 -19.76752
C 22.47485 20.76778 -19.69319
C 19.87868 17.56422 -19.79612
C 21.43573 13.72541 -19.76735
C 25.52519 13.23228 -19.69320
C 28.09238 17.86269 -19.79927
C 25.28705 20.90840 -19.74613
C 21.26525 20.03700 -19.71072
C 19.90752 16.13736 -19.79937
C 22.71304 13.09161 -19.74603
C 26.73484 13.96306 -19.71092
C 27.86768 18.56117 -18.57632
C 24.59423 21.00498 -18.48836
C 20.75794 19.48811 -18.50788
C 20.13227 15.43888 -18.57640
C 23.40571 12.99500 -18.48826
C 27.24219 14.51189 -18.50794
C 27.09659 19.75537 -18.54607
C 23.17810 20.93952 -18.46442
C 20.05864 18.25550 -18.56221
C 20.90347 14.24462 -18.54598
C 24.82187 13.06040 -18.46444
C 27.94144 15.74466 -18.56211
C 28.14494 16.45319 -17.35783
C 26.56947 20.20368 -17.29736
C 22.49871 20.68836 -17.23755
C 19.85509 17.54678 -17.35796
C 21.43054 13.79643 -17.29725
C 25.50124 13.31157 -17.23768
C 28.10931 17.87194 -17.36446
C 25.28951 20.81821 -17.25546
C 21.26883 19.97416 -17.27273
C 19.89064 16.12811 -17.36459
C 22.71050 13.18185 -17.25534
C 26.73113 14.02589 -17.27275
C 27.93612 18.55885 -16.13890
C 24.59875 20.89096 -16.00199
C 20.73945 19.45198 -16.06967
C 20.06377 15.44111 -16.13909
C 23.40121 13.10904 -16.00184
C 27.26050 14.54803 -16.06966
C 27.13130 19.72320 -16.08494
C 23.18162 20.82437 -15.99288
C 20.00026 18.24392 -16.13368
C 20.86887 14.27688 -16.08490
C 24.81840 13.17543 -15.99288
C 27.99956 15.75612 -16.13357
C 28.26404 16.45630 -14.93871
C 19.73595 17.54361 -14.93882
C 28.23332 17.87054 -14.94173
C 19.76675 16.12936 -14.94183
C 26.59668 20.13129 -14.82419
C 21.40337 13.86873 -14.82412
C 26.75320 14.09868 -14.81550
C 21.24680 19.90122 -14.81549
C 25.49946 13.43708 -14.76383
C 22.50058 20.56275 -14.76385
C 25.29452 20.68986 -14.76826
C 22.70545 13.31014 -14.76810
C 28.14544 15.76265 -13.71170
C 19.85456 18.23722 -13.71182
C 28.08037 18.55195 -13.71235
C 19.91959 15.44809 -13.71243
C 27.33416 14.60288 -13.62352
C 20.66585 19.39700 -13.62356
C 27.20383 19.66286 -13.62766
C 20.79605 14.33708 -13.62760
C 23.39477 13.29045 -13.51057
C 24.60539 20.70962 -13.51064
C 24.81940 13.35340 -13.50801
C 23.18075 20.64646 -13.50805
C 28.50760 16.45662 -12.53940
C 19.49240 17.54333 -12.53956
C 28.47328 17.87158 -12.54036
C 19.52680 16.12836 -12.54051
C 26.82566 14.21582 -12.34900
C 21.17447 19.78401 -12.34896
C 26.66488 20.00353 -12.34987
C 21.33515 13.99646 -12.34987
C 25.32168 20.48789 -12.29002
C 22.67842 13.51223 -12.28994
C 25.52276 13.62935 -12.29072
C 22.47737 20.37056 -12.29073
C 19.56965 18.22995 -11.30448
C 28.43025 15.77013 -11.30434
C 19.64283 15.45302 -11.30329
C 28.35719 18.54703 -11.30328
C 27.51208 14.68822 -11.18449
C 20.48781 19.31172 -11.18466
C 27.37429 19.56951 -11.18338
C 20.62574 14.43056 -11.18339
C 23.37521 13.60706 -11.04166
C 24.62492 20.39321 -11.04166
C 23.17248 20.33833 -11.04081
C 24.82768 13.66191 -11.04072
C 28.87134 17.88005 -10.16138
C 19.12864 16.12000 -10.16150
C 28.90994 16.46023 -10.16135
C 19.08994 17.53975 -10.16142
C 26.99619 14.43132 -9.87882
C 21.00373 19.56871 -9.87899
C 21.16499 14.22247 -9.87801
C 26.83514 19.77766 -9.87795
C 25.57624 14.08311 -9.88032
C 22.42371 19.91693 -9.88044
C 25.39449 20.02066 -9.87971
C 22.60554 13.97963 -9.87978
C 28.88231 15.78752 -8.91071
C 19.11764 18.21242 -8.91079
C 28.80315 18.54800 -8.90997
C 19.19691 15.45205 -8.91004
C 27.83998 14.81599 -8.75837
C 20.16002 19.18399 -8.75848
C 23.36669 14.67902 -8.92488
C 24.63329 19.32099 -8.92497
C 23.22766 19.27518 -8.92232
C 24.77228 14.72476 -8.92214
C 27.69809 19.44613 -8.75656
C 20.30197 14.55385 -8.75666
C 18.58972 16.10366 -7.76466
C 18.54805 17.52644 -7.76498
C 29.41021 17.89626 -7.76468
C 29.45184 16.47356 -7.76497
C 25.25568 18.31655 -8.10569
C 22.74435 15.68336 -8.10569
C 25.33207 15.76517 -8.10164
C 22.66798 18.23486 -8.10177
C 24.68529 17.02223 -8.18257
C 23.31482 16.97770 -8.18261
C 20.53587 19.19630 -7.34814
C 27.46423 14.80369 -7.34799
C 20.68463 14.57585 -7.34879
C 27.31544 19.42404 -7.34871
C 21.70154 18.45214 -7.12744
C 26.29855 15.54778 -7.12735
C 21.79485 15.40195 -7.13142
C 26.20511 18.59806 -7.13130
C 18.48469 18.17357 -6.47449
C 29.51533 15.82646 -6.47457
C 18.57031 15.45424 -6.47398
C 29.42962 18.54574 -6.47404
C 19.57693 19.06169 -6.27603
C 28.42323 14.93825 -6.27599
C 19.72108 14.64379 -6.27526
C 28.27891 19.35621 -6.27512
C 21.78310 17.63096 -5.95177
C 26.21702 16.36894 -5.95178
C 21.82702 16.22338 -5.95356
C 26.17302 17.77651 -5.95348
C 30.04315 16.48978 -5.29664
C 17.95684 17.51021 -5.29659
C 29.99659 17.91819 -5.29591
C 18.00335 16.08172 -5.29593
C 27.89480 14.96499 -4.93405
C 20.10535 19.03487 -4.93402
C 27.74973 19.29205 -4.93494
C 20.25034 14.70790 -4.93502
C 26.69674 15.72008 -4.78154
C 21.30339 18.27978 -4.78150
C 26.60523 18.45771 -4.78329
C 21.39492 15.54212 -4.78326
C 29.95370 15.85585 -3.99163
C 18.04631 18.14408 -3.99159
C 29.86209 18.54613 -3.99114
C 18.13789 15.45375 -3.99115
C 28.79402 15.04033 -3.81975
C 19.20605 18.95960 -3.81983
C 28.64904 19.27904 -3.81888
C 19.35106 14.72092 -3.81893
C 26.45923 16.37028 -3.55167
C 21.54065 17.62957 -3.55165
C 26.40939 17.79413 -3.55254
C 21.59076 16.20571 -3.55252
C 17.57235 17.49204 -2.78143
C 30.42760 16.50796 -2.78142
C 17.62189 16.06962 -2.78061
C 30.37805 17.93036 -2.78057
C 19.79153 18.94746 -2.51017
C 28.20843 15.05246 -2.51005
C 19.93743 14.77174 -2.51008
C 28.06263 19.22822 -2.50998
C 21.03262 18.26650 -2.38962
C 26.96724 15.73340 -2.38961
C 21.12902 15.53607 -2.38991
C 26.87098 18.46389 -2.38990
C 30.24748 15.88022 -1.47688
C 17.75245 18.11973 -1.47692
C 30.15259 18.54607 -1.47666
C 17.84743 15.45390 -1.47668
C 18.93716 18.89813 -1.35627
C 29.06277 15.10186 -1.35620
C 19.08437 14.76078 -1.35493
C 28.91572 19.23918 -1.35483
C 21.31194 17.62149 -1.15634
C 26.68809 16.37858 -1.15638
C 21.36255 16.20006 -1.15651
C 26.63750 17.79994 -1.15646
C 30.68845 16.51689 -0.24672
C 17.31155 17.48301 -0.24669
C 30.63710 17.94505 -0.24570
C 17.36291 16.05487 -0.24569
C 28.43312 15.07645 -0.06960
C 19.56687 18.92357 -0.06965
C 28.28491 19.22119 -0.06803
C 19.71521 14.77882 -0.06808
C 27.17258 15.74128  0.01436
C 20.82739 18.25879  0.01441
C 27.07409 18.46882  0.01545
C 20.92597 15.53127  0.01552
C 30.44041 15.88935  1.03954
C 17.55957 18.11061  1.03961
C 17.65606 15.44526  1.04096
C 30.34394 18.55456  1.04092
C 29.24436 15.11769  1.10992
C 18.75565 18.88230  1.10994
C 29.09506 19.23780  1.11294
C 18.90497 14.76209  1.11296
C 26.80105 17.80487  1.23640
C 21.19890 16.19512  1.23649
C 26.85350 16.38211  1.23575
C 21.14648 17.61789  1.23583
C 17.22671 16.05278  2.29312
C 30.77334 17.94707  2.29310
C 17.17478 17.47374  2.29190
C 30.82523 16.52615  2.29194
C 19.57961 14.78794  2.38095
C 28.42031 19.21191  2.38091
C 19.42936 18.90716  2.37745
C 28.57066 15.09287  2.37748
C 20.78720 15.53438  2.42404
C 27.21275 18.46548  2.42401
C 20.68812 18.25075  2.42148
C 27.31190 15.74926  2.42140
C 30.53472 15.89186  3.56959
C 17.46528 18.10812  3.56953
C 30.43636 18.55585  3.57282
C 17.56367 15.44413  3.57288
C 18.66347 18.88015  3.59182
C 29.33647 15.11984  3.59185
C 29.18498 19.23831  3.59647
C 18.81497 14.76155  3.59647
C 21.11001 16.19591  3.63752
C 26.89004 17.80393  3.63745
C 21.05798 17.61889  3.63645
C 26.94214 16.38100  3.63643
C 30.87896 16.52203  4.83260
C 17.12095 17.47798  4.83263
C 28.61669 15.08161  4.83096
C 19.38337 18.91832  4.83091
C 27.25133 18.46739  4.83560
C 20.74880 15.53253  4.83578
C 30.82674 17.94927  4.83443
C 17.17331 16.05073  4.83445
C 27.35149 15.74013  4.83204
C 20.64856 18.25980  4.83201
C 28.46415 19.21864  4.83591
C 19.53596 14.78124  4.83591
C 21.10672 16.20243  6.03290
C 26.89337 17.79750  6.03275
C 21.05525 17.62420  6.03170
C 26.94483 16.37579  6.03165
C 18.66236 18.88538  6.07024
C 29.33771 15.11466  6.07027
C 29.18624 19.23429  6.07519
C 18.81396 14.76561  6.07527
C 30.43653 18.55218  6.09811
C 17.56357 15.44772  6.09816
C 30.53404 15.88756  6.09436
C 17.46603 18.11236  6.09440
C 20.78497 15.54339  7.24730
C 27.21505 18.45647  7.24722
C 20.68633 18.26205  7.24435
C 27.31381 15.73795  7.24435
C 19.42696 18.91944  7.28570
C 28.57318 15.08060  7.28575
C 19.57809 14.79430  7.29061
C 28.42195 19.20563  7.29050
C 17.17477 17.48248  7.37464
C 30.82545 16.51739  7.37457
C 17.22622 16.06030  7.37598
C 30.77389 17.93961  7.37582
C 26.85707 16.36830  8.43118
C 21.14299 17.63168  8.43118
C 26.80577 17.79085  8.43214
C 21.19419 16.20908  8.43214
C 18.75367 18.89640  8.55378
C 29.24645 15.10349  8.55380
C 29.09618 19.22820  8.55755
C 18.90372 14.77171  8.55762
C 17.55885 18.12229  8.62552
C 30.44128 15.87772  8.62544
C 30.34461 18.54411  8.62816
C 17.65532 15.45582  8.62825
C 27.17566 15.72576  9.65307
C 20.82428 18.27416  9.65310
C 27.07660 18.45414  9.65417
C 20.92325 15.54581  9.65409
C 28.43584 15.06142  9.73590
C 19.56419 18.93858  9.73598
C 28.28505 19.20829  9.73859
C 19.71491 14.79164  9.73858
C 30.68757 16.50439  9.91438
C 17.31242 17.49554  9.91442
C 30.63680 17.93191  9.91472
C 17.36314 16.06816  9.91472
C 21.30985 17.63776 10.82400
C 26.69007 16.36218 10.82396
C 21.36107 16.21507 10.82432
C 26.63886 17.78489 10.82438
C 18.93579 18.91351 11.02359
C 29.06420 15.08650 11.02355
C 19.08340 14.77285 11.02435
C 28.91652 19.22720 11.02437
C 30.24888 15.86682 11.14490
C 17.75111 18.13314 11.14491
C 17.84596 15.46654 11.14552
C 30.15405 18.53350 11.14549
C 21.03062 18.28097 12.05779
C 26.96939 15.71897 12.05772
C 21.12702 15.55174 12.05745
C 26.87304 18.44815 12.05746
C 19.78945 18.96097 12.17823
C 28.21055 15.03887 12.17823
C 19.93666 14.78610 12.17833
C 28.06331 19.21389 12.17835
C 17.57251 17.50499 12.44928
C 30.42756 16.49504 12.44925
C 17.62179 16.08276 12.44866
C 30.37825 17.91725 12.44861
C 26.46008 16.35631 13.22053
C 21.53987 17.64361 13.22060
C 26.41135 17.77947 13.22147
C 21.58877 16.22047 13.22146
C 28.79519 15.02850 13.48987
C 19.20475 18.97136 13.48987
C 28.65008 19.26685 13.48785
C 19.34989 14.73312 13.48790
C 29.95403 15.84405 13.66124
C 18.04603 18.15590 13.66133
C 29.86255 18.53375 13.66028
C 18.13747 15.46626 13.66037
C 26.69648 15.70743 14.45073
C 21.30351 18.29245 14.45072
C 26.60601 18.44640 14.45018
C 21.39407 15.55353 14.45016
C 27.89591 14.95202 14.60426
C 20.10406 19.04787 14.60420
C 27.75081 19.28200 14.60272
C 20.24920 14.71789 14.60275
C 30.04470 16.47735 14.96636
C 17.95530 17.52265 14.96643
C 29.99830 17.90746 14.96527
C 18.00164 16.09246 14.96535
C 21.78103 17.63957 15.62004
C 26.21898 16.36024 15.62007
C 21.82600 16.23254 15.62095
C 26.17407 17.76727 15.62085
C 19.57603 19.07166 15.94653
C 28.42406 14.92820 15.94668
C 19.71943 14.65385 15.94299
C 28.28060 19.34608 15.94302
C 18.48348 18.18467 16.14444
C 29.51657 15.81527 16.14456
C 18.56978 15.46531 16.14279
C 29.43020 18.53455 16.14273
C 21.69959 18.45833 16.79916
C 26.30054 15.54161 16.79916
C 21.79489 15.40701 16.79848
C 26.20516 18.59291 16.79847
C 20.53538 19.20377 17.01986
C 27.46467 14.79611 17.01992
C 20.68356 14.58479 17.01715
C 27.31649 19.41517 17.01727
C 24.68432 17.02077 17.84531
C 23.31572 16.97922 17.84535
C 25.25462 18.31596 17.77204
C 22.74533 15.68401 17.77210
C 25.33364 15.76331 17.77140
C 22.66645 18.23674 17.77152
C 18.54608 17.53673 17.43641
C 29.45395 16.46318 17.43648
C 18.59026 16.11454 17.43560
C 29.40976 17.88539 17.43555
C 27.84186 14.80545 18.43011
C 20.15809 19.19457 18.43009
C 23.22519 19.27100 18.59920
C 24.77484 14.72910 18.59911
C 23.36633 14.68471 18.59866
C 24.63369 19.31532 18.59866
C 27.69559 19.43759 18.42685
C 20.30454 14.56224 18.42674
C 28.88694 15.77804 18.58275
C 19.11298 18.22185 18.58273
C 28.80234 18.53642 18.58068
C 19.19776 15.46349 18.58069
C 22.42213 19.91749 19.55305
C 25.57785 14.08254 19.55300
C 25.39295 20.01420 19.55180
C 22.60714 13.98572 19.55173
C 20.99908 19.57703 19.54985
C 27.00086 14.42303 19.54986
C 21.16520 14.23090 19.54744
C 26.83493 19.76898 19.54749
C 19.12963 16.12950 19.83231
C 28.87040 17.87036 19.83228
C 19.08738 17.54966 19.83250
C 28.91263 16.45023 19.83249
C 23.16816 20.34272 20.71454
C 24.83191 13.65724 20.71450
C 23.37906 13.60802 20.71329
C 24.62099 20.39195 20.71344
C 27.51908 14.67648 20.85806
C 20.48090 19.32361 20.85810
C 27.37066 19.55814 20.85599
C 20.62941 14.44180 20.85590
C 19.64644 15.46423 20.97633
C 28.35367 18.53566 20.97632
C 19.56480 18.24089 20.97758
C 28.43529 15.75909 20.97757
C 25.31458 20.48347 21.96146
C 22.68551 13.51654 21.96134
C 25.52862 13.61755 21.96299
C 22.47140 20.38242 21.96297
C 26.83628 14.20081 22.02241
C 21.16373 19.79921 22.02244
C 26.65938 19.99215 22.02039
C 21.34072 14.00793 22.02030
C 28.46980 17.86067 22.21296
C 19.53032 16.13927 22.21299
C 28.51090 16.44284 22.21284
C 19.48925 17.55711 22.21288
C 23.40337 13.29002 23.17968
C 24.59663 20.70994 23.17968
C 23.17152 20.65806 23.18060
C 24.82846 13.34191 23.18062
C 27.34449 14.58385 23.29820
C 20.65552 19.41608 23.29822
C 27.19163 19.64695 23.29747
C 20.80852 14.35314 23.29745
C 28.06959 18.53692 23.38341
C 19.93042 15.46306 23.38349
C 28.15159 15.74610 23.38398
C 19.84844 18.25383 23.38407
C 25.51132 13.41537 24.44015
C 22.48862 20.58455 24.44017
C 25.28185 20.68739 24.43972
C 22.71817 13.31254 24.43972
C 26.76656 14.07524 24.49406
C 21.23336 19.92473 24.49409
C 26.58077 20.11746 24.49322
C 21.41926 13.88244 24.49322
C 28.26516 16.43861 24.61372
C 19.73486 17.56127 24.61380
C 28.22315 17.85397 24.61395
C 19.77693 16.14594 24.61406
C 28.00347 15.73553 25.80623
C 24.83426 13.15413 25.66986
C 20.88893 14.29259 25.75074
C 19.99660 18.26434 25.80628
C 23.16570 20.84578 25.66990
C 27.11105 19.70719 25.75068
C 27.27081 14.51993 25.75036
C 23.41361 13.10187 25.66968
C 20.08085 15.45911 25.80663
C 20.72921 19.47994 25.75041
C 24.58634 20.89803 25.66968
C 27.91919 18.54070 25.80659
C 28.13311 16.43489 27.02970
C 26.54717 20.19236 26.95964
C 22.48371 20.71464 26.92148
C 19.86691 17.56499 27.02972
C 21.45278 13.80753 26.95972
C 25.51622 13.28534 26.92144
C 28.09115 17.85172 27.03059
C 25.27383 20.81676 26.92219
C 21.25755 20.00212 26.95920
C 19.90884 16.14815 27.03059
C 22.72609 13.18315 26.92220
C 26.74242 13.99778 26.95918
C 27.83877 18.54237 28.23810
C 24.58001 21.00663 28.15673
C 20.76532 19.51116 28.20438
C 20.16118 15.45755 28.23811
C 23.41991 12.99343 28.15677
C 27.23456 14.48882 28.20439
C 27.06973 19.73649 28.20597
C 23.16020 20.95435 28.15674
C 20.07633 18.26947 28.23732
C 20.93025 14.26345 28.20600
C 24.83971 13.04574 28.15670
C 27.92366 15.73048 28.23736
C 28.07151 16.43305 29.45720
C 26.52747 20.22545 29.42241
C 22.47819 20.77775 29.39936
C 19.92843 17.56697 29.45715
C 21.47251 13.77460 29.42247
C 25.52167 13.22238 29.39934
C 28.02840 17.84985 29.45800
C 25.26995 20.87951 29.40066
C 21.26985 20.03662 29.42108
C 19.97156 16.15017 29.45799
C 22.73002 13.12050 29.40076
C 26.72998 13.96352 29.42111
C 27.78975 18.53635 30.67462
C 24.57236 21.03690 30.63732
C 20.79210 19.51253 30.65837
C 20.21024 15.46376 30.67468
C 23.42759 12.96299 30.63739
C 27.20773 14.48761 30.65838
C 27.03617 19.73368 30.66029
C 23.15841 20.98567 30.63724
C 20.11977 18.26765 30.67371
C 20.96382 14.26643 30.66034
C 24.84150 13.01437 30.63724
C 27.87998 15.73246 30.67375
C 28.00054 16.41833 31.90207
C 26.50030 20.17496 31.89343
C 22.51307 20.75612 31.88259
C 19.99933 17.58168 31.90207
C 21.49963 13.82498 31.89346
C 25.48686 13.24378 31.88262
C 27.95258 17.85881 31.90267
C 25.22663 20.85178 31.88475
C 21.28988 19.99114 31.89310
C 20.04744 16.14121 31.90277
C 22.77333 13.14818 31.88481
C 26.71001 14.00890 31.89308
C 27.77178 18.52390 33.13925
C 24.56616 21.02841 33.13925
C 20.79437 19.50451 33.13925
C 20.22822 15.47610 33.13925
C 23.43384 12.97159 33.13925
C 27.20563 14.49549 33.13925
C 27.02311 19.72202 33.13925
C 23.15421 20.97910 33.13925
C 20.13110 18.25708 33.13925
C 20.97689 14.27798 33.13925
C 24.84579 13.02090 33.13925
C 27.86890 15.74292 33.13925
C -19.97159 -17.56616 34.36520
C -21.49549 -13.79437 34.36520
C -25.52390 -13.22822 34.36520
C -28.02841 -16.43384 34.36520
C -26.50451 -20.20563 34.36520
C -22.47610 -20.77178 34.36520
C -20.02090 -16.15422 34.36520
C -22.74292 -13.13110 34.36520
C -26.72202 -13.97689 34.36520
C -27.97910 -17.84579 34.36520
C -25.25708 -20.86890 34.36520
C -21.27798 -20.02311 34.36520
C -20.12166 -15.41215 35.52868
C -23.45010 -12.92586 35.56357
C -27.19878 -14.45308 35.59358
C -27.87844 -18.58796 35.52862
C -24.54992 -21.07404 35.56356
C -20.80110 -19.54687 35.59354
C -20.87984 -14.20816 35.53960
C -24.88064 -13.03063 35.60745
C -27.92799 -15.68827 35.53623
C -27.12007 -19.79178 35.53967
C -23.11932 -20.96924 35.60745
C -20.07198 -18.31166 35.53626
C -19.87869 -17.56421 36.74312
C -21.43579 -13.72530 36.77160
C -25.52515 -13.23222 36.84593
C -28.12132 -16.43578 36.74300
C -26.56427 -20.27459 36.77177
C -22.47481 -20.76772 36.84592
C -19.90762 -16.13731 36.73985
C -22.71295 -13.09160 36.79299
C -26.73475 -13.96300 36.82840
C -28.09248 -17.86264 36.73975
C -25.28696 -20.90839 36.79309
C -21.26516 -20.03694 36.82820
C -20.13232 -15.43883 37.96280
C -23.40577 -12.99502 38.05076
C -27.24206 -14.51189 38.03124
C -27.86773 -18.56112 37.96272
C -24.59429 -21.00500 38.05086
C -20.75781 -19.48811 38.03118
C -20.90341 -14.24463 37.99305
C -24.82190 -13.06048 38.07470
C -27.94136 -15.74450 37.97691
C -27.09653 -19.75538 37.99314
C -23.17813 -20.93960 38.07468
C -20.05856 -18.25534 37.97701
C -19.85506 -17.54681 39.18129
C -21.43053 -13.79632 39.24176
C -25.50129 -13.31164 39.30157
C -28.14491 -16.45322 39.18116
C -26.56946 -20.20357 39.24187
C -22.49876 -20.68843 39.30144
C -19.89069 -16.12806 39.17466
C -22.71049 -13.18179 39.28366
C -26.73117 -14.02584 39.26639
C -28.10936 -17.87189 39.17453
C -25.28950 -20.81815 39.28378
C -21.26887 -19.97411 39.26637
C -20.06388 -15.44115 40.40022
C -23.40125 -13.10904 40.53713
C -27.26055 -14.54802 40.46945
C -27.93623 -18.55889 40.40003
C -24.59879 -20.89096 40.53728
C -20.73950 -19.45197 40.46946
C -20.86870 -14.27680 40.45418
C -24.81838 -13.17563 40.54624
C -27.99974 -15.75608 40.40544
C -27.13113 -19.72312 40.45422
C -23.18160 -20.82457 40.54624
C -20.00044 -18.24388 40.40555
C -19.73596 -17.54370 41.60041
C -28.26405 -16.45639 41.60030
C -19.76668 -16.12946 41.59739
C -28.23325 -17.87064 41.59729
C -21.40332 -13.86871 41.71493
C -26.59663 -20.13127 41.71500
C -21.24680 -19.90132 41.72362
C -26.75320 -14.09878 41.72363
C -22.50054 -20.56292 41.77529
C -25.49942 -13.43725 41.77527
C -22.70548 -13.31014 41.77086
C -25.29455 -20.68986 41.77102
C -19.85456 -18.23735 42.82742
C -28.14544 -15.76278 42.82730
C -19.91963 -15.44805 42.82677
C -28.08041 -18.55191 42.82669
C -20.66584 -19.39712 42.91560
C -27.33415 -14.60300 42.91556
C -20.79617 -14.33714 42.91146
C -27.20395 -19.66292 42.91152
C -24.60523 -20.70955 43.02855
C -23.39461 -13.29038 43.02848
C -23.18060 -20.64660 43.03111
C -24.81925 -13.35354 43.03107
C -19.49240 -17.54338 43.99972
C -28.50760 -16.45667 43.99956
C -19.52672 -16.12842 43.99876
C -28.47320 -17.87164 43.99861
C -21.17434 -19.78418 44.19012
C -26.82553 -14.21599 44.19016
C -21.33512 -13.99647 44.18925
C -26.66485 -20.00354 44.18925
C -22.67832 -13.51211 44.24910
C -25.32158 -20.48777 44.24918
C -22.47724 -20.37065 44.24840
C -25.52263 -13.62944 44.24839
C -28.43035 -15.77005 45.23464
C -19.56975 -18.22987 45.23478
C -28.35717 -18.54698 45.23583
C -19.64281 -15.45297 45.23584
C -20.48792 -19.31178 45.35463
C -27.51219 -14.68828 45.35446
C -20.62571 -14.43049 45.35574
C -27.37426 -19.56944 45.35573
C -24.62479 -20.39294 45.49746
C -23.37508 -13.60679 45.49746
C -24.82752 -13.66167 45.49831
C -23.17232 -20.33809 45.49840
C -19.12866 -16.11995 46.37774
C -28.87136 -17.88000 46.37762
C -19.09006 -17.53977 46.37777
C -28.91006 -16.46025 46.37770
C -21.00381 -19.56868 46.66030
C -26.99627 -14.43129 46.66013
C -26.83501 -19.77753 46.66111
C -21.16486 -14.22234 46.66117
C -22.42376 -19.91689 46.65880
C -25.57629 -14.08307 46.65868
C -22.60551 -13.97934 46.65941
C -25.39446 -20.02037 46.65934
C -19.11769 -18.21248 47.62841
C -28.88236 -15.78758 47.62833
C -19.19685 -15.45200 47.62915
C -28.80309 -18.54795 47.62908
C -20.16002 -19.18401 47.78075
C -27.83998 -14.81601 47.78064
C -24.63331 -19.32098 47.61424
C -23.36671 -14.67901 47.61415
C -24.77234 -14.72482 47.61680
C -23.22772 -19.27524 47.61698
C -20.30191 -14.55387 47.78256
C -27.69803 -19.44615 47.78246
C -29.41028 -17.89634 48.77446
C -29.45195 -16.47356 48.77414
C -18.58979 -16.10374 48.77444
C -18.54816 -17.52644 48.77415
C -22.74432 -15.68345 48.43343
C -25.25565 -18.31664 48.43343
C -22.66793 -18.23483 48.43748
C -25.33202 -15.76514 48.43735
C -23.31471 -16.97777 48.35655
C -24.68518 -17.02230 48.35651
C -27.46413 -14.80370 49.19098
C -20.53577 -19.19631 49.19113
C -27.31537 -19.42415 49.19033
C -20.68456 -14.57596 49.19041
C -26.29846 -15.54786 49.41168
C -21.70145 -18.45222 49.41177
C -26.20515 -18.59805 49.40770
C -21.79489 -15.40194 49.40782
C -29.51531 -15.82643 50.06463
C -18.48467 -18.17354 50.06455
C -29.42969 -18.54576 50.06514
C -18.57038 -15.45426 50.06508
C -28.42307 -14.93831 50.26309
C -19.57677 -19.06175 50.26313
C -28.27892 -19.35621 50.26386
C -19.72109 -14.64379 50.26400
C -26.21690 -16.36904 50.58735
C -21.78298 -17.63106 50.58734
C -26.17298 -17.77662 50.58556
C -21.82698 -16.22349 50.58564
C -17.95685 -17.51022 51.24248
C -30.04316 -16.48979 51.24253
C -18.00341 -16.08181 51.24321
C -29.99665 -17.91828 51.24319
C -20.10520 -19.03501 51.60507
C -27.89465 -14.96513 51.60510
C -20.25027 -14.70795 51.60418
C -27.74966 -19.29210 51.60410
C -21.30326 -18.27992 51.75758
C -26.69661 -15.72022 51.75762
C -21.39477 -15.54229 51.75583
C -26.60508 -18.45788 51.75586
C -18.04630 -18.14415 52.54749
C -29.95369 -15.85592 52.54753
C -18.13791 -15.45387 52.54798
C -29.86211 -18.54625 52.54797
C -19.20598 -18.95967 52.71937
C -28.79395 -15.04040 52.71929
C -19.35096 -14.72096 52.72024
C -28.64894 -19.27908 52.72019
C -21.54077 -17.62972 52.98745
C -26.45935 -16.37043 52.98747
C -21.59061 -16.20587 52.98658
C -26.40924 -17.79429 52.98660
C -30.42765 -16.50796 53.75769
C -17.57240 -17.49204 53.75770
C -30.37811 -17.93038 53.75851
C -17.62195 -16.06964 53.75855
C -28.20847 -15.05254 54.02895
C -19.79157 -18.94754 54.02907
C -28.06257 -19.22826 54.02904
C -19.93737 -14.77178 54.02914
C -26.96738 -15.73350 54.14950
C -21.03276 -18.26660 54.14951
C -26.87098 -18.46393 54.14921
C -21.12902 -15.53611 54.14922
C -17.75252 -18.11978 55.06224
C -30.24755 -15.88027 55.06220
C -17.84741 -15.45393 55.06246
C -30.15257 -18.54610 55.06244
C -29.06284 -15.10187 55.18285
C -18.93723 -18.89814 55.18292
C -28.91563 -19.23922 55.18419
C -19.08428 -14.76082 55.18429
C -26.68806 -16.37851 55.38278
C -21.31191 -17.62142 55.38274
C -26.63745 -17.79994 55.38261
C -21.36250 -16.20006 55.38266
C -17.31155 -17.48311 56.29240
C -30.68845 -16.51699 56.29243
C -17.36290 -16.05495 56.29342
C -30.63709 -17.94513 56.29343
C -19.56688 -18.92355 56.46952
C -28.43313 -15.07643 56.46947
C -19.71509 -14.77881 56.47109
C -28.28479 -19.22118 56.47104
C -20.82742 -18.25872 56.55348
C -27.17261 -15.74121 56.55353
C -20.92591 -15.53118 56.55457
C -27.07403 -18.46873 56.55464
C -17.55959 -18.11065 57.57866
C -30.44043 -15.88939 57.57873
C -30.34394 -18.55474 57.58008
C -17.65606 -15.44544 57.58004
C -18.75564 -18.88231 57.64904
C -29.24435 -15.11770 57.64906
C -18.90494 -14.76220 57.65206
C -29.09503 -19.23791 57.65208
C -21.19895 -16.19513 57.77552
C -26.80110 -17.80488 57.77561
C -21.14650 -17.61789 57.77487
C -26.85352 -16.38211 57.77495
C -30.77329 -17.94722 58.83224
C -17.22666 -16.05293 58.83222
C -30.82522 -16.52626 58.83102
C -17.17477 -17.47385 58.83106
C -28.42039 -19.21206 58.92007
C -19.57969 -14.78809 58.92003
C -28.57064 -15.09284 58.91657
C -19.42934 -18.90713 58.91660
C -27.21280 -18.46562 58.96316
C -20.78725 -15.53452 58.96313
C -27.31188 -15.74925 58.96060
C -20.68810 -18.25074 58.96052
C -17.46528 -18.10814 60.10871
C -30.53472 -15.89188 60.10865
C -17.56364 -15.44415 60.11194
C -30.43633 -18.55587 60.11200
C -29.33653 -15.11985 60.13094
C -18.66353 -18.88016 60.13097
C -18.81502 -14.76169 60.13559
C -29.18503 -19.23845 60.13559
C -26.88999 -17.80409 60.17664
C -21.10996 -16.19607 60.17657
C -26.94202 -16.38111 60.17557
C -21.05786 -17.61900 60.17555
C -17.12104 -17.47797 61.37172
C -30.87905 -16.52202 61.37175
C -19.38331 -18.91839 61.37008
C -28.61663 -15.08168 61.37003
C -20.74867 -15.53261 61.37472
C -27.25120 -18.46747 61.37490
C -17.17326 -16.05073 61.37355
C -30.82669 -17.94927 61.37357
C -20.64851 -18.25987 61.37116
C -27.35144 -15.74020 61.37113
C -19.53585 -14.78136 61.37503
C -28.46404 -19.21876 61.37503
C -26.89328 -17.79757 62.57202
C -21.10663 -16.20250 62.57187
C -26.94475 -16.37580 62.57082
C -21.05517 -17.62421 62.57077
C -29.33764 -15.11462 62.60936
C -18.66229 -18.88534 62.60939
C -18.81376 -14.76571 62.61431
C -29.18604 -19.23439 62.61439
C -17.56347 -15.44782 62.63723
C -30.43643 -18.55228 62.63728
C -17.46596 -18.11244 62.63348
C -30.53397 -15.88764 62.63352
C -27.21503 -18.45661 63.78642
C -20.78495 -15.54353 63.78634
C -27.31367 -15.73795 63.78347
C -20.68619 -18.26205 63.78347
C -28.57304 -15.08056 63.82482
C -19.42682 -18.91940 63.82487
C -28.42191 -19.20570 63.82973
C -19.57805 -14.79437 63.82962
C -30.82523 -16.51752 63.91376
C -17.17455 -17.48261 63.91369
C -30.77378 -17.93970 63.91510
C -17.22611 -16.06039 63.91494
C -21.14293 -17.63170 64.97030
C -26.85701 -16.36832 64.97030
C -21.19423 -16.20915 64.97126
C -26.80581 -17.79092 64.97126
C -29.24633 -15.10360 65.09290
C -18.75355 -18.89651 65.09292
C -18.90382 -14.77180 65.09667
C -29.09628 -19.22829 65.09674
C -30.44115 -15.87771 65.16464
C -17.55872 -18.12228 65.16456
C -17.65539 -15.45589 65.16728
C -30.34468 -18.54418 65.16737
C -20.82434 -18.27424 66.19219
C -27.17572 -15.72584 66.19222
C -20.92340 -15.54586 66.19329
C -27.07675 -18.45419 66.19321
C -19.56416 -18.93858 66.27502
C -28.43581 -15.06142 66.27510
C -19.71495 -14.79171 66.27771
C -28.28509 -19.20836 66.27770
C -17.31243 -17.49561 66.45350
C -30.68758 -16.50446 66.45354
C -17.36320 -16.06809 66.45384
C -30.63686 -17.93184 66.45384
C -26.69015 -16.36224 67.36312
C -21.30993 -17.63782 67.36308
C -26.63893 -17.78493 67.36344
C -21.36114 -16.21511 67.36350
C -29.06421 -15.08649 67.56271
C -18.93580 -18.91350 67.56267
C -28.91660 -19.22715 67.56347
C -19.08348 -14.77280 67.56349
C -17.75112 -18.13318 67.68402
C -30.24889 -15.86686 67.68403
C -30.15404 -18.53346 67.68464
C -17.84595 -15.46650 67.68461
C -26.96938 -15.71903 68.59691
C -21.03061 -18.28103 68.59684
C -26.87298 -18.44826 68.59657
C -21.12696 -15.55185 68.59658
C -28.21055 -15.03903 68.71735
C -19.78945 -18.96113 68.71735
C -28.06334 -19.21390 68.71745
C -19.93669 -14.78611 68.71747
C -30.42749 -16.49501 68.98840
C -17.57244 -17.50496 68.98837
C -30.37821 -17.91724 68.98778
C -17.62175 -16.08275 68.98773
C -21.53992 -17.64369 69.75965
C -26.46013 -16.35639 69.75972
C -21.58865 -16.22053 69.76059
C -26.41123 -17.77953 69.76058
C -19.20481 -18.97150 70.02899
C -28.79525 -15.02864 70.02899
C -19.34992 -14.73315 70.02697
C -28.65011 -19.26688 70.02702
C -18.04597 -18.15595 70.20036
C -29.95397 -15.84410 70.20045
C -18.13745 -15.46625 70.19940
C -29.86253 -18.53374 70.19949
C -21.30352 -18.29257 70.98985
C -26.69649 -15.70755 70.98984
C -21.39399 -15.55360 70.98930
C -26.60593 -18.44647 70.98928
C -20.10409 -19.04798 71.14338
C -27.89594 -14.95213 71.14332
C -20.24919 -14.71800 71.14184
C -27.75080 -19.28211 71.14187
C -17.95530 -17.52265 71.50548
C -30.04470 -16.47735 71.50555
C -18.00170 -16.09254 71.50439
C -29.99836 -17.90754 71.50447
C -26.21897 -16.36043 72.15916
C -21.78102 -17.63976 72.15919
C -26.17400 -17.76746 72.16007
C -21.82593 -16.23273 72.15997
C -28.42397 -14.92834 72.48565
C -19.57594 -19.07180 72.48580
C -28.28057 -19.34615 72.48211
C -19.71940 -14.65392 72.48214
C -29.51652 -15.81533 72.68356
C -18.48343 -18.18473 72.68368
C -29.43022 -18.53469 72.68191
C -18.56980 -15.46545 72.68185
C -26.30041 -15.54167 73.33828
C -21.69946 -18.45839 73.33828
C -26.20511 -18.59299 73.33760
C -21.79484 -15.40709 73.33759
C -27.46462 -14.79623 73.55898
C -20.53533 -19.20389 73.55904
C -27.31644 -19.41521 73.55627
C -20.68351 -14.58483 73.55639
C -23.31568 -16.97923 74.38443
C -24.68428 -17.02078 74.38447
C -22.74538 -15.68404 74.31116
C -25.25467 -18.31599 74.31122
C -22.66636 -18.23669 74.31052
C -25.33355 -15.76326 74.31064
C -29.45392 -16.46327 73.97553
C -18.54605 -17.53682 73.97560
C -29.40974 -17.88546 73.97472
C -18.59024 -16.11461 73.97467
C -20.15814 -19.19455 74.96923
C -27.84191 -14.80543 74.96921
C -24.77481 -14.72900 75.13832
C -23.22516 -19.27090 75.13823
C -24.63367 -19.31529 75.13778
C -23.36631 -14.68468 75.13778
C -20.30441 -14.56241 74.96597
C -27.69546 -19.43776 74.96586
C -19.11306 -18.22196 75.12187
C -28.88702 -15.77815 75.12185
C -19.19766 -15.46358 75.11980
C -28.80224 -18.53651 75.11981
C -25.57787 -14.08251 76.09217
C -22.42215 -19.91746 76.09212
C -22.60705 -13.98580 76.09092
C -25.39286 -20.01428 76.09085
C -27.00092 -14.42297 76.08897
C -20.99914 -19.57697 76.08898
C -26.83480 -19.76910 76.08656
C -21.16507 -14.23102 76.08661
C -28.87037 -17.87050 76.37143
C -19.12960 -16.12964 76.37140
C -28.91262 -16.45034 76.37162
C -19.08737 -17.54977 76.37161
C -24.83184 -13.65728 77.25366
C -23.16809 -20.34276 77.25362
C -24.62094 -20.39198 77.25241
C -23.37901 -13.60805 77.25256
C -20.48092 -19.32352 77.39718
C -27.51910 -14.67639 77.39722
C -20.62934 -14.44186 77.39511
C -27.37059 -19.55820 77.39502
C -28.35356 -18.53577 77.51545
C -19.64633 -15.46434 77.51544
C -28.43520 -15.75911 77.51670
C -19.56471 -18.24091 77.51669
C -22.68542 -13.51653 78.50058
C -25.31449 -20.48346 78.50046
C -22.47138 -20.38245 78.50211
C -25.52860 -13.61758 78.50209
C -21.16372 -19.79919 78.56153
C -26.83627 -14.20079 78.56156
C -21.34062 -14.00785 78.55951
C -26.65928 -19.99207 78.55942
C -19.53020 -16.13933 78.75208
C -28.46968 -17.86073 78.75211
C -19.48910 -17.55716 78.75196
C -28.51075 -16.44289 78.75200
C -24.59663 -20.70998 79.71880
C -23.40337 -13.29006 79.71880
C -24.82848 -13.34194 79.71972
C -23.17154 -20.65809 79.71974
C -20.65551 -19.41615 79.83732
C -27.34448 -14.58392 79.83734
C -20.80837 -14.35305 79.83659
C -27.19148 -19.64686 79.83657
C -19.93041 -15.46308 79.92253
C -28.06958 -18.53694 79.92261
C -19.84841 -18.25390 79.92310
C -28.15156 -15.74617 79.92319
C -22.48868 -20.58463 80.97927
C -25.51138 -13.41545 80.97929
C -22.71815 -13.31261 80.97884
C -25.28183 -20.68746 80.97884
C -21.23344 -19.92476 81.03318
C -26.76664 -14.07527 81.03321
C -21.41923 -13.88254 81.03234
C -26.58074 -20.11756 81.03234
C -19.73484 -17.56139 81.15284
C -28.26514 -16.43873 81.15292
C -19.77685 -16.14603 81.15307
C -28.22307 -17.85406 81.15318
C -19.99653 -18.26447 82.34535
C -23.16574 -20.84587 82.20898
C -27.11107 -19.70741 82.28986
C -28.00340 -15.73566 82.34540
C -24.83430 -13.15422 82.20902
C -20.88895 -14.29281 82.28980
C -20.72919 -19.48007 82.28948
C -24.58639 -20.89813 82.20880
C -27.91915 -18.54089 82.34575
C -27.27079 -14.52006 82.28953
C -23.41366 -13.10197 82.20880
C -20.08081 -15.45930 82.34571
C -19.86689 -17.56511 83.56882
C -21.45283 -13.80764 83.49876
C -25.51629 -13.28536 83.46060
C -28.13309 -16.43501 83.56884
C -26.54722 -20.19247 83.49884
C -22.48378 -20.71466 83.46056
C -19.90885 -16.14828 83.56971
C -22.72617 -13.18324 83.46131
C -26.74245 -13.99788 83.49832
C -28.09116 -17.85185 83.56971
C -25.27391 -20.81685 83.46132
C -21.25758 -20.00222 83.49830
C -20.16123 -15.45763 84.77722
C -23.41999 -12.99337 84.69585
C -27.23468 -14.48884 84.74350
C -27.83882 -18.54245 84.77723
C -24.58009 -21.00657 84.69589
C -20.76544 -19.51118 84.74351
C -20.93027 -14.26351 84.74509
C -24.83980 -13.04565 84.69586
C -27.92367 -15.73053 84.77644
C -27.06975 -19.73655 84.74512
C -23.16029 -20.95426 84.69582
C -20.07634 -18.26952 84.77648
C -19.92849 -17.56695 85.99632
C -21.47253 -13.77455 85.96153
C -25.52181 -13.22225 85.93848
C -28.07157 -16.43303 85.99627
C -26.52749 -20.22540 85.96159
C -22.47833 -20.77762 85.93846
C -19.97160 -16.15015 85.99712
C -22.73005 -13.12049 85.93978
C -26.73015 -13.96338 85.96020
C -28.02844 -17.84983 85.99711
C -25.26998 -20.87950 85.93988
C -21.27002 -20.03648 85.96023
C -20.21025 -15.46365 87.21374
C -23.42764 -12.96310 87.17644
C -27.20790 -14.48747 87.19749
C -27.78976 -18.53624 87.21380
C -24.57241 -21.03701 87.17651
C -20.79227 -19.51239 87.19750
C -20.96383 -14.26632 87.19941
C -24.84159 -13.01433 87.17636
C -27.88023 -15.73235 87.21283
C -27.03618 -19.73357 87.19946
C -23.15850 -20.98563 87.17636
C -20.12002 -18.26754 87.21287
C -19.99946 -17.58167 88.44119
C -21.49970 -13.82504 88.43255
C -25.48693 -13.24388 88.42171
C -28.00067 -16.41832 88.44119
C -26.50037 -20.17502 88.43258
C -22.51314 -20.75622 88.42174
C -20.04742 -16.14119 88.44179
C -22.77337 -13.14822 88.42387
C -26.71012 -14.00886 88.43222
C -27.95256 -17.85879 88.44189
C -25.22667 -20.85182 88.42393
C -21.28999 -19.99110 88.43220
C -20.22822 -15.47610 89.67837
C -23.43384 -12.97159 89.67837
C -27.20563 -14.49549 89.67837
C -27.77178 -18.52390 89.67837
C -24.56616 -21.02841 89.67837
C -20.79437 -19.50451 89.67837
C -20.97689 -14.27798 89.67837
C -24.84579 -13.02090 89.67837
C -27.86890 -15.74292 89.67837
C -27.02311 -19.72202 89.67837
C -23.15421 -20.97910 89.67837
C -20.13110 -18.25708 89.67837
C -19.97159 -0.56616 34.36520
C -21.49549  3.20563 34.36520
C -25.52390  3.77178 34.36520
C -28.02841  0.56616 34.36520
C -26.50451 -3.20563 34.36520
C -22.47610 -3.77178 34.36520
C -20.02090  0.84578 34.36520
C -22.74292  3.86890 34.36520
C -26.72202  3.02311 34.36520
C -27.97910 -0.84579 34.36520
C -25.25708 -3.86890 34.36520
C -21.27798 -3.02311 34.36520
C -20.12166  1.58785 35.52868
C -23.45010  4.07414 35.56357
C -27.19878  2.54692 35.59358
C -27.87844 -1.58796 35.52862
C -24.54992 -4.07404 35.56356
C -20.80110 -2.54687 35.59354
C -20.87984  2.79184 35.53960
C -24.88064  3.96937 35.60745
C -27.92799  1.31173 35.53623
C -27.12007 -2.79178 35.53967
C -23.11932 -3.96924 35.60745
C -20.07198 -1.31166 35.53626
C -19.87869 -0.56421 36.74312
C -21.43579  3.27470 36.77160
C -25.52515  3.76778 36.84593
C -28.12132  0.56422 36.74300
C -26.56427 -3.27459 36.77177
C -22.47481 -3.76772 36.84592
C -19.90762  0.86269 36.73985
C -22.71295  3.90840 36.79299
C -26.73475  3.03700 36.82840
C -28.09248 -0.86264 36.73975
C -25.28696 -3.90839 36.79309
C -21.26516 -3.03694 36.82820
C -20.13232  1.56117 37.96280
C -23.40577  4.00498 38.05076
C -27.24206  2.48811 38.03124
C -27.86773 -1.56112 37.96272
C -24.59429 -4.00500 38.05086
C -20.75781 -2.48811 38.03118
C -20.90341  2.75537 37.99305
C -24.82190  3.93952 38.07470
C -27.94136  1.25550 37.97691
C -27.09653 -2.75538 37.99314
C -23.17813 -3.93960 38.07468
C -20.05856 -1.25534 37.97701
C -19.85506 -0.54681 39.18129
C -21.43053  3.20368 39.24176
C -25.50129  3.68836 39.30157
C -28.14491  0.54678 39.18116
C -26.56946 -3.20357 39.24187
C -22.49876 -3.68843 39.30144
C -19.89069  0.87194 39.17466
C -22.71049  3.81821 39.28366
C -26.73117  2.97416 39.26639
C -28.10936 -0.87189 39.17453
C -25.28950 -3.81815 39.28378
C -21.26887 -2.97411 39.26637
C -20.06388  1.55885 40.40022
C -23.40125  3.89096 40.53713
C -27.26055  2.45198 40.46945
C -27.93623 -1.55889 40.40003
C -24.59879 -3.89096 40.53728
C -20.73950 -2.45197 40.46946
C -20.86870  2.72320 40.45418
C -24.81838  3.82437 40.54624
C -27.99974  1.24392 40.40544
C -27.13113 -2.72312 40.45422
C -23.18160 -3.82457 40.54624
C -20.00044 -1.24388 40.40555
C -19.73596 -0.54370 41.60041
C -28.26405  0.54361 41.60030
C -19.76668  0.87054 41.59739
C -28.23325 -0.87064 41.59729
C -21.40332  3.13129 41.71493
C -26.59663 -3.13127 41.71500
C -21.24680 -2.90132 41.72362
C -26.75320  2.90122 41.72363
C -22.50054 -3.56292 41.77529
C -25.49942  3.56275 41.77527
C -22.70548  3.68986 41.77086
C -25.29455 -3.68986 41.77102
C -19.85456 -1.23735 42.82742
C -28.14544  1.23722 42.82730
C -19.91963  1.55195 42.82677
C -28.08041 -1.55191 42.82669
C -20.66584 -2.39712 42.91560
C -27.33415  2.39700 42.91556
C -20.79617  2.66286 42.91146
C -27.20395 -2.66292 42.91152
C -24.60523 -3.70955 43.02855
C -23.39461  3.70962 43.02848
C -23.18060 -3.64660 43.03111
C -24.81925  3.64646 43.03107
C -19.49240 -0.54338 43.99972
C -28.50760  0.54333 43.99956
C -19.52672  0.87158 43.99876
C -28.47320 -0.87164 43.99861
C -21.17434 -2.78418 44.19012
C -26.82553  2.78401 44.19016
C -21.33512  3.00353 44.18925
C -26.66485 -3.00354 44.18925
C -22.67832  3.48789 44.24910
C -25.32158 -3.48777 44.24918
C -22.47724 -3.37065 44.24840
C -25.52263  3.37056 44.24839
C -28.43035  1.22995 45.23464
C -19.56975 -1.22987 45.23478
C -28.35717 -1.54698 45.23583
C -19.64281  1.54703 45.23584
C -20.48792 -2.31178 45.35463
C -27.51219  2.31172 45.35446
C -20.62571  2.56951 45.35574
C -27.37426 -2.56944 45.35573
C -24.62479 -3.39294 45.49746
C -23.37508  3.39321 45.49746
C -24.82752  3.33833 45.49831
C -23.17232 -3.33809 45.49840
C -19.12866  0.88005 46.37774
C -28.87136 -0.88000 46.37762
C -19.09006 -0.53977 46.37777
C -28.91006  0.53975 46.37770
C -21.00381 -2.56868 46.66030
C -26.99627  2.56871 46.66013
C -26.83501 -2.77753 46.66111
C -21.16486  2.77766 46.66117
C -22.42376 -2.91689 46.65880
C -25.57629  2.91693 46.65868
C -22.60551  3.02066 46.65941
C -25.39446 -3.02037 46.65934
C -19.11769 -1.21248 47.62841
C -28.88236  1.21242 47.62833
C -19.19685  1.54800 47.62915
C -28.80309 -1.54795 47.62908
C -20.16002 -2.18401 47.78075
C -27.83998  2.18399 47.78064
C -24.63331 -2.32098 47.61424
C -23.36671  2.32099 47.61415
C -24.77234  2.27518 47.61680
C -23.22772 -2.27524 47.61698
C -20.30191  2.44613 47.78256
C -27.69803 -2.44615 47.78246
C -29.41028 -0.89634 48.77446
C -29.45195  0.52644 48.77414
C -18.58979  0.89626 48.77444
C -18.54816 -0.52644 48.77415
C -22.74432  1.31655 48.43343
C -25.25565 -1.31664 48.43343
C -22.66793 -1.23483 48.43748
C -25.33202  1.23486 48.43735
C -23.31471  0.02223 48.35655
C -24.68518 -0.02230 48.35651
C -27.46413  2.19630 49.19098
C -20.53577 -2.19631 49.19113
C -27.31537 -2.42415 49.19033
C -20.68456  2.42404 49.19041
C -26.29846  1.45214 49.41168
C -21.70145 -1.45222 49.41177
C -26.20515 -1.59805 49.40770
C -21.79489  1.59806 49.40782
C -29.51531  1.17357 50.06463
C -18.48467 -1.17354 50.06455
C -29.42969 -1.54576 50.06514
C -18.57038  1.54574 50.06508
C -28.42307  2.06169 50.26309
C -19.57677 -2.06175 50.26313
C -28.27892 -2.35621 50.26386
C -19.72109  2.35621 50.26400
C -26.21690  0.63096 50.58735
C -21.78298 -0.63106 50.58734
C -26.17298 -0.77662 50.58556
C -21.82698  0.77651 50.58564
C -17.95685 -0.51022 51.24248
C -30.04316  0.51021 51.24253
C -18.00341  0.91819 51.24321
C -29.99665 -0.91828 51.24319
C -20.10520 -2.03501 51.60507
C -27.89465  2.03487 51.60510
C -20.25027  2.29205 51.60418
C -27.74966 -2.29210 51.60410
C -21.30326 -1.27992 51.75758
C -26.69661  1.27978 51.75762
C -21.39477  1.45771 51.75583
C -26.60508 -1.45788 51.75586
C -18.04630 -1.14415 52.54749
C -29.95369  1.14408 52.54753
C -18.13791  1.54613 52.54798
C -29.86211 -1.54625 52.54797
C -19.20598 -1.95967 52.71937
C -28.79395  1.95960 52.71929
C -19.35096  2.27904 52.72024
C -28.64894 -2.27908 52.72019
C -21.54077 -0.62972 52.98745
C -26.45935  0.62957 52.98747
C -21.59061  0.79413 52.98658
C -26.40924 -0.79429 52.98660
C -30.42765  0.49204 53.75769
C -17.57240 -0.49204 53.75770
C -30.37811 -0.93038 53.75851
C -17.62195  0.93036 53.75855
C -28.20847  1.94746 54.02895
C -19.79157 -1.94754 54.02907
C -28.06257 -2.22826 54.02904
C -19.93737  2.22822 54.02914
C -26.96738  1.26650 54.14950
C -21.03276 -1.26660 54.14951
C -26.87098 -1.46393 54.14921
C -21.12902  1.46389 54.14922
C -17.75252 -1.11978 55.06224
C -30.24755  1.11973 55.06220
C -17.84741  1.54607 55.06246
C -30.15257 -1.54610 55.06244
C -29.06284  1.89813 55.18285
C -18.93723 -1.89814 55.18292
C -28.91563 -2.23922 55.18419
C -19.08428  2.23918 55.18429
C -26.68806  0.62149 55.38278
C -21.31191 -0.62142 55.38274
C -26.63745 -0.79994 55.38261
C -21.36250  0.79994 55.38266
C -17.31155 -0.48311 56.29240
C -30.68845  0.48301 56.29243
C -17.36290  0.94505 56.29342
C -30.63709 -0.94513 56.29343
C -19.56688 -1.92355 56.46952
C -28.43313  1.92357 56.46947
C -19.71509  2.22119 56.47109
C -28.28479 -2.22118 56.47104
C -20.82742 -1.25872 56.55348
C -27.17261  1.25879 56.55353
C -20.92591  1.46882 56.55457
C -27.07403 -1.46873 56.55464
C -17.55959 -1.11065 57.57866
C -30.44043  1.11061 57.57873
C -30.34394 -1.55474 57.58008
C -17.65606  1.55456 57.58004
C -18.75564 -1.88231 57.64904
C -29.24435  1.88230 57.64906
C -18.90494  2.23780 57.65206
C -29.09503 -2.23791 57.65208
C -21.19895  0.80487 57.77552
C -26.80110 -0.80488 57.77561
C -21.14650 -0.61789 57.77487
C -26.85352  0.61789 57.77495
C -30.77329 -0.94722 58.83224
C -17.22666  0.94707 58.83222
C -30.82522  0.47374 58.83102
C -17.17477 -0.47385 58.83106
C -28.42039 -2.21206 58.92007
C -19.57969  2.21191 58.92003
C -28.57064  1.90716 58.91657
C -19.42934 -1.90713 58.91660
C -27.21280 -1.46562 58.96316
C -20.78725  1.46548 58.96313
C -27.31188  1.25075 58.96060
C -20.68810 -1.25074 58.96052
C -17.46528 -1.10814 60.10871
C -30.53472  1.10812 60.10865
C -17.56364  1.55585 60.11194
C -30.43633 -1.55587 60.11200
C -29.33653  1.88015 60.13094
C -18.66353 -1.88016 60.13097
C -18.81502  2.23831 60.13559
C -29.18503 -2.23845 60.13559
C -26.88999 -0.80409 60.17664
C -21.10996  0.80393 60.17657
C -26.94202  0.61889 60.17557
C -21.05786 -0.61900 60.17555
C -17.12104 -0.47797 61.37172
C -30.87905  0.47798 61.37175
C -19.38331 -1.91839 61.37008
C -28.61663  1.91832 61.37003
C -20.74867  1.46739 61.37472
C -27.25120 -1.46747 61.37490
C -17.17326  0.94927 61.37355
C -30.82669 -0.94927 61.37357
C -20.64851 -1.25987 61.37116
C -27.35144  1.25980 61.37113
C -19.53585  2.21864 61.37503
C -28.46404 -2.21876 61.37503
C -26.89328 -0.79757 62.57202
C -21.10663  0.79750 62.57187
C -26.94475  0.62420 62.57082
C -21.05517 -0.62421 62.57077
C -29.33764  1.88538 62.60936
C -18.66229 -1.88534 62.60939
C -18.81376  2.23429 62.61431
C -29.18604 -2.23439 62.61439
C -17.56347  1.55218 62.63723
C -30.43643 -1.55228 62.63728
C -17.46596 -1.11244 62.63348
C -30.53397  1.11236 62.63352
C -27.21503 -1.45661 63.78642
C -20.78495  1.45647 63.78634
C -27.31367  1.26205 63.78347
C -20.68619 -1.26205 63.78347
C -28.57304  1.91944 63.82482
C -19.42682 -1.91940 63.82487
C -28.42191 -2.20570 63.82973
C -19.57805  2.20563 63.82962
C -30.82523  0.48248 63.91376
C -17.17455 -0.48261 63.91369
C -30.77378 -0.93970 63.91510
C -17.22611  0.93961 63.91494
C -21.14293 -0.63170 64.97030
C -26.85701  0.63168 64.97030
C -21.19423  0.79085 64.97126
C -26.80581 -0.79092 64.97126
C -29.24633  1.89640 65.09290
C -18.75355 -1.89651 65.09292
C -18.90382  2.22820 65.09667
C -29.09628 -2.22829 65.09674
C -30.44115  1.12229 65.16464
C -17.55872 -1.12228 65.16456
C -17.65539  1.54411 65.16728
C -30.34468 -1.54418 65.16737
C -20.82434 -1.27424 66.19219
C -27.17572  1.27416 66.19222
C -20.92340  1.45414 66.19329
C -27.07675 -1.45419 66.19321
C -19.56416 -1.93858 66.27502
C -28.43581  1.93858 66.27510
C -19.71495  2.20829 66.27771
C -28.28509 -2.20836 66.27770
C -17.31243 -0.49561 66.45350
C -30.68758  0.49554 66.45354
C -17.36320  0.93191 66.45384
C -30.63686 -0.93184 66.45384
C -26.69015  0.63776 67.36312
C -21.30993 -0.63782 67.36308
C -26.63893 -0.78493 67.36344
C -21.36114  0.78489 67.36350
C -29.06421  1.91351 67.56271
C -18.93580 -1.91350 67.56267
C -28.91660 -2.22715 67.56347
C -19.08348  2.22720 67.56349
C -17.75112 -1.13318 67.68402
C -30.24889  1.13314 67.68403
C -30.15404 -1.53346 67.68464
C -17.84595  1.53350 67.68461
C -26.96938  1.28097 68.59691
C -21.03061 -1.28103 68.59684
C -26.87298 -1.44826 68.59657
C -21.12696  1.44815 68.59658
C -28.21055  1.96097 68.71735
C -19.78945 -1.96113 68.71735
C -28.06334 -2.21390 68.71745
C -19.93669  2.21389 68.71747
C -30.42749  0.50499 68.98840
C -17.57244 -0.50496 68.98837
C -30.37821 -0.91724 68.98778
C -17.62175  0.91725 68.98773
C -21.53992 -0.64369 69.75965
C -26.46013  0.64361 69.75972
C -21.58865  0.77947 69.76059
C -26.41123 -0.77953 69.76058
C -19.20481 -1.97150 70.02899
C -28.79525  1.97136 70.02899
C -19.34992  2.26685 70.02697
C -28.65011 -2.26688 70.02702
C -18.04597 -1.15595 70.20036
C -29.95397  1.15590 70.20045
C -18.13745  1.53375 70.19940
C -29.86253 -1.53374 70.19949
C -21.30352 -1.29257 70.98985
C -26.69649  1.29245 70.98984
C -21.39399  1.44640 70.98930
C -26.60593 -1.44647 70.98928
C -20.10409 -2.04798 71.14338
C -27.89594  2.04787 71.14332
C -20.24919  2.28200 71.14184
C -27.75080 -2.28211 71.14187
C -17.95530 -0.52265 71.50548
C -30.04470  0.52265 71.50555
C -18.00170  0.90746 71.50439
C -29.99836 -0.90754 71.50447
C -26.21897  0.63957 72.15916
C -21.78102 -0.63976 72.15919
C -26.17400 -0.76746 72.16007
C -21.82593  0.76727 72.15997
C -28.42397  2.07166 72.48565
C -19.57594 -2.07180 72.48580
C -28.28057 -2.34615 72.48211
C -19.71940  2.34608 72.48214
C -29.51652  1.18467 72.68356
C -18.48343 -1.18473 72.68368
C -29.43022 -1.53469 72.68191
C -18.56980  1.53455 72.68185
C -26.30041  1.45833 73.33828
C -21.69946 -1.45839 73.33828
C -26.20511 -1.59299 73.33760
C -21.79484  1.59291 73.33759
C -27.46462  2.20377 73.55898
C -20.53533 -2.20389 73.55904
C -27.31644 -2.41521 73.55627
C -20.68351  2.41517 73.55639
C -23.31568  0.02077 74.38443
C -24.68428 -0.02078 74.38447
C -22.74538  1.31596 74.31116
C -25.25467 -1.31599 74.31122
C -22.66636 -1.23669 74.31052
C -25.33355  1.23674 74.31064
C -29.45392  0.53673 73.97553
C -18.54605 -0.53682 73.97560
C -29.40974 -0.88546 73.97472
C -18.59024  0.88539 73.97467
C -20.15814 -2.19455 74.96923
C -27.84191  2.19457 74.96921
C -24.77481  2.27100 75.13832
C -23.22516 -2.27090 75.13823
C -24.63367 -2.31529 75.13778
C -23.36631  2.31532 75.13778
C -20.30441  2.43759 74.96597
C -27.69546 -2.43776 74.96586
C -19.11306 -1.22196 75.12187
C -28.88702  1.22185 75.12185
C -19.19766  1.53642 75.11980
C -28.80224 -1.53651 75.11981
C -25.57787  2.91749 76.09217
C -22.42215 -2.91746 76.09212
C -22.60705  3.01420 76.09092
C -25.39286 -3.01428 76.09085
C -27.00092  2.57703 76.08897
C -20.99914 -2.57697 76.08898
C -26.83480 -2.76910 76.08656
C -21.16507  2.76898 76.08661
C -28.87037 -0.87050 76.37143
C -19.12960  0.87036 76.37140
C -28.91262  0.54966 76.37162
C -19.08737 -0.54977 76.37161
C -24.83184  3.34272 77.25366
C -23.16809 -3.34276 77.25362
C -24.62094 -3.39198 77.25241
C -23.37901  3.39195 77.25256
C -20.48092 -2.32352 77.39718
C -27.51910  2.32361 77.39722
C -20.62934  2.55814 77.39511
C -27.37059 -2.55820 77.39502
C -28.35356 -1.53577 77.51545
C -19.64633  1.53566 77.51544
C -28.43520  1.24089 77.51670
C -19.56471 -1.24091 77.51669
C -22.68542  3.48347 78.50058
C -25.31449 -3.48346 78.50046
C -22.47138 -3.38245 78.50211
C -25.52860  3.38242 78.50209
C -21.16372 -2.79919 78.56153
C -26.83627  2.79921 78.56156
C -21.34062  2.99215 78.55951
C -26.65928 -2.99207 78.55942
C -19.53020  0.86067 78.75208
C -28.46968 -0.86073 78.75211
C -19.48910 -0.55716 78.75196
C -28.51075  0.55711 78.75200
C -24.59663 -3.70998 79.71880
C -23.40337  3.70994 79.71880
C -24.82848  3.65806 79.71972
C -23.17154 -3.65809 79.71974
C -20.65551 -2.41615 79.83732
C -27.34448  2.41608 79.83734
C -20.80837  2.64695 79.83659
C -27.19148 -2.64686 79.83657
C -19.93041  1.53692 79.92253
C -28.06958 -1.53694 79.92261
C -19.84841 -1.25390 79.92310
C -28.15156  1.25383 79.92319
C -22.48868 -3.58463 80.97927
C -25.51138  3.58455 80.97929
C -22.71815  3.68739 80.97884
C -25.28183 -3.68746 80.97884
C -21.23344 -2.92476 81.03318
C -26.76664  2.92473 81.03321
C -21.41923  3.11746 81.03234
C -26.58074 -3.11756 81.03234
C -19.73484 -0.56139 81.15284
C -28.26514  0.56127 81.15292
C -19.77685  0.85397 81.15307
C -28.22307 -0.85406 81.15318
C -19.99653 -1.26447 82.34535
C -23.16574 -3.84587 82.20898
C -27.11107 -2.70741 82.28986
C -28.00340  1.26434 82.34540
C -24.83430  3.84578 82.20902
C -20.88895  2.70719 82.28980
C -20.72919 -2.48007 82.28948
C -24.58639 -3.89813 82.20880
C -27.91915 -1.54089 82.34575
C -27.27079  2.47994 82.28953
C -23.41366  3.89803 82.20880
C -20.08081  1.54070 82.34571
C -19.86689 -0.56511 83.56882
C -21.45283  3.19236 83.49876
C -25.51629  3.71464 83.46060
C -28.13309  0.56499 83.56884
C -26.54722 -3.19247 83.49884
C -22.48378 -3.71466 83.46056
C -19.90885  0.85172 83.56971
C -22.72617  3.81676 83.46131
C -26.74245  3.00212 83.49832
C -28.09116 -0.85185 83.56971
C -25.27391 -3.81685 83.46132
C -21.25758 -3.00222 83.49830
C -20.16123  1.54237 84.77722
C -23.41999  4.00663 84.69585
C -27.23468  2.51116 84.74350
C -27.83882 -1.54245 84.77723
C -24.58009 -4.00657 84.69589
C -20.76544 -2.51118 84.74351
C -20.93027  2.73649 84.74509
C -24.83980  3.95435 84.69586
C -27.92367  1.26947 84.77644
C -27.06975 -2.73655 84.74512
C -23.16029 -3.95426 84.69582
C -20.07634 -1.26952 84.77648
C -19.92849 -0.56695 85.99632
C -21.47253  3.22545 85.96153
C -25.52181  3.77775 85.93848
C -28.07157  0.56697 85.99627
C -26.52749 -3.22540 85.96159
C -22.47833 -3.77762 85.93846
C -19.97160  0.84985 85.99712
C -22.73005  3.87951 85.93978
C -26.73015  3.03662 85.96020
C -28.02844 -0.84983 85.99711
C -25.26998 -3.87950 85.93988
C -21.27002 -3.03648 85.96023
C -20.21025  1.53635 87.21374
C -23.42764  4.03690 87.17644
C -27.20790  2.51253 87.19749
C -27.78976 -1.53624 87.21380
C -24.57241 -4.03701 87.17651
C -20.79227 -2.51239 87.19750
C -20.96383  2.73368 87.19941
C -24.84159  3.98567 87.17636
C -27.88023  1.26765 87.21283
C -27.03618 -2.73357 87.19946
C -23.15850 -3.98563 87.17636
C -20.12002 -1.26754 87.21287
C -19.99946 -0.58167 88.44119
C -21.49970  3.17496 88.43255
C -25.48693  3.75612 88.42171
C -28.00067  0.58168 88.44119
C -26.50037 -3.17502 88.43258
C -22.51314 -3.75622 88.42174
C -20.04742  0.85881 88.44179
C -22.77337  3.85178 88.42387
C -26.71012  2.99114 88.43222
C -27.95256 -0.85879 88.44189
C -25.22667 -3.85182 88.42393
C -21.28999 -2.99110 88.43220
C -20.22822  1.52390 89.67837
C -23.43384  4.02841 89.67837
C -27.20563  2.50451 89.67837
C -27.77178 -1.52390 89.67837
C -24.56616 -4.02841 89.67837
C -20.79437 -2.50451 89.67837
C -20.97689  2.72202 89.67837
C -24.84579  3.97910 89.67837
C -27.86890  1.25708 89.67837
C -27.02311 -2.72202 89.67837
C -23.15421 -3.97910 89.67837
C -20.13110 -1.25708 89.67837
C -19.97159 16.43384 34.36520
C -21.49549 20.20563 34.36520
C -25.52390 20.77178 34.36520
C -28.02841 17.56616 34.36520
C -26.50451 13.79437 34.36520
C -22.47610 13.22822 34.36520
C -20.02090 17.84578 34.36520
C -22.74292 20.86890 34.36520
C -26.72202 20.02311 34.36520
C -27.97910 16.15421 34.36520
C -25.25708 13.13110 34.36520
C -21.27798 13.97689 34.36520
C -20.12166 18.58785 35.52868
C -23.45010 21.07414 35.56357
C -27.19878 19.54692 35.59358
C -27.87844 15.41204 35.52862
C -24.54992 12.92596 35.56356
C -20.80110 14.45313 35.59354
C -20.87984 19.79184 35.53960
C -24.88064 20.96937 35.60745
C -27.92799 18.31173 35.53623
C -27.12007 14.20822 35.53967
C -23.11932 13.03076 35.60745
C -20.07198 15.68834 35.53626
C -19.87869 16.43579 36.74312
C -21.43579 20.27470 36.77160
C -25.52515 20.76778 36.84593
C -28.12132 17.56422 36.74300
C -26.56427 13.72541 36.77177
C -22.47481 13.23228 36.84592
C -19.90762 17.86269 36.73985
C -22.71295 20.90840 36.79299
C -26.73475 20.03700 36.82840
C -28.09248 16.13736 36.73975
C -25.28696 13.09161 36.79309
C -21.26516 13.96306 36.82820
C -20.13232 18.56117 37.96280
C -23.40577 21.00498 38.05076
C -27.24206 19.48811 38.03124
C -27.86773 15.43888 37.96272
C -24.59429 12.99500 38.05086
C -20.75781 14.51189 38.03118
C -20.90341 19.75537 37.99305
C -24.82190 20.93952 38.07470
C -27.94136 18.25550 37.97691
C -27.09653 14.24462 37.99314
C -23.17813 13.06040 38.07468
C -20.05856 15.74466 37.97701
C -19.85506 16.45319 39.18129
C -21.43053 20.20368 39.24176
C -25.50129 20.68836 39.30157
C -28.14491 17.54678 39.18116
C -26.56946 13.79643 39.24187
C -22.49876 13.31157 39.30144
C -19.89069 17.87194 39.17466
C -22.71049 20.81821 39.28366
C -26.73117 19.97416 39.26639
C -28.10936 16.12811 39.17453
C -25.28950 13.18185 39.28378
C -21.26887 14.02589 39.26637
C -20.06388 18.55885 40.40022
C -23.40125 20.89096 40.53713
C -27.26055 19.45198 40.46945
C -27.93623 15.44111 40.40003
C -24.59879 13.10904 40.53728
C -20.73950 14.54803 40.46946
C -20.86870 19.72320 40.45418
C -24.81838 20.82437 40.54624
C -27.99974 18.24392 40.40544
C -27.13113 14.27688 40.45422
C -23.18160 13.17543 40.54624
C -20.00044 15.75612 40.40555
C -19.73596 16.45630 41.60041
C -28.26405 17.54361 41.60030
C -19.76668 17.87054 41.59739
C -28.23325 16.12936 41.59729
C -21.40332 20.13129 41.71493
C -26.59663 13.86873 41.71500
C -21.24680 14.09868 41.72362
C -26.75320 19.90122 41.72363
C -22.50054 13.43708 41.77529
C -25.49942 20.56275 41.77527
C -22.70548 20.68986 41.77086
C -25.29455 13.31014 41.77102
C -19.85456 15.76265 42.82742
C -28.14544 18.23722 42.82730
C -19.91963 18.55195 42.82677
C -28.08041 15.44809 42.82669
C -20.66584 14.60288 42.91560
C -27.33415 19.39700 42.91556
C -20.79617 19.66286 42.91146
C -27.20395 14.33708 42.91152
C -24.60523 13.29045 43.02855
C -23.39461 20.70962 43.02848
C -23.18060 13.35340 43.03111
C -24.81925 20.64646 43.03107
C -19.49240 16.45662 43.99972
C -28.50760 17.54333 43.99956
C -19.52672 17.87158 43.99876
C -28.47320 16.12836 43.99861
C -21.17434 14.21582 44.19012
C -26.82553 19.78401 44.19016
C -21.33512 20.00353 44.18925
C -26.66485 13.99646 44.18925
C -22.67832 20.48789 44.24910
C -25.32158 13.51223 44.24918
C -22.47724 13.62935 44.24840
C -25.52263 20.37056 44.24839
C -28.43035 18.22995 45.23464
C -19.56975 15.77013 45.23478
C -28.35717 15.45302 45.23583
C -19.64281 18.54703 45.23584
C -20.48792 14.68822 45.35463
C -27.51219 19.31172 45.35446
C -20.62571 19.56951 45.35574
C -27.37426 14.43056 45.35573
C -24.62479 13.60706 45.49746
C -23.37508 20.39321 45.49746
C -24.82752 20.33833 45.49831
C -23.17232 13.66191 45.49840
C -19.12866 17.88005 46.37774
C -28.87136 16.12000 46.37762
C -19.09006 16.46023 46.37777
C -28.91006 17.53975 46.37770
C -21.00381 14.43132 46.66030
C -26.99627 19.56871 46.66013
C -26.83501 14.22247 46.66111
C -21.16486 19.77766 46.66117
C -22.42376 14.08311 46.65880
C -25.57629 19.91693 46.65868
C -22.60551 20.02066 46.65941
C -25.39446 13.97963 46.65934
C -19.11769 15.78752 47.62841
C -28.88236 18.21242 47.62833
C -19.19685 18.54800 47.62915
C -28.80309 15.45205 47.62908
C -20.16002 14.81599 47.78075
C -27.83998 19.18399 47.78064
C -24.63331 14.67902 47.61424
C -23.36671 19.32099 47.61415
C -24.77234 19.27518 47.61680
C -23.22772 14.72476 47.61698
C -20.30191 19.44613 47.78256
C -27.69803 14.55385 47.78246
C -29.41028 16.10366 48.77446
C -29.45195 17.52644 48.77414
C -18.58979 17.89626 48.77444
C -18.54816 16.47356 48.77415
C -22.74432 18.31655 48.43343
C -25.25565 15.68336 48.43343
C -22.66793 15.76517 48.43748
C -25.33202 18.23486 48.43735
C -23.31471 17.02223 48.35655
C -24.68518 16.97770 48.35651
C -27.46413 19.19630 49.19098
C -20.53577 14.80369 49.19113
C -27.31537 14.57585 49.19033
C -20.68456 19.42404 49.19041
C -26.29846 18.45214 49.41168
C -21.70145 15.54778 49.41177
C -26.20515 15.40195 49.40770
C -21.79489 18.59806 49.40782
C -29.51531 18.17357 50.06463
C -18.48467 15.82646 50.06455
C -29.42969 15.45424 50.06514
C -18.57038 18.54574 50.06508
C -28.42307 19.06169 50.26309
C -19.57677 14.93825 50.26313
C -28.27892 14.64379 50.26386
C -19.72109 19.35621 50.26400
C -26.21690 17.63096 50.58735
C -21.78298 16.36894 50.58734
C -26.17298 16.22338 50.58556
C -21.82698 17.77651 50.58564
C -17.95685 16.48978 51.24248
C -30.04316 17.51021 51.24253
C -18.00341 17.91819 51.24321
C -29.99665 16.08172 51.24319
C -20.10520 14.96499 51.60507
C -27.89465 19.03487 51.60510
C -20.25027 19.29205 51.60418
C -27.74966 14.70790 51.60410
C -21.30326 15.72008 51.75758
C -26.69661 18.27978 51.75762
C -21.39477 18.45771 51.75583
C -26.60508 15.54212 51.75586
C -18.04630 15.85585 52.54749
C -29.95369 18.14408 52.54753
C -18.13791 18.54613 52.54798
C -29.86211 15.45375 52.54797
C -19.20598 15.04033 52.71937
C -28.79395 18.95960 52.71929
C -19.35096 19.27904 52.72024
C -28.64894 14.72092 52.72019
C -21.54077 16.37028 52.98745
C -26.45935 17.62957 52.98747
C -21.59061 17.79413 52.98658
C -26.40924 16.20571 52.98660
C -30.42765 17.49204 53.75769
C -17.57240 16.50796 53.75770
C -30.37811 16.06962 53.75851
C -17.62195 17.93036 53.75855
C -28.20847 18.94746 54.02895
C -19.79157 15.05246 54.02907
C -28.06257 14.77174 54.02904
C -19.93737 19.22822 54.02914
C -26.96738 18.26650 54.14950
C -21.03276 15.73340 54.14951
C -26.87098 15.53607 54.14921
C -21.12902 18.46389 54.14922
C -17.75252 15.88022 55.06224
C -30.24755 18.11973 55.06220
C -17.84741 18.54607 55.06246
C -30.15257 15.45390 55.06244
C -29.06284 18.89813 55.18285
C -18.93723 15.10186 55.18292
C -28.91563 14.76078 55.18419
C -19.08428 19.23918 55.18429
C -26.68806 17.62149 55.38278
C -21.31191 16.37858 55.38274
C -26.63745 16.20006 55.38261
C -21.36250 17.79994 55.38266
C -17.31155 16.51689 56.29240
C -30.68845 17.48301 56.29243
C -17.36290 17.94505 56.29342
C -30.63709 16.05487 56.29343
C -19.56688 15.07645 56.46952
C -28.43313 18.92357 56.46947
C -19.71509 19.22119 56.47109
C -28.28479 14.77882 56.47104
C -20.82742 15.74128 56.55348
C -27.17261 18.25879 56.55353
C -20.92591 18.46882 56.55457
C -27.07403 15.53127 56.55464
C -17.55959 15.88935 57.57866
C -30.44043 18.11061 57.57873
C -30.34394 15.44526 57.58008
C -17.65606 18.55456 57.58004
C -18.75564 15.11769 57.64904
C -29.24435 18.88230 57.64906
C -18.90494 19.23780 57.65206
C -29.09503 14.76209 57.65208
C -21.19895 17.80487 57.77552
C -26.80110 16.19512 57.77561
C -21.14650 16.38211 57.77487
C -26.85352 17.61789 57.77495
C -30.77329 16.05278 58.83224
C -17.22666 17.94707 58.83222
C -30.82522 17.47374 58.83102
C -17.17477 16.52615 58.83106
C -28.42039 14.78794 58.92007
C -19.57969 19.21191 58.92003
C -28.57064 18.90716 58.91657
C -19.42934 15.09287 58.91660
C -27.21280 15.53438 58.96316
C -20.78725 18.46548 58.96313
C -27.31188 18.25075 58.96060
C -20.68810 15.74926 58.96052
C -17.46528 15.89186 60.10871
C -30.53472 18.10812 60.10865
C -17.56364 18.55585 60.11194
C -30.43633 15.44413 60.11200
C -29.33653 18.88015 60.13094
C -18.66353 15.11984 60.13097
C -18.81502 19.23831 60.13559
C -29.18503 14.76155 60.13559
C -26.88999 16.19591 60.17664
C -21.10996 17.80393 60.17657
C -26.94202 17.61889 60.17557
C -21.05786 16.38100 60.17555
C -17.12104 16.52203 61.37172
C -30.87905 17.47798 61.37175
C -19.38331 15.08161 61.37008
C -28.61663 18.91832 61.37003
C -20.74867 18.46739 61.37472
C -27.25120 15.53253 61.37490
C -17.17326 17.94927 61.37355
C -30.82669 16.05073 61.37357
C -20.64851 15.74013 61.37116
C -27.35144 18.25980 61.37113
C -19.53585 19.21864 61.37503
C -28.46404 14.78124 61.37503
C -26.89328 16.20243 62.57202
C -21.10663 17.79750 62.57187
C -26.94475 17.62420 62.57082
C -21.05517 16.37579 62.57077
C -29.33764 18.88538 62.60936
C -18.66229 15.11466 62.60939
C -18.81376 19.23429 62.61431
C -29.18604 14.76561 62.61439
C -17.56347 18.55218 62.63723
C -30.43643 15.44772 62.63728
C -17.46596 15.88756 62.63348
C -30.53397 18.11236 62.63352
C -27.21503 15.54339 63.78642
C -20.78495 18.45647 63.78634
C -27.31367 18.26205 63.78347
C -20.68619 15.73795 63.78347
C -28.57304 18.91944 63.82482
C -19.42682 15.08060 63.82487
C -28.42191 14.79430 63.82973
C -19.57805 19.20563 63.82962
C -30.82523 17.48248 63.91376
C -17.17455 16.51739 63.91369
C -30.77378 16.06030 63.91510
C -17.22611 17.93961 63.91494
C -21.14293 16.36830 64.97030
C -26.85701 17.63168 64.97030
C -21.19423 17.79085 64.97126
C -26.80581 16.20908 64.97126
C -29.24633 18.89640 65.09290
C -18.75355 15.10349 65.09292
C -18.90382 19.22820 65.09667
C -29.09628 14.77171 65.09674
C -30.44115 18.12229 65.16464
C -17.55872 15.87772 65.16456
C -17.65539 18.54411 65.16728
C -30.34468 15.45582 65.16737
C -20.82434 15.72576 66.19219
C -27.17572 18.27416 66.19222
C -20.92340 18.45414 66.19329
C -27.07675 15.54581 66.19321
C -19.56416 15.06142 66.27502
C -28.43581 18.93858 66.27510
C -19.71495 19.20829 66.27771
C -28.28509 14.79164 66.27770
C -17.31243 16.50439 66.45350
C -30.68758 17.49554 66.45354
C -17.36320 17.93191 66.45384
C -30.63686 16.06816 66.45384
C -26.69015 17.63776 67.36312
C -21.30993 16.36218 67.36308
C -26.63893 16.21507 67.36344
C -21.36114 17.78489 67.36350
C -29.06421 18.91351 67.56271
C -18.93580 15.08650 67.56267
C -28.91660 14.77285 67.56347
C -19.08348 19.22720 67.56349
C -17.75112 15.86682 67.68402
C -30.24889 18.13314 67.68403
C -30.15404 15.46654 67.68464
C -17.84595 18.53350 67.68461
C -26.96938 18.28097 68.59691
C -21.03061 15.71897 68.59684
C -26.87298 15.55174 68.59657
C -21.12696 18.44815 68.59658
C -28.21055 18.96097 68.71735
C -19.78945 15.03887 68.71735
C -28.06334 14.78610 68.71745
C -19.93669 19.21389 68.71747
C -30.42749 17.50499 68.98840
C -17.57244 16.49504 68.98837
C -30.37821 16.08276 68.98778
C -17.62175 17.91725 68.98773
C -21.53992 16.35631 69.75965
C -26.46013 17.64361 69.75972
C -21.58865 17.77947 69.76059
C -26.41123 16.22047 69.76058
C -19.20481 15.02850 70.02899
C -28.79525 18.97136 70.02899
C -19.34992 19.26685 70.02697
C -28.65011 14.73312 70.02702
C -18.04597 15.84405 70.20036
C -29.95397 18.15590 70.20045
C -18.13745 18.53375 70.19940
C -29.86253 15.46626 70.19949
C -21.30352 15.70743 70.98985
C -26.69649 18.29245 70.98984
C -21.39399 18.44640 70.98930
C -26.60593 15.55353 70.98928
C -20.10409 14.95202 71.14338
C -27.89594 19.04787 71.14332
C -20.24919 19.28200 71.14184
C -27.75080 14.71789 71.14187
C -17.95530 16.47735 71.50548
C -30.04470 17.52265 71.50555
C -18.00170 17.90746 71.50439
C -29.99836 16.09246 71.50447
C -26.21897 17.63957 72.15916
C -21.78102 16.36024 72.15919
C -26.17400 16.23254 72.16007
C -21.82593 17.76727 72.15997
C -28.42397 19.07166 72.48565
C -19.57594 14.92820 72.48580
C -28.28057 14.65385 72.48211
C -19.71940 19.34608 72.48214
C -29.51652 18.18467 72.68356
C -18.48343 15.81527 72.68368
C -29.43022 15.46531 72.68191
C -18.56980 18.53455 72.68185
C -26.30041 18.45833 73.33828
C -21.69946 15.54161 73.33828
C -26.20511 15.40701 73.33760
C -21.79484 18.59291 73.33759
C -27.46462 19.20377 73.55898
C -20.53533 14.79611 73.55904
C -27.31644 14.58479 73.55627
C -20.68351 19.41517 73.55639
C -23.31568 17.02077 74.38443
C -24.68428 16.97922 74.38447
C -22.74538 18.31596 74.31116
C -25.25467 15.68401 74.31122
C -22.66636 15.76331 74.31052
C -25.33355 18.23674 74.31064
C -29.45392 17.53673 73.97553
C -18.54605 16.46318 73.97560
C -29.40974 16.11454 73.97472
C -18.59024 17.88539 73.97467
C -20.15814 14.80545 74.96923
C -27.84191 19.19457 74.96921
C -24.77481 19.27100 75.13832
C -23.22516 14.72910 75.13823
C -24.63367 14.68471 75.13778
C -23.36631 19.31532 75.13778
C -20.30441 19.43759 74.96597
C -27.69546 14.56224 74.96586
C -19.11306 15.77804 75.12187
C -28.88702 18.22185 75.12185
C -19.19766 18.53642 75.11980
C -28.80224 15.46349 75.11981
C -25.57787 19.91749 76.09217
C -22.42215 14.08254 76.09212
C -22.60705 20.01420 76.09092
C -25.39286 13.98572 76.09085
C -27.00092 19.57703 76.08897
C -20.99914 14.42303 76.08898
C -26.83480 14.23090 76.08656
C -21.16507 19.76898 76.08661
C -28.87037 16.12950 76.37143
C -19.12960 17.87036 76.37140
C -28.91262 17.54966 76.37162
C -19.08737 16.45023 76.37161
C -24.83184 20.34272 77.25366
C -23.16809 13.65724 77.25362
C -24.62094 13.60802 77.25241
C -23.37901 20.39195 77.25256
C -20.48092 14.67648 77.39718
C -27.51910 19.32361 77.39722
C -20.62934 19.55814 77.39511
C -27.37059 14.44180 77.39502
C -28.35356 15.46423 77.51545
C -19.64633 18.53566 77.51544
C -28.43520 18.24089 77.51670
C -19.56471 15.75909 77.51669
C -22.68542 20.48347 78.50058
C -25.31449 13.51654 78.50046
C -22.47138 13.61755 78.50211
C -25.52860 20.38242 78.50209
C -21.16372 14.20081 78.56153
C -26.83627 19.79921 78.56156
C -21.34062 19.99215 78.55951
C -26.65928 14.00793 78.55942
C -19.53020 17.86067 78.75208
C -28.46968 16.13927 78.75211
C -19.48910 16.44284 78.75196
C -28.51075 17.55711 78.75200
C -24.59663 13.29002 79.71880
C -23.40337 20.70994 79.71880
C -24.82848 20.65806 79.71972
C -23.17154 13.34191 79.71974
C -20.65551 14.58385 79.83732
C -27.34448 19.41608 79.83734
C -20.80837 19.64695 79.83659
C -27.19148 14.35314 79.83657
C -19.93041 18.53692 79.92253
C -28.06958 15.46306 79.92261
C -19.84841 15.74610 79.92310
C -28.15156 18.25383 79.92319
C -22.48868 13.41537 80.97927
C -25.51138 20.58455 80.97929
C -22.71815 20.68739 80.97884
C -25.28183 13.31254 80.97884
C -21.23344 14.07524 81.03318
C -26.76664 19.92473 81.03321
C -21.41923 20.11746 81.03234
C -26.58074 13.88244 81.03234
C -19.73484 16.43861 81.15284
C -28.26514 17.56127 81.15292
C -19.77685 17.85397 81.15307
C -28.22307 16.14594 81.15318
C -19.99653 15.73553 82.34535
C -23.16574 13.15413 82.20898
C -27.11107 14.29259 82.28986
C -28.00340 18.26434 82.34540
C -24.83430 20.84578 82.20902
C -20.88895 19.70719 82.28980
C -20.72919 14.51993 82.28948
C -24.58639 13.10187 82.20880
C -27.91915 15.45911 82.34575
C -27.27079 19.47994 82.28953
C -23.41366 20.89803 82.20880
C -20.08081 18.54070 82.34571
C -19.86689 16.43489 83.56882
C -21.45283 20.19236 83.49876
C -25.51629 20.71464 83.46060
C -28.13309 17.56499 83.56884
C -26.54722 13.80753 83.49884
C -22.48378 13.28534 83.46056
C -19.90885 17.85172 83.56971
C -22.72617 20.81676 83.46131
C -26.74245 20.00212 83.49832
C -28.09116 16.14815 83.56971
C -25.27391 13.18315 83.46132
C -21.25758 13.99778 83.49830
C -20.16123 18.54237 84.77722
C -23.41999 21.00663 84.69585
C -27.23468 19.51116 84.74350
C -27.83882 15.45755 84.77723
C -24.58009 12.99343 84.69589
C -20.76544 14.48882 84.74351
C -20.93027 19.73649 84.74509
C -24.83980 20.95435 84.69586
C -27.92367 18.26947 84.77644
C -27.06975 14.26345 84.74512
C -23.16029 13.04574 84.69582
C -20.07634 15.73048 84.77648
C -19.92849 16.43305 85.99632
C -21.47253 20.22545 85.96153
C -25.52181 20.77775 85.93848
C -28.07157 17.56697 85.99627
C -26.52749 13.77460 85.96159
C -22.47833 13.22238 85.93846
C -19.97160 17.84985 85.99712
C -22.73005 20.87951 85.93978
C -26.73015 20.03662 85.96020
C -28.02844 16.15017 85.99711
C -25.26998 13.12050 85.93988
C -21.27002 13.96352 85.96023
C -20.21025 18.53635 87.21374
C -23.42764 21.03690 87.17644
C -27.20790 19.51253 87.19749
C -27.78976 15.46376 87.21380
C -24.57241 12.96299 87.17651
C -20.79227 14.48761 87.19750
C -20.96383 19.73368 87.19941
C -24.84159 20.98567 87.17636
C -27.88023 18.26765 87.21283
C -27.03618 14.26643 87.19946
C -23.15850 13.01437 87.17636
C -20.12002 15.73246 87.21287
C -19.99946 16.41833 88.44119
C -21.49970 20.17496 88.43255
C -25.48693 20.75612 88.42171
C -28.00067 17.58168 88.44119
C -26.50037 13.82498 88.43258
C -22.51314 13.24378 88.42174
C -20.04742 17.85881 88.44179
C -22.77337 20.85178 88.42387
C -26.71012 19.99114 88.43222
C -27.95256 16.14121 88.44189
C -25.22667 13.14818 88.42393
C -21.28999 14.00890 88.43220
C -20.22822 18.52390 89.67837
C -23.43384 21.02841 89.67837
C -27.20563 19.50451 89.67837
C -27.77178 15.47610 89.67837
C -24.56616 12.97159 89.67837
C -20.79437 14.49549 89.67837
C -20.97689 19.72202 89.67837
C -24.84579 20.97910 89.67837
C -27.86890 18.25708 89.67837
C -27.02311 14.27798 89.67837
C -23.15421 13.02090 89.67837
C -20.13110 15.74292 89.67837
C  4.02841 -17.56616 34.36520
C  2.50451 -13.79437 34.36520
C -1.52390 -13.22822 34.36520
C -4.02841 -16.43384 34.36520
C -2.50451 -20.20563 34.36520
C  1.52390 -20.77178 34.36520
C  3.97910 -16.15422 34.36520
C  1.25708 -13.13110 34.36520
C -2.72202 -13.97689 34.36520
C -3.97910 -17.84579 34.36520
C -1.25708 -20.86890 34.36520
C  2.72202 -20.02311 34.36520
C  3.87834 -15.41215 35.52868
C  0.54990 -12.92586 35.56357
C -3.19878 -14.45308 35.59358
C -3.87844 -18.58796 35.52862
C -0.54992 -21.07404 35.56356
C  3.19890 -19.54687 35.59354
C  3.12016 -14.20816 35.53960
C -0.88064 -13.03063 35.60745
C -3.92799 -15.68827 35.53623
C -3.12007 -19.79178 35.53967
C  0.88068 -20.96924 35.60745
C  3.92802 -18.31166 35.53626
C  4.12131 -17.56421 36.74312
C  2.56421 -13.72530 36.77160
C -1.52515 -13.23222 36.84593
C -4.12132 -16.43578 36.74300
C -2.56427 -20.27459 36.77177
C  1.52519 -20.76772 36.84592
C  4.09238 -16.13731 36.73985
C  1.28705 -13.09160 36.79299
C -2.73475 -13.96300 36.82840
C -4.09248 -17.86264 36.73975
C -1.28696 -20.90839 36.79309
C  2.73484 -20.03694 36.82820
C  3.86768 -15.43883 37.96280
C  0.59423 -12.99502 38.05076
C -3.24206 -14.51189 38.03124
C -3.86773 -18.56112 37.96272
C -0.59429 -21.00500 38.05086
C  3.24219 -19.48811 38.03118
C  3.09659 -14.24463 37.99305
C -0.82190 -13.06048 38.07470
C -3.94136 -15.74450 37.97691
C -3.09653 -19.75538 37.99314
C  0.82187 -20.93960 38.07468
C  3.94144 -18.25534 37.97701
C  4.14494 -17.54681 39.18129
C  2.56947 -13.79632 39.24176
C -1.50129 -13.31164 39.30157
C -4.14491 -16.45322 39.18116
C -2.56946 -20.20357 39.24187
C  1.50124 -20.68843 39.30144
C  4.10931 -16.12806 39.17466
C  1.28951 -13.18179 39.28366
C -2.73117 -14.02584 39.26639
C -4.10936 -17.87189 39.17453
C -1.28950 -20.81815 39.28378
C  2.73113 -19.97411 39.26637
C  3.93612 -15.44115 40.40022
C  0.59875 -13.10904 40.53713
C -3.26055 -14.54802 40.46945
C -3.93623 -18.55889 40.40003
C -0.59879 -20.89096 40.53728
C  3.26050 -19.45197 40.46946
C  3.13130 -14.27680 40.45418
C -0.81838 -13.17563 40.54624
C -3.99974 -15.75608 40.40544
C -3.13113 -19.72312 40.45422
C  0.81840 -20.82457 40.54624
C  3.99956 -18.24388 40.40555
C  4.26404 -17.54370 41.60041
C -4.26405 -16.45639 41.60030
C  4.23332 -16.12946 41.59739
C -4.23325 -17.87064 41.59729
C  2.59668 -13.86871 41.71493
C -2.59663 -20.13127 41.71500
C  2.75320 -19.90132 41.72362
C -2.75320 -14.09878 41.72363
C  1.49946 -20.56292 41.77529
C -1.49942 -13.43725 41.77527
C  1.29452 -13.31014 41.77086
C -1.29455 -20.68986 41.77102
C  4.14544 -18.23735 42.82742
C -4.14544 -15.76278 42.82730
C  4.08037 -15.44805 42.82677
C -4.08041 -18.55191 42.82669
C  3.33416 -19.39712 42.91560
C -3.33415 -14.60300 42.91556
C  3.20383 -14.33714 42.91146
C -3.20395 -19.66292 42.91152
C -0.60523 -20.70955 43.02855
C  0.60539 -13.29038 43.02848
C  0.81940 -20.64660 43.03111
C -0.81925 -13.35354 43.03107
C  4.50760 -17.54338 43.99972
C -4.50760 -16.45667 43.99956
C  4.47328 -16.12842 43.99876
C -4.47320 -17.87164 43.99861
C  2.82566 -19.78418 44.19012
C -2.82553 -14.21599 44.19016
C  2.66488 -13.99647 44.18925
C -2.66485 -20.00354 44.18925
C  1.32168 -13.51211 44.24910
C -1.32158 -20.48777 44.24918
C  1.52276 -20.37065 44.24840
C -1.52263 -13.62944 44.24839
C -4.43035 -15.77005 45.23464
C  4.43025 -18.22987 45.23478
C -4.35717 -18.54698 45.23583
C  4.35719 -15.45297 45.23584
C  3.51208 -19.31178 45.35463
C -3.51219 -14.68828 45.35446
C  3.37429 -14.43049 45.35574
C -3.37426 -19.56944 45.35573
C -0.62479 -20.39294 45.49746
C  0.62492 -13.60679 45.49746
C -0.82752 -13.66167 45.49831
C  0.82768 -20.33809 45.49840
C  4.87134 -16.11995 46.37774
C -4.87136 -17.88000 46.37762
C  4.90994 -17.53977 46.37777
C -4.91006 -16.46025 46.37770
C  2.99619 -19.56868 46.66030
C -2.99627 -14.43129 46.66013
C -2.83501 -19.77753 46.66111
C  2.83514 -14.22234 46.66117
C  1.57624 -19.91689 46.65880
C -1.57629 -14.08307 46.65868
C  1.39449 -13.97934 46.65941
C -1.39446 -20.02037 46.65934
C  4.88231 -18.21248 47.62841
C -4.88236 -15.78758 47.62833
C  4.80315 -15.45200 47.62915
C -4.80309 -18.54795 47.62908
C  3.83998 -19.18401 47.78075
C -3.83998 -14.81601 47.78064
C -0.63331 -19.32098 47.61424
C  0.63329 -14.67901 47.61415
C -0.77234 -14.72482 47.61680
C  0.77228 -19.27524 47.61698
C  3.69809 -14.55387 47.78256
C -3.69803 -19.44615 47.78246
C -5.41028 -17.89634 48.77446
C -5.45195 -16.47356 48.77414
C  5.41021 -16.10374 48.77444
C  5.45184 -17.52644 48.77415
C  1.25568 -15.68345 48.43343
C -1.25565 -18.31664 48.43343
C  1.33207 -18.23483 48.43748
C -1.33202 -15.76514 48.43735
C  0.68529 -16.97777 48.35655
C -0.68518 -17.02230 48.35651
C -3.46413 -14.80370 49.19098
C  3.46423 -19.19631 49.19113
C -3.31537 -19.42415 49.19033
C  3.31544 -14.57596 49.19041
C -2.29846 -15.54786 49.41168
C  2.29855 -18.45222 49.41177
C -2.20515 -18.59805 49.40770
C  2.20511 -15.40194 49.40782
C -5.51531 -15.82643 50.06463
C  5.51533 -18.17354 50.06455
C -5.42969 -18.54576 50.06514
C  5.42962 -15.45426 50.06508
C -4.42307 -14.93831 50.26309
C  4.42323 -19.06175 50.26313
C -4.27892 -19.35621 50.26386
C  4.27891 -14.64379 50.26400
C -2.21690 -16.36904 50.58735
C  2.21702 -17.63106 50.58734
C -2.17298 -17.77662 50.58556
C  2.17302 -16.22349 50.58564
C  6.04315 -17.51022 51.24248
C -6.04316 -16.48979 51.24253
C  5.99659 -16.08181 51.24321
C -5.99665 -17.91828 51.24319
C  3.89480 -19.03501 51.60507
C -3.89465 -14.96513 51.60510
C  3.74973 -14.70795 51.60418
C -3.74966 -19.29210 51.60410
C  2.69674 -18.27992 51.75758
C -2.69661 -15.72022 51.75762
C  2.60523 -15.54229 51.75583
C -2.60508 -18.45788 51.75586
C  5.95370 -18.14415 52.54749
C -5.95369 -15.85592 52.54753
C  5.86209 -15.45387 52.54798
C -5.86211 -18.54625 52.54797
C  4.79402 -18.95967 52.71937
C -4.79395 -15.04040 52.71929
C  4.64904 -14.72096 52.72024
C -4.64894 -19.27908 52.72019
C  2.45923 -17.62972 52.98745
C -2.45935 -16.37043 52.98747
C  2.40939 -16.20587 52.98658
C -2.40924 -17.79429 52.98660
C -6.42765 -16.50796 53.75769
C  6.42760 -17.49204 53.75770
C -6.37811 -17.93038 53.75851
C  6.37805 -16.06964 53.75855
C -4.20847 -15.05254 54.02895
C  4.20843 -18.94754 54.02907
C -4.06257 -19.22826 54.02904
C  4.06263 -14.77178 54.02914
C -2.96738 -15.73350 54.14950
C  2.96724 -18.26660 54.14951
C -2.87098 -18.46393 54.14921
C  2.87098 -15.53611 54.14922
C  6.24748 -18.11978 55.06224
C -6.24755 -15.88027 55.06220
C  6.15259 -15.45393 55.06246
C -6.15257 -18.54610 55.06244
C -5.06284 -15.10187 55.18285
C  5.06277 -18.89814 55.18292
C -4.91563 -19.23922 55.18419
C  4.91572 -14.76082 55.18429
C -2.68806 -16.37851 55.38278
C  2.68809 -17.62142 55.38274
C -2.63745 -17.79994 55.38261
C  2.63750 -16.20006 55.38266
C  6.68845 -17.48311 56.29240
C -6.68845 -16.51699 56.29243
C  6.63710 -16.05495 56.29342
C -6.63709 -17.94513 56.29343
C  4.43312 -18.92355 56.46952
C -4.43313 -15.07643 56.46947
C  4.28491 -14.77881 56.47109
C -4.28479 -19.22118 56.47104
C  3.17258 -18.25872 56.55348
C -3.17261 -15.74121 56.55353
C  3.07409 -15.53118 56.55457
C -3.07403 -18.46873 56.55464
C  6.44041 -18.11065 57.57866
C -6.44043 -15.88939 57.57873
C -6.34394 -18.55474 57.58008
C  6.34394 -15.44544 57.58004
C  5.24436 -18.88231 57.64904
C -5.24435 -15.11770 57.64906
C  5.09506 -14.76220 57.65206
C -5.09503 -19.23791 57.65208
C  2.80105 -16.19513 57.77552
C -2.80110 -17.80488 57.77561
C  2.85350 -17.61789 57.77487
C -2.85352 -16.38211 57.77495
C -6.77329 -17.94722 58.83224
C  6.77334 -16.05293 58.83222
C -6.82522 -16.52626 58.83102
C  6.82523 -17.47385 58.83106
C -4.42039 -19.21206 58.92007
C  4.42031 -14.78809 58.92003
C -4.57064 -15.09284 58.91657
C  4.57066 -18.90713 58.91660
C -3.21280 -18.46562 58.96316
C  3.21275 -15.53452 58.96313
C -3.31188 -15.74925 58.96060
C  3.31190 -18.25074 58.96052
C  6.53472 -18.10814 60.10871
C -6.53472 -15.89188 60.10865
C  6.43636 -15.44415 60.11194
C -6.43633 -18.55587 60.11200
C -5.33653 -15.11985 60.13094
C  5.33647 -18.88016 60.13097
C  5.18498 -14.76169 60.13559
C -5.18503 -19.23845 60.13559
C -2.88999 -17.80409 60.17664
C  2.89004 -16.19607 60.17657
C -2.94202 -16.38111 60.17557
C  2.94214 -17.61900 60.17555
C  6.87896 -17.47797 61.37172
C -6.87905 -16.52202 61.37175
C  4.61669 -18.91839 61.37008
C -4.61663 -15.08168 61.37003
C  3.25133 -15.53261 61.37472
C -3.25120 -18.46747 61.37490
C  6.82674 -16.05073 61.37355
C -6.82669 -17.94927 61.37357
C  3.35149 -18.25987 61.37116
C -3.35144 -15.74020 61.37113
C  4.46415 -14.78136 61.37503
C -4.46404 -19.21876 61.37503
C -2.89328 -17.79757 62.57202
C  2.89337 -16.20250 62.57187
C -2.94475 -16.37580 62.57082
C  2.94483 -17.62421 62.57077
C -5.33764 -15.11462 62.60936
C  5.33771 -18.88534 62.60939
C  5.18624 -14.76571 62.61431
C -5.18604 -19.23439 62.61439
C  6.43653 -15.44782 62.63723
C -6.43643 -18.55228 62.63728
C  6.53404 -18.11244 62.63348
C -6.53397 -15.88764 62.63352
C -3.21503 -18.45661 63.78642
C  3.21505 -15.54353 63.78634
C -3.31367 -15.73795 63.78347
C  3.31381 -18.26205 63.78347
C -4.57304 -15.08056 63.82482
C  4.57318 -18.91940 63.82487
C -4.42191 -19.20570 63.82973
C  4.42195 -14.79437 63.82962
C -6.82523 -16.51752 63.91376
C  6.82545 -17.48261 63.91369
C -6.77378 -17.93970 63.91510
C  6.77389 -16.06039 63.91494
C  2.85707 -17.63170 64.97030
C -2.85701 -16.36832 64.97030
C  2.80577 -16.20915 64.97126
C -2.80581 -17.79092 64.97126
C -5.24633 -15.10360 65.09290
C  5.24645 -18.89651 65.09292
C  5.09618 -14.77180 65.09667
C -5.09628 -19.22829 65.09674
C -6.44115 -15.87771 65.16464
C  6.44128 -18.12228 65.16456
C  6.34461 -15.45589 65.16728
C -6.34468 -18.54418 65.16737
C  3.17566 -18.27424 66.19219
C -3.17572 -15.72584 66.19222
C  3.07660 -15.54586 66.19329
C -3.07675 -18.45419 66.19321
C  4.43584 -18.93858 66.27502
C -4.43581 -15.06142 66.27510
C  4.28505 -14.79171 66.27771
C -4.28509 -19.20836 66.27770
C  6.68757 -17.49561 66.45350
C -6.68758 -16.50446 66.45354
C  6.63680 -16.06809 66.45384
C -6.63686 -17.93184 66.45384
C -2.69015 -16.36224 67.36312
C  2.69007 -17.63782 67.36308
C -2.63893 -17.78493 67.36344
C  2.63886 -16.21511 67.36350
C -5.06421 -15.08649 67.56271
C  5.06420 -18.91350 67.56267
C -4.91660 -19.22715 67.56347
C  4.91652 -14.77280 67.56349
C  6.24888 -18.13318 67.68402
C -6.24889 -15.86686 67.68403
C -6.15404 -18.53346 67.68464
C  6.15405 -15.46650 67.68461
C -2.96938 -15.71903 68.59691
C  2.96939 -18.28103 68.59684
C -2.87298 -18.44826 68.59657
C  2.87304 -15.55185 68.59658
C -4.21055 -15.03903 68.71735
C  4.21055 -18.96113 68.71735
C -4.06334 -19.21390 68.71745
C  4.06331 -14.78611 68.71747
C -6.42749 -16.49501 68.98840
C  6.42756 -17.50496 68.98837
C -6.37821 -17.91724 68.98778
C  6.37825 -16.08275 68.98773
C  2.46008 -17.64369 69.75965
C -2.46013 -16.35639 69.75972
C  2.41135 -16.22053 69.76059
C -2.41123 -17.77953 69.76058
C  4.79519 -18.97150 70.02899
C -4.79525 -15.02864 70.02899
C  4.65008 -14.73315 70.02697
C -4.65011 -19.26688 70.02702
C  5.95403 -18.15595 70.20036
C -5.95397 -15.84410 70.20045
C  5.86255 -15.46625 70.19940
C -5.86253 -18.53374 70.19949
C  2.69648 -18.29257 70.98985
C -2.69649 -15.70755 70.98984
C  2.60601 -15.55360 70.98930
C -2.60593 -18.44647 70.98928
C  3.89591 -19.04798 71.14338
C -3.89594 -14.95213 71.14332
C  3.75081 -14.71800 71.14184
C -3.75080 -19.28211 71.14187
C  6.04470 -17.52265 71.50548
C -6.04470 -16.47735 71.50555
C  5.99830 -16.09254 71.50439
C -5.99836 -17.90754 71.50447
C -2.21897 -16.36043 72.15916
C  2.21898 -17.63976 72.15919
C -2.17400 -17.76746 72.16007
C  2.17407 -16.23273 72.15997
C -4.42397 -14.92834 72.48565
C  4.42406 -19.07180 72.48580
C -4.28057 -19.34615 72.48211
C  4.28060 -14.65392 72.48214
C -5.51652 -15.81533 72.68356
C  5.51657 -18.18473 72.68368
C -5.43022 -18.53469 72.68191
C  5.43020 -15.46545 72.68185
C -2.30041 -15.54167 73.33828
C  2.30054 -18.45839 73.33828
C -2.20511 -18.59299 73.33760
C  2.20516 -15.40709 73.33759
C -3.46462 -14.79623 73.55898
C  3.46467 -19.20389 73.55904
C -3.31644 -19.41521 73.55627
C  3.31649 -14.58483 73.55639
C  0.68432 -16.97923 74.38443
C -0.68428 -17.02078 74.38447
C  1.25462 -15.68404 74.31116
C -1.25467 -18.31599 74.31122
C  1.33364 -18.23669 74.31052
C -1.33355 -15.76326 74.31064
C -5.45392 -16.46327 73.97553
C  5.45395 -17.53682 73.97560
C -5.40974 -17.88546 73.97472
C  5.40976 -16.11461 73.97467
C  3.84186 -19.19455 74.96923
C -3.84191 -14.80543 74.96921
C -0.77481 -14.72900 75.13832
C  0.77484 -19.27090 75.13823
C -0.63367 -19.31529 75.13778
C  0.63369 -14.68468 75.13778
C  3.69559 -14.56241 74.96597
C -3.69546 -19.43776 74.96586
C  4.88694 -18.22196 75.12187
C -4.88702 -15.77815 75.12185
C  4.80234 -15.46358 75.11980
C -4.80224 -18.53651 75.11981
C -1.57787 -14.08251 76.09217
C  1.57785 -19.91746 76.09212
C  1.39295 -13.98580 76.09092
C -1.39286 -20.01428 76.09085
C -3.00092 -14.42297 76.08897
C  3.00086 -19.57697 76.08898
C -2.83480 -19.76910 76.08656
C  2.83493 -14.23102 76.08661
C -4.87037 -17.87050 76.37143
C  4.87040 -16.12964 76.37140
C -4.91262 -16.45034 76.37162
C  4.91263 -17.54977 76.37161
C -0.83184 -13.65728 77.25366
C  0.83191 -20.34276 77.25362
C -0.62094 -20.39198 77.25241
C  0.62099 -13.60805 77.25256
C  3.51908 -19.32352 77.39718
C -3.51910 -14.67639 77.39722
C  3.37066 -14.44186 77.39511
C -3.37059 -19.55820 77.39502
C -4.35356 -18.53577 77.51545
C  4.35367 -15.46434 77.51544
C -4.43520 -15.75911 77.51670
C  4.43529 -18.24091 77.51669
C  1.31458 -13.51653 78.50058
C -1.31449 -20.48346 78.50046
C  1.52862 -20.38245 78.50211
C -1.52860 -13.61758 78.50209
C  2.83628 -19.79919 78.56153
C -2.83627 -14.20079 78.56156
C  2.65938 -14.00785 78.55951
C -2.65928 -19.99207 78.55942
C  4.46980 -16.13933 78.75208
C -4.46968 -17.86073 78.75211
C  4.51090 -17.55716 78.75196
C -4.51075 -16.44289 78.75200
C -0.59663 -20.70998 79.71880
C  0.59663 -13.29006 79.71880
C -0.82848 -13.34194 79.71972
C  0.82846 -20.65809 79.71974
C  3.34449 -19.41615 79.83732
C -3.34448 -14.58392 79.83734
C  3.19163 -14.35305 79.83659
C -3.19148 -19.64686 79.83657
C  4.06959 -15.46308 79.92253
C -4.06958 -18.53694 79.92261
C  4.15159 -18.25390 79.92310
C -4.15156 -15.74617 79.92319
C  1.51132 -20.58463 80.97927
C -1.51138 -13.41545 80.97929
C  1.28185 -13.31261 80.97884
C -1.28183 -20.68746 80.97884
C  2.76656 -19.92476 81.03318
C -2.76664 -14.07527 81.03321
C  2.58077 -13.88254 81.03234
C -2.58074 -20.11756 81.03234
C  4.26516 -17.56139 81.15284
C -4.26514 -16.43873 81.15292
C  4.22315 -16.14603 81.15307
C -4.22307 -17.85406 81.15318
C  4.00347 -18.26447 82.34535
C  0.83426 -20.84587 82.20898
C -3.11107 -19.70741 82.28986
C -4.00340 -15.73566 82.34540
C -0.83430 -13.15422 82.20902
C  3.11105 -14.29281 82.28980
C  3.27081 -19.48007 82.28948
C -0.58639 -20.89813 82.20880
C -3.91915 -18.54089 82.34575
C -3.27079 -14.52006 82.28953
C  0.58634 -13.10197 82.20880
C  3.91919 -15.45930 82.34571
C  4.13311 -17.56511 83.56882
C  2.54717 -13.80764 83.49876
C -1.51629 -13.28536 83.46060
C -4.13309 -16.43501 83.56884
C -2.54722 -20.19247 83.49884
C  1.51622 -20.71466 83.46056
C  4.09115 -16.14828 83.56971
C  1.27383 -13.18324 83.46131
C -2.74245 -13.99788 83.49832
C -4.09116 -17.85185 83.56971
C -1.27391 -20.81685 83.46132
C  2.74242 -20.00222 83.49830
C  3.83877 -15.45763 84.77722
C  0.58001 -12.99337 84.69585
C -3.23468 -14.48884 84.74350
C -3.83882 -18.54245 84.77723
C -0.58009 -21.00657 84.69589
C  3.23456 -19.51118 84.74351
C  3.06973 -14.26351 84.74509
C -0.83980 -13.04565 84.69586
C -3.92367 -15.73053 84.77644
C -3.06975 -19.73655 84.74512
C  0.83971 -20.95426 84.69582
C  3.92366 -18.26952 84.77648
C  4.07151 -17.56695 85.99632
C  2.52747 -13.77455 85.96153
C -1.52181 -13.22225 85.93848
C -4.07157 -16.43303 85.99627
C -2.52749 -20.22540 85.96159
C  1.52167 -20.77762 85.93846
C  4.02840 -16.15015 85.99712
C  1.26995 -13.12049 85.93978
C -2.73015 -13.96338 85.96020
C -4.02844 -17.84983 85.99711
C -1.26998 -20.87950 85.93988
C  2.72998 -20.03648 85.96023
C  3.78975 -15.46365 87.21374
C  0.57236 -12.96310 87.17644
C -3.20790 -14.48747 87.19749
C -3.78976 -18.53624 87.21380
C -0.57241 -21.03701 87.17651
C  3.20773 -19.51239 87.19750
C  3.03617 -14.26632 87.19941
C -0.84159 -13.01433 87.17636
C -3.88023 -15.73235 87.21283
C -3.03618 -19.73357 87.19946
C  0.84150 -20.98563 87.17636
C  3.87998 -18.26754 87.21287
C  4.00054 -17.58167 88.44119
C  2.50030 -13.82504 88.43255
C -1.48693 -13.24388 88.42171
C -4.00067 -16.41832 88.44119
C -2.50037 -20.17502 88.43258
C  1.48686 -20.75622 88.42174
C  3.95258 -16.14119 88.44179
C  1.22663 -13.14822 88.42387
C -2.71012 -14.00886 88.43222
C -3.95256 -17.85879 88.44189
C -1.22667 -20.85182 88.42393
C  2.71001 -19.99110 88.43220
C  3.77178 -15.47610 89.67837
C  0.56616 -12.97159 89.67837
C -3.20563 -14.49549 89.67837
C -3.77178 -18.52390 89.67837
C -0.56616 -21.02841 89.67837
C  3.20563 -19.50451 89.67837
C  3.02311 -14.27798 89.67837
C -0.84579 -13.02090 89.67837
C -3.86890 -15.74292 89.67837
C -3.02311 -19.72202 89.67837
C  0.84579 -20.97910 89.67837
C  3.86890 -18.25708 89.67837
C  4.02841 -0.56616 34.36520
C  2.50451  3.20563 34.36520
C -1.52390  3.77178 34.36520
C -4.02841  0.56616 34.36520
C -2.50451 -3.20563 34.36520
C  1.52390 -3.77178 34.36520
C  3.97910  0.84578 34.36520
C  1.25708  3.86890 34.36520
C -2.72202  3.02311 34.36520
C -3.97910 -0.84579 34.36520
C -1.25708 -3.86890 34.36520
C  2.72202 -3.02311 34.36520
C  3.87834  1.58785 35.52868
C  0.54990  4.07414 35.56357
C -3.19878  2.54692 35.59358
C -3.87844 -1.58796 35.52862
C -0.54992 -4.07404 35.56356
C  3.19890 -2.54687 35.59354
C  3.12016  2.79184 35.53960
C -0.88064  3.96937 35.60745
C -3.92799  1.31173 35.53623
C -3.12007 -2.79178 35.53967
C  0.88068 -3.96924 35.60745
C  3.92802 -1.31166 35.53626
C  4.12131 -0.56421 36.74312
C  2.56421  3.27470 36.77160
C -1.52515  3.76778 36.84593
C -4.12132  0.56422 36.74300
C -2.56427 -3.27459 36.77177
C  1.52519 -3.76772 36.84592
C  4.09238  0.86269 36.73985
C  1.28705  3.90840 36.79299
C -2.73475  3.03700 36.82840
C -4.09248 -0.86264 36.73975
C -1.28696 -3.90839 36.79309
C  2.73484 -3.03694 36.82820
C  3.86768  1.56117 37.96280
C  0.59423  4.00498 38.05076
C -3.24206  2.48811 38.03124
C -3.86773 -1.56112 37.96272
C -0.59429 -4.00500 38.05086
C  3.24219 -2.48811 38.03118
C  3.09659  2.75537 37.99305
C -0.82190  3.93952 38.07470
C -3.94136  1.25550 37.97691
C -3.09653 -2.75538 37.99314
C  0.82187 -3.93960 38.07468
C  3.94144 -1.25534 37.97701
C  4.14494 -0.54681 39.18129
C  2.56947  3.20368 39.24176
C -1.50129  3.68836 39.30157
C -4.14491  0.54678 39.18116
C -2.56946 -3.20357 39.24187
C  1.50124 -3.68843 39.30144
C  4.10931  0.87194 39.17466
C  1.28951  3.81821 39.28366
C -2.73117  2.97416 39.26639
C -4.10936 -0.87189 39.17453
C -1.28950 -3.81815 39.28378
C  2.73113 -2.97411 39.26637
C  3.93612  1.55885 40.40022
C  0.59875  3.89096 40.53713
C -3.26055  2.45198 40.46945
C -3.93623 -1.55889 40.40003
C -0.59879 -3.89096 40.53728
C  3.26050 -2.45197 40.46946
C  3.13130  2.72320 40.45418
C -0.81838  3.82437 40.54624
C -3.99974  1.24392 40.40544
C -3.13113 -2.72312 40.45422
C  0.81840 -3.82457 40.54624
C  3.99956 -1.24388 40.40555
C  4.26404 -0.54370 41.60041
C -4.26405  0.54361 41.60030
C  4.23332  0.87054 41.59739
C -4.23325 -0.87064 41.59729
C  2.59668  3.13129 41.71493
C -2.59663 -3.13127 41.71500
C  2.75320 -2.90132 41.72362
C -2.75320  2.90122 41.72363
C  1.49946 -3.56292 41.77529
C -1.49942  3.56275 41.77527
C  1.29452  3.68986 41.77086
C -1.29455 -3.68986 41.77102
C  4.14544 -1.23735 42.82742
C -4.14544  1.23722 42.82730
C  4.08037  1.55195 42.82677
C -4.08041 -1.55191 42.82669
C  3.33416 -2.39712 42.91560
C -3.33415  2.39700 42.91556
C  3.20383  2.66286 42.91146
C -3.20395 -2.66292 42.91152
C -0.60523 -3.70955 43.02855
C  0.60539  3.70962 43.02848
C  0.81940 -3.64660 43.03111
C -0.81925  3.64646 43.03107
C  4.50760 -0.54338 43.99972
C -4.50760  0.54333 43.99956
C  4.47328  0.87158 43.99876
C -4.47320 -0.87164 43.99861
C  2.82566 -2.78418 44.19012
C -2.82553  2.78401 44.19016
C  2.66488  3.00353 44.18925
C -2.66485 -3.00354 44.18925
C  1.32168  3.48789 44.24910
C -1.32158 -3.48777 44.24918
C  1.52276 -3.37065 44.24840
C -1.52263  3.37056 44.24839
C -4.43035  1.22995 45.23464
C  4.43025 -1.22987 45.23478
C -4.35717 -1.54698 45.23583
C  4.35719  1.54703 45.23584
C  3.51208 -2.31178 45.35463
C -3.51219  2.31172 45.35446
C  3.37429  2.56951 45.35574
C -3.37426 -2.56944 45.35573
C -0.62479 -3.39294 45.49746
C  0.62492  3.39321 45.49746
C -0.82752  3.33833 45.49831
C  0.82768 -3.33809 45.49840
C  4.87134  0.88005 46.37774
C -4.87136 -0.88000 46.37762
C  4.90994 -0.53977 46.37777
C -4.91006  0.53975 46.37770
C  2.99619 -2.56868 46.66030
C -2.99627  2.56871 46.66013
C -2.83501 -2.77753 46.66111
C  2.83514  2.77766 46.66117
C  1.57624 -2.91689 46.65880
C -1.57629  2.91693 46.65868
C  1.39449  3.02066 46.65941
C -1.39446 -3.02037 46.65934
C  4.88231 -1.21248 47.62841
C -4.88236  1.21242 47.62833
C  4.80315  1.54800 47.62915
C -4.80309 -1.54795 47.62908
C  3.83998 -2.18401 47.78075
C -3.83998  2.18399 47.78064
C -0.63331 -2.32098 47.61424
C  0.63329  2.32099 47.61415
C -0.77234  2.27518 47.61680
C  0.77228 -2.27524 47.61698
C  3.69809  2.44613 47.78256
C -3.69803 -2.44615 47.78246
C -5.41028 -0.89634 48.77446
C -5.45195  0.52644 48.77414
C  5.41021  0.89626 48.77444
C  5.45184 -0.52644 48.77415
C  1.25568  1.31655 48.43343
C -1.25565 -1.31664 48.43343
C  1.33207 -1.23483 48.43748
C -1.33202  1.23486 48.43735
C  0.68529  0.02223 48.35655
C -0.68518 -0.02230 48.35651
C -3.46413  2.19630 49.19098
C  3.46423 -2.19631 49.19113
C -3.31537 -2.42415 49.19033
C  3.31544  2.42404 49.19041
C -2.29846  1.45214 49.41168
C  2.29855 -1.45222 49.41177
C -2.20515 -1.59805 49.40770
C  2.20511  1.59806 49.40782
C -5.51531  1.17357 50.06463
C  5.51533 -1.17354 50.06455
C -5.42969 -1.54576 50.06514
C  5.42962  1.54574 50.06508
C -4.42307  2.06169 50.26309
C  4.42323 -2.06175 50.26313
C -4.27892 -2.35621 50.26386
C  4.27891  2.35621 50.26400
C -2.21690  0.63096 50.58735
C  2.21702 -0.63106 50.58734
C -2.17298 -0.77662 50.58556
C  2.17302  0.77651 50.58564
C  6.04315 -0.51022 51.24248
C -6.04316  0.51021 51.24253
C  5.99659  0.91819 51.24321
C -5.99665 -0.91828 51.24319
C  3.89480 -2.03501 51.60507
C -3.89465  2.03487 51.60510
C  3.74973  2.29205 51.60418
C -3.74966 -2.29210 51.60410
C  2.69674 -1.27992 51.75758
C -2.69661  1.27978 51.75762
C  2.60523  1.45771 51.75583
C -2.60508 -1.45788 51.75586
C  5.95370 -1.14415 52.54749
C -5.95369  1.14408 52.54753
C  5.86209  1.54613 52.54798
C -5.86211 -1.54625 52.54797
C  4.79402 -1.95967 52.71937
C -4.79395  1.95960 52.71929
C  4.64904  2.27904 52.72024
C -4.64894 -2.27908 52.72019
C  2.45923 -0.62972 52.98745
C -2.45935  0.62957 52.98747
C  2.40939  0.79413 52.98658
C -2.40924 -0.79429 52.98660
C -6.42765  0.49204 53.75769
C  6.42760 -0.49204 53.75770
C -6.37811 -0.93038 53.75851
C  6.37805  0.93036 53.75855
C -4.20847  1.94746 54.02895
C  4.20843 -1.94754 54.02907
C -4.06257 -2.22826 54.02904
C  4.06263  2.22822 54.02914
C -2.96738  1.26650 54.14950
C  2.96724 -1.26660 54.14951
C -2.87098 -1.46393 54.14921
C  2.87098  1.46389 54.14922
C  6.24748 -1.11978 55.06224
C -6.24755  1.11973 55.06220
C  6.15259  1.54607 55.06246
C -6.15257 -1.54610 55.06244
C -5.06284  1.89813 55.18285
C  5.06277 -1.89814 55.18292
C -4.91563 -2.23922 55.18419
C  4.91572  2.23918 55.18429
C -2.68806  0.62149 55.38278
C  2.68809 -0.62142 55.38274
C -2.63745 -0.79994 55.38261
C  2.63750  0.79994 55.38266
C  6.68845 -0.48311 56.29240
C -6.68845  0.48301 56.29243
C  6.63710  0.94505 56.29342
C -6.63709 -0.94513 56.29343
C  4.43312 -1.92355 56.46952
C -4.43313  1.92357 56.46947
C  4.28491  2.22119 56.47109
C -4.28479 -2.22118 56.47104
C  3.17258 -1.25872 56.55348
C -3.17261  1.25879 56.55353
C  3.07409  1.46882 56.55457
C -3.07403 -1.46873 56.55464
C  6.44041 -1.11065 57.57866
C -6.44043  1.11061 57.57873
C -6.34394 -1.55474 57.58008
C  6.34394  1.55456 57.58004
C  5.24436 -1.88231 57.64904
C -5.24435  1.88230 57.64906
C  5.09506  2.23780 57.65206
C -5.09503 -2.23791 57.65208
C  2.80105  0.80487 57.77552
C -2.80110 -0.80488 57.77561
C  2.85350 -0.61789 57.77487
C -2.85352  0.61789 57.77495
C -6.77329 -0.94722 58.83224
C  6.77334  0.94707 58.83222
C -6.82522  0.47374 58.83102
C  6.82523 -0.47385 58.83106
C -4.42039 -2.21206 58.92007
C  4.42031  2.21191 58.92003
C -4.57064  1.90716 58.91657
C  4.57066 -1.90713 58.91660
C -3.21280 -1.46562 58.96316
C  3.21275  1.46548 58.96313
C -3.31188  1.25075 58.96060
C  3.31190 -1.25074 58.96052
C  6.53472 -1.10814 60.10871
C -6.53472  1.10812 60.10865
C  6.43636  1.55585 60.11194
C -6.43633 -1.55587 60.11200
C -5.33653  1.88015 60.13094
C  5.33647 -1.88016 60.13097
C  5.18498  2.23831 60.13559
C -5.18503 -2.23845 60.13559
C -2.88999 -0.80409 60.17664
C  2.89004  0.80393 60.17657
C -2.94202  0.61889 60.17557
C  2.94214 -0.61900 60.17555
C  6.87896 -0.47797 61.37172
C -6.87905  0.47798 61.37175
C  4.61669 -1.91839 61.37008
C -4.61663  1.91832 61.37003
C  3.25133  1.46739 61.37472
C -3.25120 -1.46747 61.37490
C  6.82674  0.94927 61.37355
C -6.82669 -0.94927 61.37357
C  3.35149 -1.25987 61.37116
C -3.35144  1.25980 61.37113
C  4.46415  2.21864 61.37503
C -4.46404 -2.21876 61.37503
C -2.89328 -0.79757 62.57202
C  2.89337  0.79750 62.57187
C -2.94475  0.62420 62.57082
C  2.94483 -0.62421 62.57077
C -5.33764  1.88538 62.60936
C  5.33771 -1.88534 62.60939
C  5.18624  2.23429 62.61431
C -5.18604 -2.23439 62.61439
C  6.43653  1.55218 62.63723
C -6.43643 -1.55228 62.63728
C  6.53404 -1.11244 62.63348
C -6.53397  1.11236 62.63352
C -3.21503 -1.45661 63.78642
C  3.21505  1.45647 63.78634
C -3.31367  1.26205 63.78347
C  3.31381 -1.26205 63.78347
C -4.57304  1.91944 63.82482
C  4.57318 -1.91940 63.82487
C -4.42191 -2.20570 63.82973
C  4.42195  2.20563 63.82962
C -6.82523  0.48248 63.91376
C  6.82545 -0.48261 63.91369
C -6.77378 -0.93970 63.91510
C  6.77389  0.93961 63.91494
C  2.85707 -0.63170 64.97030
C -2.85701  0.63168 64.97030
C  2.80577  0.79085 64.97126
C -2.80581 -0.79092 64.97126
C -5.24633  1.89640 65.09290
C  5.24645 -1.89651 65.09292
C  5.09618  2.22820 65.09667
C -5.09628 -2.22829 65.09674
C -6.44115  1.12229 65.16464
C  6.44128 -1.12228 65.16456
C  6.34461  1.54411 65.16728
C -6.34468 -1.54418 65.16737
C  3.17566 -1.27424 66.19219
C -3.17572  1.27416 66.19222
C  3.07660  1.45414 66.19329
C -3.07675 -1.45419 66.19321
C  4.43584 -1.93858 66.27502
C -4.43581  1.93858 66.27510
C  4.28505  2.20829 66.27771
C -4.28509 -2.20836 66.27770
C  6.68757 -0.49561 66.45350
C -6.68758  0.49554 66.45354
C  6.63680  0.93191 66.45384
C -6.63686 -0.93184 66.45384
C -2.69015  0.63776 67.36312
C  2.69007 -0.63782 67.36308
C -2.63893 -0.78493 67.36344
C  2.63886  0.78489 67.36350
C -5.06421  1.91351 67.56271
C  5.06420 -1.91350 67.56267
C -4.91660 -2.22715 67.56347
C  4.91652  2.22720 67.56349
C  6.24888 -1.13318 67.68402
C -6.24889  1.13314 67.68403
C -6.15404 -1.53346 67.68464
C  6.15405  1.53350 67.68461
C -2.96938  1.28097 68.59691
C  2.96939 -1.28103 68.59684
C -2.87298 -1.44826 68.59657
C  2.87304  1.44815 68.59658
C -4.21055  1.96097 68.71735
C  4.21055 -1.96113 68.71735
C -4.06334 -2.21390 68.71745
C  4.06331  2.21389 68.71747
C -6.42749  0.50499 68.98840
C  6.42756 -0.50496 68.98837
C -6.37821 -0.91724 68.98778
C  6.37825  0.91725 68.98773
C  2.46008 -0.64369 69.75965
C -2.46013  0.64361 69.75972
C  2.41135  0.77947 69.76059
C -2.41123 -0.77953 69.76058
C  4.79519 -1.97150 70.02899
C -4.79525  1.97136 70.02899
C  4.65008  2.26685 70.02697
C -4.65011 -2.26688 70.02702
C  5.95403 -1.15595 70.20036
C -5.95397  1.15590 70.20045
C  5.86255  1.53375 70.19940
C -5.86253 -1.53374 70.19949
C  2.69648 -1.29257 70.98985
C -2.69649  1.29245 70.98984
C  2.60601  1.44640 70.98930
C -2.60593 -1.44647 70.98928
C  3.89591 -2.04798 71.14338
C -3.89594  2.04787 71.14332
C  3.75081  2.28200 71.14184
C -3.75080 -2.28211 71.14187
C  6.04470 -0.52265 71.50548
C -6.04470  0.52265 71.50555
C  5.99830  0.90746 71.50439
C -5.99836 -0.90754 71.50447
C -2.21897  0.63957 72.15916
C  2.21898 -0.63976 72.15919
C -2.17400 -0.76746 72.16007
C  2.17407  0.76727 72.15997
C -4.42397  2.07166 72.48565
C  4.42406 -2.07180 72.48580
C -4.28057 -2.34615 72.48211
C  4.28060  2.34608 72.48214
C -5.51652  1.18467 72.68356
C  5.51657 -1.18473 72.68368
C -5.43022 -1.53469 72.68191
C  5.43020  1.53455 72.68185
C -2.30041  1.45833 73.33828
C  2.30054 -1.45839 73.33828
C -2.20511 -1.59299 73.33760
C  2.20516  1.59291 73.33759
C -3.46462  2.20377 73.55898
C  3.46467 -2.20389 73.55904
C -3.31644 -2.41521 73.55627
C  3.31649  2.41517 73.55639
C  0.68432  0.02077 74.38443
C -0.68428 -0.02078 74.38447
C  1.25462  1.31596 74.31116
C -1.25467 -1.31599 74.31122
C  1.33364 -1.23669 74.31052
C -1.33355  1.23674 74.31064
C -5.45392  0.53673 73.97553
C  5.45395 -0.53682 73.97560
C -5.40974 -0.88546 73.97472
C  5.40976  0.88539 73.97467
C  3.84186 -2.19455 74.96923
C -3.84191  2.19457 74.96921
C -0.77481  2.27100 75.13832
C  0.77484 -2.27090 75.13823
C -0.63367 -2.31529 75.13778
C  0.63369  2.31532 75.13778
C  3.69559  2.43759 74.96597
C -3.69546 -2.43776 74.96586
C  4.88694 -1.22196 75.12187
C -4.88702  1.22185 75.12185
C  4.80234  1.53642 75.11980
C -4.80224 -1.53651 75.11981
C -1.57787  2.91749 76.09217
C  1.57785 -2.91746 76.09212
C  1.39295  3.01420 76.09092
C -1.39286 -3.01428 76.09085
C -3.00092  2.57703 76.08897
C  3.00086 -2.57697 76.08898
C -2.83480 -2.76910 76.08656
C  2.83493  2.76898 76.08661
C -4.87037 -0.87050 76.37143
C  4.87040  0.87036 76.37140
C -4.91262  0.54966 76.37162
C  4.91263 -0.54977 76.37161
C -0.83184  3.34272 77.25366
C  0.83191 -3.34276 77.25362
C -0.62094 -3.39198 77.25241
C  0.62099  3.39195 77.25256
C  3.51908 -2.32352 77.39718
C -3.51910  2.32361 77.39722
C  3.37066  2.55814 77.39511
C -3.37059 -2.55820 77.39502
C -4.35356 -1.53577 77.51545
C  4.35367  1.53566 77.51544
C -4.43520  1.24089 77.51670
C  4.43529 -1.24091 77.51669
C  1.31458  3.48347 78.50058
C -1.31449 -3.48346 78.50046
C  1.52862 -3.38245 78.50211
C -1.52860  3.38242 78.50209
C  2.83628 -2.79919 78.56153
C -2.83627  2.79921 78.56156
C  2.65938  2.99215 78.55951
C -2.65928 -2.99207 78.55942
C  4.46980  0.86067 78.75208
C -4.46968 -0.86073 78.75211
C  4.51090 -0.55716 78.75196
C -4.51075  0.55711 78.75200
C -0.59663 -3.70998 79.71880
C  0.59663  3.70994 79.71880
C -0.82848  3.65806 79.71972
C  0.82846 -3.65809 79.71974
C  3.34449 -2.41615 79.83732
C -3.34448  2.41608 79.83734
C  3.19163  2.64695 79.83659
C -3.19148 -2.64686 79.83657
C  4.06959  1.53692 79.92253
C -4.06958 -1.53694 79.92261
C  4.15159 -1.25390 79.92310
C -4.15156  1.25383 79.92319
C  1.51132 -3.58463 80.97927
C -1.51138  3.58455 80.97929
C  1.28185  3.68739 80.97884
C -1.28183 -3.68746 80.97884
C  2.76656 -2.92476 81.03318
C -2.76664  2.92473 81.03321
C  2.58077  3.11746 81.03234
C -2.58074 -3.11756 81.03234
C  4.26516 -0.56139 81.15284
C -4.26514  0.56127 81.15292
C  4.22315  0.85397 81.15307
C -4.22307 -0.85406 81.15318
C  4.00347 -1.26447 82.34535
C  0.83426 -3.84587 82.20898
C -3.11107 -2.70741 82.28986
C -4.00340  1.26434 82.34540
C -0.83430  3.84578 82.20902
C  3.11105  2.70719 82.28980
C  3.27081 -2.48007 82.28948
C -0.58639 -3.89813 82.20880
C -3.91915 -1.54089 82.34575
C -3.27079  2.47994 82.28953
C  0.58634  3.89803 82.20880
C  3.91919  1.54070 82.34571
C  4.13311 -0.56511 83.56882
C  2.54717  3.19236 83.49876
C -1.51629  3.71464 83.46060
C -4.13309  0.56499 83.56884
C -2.54722 -3.19247 83.49884
C  1.51622 -3.71466 83.46056
C  4.09115  0.85172 83.56971
C  1.27383  3.81676 83.46131
C -2.74245  3.00212 83.49832
C -4.09116 -0.85185 83.56971
C -1.27391 -3.81685 83.46132
C  2.74242 -3.00222 83.49830
C  3.83877  1.54237 84.77722
C  0.58001  4.00663 84.69585
C -3.23468  2.51116 84.74350
C -3.83882 -1.54245 84.77723
C -0.58009 -4.00657 84.69589
C  3.23456 -2.51118 84.74351
C  3.06973  2.73649 84.74509
C -0.83980  3.95435 84.69586
C -3.92367  1.26947 84.77644
C -3.06975 -2.73655 84.74512
C  0.83971 -3.95426 84.69582
C  3.92366 -1.26952 84.77648
C  4.07151 -0.56695 85.99632
C  2.52747  3.22545 85.96153
C -1.52181  3.77775 85.93848
C -4.07157  0.56697 85.99627
C -2.52749 -3.22540 85.96159
C  1.52167 -3.77762 85.93846
C  4.02840  0.84985 85.99712
C  1.26995  3.87951 85.93978
C -2.73015  3.03662 85.96020
C -4.02844 -0.84983 85.99711
C -1.26998 -3.87950 85.93988
C  2.72998 -3.03648 85.96023
C  3.78975  1.53635 87.21374
C  0.57236  4.03690 87.17644
C -3.20790  2.51253 87.19749
C -3.78976 -1.53624 87.21380
C -0.57241 -4.03701 87.17651
C  3.20773 -2.51239 87.19750
C  3.03617  2.73368 87.19941
C -0.84159  3.98567 87.17636
C -3.88023  1.26765 87.21283
C -3.03618 -2.73357 87.19946
C  0.84150 -3.98563 87.17636
C  3.87998 -1.26754 87.21287
C  4.00054 -0.58167 88.44119
C  2.50030  3.17496 88.43255
C -1.48693  3.75612 88.42171
C -4.00067  0.58168 88.44119
C -2.50037 -3.17502 88.43258
C  1.48686 -3.75622 88.42174
C  3.95258  0.85881 88.44179
C  1.22663  3.85178 88.42387
C -2.71012  2.99114 88.43222
C -3.95256 -0.85879 88.44189
C -1.22667 -3.85182 88.42393
C  2.71001 -2.99110 88.43220
C  3.77178  1.52390 89.67837
C  0.56616  4.02841 89.67837
C -3.20563  2.50451 89.67837
C -3.77178 -1.52390 89.67837
C -0.56616 -4.02841 89.67837
C  3.20563 -2.50451 89.67837
C  3.02311  2.72202 89.67837
C -0.84579  3.97910 89.67837
C -3.86890  1.25708 89.67837
C -3.02311 -2.72202 89.67837
C  0.84579 -3.97910 89.67837
C  3.86890 -1.25708 89.67837
C  4.02841 16.43384 34.36520
C  2.50451 20.20563 34.36520
C -1.52390 20.77178 34.36520
C -4.02841 17.56616 34.36520
C -2.50451 13.79437 34.36520
C  1.52390 13.22822 34.36520
C  3.97910 17.84578 34.36520
C  1.25708 20.86890 34.36520
C -2.72202 20.02311 34.36520
C -3.97910 16.15421 34.36520
C -1.25708 13.13110 34.36520
C  2.72202 13.97689 34.36520
C  3.87834 18.58785 35.52868
C  0.54990 21.07414 35.56357
C -3.19878 19.54692 35.59358
C -3.87844 15.41204 35.52862
C -0.54992 12.92596 35.56356
C  3.19890 14.45313 35.59354
C  3.12016 19.79184 35.53960
C -0.88064 20.96937 35.60745
C -3.92799 18.31173 35.53623
C -3.12007 14.20822 35.53967
C  0.88068 13.03076 35.60745
C  3.92802 15.68834 35.53626
C  4.12131 16.43579 36.74312
C  2.56421 20.27470 36.77160
C -1.52515 20.76778 36.84593
C -4.12132 17.56422 36.74300
C -2.56427 13.72541 36.77177
C  1.52519 13.23228 36.84592
C  4.09238 17.86269 36.73985
C  1.28705 20.90840 36.79299
C -2.73475 20.03700 36.82840
C -4.09248 16.13736 36.73975
C -1.28696 13.09161 36.79309
C  2.73484 13.96306 36.82820
C  3.86768 18.56117 37.96280
C  0.59423 21.00498 38.05076
C -3.24206 19.48811 38.03124
C -3.86773 15.43888 37.96272
C -0.59429 12.99500 38.05086
C  3.24219 14.51189 38.03118
C  3.09659 19.75537 37.99305
C -0.82190 20.93952 38.07470
C -3.94136 18.25550 37.97691
C -3.09653 14.24462 37.99314
C  0.82187 13.06040 38.07468
C  3.94144 15.74466 37.97701
C  4.14494 16.45319 39.18129
C  2.56947 20.20368 39.24176
C -1.50129 20.68836 39.30157
C -4.14491 17.54678 39.18116
C -2.56946 13.79643 39.24187
C  1.50124 13.31157 39.30144
C  4.10931 17.87194 39.17466
C  1.28951 20.81821 39.28366
C -2.73117 19.97416 39.26639
C -4.10936 16.12811 39.17453
C -1.28950 13.18185 39.28378
C  2.73113 14.02589 39.26637
C  3.93612 18.55885 40.40022
C  0.59875 20.89096 40.53713
C -3.26055 19.45198 40.46945
C -3.93623 15.44111 40.40003
C -0.59879 13.10904 40.53728
C  3.26050 14.54803 40.46946
C  3.13130 19.72320 40.45418
C -0.81838 20.82437 40.54624
C -3.99974 18.24392 40.40544
C -3.13113 14.27688 40.45422
C  0.81840 13.17543 40.54624
C  3.99956 15.75612 40.40555
C  4.26404 16.45630 41.60041
C -4.26405 17.54361 41.60030
C  4.23332 17.87054 41.59739
C -4.23325 16.12936 41.59729
C  2.59668 20.13129 41.71493
C -2.59663 13.86873 41.71500
C  2.75320 14.09868 41.72362
C -2.75320 19.90122 41.72363
C  1.49946 13.43708 41.77529
C -1.49942 20.56275 41.77527
C  1.29452 20.68986 41.77086
C -1.29455 13.31014 41.77102
C  4.14544 15.76265 42.82742
C -4.14544 18.23722 42.82730
C  4.08037 18.55195 42.82677
C -4.08041 15.44809 42.82669
C  3.33416 14.60288 42.91560
C -3.33415 19.39700 42.91556
C  3.20383 19.66286 42.91146
C -3.20395 14.33708 42.91152
C -0.60523 13.29045 43.02855
C  0.60539 20.70962 43.02848
C  0.81940 13.35340 43.03111
C -0.81925 20.64646 43.03107
C  4.50760 16.45662 43.99972
C -4.50760 17.54333 43.99956
C  4.47328 17.87158 43.99876
C -4.47320 16.12836 43.99861
C  2.82566 14.21582 44.19012
C -2.82553 19.78401 44.19016
C  2.66488 20.00353 44.18925
C -2.66485 13.99646 44.18925
C  1.32168 20.48789 44.24910
C -1.32158 13.51223 44.24918
C  1.52276 13.62935 44.24840
C -1.52263 20.37056 44.24839
C -4.43035 18.22995 45.23464
C  4.43025 15.77013 45.23478
C -4.35717 15.45302 45.23583
C  4.35719 18.54703 45.23584
C  3.51208 14.68822 45.35463
C -3.51219 19.31172 45.35446
C  3.37429 19.56951 45.35574
C -3.37426 14.43056 45.35573
C -0.62479 13.60706 45.49746
C  0.62492 20.39321 45.49746
C -0.82752 20.33833 45.49831
C  0.82768 13.66191 45.49840
C  4.87134 17.88005 46.37774
C -4.87136 16.12000 46.37762
C  4.90994 16.46023 46.37777
C -4.91006 17.53975 46.37770
C  2.99619 14.43132 46.66030
C -2.99627 19.56871 46.66013
C -2.83501 14.22247 46.66111
C  2.83514 19.77766 46.66117
C  1.57624 14.08311 46.65880
C -1.57629 19.91693 46.65868
C  1.39449 20.02066 46.65941
C -1.39446 13.97963 46.65934
C  4.88231 15.78752 47.62841
C -4.88236 18.21242 47.62833
C  4.80315 18.54800 47.62915
C -4.80309 15.45205 47.62908
C  3.83998 14.81599 47.78075
C -3.83998 19.18399 47.78064
C -0.63331 14.67902 47.61424
C  0.63329 19.32099 47.61415
C -0.77234 19.27518 47.61680
C  0.77228 14.72476 47.61698
C  3.69809 19.44613 47.78256
C -3.69803 14.55385 47.78246
C -5.41028 16.10366 48.77446
C -5.45195 17.52644 48.77414
C  5.41021 17.89626 48.77444
C  5.45184 16.47356 48.77415
C  1.25568 18.31655 48.43343
C -1.25565 15.68336 48.43343
C  1.33207 15.76517 48.43748
C -1.33202 18.23486 48.43735
C  0.68529 17.02223 48.35655
C -0.68518 16.97770 48.35651
C -3.46413 19.19630 49.19098
C  3.46423 14.80369 49.19113
C -3.31537 14.57585 49.19033
C  3.31544 19.42404 49.19041
C -2.29846 18.45214 49.41168
C  2.29855 15.54778 49.41177
C -2.20515 15.40195 49.40770
C  2.20511 18.59806 49.40782
C -5.51531 18.17357 50.06463
C  5.51533 15.82646 50.06455
C -5.42969 15.45424 50.06514
C  5.42962 18.54574 50.06508
C -4.42307 19.06169 50.26309
C  4.42323 14.93825 50.26313
C -4.27892 14.64379 50.26386
C  4.27891 19.35621 50.26400
C -2.21690 17.63096 50.58735
C  2.21702 16.36894 50.58734
C -2.17298 16.22338 50.58556
C  2.17302 17.77651 50.58564
C  6.04315 16.48978 51.24248
C -6.04316 17.51021 51.24253
C  5.99659 17.91819 51.24321
C -5.99665 16.08172 51.24319
C  3.89480 14.96499 51.60507
C -3.89465 19.03487 51.60510
C  3.74973 19.29205 51.60418
C -3.74966 14.70790 51.60410
C  2.69674 15.72008 51.75758
C -2.69661 18.27978 51.75762
C  2.60523 18.45771 51.75583
C -2.60508 15.54212 51.75586
C  5.95370 15.85585 52.54749
C -5.95369 18.14408 52.54753
C  5.86209 18.54613 52.54798
C -5.86211 15.45375 52.54797
C  4.79402 15.04033 52.71937
C -4.79395 18.95960 52.71929
C  4.64904 19.27904 52.72024
C -4.64894 14.72092 52.72019
C  2.45923 16.37028 52.98745
C -2.45935 17.62957 52.98747
C  2.40939 17.79413 52.98658
C -2.40924 16.20571 52.98660
C -6.42765 17.49204 53.75769
C  6.42760 16.50796 53.75770
C -6.37811 16.06962 53.75851
C  6.37805 17.93036 53.75855
C -4.20847 18.94746 54.02895
C  4.20843 15.05246 54.02907
C -4.06257 14.77174 54.02904
C  4.06263 19.22822 54.02914
C -2.96738 18.26650 54.14950
C  2.96724 15.73340 54.14951
C -2.87098 15.53607 54.14921
C  2.87098 18.46389 54.14922
C  6.24748 15.88022 55.06224
C -6.24755 18.11973 55.06220
C  6.15259 18.54607 55.06246
C -6.15257 15.45390 55.06244
C -5.06284 18.89813 55.18285
C  5.06277 15.10186 55.18292
C -4.91563 14.76078 55.18419
C  4.91572 19.23918 55.18429
C -2.68806 17.62149 55.38278
C  2.68809 16.37858 55.38274
C -2.63745 16.20006 55.38261
C  2.63750 17.79994 55.38266
C  6.68845 16.51689 56.29240
C -6.68845 17.48301 56.29243
C  6.63710 17.94505 56.29342
C -6.63709 16.05487 56.29343
C  4.43312 15.07645 56.46952
C -4.43313 18.92357 56.46947
C  4.28491 19.22119 56.47109
C -4.28479 14.77882 56.47104
C  3.17258 15.74128 56.55348
C -3.17261 18.25879 56.55353
C  3.07409 18.46882 56.55457
C -3.07403 15.53127 56.55464
C  6.44041 15.88935 57.57866
C -6.44043 18.11061 57.57873
C -6.34394 15.44526 57.58008
C  6.34394 18.55456 57.58004
C  5.24436 15.11769 57.64904
C -5.24435 18.88230 57.64906
C  5.09506 19.23780 57.65206
C -5.09503 14.76209 57.65208
C  2.80105 17.80487 57.77552
C -2.80110 16.19512 57.77561
C  2.85350 16.38211 57.77487
C -2.85352 17.61789 57.77495
C -6.77329 16.05278 58.83224
C  6.77334 17.94707 58.83222
C -6.82522 17.47374 58.83102
C  6.82523 16.52615 58.83106
C -4.42039 14.78794 58.92007
C  4.42031 19.21191 58.92003
C -4.57064 18.90716 58.91657
C  4.57066 15.09287 58.91660
C -3.21280 15.53438 58.96316
C  3.21275 18.46548 58.96313
C -3.31188 18.25075 58.96060
C  3.31190 15.74926 58.96052
C  6.53472 15.89186 60.10871
C -6.53472 18.10812 60.10865
C  6.43636 18.55585 60.11194
C -6.43633 15.44413 60.11200
C -5.33653 18.88015 60.13094
C  5.33647 15.11984 60.13097
C  5.18498 19.23831 60.13559
C -5.18503 14.76155 60.13559
C -2.88999 16.19591 60.17664
C  2.89004 17.80393 60.17657
C -2.94202 17.61889 60.17557
C  2.94214 16.38100 60.17555
C  6.87896 16.52203 61.37172
C -6.87905 17.47798 61.37175
C  4.61669 15.08161 61.37008
C -4.61663 18.91832 61.37003
C  3.25133 18.46739 61.37472
C -3.25120 15.53253 61.37490
C  6.82674 17.94927 61.37355
C -6.82669 16.05073 61.37357
C  3.35149 15.74013 61.37116
C -3.35144 18.25980 61.37113
C  4.46415 19.21864 61.37503
C -4.46404 14.78124 61.37503
C -2.89328 16.20243 62.57202
C  2.89337 17.79750 62.57187
C -2.94475 17.62420 62.57082
C  2.94483 16.37579 62.57077
C -5.33764 18.88538 62.60936
C  5.33771 15.11466 62.60939
C  5.18624 19.23429 62.61431
C -5.18604 14.76561 62.61439
C  6.43653 18.55218 62.63723
C -6.43643 15.44772 62.63728
C  6.53404 15.88756 62.63348
C -6.53397 18.11236 62.63352
C -3.21503 15.54339 63.78642
C  3.21505 18.45647 63.78634
C -3.31367 18.26205 63.78347
C  3.31381 15.73795 63.78347
C -4.57304 18.91944 63.82482
C  4.57318 15.08060 63.82487
C -4.42191 14.79430 63.82973
C  4.42195 19.20563 63.82962
C -6.82523 17.48248 63.91376
C  6.82545 16.51739 63.91369
C -6.77378 16.06030 63.91510
C  6.77389 17.93961 63.91494
C  2.85707 16.36830 64.97030
C -2.85701 17.63168 64.97030
C  2.80577 17.79085 64.97126
C -2.80581 16.20908 64.97126
C -5.24633 18.89640 65.09290
C  5.24645 15.10349 65.09292
C  5.09618 19.22820 65.09667
C -5.09628 14.77171 65.09674
C -6.44115 18.12229 65.16464
C  6.44128 15.87772 65.16456
C  6.34461 18.54411 65.16728
C -6.34468 15.45582 65.16737
C  3.17566 15.72576 66.19219
C -3.17572 18.27416 66.19222
C  3.07660 18.45414 66.19329
C -3.07675 15.54581 66.19321
C  4.43584 15.06142 66.27502
C -4.43581 18.93858 66.27510
C  4.28505 19.20829 66.27771
C -4.28509 14.79164 66.27770
C  6.68757 16.50439 66.45350
C -6.68758 17.49554 66.45354
C  6.63680 17.93191 66.45384
C -6.63686 16.06816 66.45384
C -2.69015 17.63776 67.36312
C  2.69007 16.36218 67.36308
C -2.63893 16.21507 67.36344
C  2.63886 17.78489 67.36350
C -5.06421 18.91351 67.56271
C  5.06420 15.08650 67.56267
C -4.91660 14.77285 67.56347
C  4.91652 19.22720 67.56349
C  6.24888 15.86682 67.68402
C -6.24889 18.13314 67.68403
C -6.15404 15.46654 67.68464
C  6.15405 18.53350 67.68461
C -2.96938 18.28097 68.59691
C  2.96939 15.71897 68.59684
C -2.87298 15.55174 68.59657
C  2.87304 18.44815 68.59658
C -4.21055 18.96097 68.71735
C  4.21055 15.03887 68.71735
C -4.06334 14.78610 68.71745
C  4.06331 19.21389 68.71747
C -6.42749 17.50499 68.98840
C  6.42756 16.49504 68.98837
C -6.37821 16.08276 68.98778
C  6.37825 17.91725 68.98773
C  2.46008 16.35631 69.75965
C -2.46013 17.64361 69.75972
C  2.41135 17.77947 69.76059
C -2.41123 16.22047 69.76058
C  4.79519 15.02850 70.02899
C -4.79525 18.97136 70.02899
C  4.65008 19.26685 70.02697
C -4.65011 14.73312 70.02702
C  5.95403 15.84405 70.20036
C -5.95397 18.15590 70.20045
C  5.86255 18.53375 70.19940
C -5.86253 15.46626 70.19949
C  2.69648 15.70743 70.98985
C -2.69649 18.29245 70.98984
C  2.60601 18.44640 70.98930
C -2.60593 15.55353 70.98928
C  3.89591 14.95202 71.14338
C -3.89594 19.04787 71.14332
C  3.75081 19.28200 71.14184
C -3.75080 14.71789 71.14187
C  6.04470 16.47735 71.50548
C -6.04470 17.52265 71.50555
C  5.99830 17.90746 71.50439
C -5.99836 16.09246 71.50447
C -2.21897 17.63957 72.15916
C  2.21898 16.36024 72.15919
C -2.17400 16.23254 72.16007
C  2.17407 17.76727 72.15997
C -4.42397 19.07166 72.48565
C  4.42406 14.92820 72.48580
C -4.28057 14.65385 72.48211
C  4.28060 19.34608 72.48214
C -5.51652 18.18467 72.68356
C  5.51657 15.81527 72.68368
C -5.43022 15.46531 72.68191
C  5.43020 18.53455 72.68185
C -2.30041 18.45833 73.33828
C  2.30054 15.54161 73.33828
C -2.20511 15.40701 73.33760
C  2.20516 18.59291 73.33759
C -3.46462 19.20377 73.55898
C  3.46467 14.79611 73.55904
C -3.31644 14.58479 73.55627
C  3.31649 19.41517 73.55639
C  0.68432 17.02077 74.38443
C -0.68428 16.97922 74.38447
C  1.25462 18.31596 74.31116
C -1.25467 15.68401 74.31122
C  1.33364 15.76331 74.31052
C -1.33355 18.23674 74.31064
C -5.45392 17.53673 73.97553
C  5.45395 16.46318 73.97560
C -5.40974 16.11454 73.97472
C  5.40976 17.88539 73.97467
C  3.84186 14.80545 74.96923
C -3.84191 19.19457 74.96921
C -0.77481 19.27100 75.13832
C  0.77484 14.72910 75.13823
C -0.63367 14.68471 75.13778
C  0.63369 19.31532 75.13778
C  3.69559 19.43759 74.96597
C -3.69546 14.56224 74.96586
C  4.88694 15.77804 75.12187
C -4.88702 18.22185 75.12185
C  4.80234 18.53642 75.11980
C -4.80224 15.46349 75.11981
C -1.57787 19.91749 76.09217
C  1.57785 14.08254 76.09212
C  1.39295 20.01420 76.09092
C -1.39286 13.98572 76.09085
C -3.00092 19.57703 76.08897
C  3.00086 14.42303 76.08898
C -2.83480 14.23090 76.08656
C  2.83493 19.76898 76.08661
C -4.87037 16.12950 76.37143
C  4.87040 17.87036 76.37140
C -4.91262 17.54966 76.37162
C  4.91263 16.45023 76.37161
C -0.83184 20.34272 77.25366
C  0.83191 13.65724 77.25362
C -0.62094 13.60802 77.25241
C  0.62099 20.39195 77.25256
C  3.51908 14.67648 77.39718
C -3.51910 19.32361 77.39722
C  3.37066 19.55814 77.39511
C -3.37059 14.44180 77.39502
C -4.35356 15.46423 77.51545
C  4.35367 18.53566 77.51544
C -4.43520 18.24089 77.51670
C  4.43529 15.75909 77.51669
C  1.31458 20.48347 78.50058
C -1.31449 13.51654 78.50046
C  1.52862 13.61755 78.50211
C -1.52860 20.38242 78.50209
C  2.83628 14.20081 78.56153
C -2.83627 19.79921 78.56156
C  2.65938 19.99215 78.55951
C -2.65928 14.00793 78.55942
C  4.46980 17.86067 78.75208
C -4.46968 16.13927 78.75211
C  4.51090 16.44284 78.75196
C -4.51075 17.55711 78.75200
C -0.59663 13.29002 79.71880
C  0.59663 20.70994 79.71880
C -0.82848 20.65806 79.71972
C  0.82846 13.34191 79.71974
C  3.34449 14.58385 79.83732
C -3.34448 19.41608 79.83734
C  3.19163 19.64695 79.83659
C -3.19148 14.35314 79.83657
C  4.06959 18.53692 79.92253
C -4.06958 15.46306 79.92261
C  4.15159 15.74610 79.92310
C -4.15156 18.25383 79.92319
C  1.51132 13.41537 80.97927
C -1.51138 20.58455 80.97929
C  1.28185 20.68739 80.97884
C -1.28183 13.31254 80.97884
C  2.76656 14.07524 81.03318
C -2.76664 19.92473 81.03321
C  2.58077 20.11746 81.03234
C -2.58074 13.88244 81.03234
C  4.26516 16.43861 81.15284
C -4.26514 17.56127 81.15292
C  4.22315 17.85397 81.15307
C -4.22307 16.14594 81.15318
C  4.00347 15.73553 82.34535
C  0.83426 13.15413 82.20898
C -3.11107 14.29259 82.28986
C -4.00340 18.26434 82.34540
C -0.83430 20.84578 82.20902
C  3.11105 19.70719 82.28980
C  3.27081 14.51993 82.28948
C -0.58639 13.10187 82.20880
C -3.91915 15.45911 82.34575
C -3.27079 19.47994 82.28953
C  0.58634 20.89803 82.20880
C  3.91919 18.54070 82.34571
C  4.13311 16.43489 83.56882
C  2.54717 20.19236 83.49876
C -1.51629 20.71464 83.46060
C -4.13309 17.56499 83.56884
C -2.54722 13.80753 83.49884
C  1.51622 13.28534 83.46056
C  4.09115 17.85172 83.56971
C  1.27383 20.81676 83.46131
C -2.74245 20.00212 83.49832
C -4.09116 16.14815 83.56971
C -1.27391 13.18315 83.46132
C  2.74242 13.99778 83.49830
C  3.83877 18.54237 84.77722
C  0.58001 21.00663 84.69585
C -3.23468 19.51116 84.74350
C -3.83882 15.45755 84.77723
C -0.58009 12.99343 84.69589
C  3.23456 14.48882 84.74351
C  3.06973 19.73649 84.74509
C -0.83980 20.95435 84.69586
C -3.92367 18.26947 84.77644
C -3.06975 14.26345 84.74512
C  0.83971 13.04574 84.69582
C  3.92366 15.73048 84.77648
C  4.07151 16.43305 85.99632
C  2.52747 20.22545 85.96153
C -1.52181 20.77775 85.93848
C -4.07157 17.56697 85.99627
C -2.52749 13.77460 85.96159
C  1.52167 13.22238 85.93846
C  4.02840 17.84985 85.99712
C  1.26995 20.87951 85.93978
C -2.73015 20.03662 85.96020
C -4.02844 16.15017 85.99711
C -1.26998 13.12050 85.93988
C  2.72998 13.96352 85.96023
C  3.78975 18.53635 87.21374
C  0.57236 21.03690 87.17644
C -3.20790 19.51253 87.19749
C -3.78976 15.46376 87.21380
C -0.57241 12.96299 87.17651
C  3.20773 14.48761 87.19750
C  3.03617 19.73368 87.19941
C -0.84159 20.98567 87.17636
C -3.88023 18.26765 87.21283
C -3.03618 14.26643 87.19946
C  0.84150 13.01437 87.17636
C  3.87998 15.73246 87.21287
C  4.00054 16.41833 88.44119
C  2.50030 20.17496 88.43255
C -1.48693 20.75612 88.42171
C -4.00067 17.58168 88.44119
C -2.50037 13.82498 88.43258
C  1.48686 13.24378 88.42174
C  3.95258 17.85881 88.44179
C  1.22663 20.85178 88.42387
C -2.71012 19.99114 88.43222
C -3.95256 16.14121 88.44189
C -1.22667 13.14818 88.42393
C  2.71001 14.00890 88.43220
C  3.77178 18.52390 89.67837
C  0.56616 21.02841 89.67837
C -3.20563 19.50451 89.67837
C -3.77178 15.47610 89.67837
C -0.56616 12.97159 89.67837
C  3.20563 14.49549 89.67837
C  3.02311 19.72202 89.67837
C -0.84579 20.97910 89.67837
C -3.86890 18.25708 89.67837
C -3.02311 14.27798 89.67837
C  0.84579 13.02090 89.67837
C  3.86890 15.74292 89.67837
C 28.02841 -17.56616 34.36520
C 26.50451 -13.79437 34.36520
C 22.47610 -13.22822 34.36520
C 19.97159 -16.43384 34.36520
C 21.49549 -20.20563 34.36520
C 25.52390 -20.77178 34.36520
C 27.97910 -16.15422 34.36520
C 25.25708 -13.13110 34.36520
C 21.27798 -13.97689 34.36520
C 20.02090 -17.84579 34.36520
C 22.74292 -20.86890 34.36520
C 26.72202 -20.02311 34.36520
C 27.87834 -15.41215 35.52868
C 24.54990 -12.92586 35.56357
C 20.80122 -14.45308 35.59358
C 20.12156 -18.58796 35.52862
C 23.45008 -21.07404 35.56356
C 27.19890 -19.54687 35.59354
C 27.12016 -14.20816 35.53960
C 23.11936 -13.03063 35.60745
C 20.07201 -15.68827 35.53623
C 20.87993 -19.79178 35.53967
C 24.88068 -20.96924 35.60745
C 27.92802 -18.31166 35.53626
C 28.12131 -17.56421 36.74312
C 26.56421 -13.72530 36.77160
C 22.47485 -13.23222 36.84593
C 19.87868 -16.43578 36.74300
C 21.43573 -20.27459 36.77177
C 25.52519 -20.76772 36.84592
C 28.09238 -16.13731 36.73985
C 25.28705 -13.09160 36.79299
C 21.26525 -13.96300 36.82840
C 19.90752 -17.86264 36.73975
C 22.71304 -20.90839 36.79309
C 26.73484 -20.03694 36.82820
C 27.86768 -15.43883 37.96280
C 24.59423 -12.99502 38.05076
C 20.75794 -14.51189 38.03124
C 20.13227 -18.56112 37.96272
C 23.40571 -21.00500 38.05086
C 27.24219 -19.48811 38.03118
C 27.09659 -14.24463 37.99305
C 23.17810 -13.06048 38.07470
C 20.05864 -15.74450 37.97691
C 20.90347 -19.75538 37.99314
C 24.82187 -20.93960 38.07468
C 27.94144 -18.25534 37.97701
C 28.14494 -17.54681 39.18129
C 26.56947 -13.79632 39.24176
C 22.49871 -13.31164 39.30157
C 19.85509 -16.45322 39.18116
C 21.43054 -20.20357 39.24187
C 25.50124 -20.68843 39.30144
C 28.10931 -16.12806 39.17466
C 25.28951 -13.18179 39.28366
C 21.26883 -14.02584 39.26639
C 19.89064 -17.87189 39.17453
C 22.71050 -20.81815 39.28378
C 26.73113 -19.97411 39.26637
C 27.93612 -15.44115 40.40022
C 24.59875 -13.10904 40.53713
C 20.73945 -14.54802 40.46945
C 20.06377 -18.55889 40.40003
C 23.40121 -20.89096 40.53728
C 27.26050 -19.45197 40.46946
C 27.13130 -14.27680 40.45418
C 23.18162 -13.17563 40.54624
C 20.00026 -15.75608 40.40544
C 20.86887 -19.72312 40.45422
C 24.81840 -20.82457 40.54624
C 27.99956 -18.24388 40.40555
C 28.26404 -17.54370 41.60041
C 19.73595 -16.45639 41.60030
C 28.23332 -16.12946 41.59739
C 19.76675 -17.87064 41.59729
C 26.59668 -13.86871 41.71493
C 21.40337 -20.13127 41.71500
C 26.75320 -19.90132 41.72362
C 21.24680 -14.09878 41.72363
C 25.49946 -20.56292 41.77529
C 22.50058 -13.43725 41.77527
C 25.29452 -13.31014 41.77086
C 22.70545 -20.68986 41.77102
C 28.14544 -18.23735 42.82742
C 19.85456 -15.76278 42.82730
C 28.08037 -15.44805 42.82677
C 19.91959 -18.55191 42.82669
C 27.33416 -19.39712 42.91560
C 20.66585 -14.60300 42.91556
C 27.20383 -14.33714 42.91146
C 20.79605 -19.66292 42.91152
C 23.39477 -20.70955 43.02855
C 24.60539 -13.29038 43.02848
C 24.81940 -20.64660 43.03111
C 23.18075 -13.35354 43.03107
C 28.50760 -17.54338 43.99972
C 19.49240 -16.45667 43.99956
C 28.47328 -16.12842 43.99876
C 19.52680 -17.87164 43.99861
C 26.82566 -19.78418 44.19012
C 21.17447 -14.21599 44.19016
C 26.66488 -13.99647 44.18925
C 21.33515 -20.00354 44.18925
C 25.32168 -13.51211 44.24910
C 22.67842 -20.48777 44.24918
C 25.52276 -20.37065 44.24840
C 22.47737 -13.62944 44.24839
C 19.56965 -15.77005 45.23464
C 28.43025 -18.22987 45.23478
C 19.64283 -18.54698 45.23583
C 28.35719 -15.45297 45.23584
C 27.51208 -19.31178 45.35463
C 20.48781 -14.68828 45.35446
C 27.37429 -14.43049 45.35574
C 20.62574 -19.56944 45.35573
C 23.37521 -20.39294 45.49746
C 24.62492 -13.60679 45.49746
C 23.17248 -13.66167 45.49831
C 24.82768 -20.33809 45.49840
C 28.87134 -16.11995 46.37774
C 19.12864 -17.88000 46.37762
C 28.90994 -17.53977 46.37777
C 19.08994 -16.46025 46.37770
C 26.99619 -19.56868 46.66030
C 21.00373 -14.43129 46.66013
C 21.16499 -19.77753 46.66111
C 26.83514 -14.22234 46.66117
C 25.57624 -19.91689 46.65880
C 22.42371 -14.08307 46.65868
C 25.39449 -13.97934 46.65941
C 22.60554 -20.02037 46.65934
C 28.88231 -18.21248 47.62841
C 19.11764 -15.78758 47.62833
C 28.80315 -15.45200 47.62915
C 19.19691 -18.54795 47.62908
C 27.83998 -19.18401 47.78075
C 20.16002 -14.81601 47.78064
C 23.36669 -19.32098 47.61424
C 24.63329 -14.67901 47.61415
C 23.22766 -14.72482 47.61680
C 24.77228 -19.27524 47.61698
C 27.69809 -14.55387 47.78256
C 20.30197 -19.44615 47.78246
C 18.58972 -17.89634 48.77446
C 18.54805 -16.47356 48.77414
C 29.41021 -16.10374 48.77444
C 29.45184 -17.52644 48.77415
C 25.25568 -15.68345 48.43343
C 22.74435 -18.31664 48.43343
C 25.33207 -18.23483 48.43748
C 22.66798 -15.76514 48.43735
C 24.68529 -16.97777 48.35655
C 23.31482 -17.02230 48.35651
C 20.53587 -14.80370 49.19098
C 27.46423 -19.19631 49.19113
C 20.68463 -19.42415 49.19033
C 27.31544 -14.57596 49.19041
C 21.70154 -15.54786 49.41168
C 26.29855 -18.45222 49.41177
C 21.79485 -18.59805 49.40770
C 26.20511 -15.40194 49.40782
C 18.48469 -15.82643 50.06463
C 29.51533 -18.17354 50.06455
C 18.57031 -18.54576 50.06514
C 29.42962 -15.45426 50.06508
C 19.57693 -14.93831 50.26309
C 28.42323 -19.06175 50.26313
C 19.72108 -19.35621 50.26386
C 28.27891 -14.64379 50.26400
C 21.78310 -16.36904 50.58735
C 26.21702 -17.63106 50.58734
C 21.82702 -17.77662 50.58556
C 26.17302 -16.22349 50.58564
C 30.04315 -17.51022 51.24248
C 17.95684 -16.48979 51.24253
C 29.99659 -16.08181 51.24321
C 18.00335 -17.91828 51.24319
C 27.89480 -19.03501 51.60507
C 20.10535 -14.96513 51.60510
C 27.74973 -14.70795 51.60418
C 20.25034 -19.29210 51.60410
C 26.69674 -18.27992 51.75758
C 21.30339 -15.72022 51.75762
C 26.60523 -15.54229 51.75583
C 21.39492 -18.45788 51.75586
C 29.95370 -18.14415 52.54749
C 18.04631 -15.85592 52.54753
C 29.86209 -15.45387 52.54798
C 18.13789 -18.54625 52.54797
C 28.79402 -18.95967 52.71937
C 19.20605 -15.04040 52.71929
C 28.64904 -14.72096 52.72024
C 19.35106 -19.27908 52.72019
C 26.45923 -17.62972 52.98745
C 21.54065 -16.37043 52.98747
C 26.40939 -16.20587 52.98658
C 21.59076 -17.79429 52.98660
C 17.57235 -16.50796 53.75769
C 30.42760 -17.49204 53.75770
C 17.62189 -17.93038 53.75851
C 30.37805 -16.06964 53.75855
C 19.79153 -15.05254 54.02895
C 28.20843 -18.94754 54.02907
C 19.93743 -19.22826 54.02904
C 28.06263 -14.77178 54.02914
C 21.03262 -15.73350 54.14950
C 26.96724 -18.26660 54.14951
C 21.12902 -18.46393 54.14921
C 26.87098 -15.53611 54.14922
C 30.24748 -18.11978 55.06224
C 17.75245 -15.88027 55.06220
C 30.15259 -15.45393 55.06246
C 17.84743 -18.54610 55.06244
C 18.93716 -15.10187 55.18285
C 29.06277 -18.89814 55.18292
C 19.08437 -19.23922 55.18419
C 28.91572 -14.76082 55.18429
C 21.31194 -16.37851 55.38278
C 26.68809 -17.62142 55.38274
C 21.36255 -17.79994 55.38261
C 26.63750 -16.20006 55.38266
C 30.68845 -17.48311 56.29240
C 17.31155 -16.51699 56.29243
C 30.63710 -16.05495 56.29342
C 17.36291 -17.94513 56.29343
C 28.43312 -18.92355 56.46952
C 19.56687 -15.07643 56.46947
C 28.28491 -14.77881 56.47109
C 19.71521 -19.22118 56.47104
C 27.17258 -18.25872 56.55348
C 20.82739 -15.74121 56.55353
C 27.07409 -15.53118 56.55457
C 20.92597 -18.46873 56.55464
C 30.44041 -18.11065 57.57866
C 17.55957 -15.88939 57.57873
C 17.65606 -18.55474 57.58008
C 30.34394 -15.44544 57.58004
C 29.24436 -18.88231 57.64904
C 18.75565 -15.11770 57.64906
C 29.09506 -14.76220 57.65206
C 18.90497 -19.23791 57.65208
C 26.80105 -16.19513 57.77552
C 21.19890 -17.80488 57.77561
C 26.85350 -17.61789 57.77487
C 21.14648 -16.38211 57.77495
C 17.22671 -17.94722 58.83224
C 30.77334 -16.05293 58.83222
C 17.17478 -16.52626 58.83102
C 30.82523 -17.47385 58.83106
C 19.57961 -19.21206 58.92007
C 28.42031 -14.78809 58.92003
C 19.42936 -15.09284 58.91657
C 28.57066 -18.90713 58.91660
C 20.78720 -18.46562 58.96316
C 27.21275 -15.53452 58.96313
C 20.68812 -15.74925 58.96060
C 27.31190 -18.25074 58.96052
C 30.53472 -18.10814 60.10871
C 17.46528 -15.89188 60.10865
C 30.43636 -15.44415 60.11194
C 17.56367 -18.55587 60.11200
C 18.66347 -15.11985 60.13094
C 29.33647 -18.88016 60.13097
C 29.18498 -14.76169 60.13559
C 18.81497 -19.23845 60.13559
C 21.11001 -17.80409 60.17664
C 26.89004 -16.19607 60.17657
C 21.05798 -16.38111 60.17557
C 26.94214 -17.61900 60.17555
C 30.87896 -17.47797 61.37172
C 17.12095 -16.52202 61.37175
C 28.61669 -18.91839 61.37008
C 19.38337 -15.08168 61.37003
C 27.25133 -15.53261 61.37472
C 20.74880 -18.46747 61.37490
C 30.82674 -16.05073 61.37355
C 17.17331 -17.94927 61.37357
C 27.35149 -18.25987 61.37116
C 20.64856 -15.74020 61.37113
C 28.46415 -14.78136 61.37503
C 19.53596 -19.21876 61.37503
C 21.10672 -17.79757 62.57202
C 26.89337 -16.20250 62.57187
C 21.05525 -16.37580 62.57082
C 26.94483 -17.62421 62.57077
C 18.66236 -15.11462 62.60936
C 29.33771 -18.88534 62.60939
C 29.18624 -14.76571 62.61431
C 18.81396 -19.23439 62.61439
C 30.43653 -15.44782 62.63723
C 17.56357 -18.55228 62.63728
C 30.53404 -18.11244 62.63348
C 17.46603 -15.88764 62.63352
C 20.78497 -18.45661 63.78642
C 27.21505 -15.54353 63.78634
C 20.68633 -15.73795 63.78347
C 27.31381 -18.26205 63.78347
C 19.42696 -15.08056 63.82482
C 28.57318 -18.91940 63.82487
C 19.57809 -19.20570 63.82973
C 28.42195 -14.79437 63.82962
C 17.17477 -16.51752 63.91376
C 30.82545 -17.48261 63.91369
C 17.22622 -17.93970 63.91510
C 30.77389 -16.06039 63.91494
C 26.85707 -17.63170 64.97030
C 21.14299 -16.36832 64.97030
C 26.80577 -16.20915 64.97126
C 21.19419 -17.79092 64.97126
C 18.75367 -15.10360 65.09290
C 29.24645 -18.89651 65.09292
C 29.09618 -14.77180 65.09667
C 18.90372 -19.22829 65.09674
C 17.55885 -15.87771 65.16464
C 30.44128 -18.12228 65.16456
C 30.34461 -15.45589 65.16728
C 17.65532 -18.54418 65.16737
C 27.17566 -18.27424 66.19219
C 20.82428 -15.72584 66.19222
C 27.07660 -15.54586 66.19329
C 20.92325 -18.45419 66.19321
C 28.43584 -18.93858 66.27502
C 19.56419 -15.06142 66.27510
C 28.28505 -14.79171 66.27771
C 19.71491 -19.20836 66.27770
C 30.68757 -17.49561 66.45350
C 17.31242 -16.50446 66.45354
C 30.63680 -16.06809 66.45384
C 17.36314 -17.93184 66.45384
C 21.30985 -16.36224 67.36312
C 26.69007 -17.63782 67.36308
C 21.36107 -17.78493 67.36344
C 26.63886 -16.21511 67.36350
C 18.93579 -15.08649 67.56271
C 29.06420 -18.91350 67.56267
C 19.08340 -19.22715 67.56347
C 28.91652 -14.77280 67.56349
C 30.24888 -18.13318 67.68402
C 17.75111 -15.86686 67.68403
C 17.84596 -18.53346 67.68464
C 30.15405 -15.46650 67.68461
C 21.03062 -15.71903 68.59691
C 26.96939 -18.28103 68.59684
C 21.12702 -18.44826 68.59657
C 26.87304 -15.55185 68.59658
C 19.78945 -15.03903 68.71735
C 28.21055 -18.96113 68.71735
C 19.93666 -19.21390 68.71745
C 28.06331 -14.78611 68.71747
C 17.57251 -16.49501 68.98840
C 30.42756 -17.50496 68.98837
C 17.62179 -17.91724 68.98778
C 30.37825 -16.08275 68.98773
C 26.46008 -17.64369 69.75965
C 21.53987 -16.35639 69.75972
C 26.41135 -16.22053 69.76059
C 21.58877 -17.77953 69.76058
C 28.79519 -18.97150 70.02899
C 19.20475 -15.02864 70.02899
C 28.65008 -14.73315 70.02697
C 19.34989 -19.26688 70.02702
C 29.95403 -18.15595 70.20036
C 18.04603 -15.84410 70.20045
C 29.86255 -15.46625 70.19940
C 18.13747 -18.53374 70.19949
C 26.69648 -18.29257 70.98985
C 21.30351 -15.70755 70.98984
C 26.60601 -15.55360 70.98930
C 21.39407 -18.44647 70.98928
C 27.89591 -19.04798 71.14338
C 20.10406 -14.95213 71.14332
C 27.75081 -14.71800 71.14184
C 20.24920 -19.28211 71.14187
C 30.04470 -17.52265 71.50548
C 17.95530 -16.47735 71.50555
C 29.99830 -16.09254 71.50439
C 18.00164 -17.90754 71.50447
C 21.78103 -16.36043 72.15916
C 26.21898 -17.63976 72.15919
C 21.82600 -17.76746 72.16007
C 26.17407 -16.23273 72.15997
C 19.57603 -14.92834 72.48565
C 28.42406 -19.07180 72.48580
C 19.71943 -19.34615 72.48211
C 28.28060 -14.65392 72.48214
C 18.48348 -15.81533 72.68356
C 29.51657 -18.18473 72.68368
C 18.56978 -18.53469 72.68191
C 29.43020 -15.46545 72.68185
C 21.69959 -15.54167 73.33828
C 26.30054 -18.45839 73.33828
C 21.79489 -18.59299 73.33760
C 26.20516 -15.40709 73.33759
C 20.53538 -14.79623 73.55898
C 27.46467 -19.20389 73.55904
C 20.68356 -19.41521 73.55627
C 27.31649 -14.58483 73.55639
C 24.68432 -16.97923 74.38443
C 23.31572 -17.02078 74.38447
C 25.25462 -15.68404 74.31116
C 22.74533 -18.31599 74.31122
C 25.33364 -18.23669 74.31052
C 22.66645 -15.76326 74.31064
C 18.54608 -16.46327 73.97553
C 29.45395 -17.53682 73.97560
C 18.59026 -17.88546 73.97472
C 29.40976 -16.11461 73.97467
C 27.84186 -19.19455 74.96923
C 20.15809 -14.80543 74.96921
C 23.22519 -14.72900 75.13832
C 24.77484 -19.27090 75.13823
C 23.36633 -19.31529 75.13778
C 24.63369 -14.68468 75.13778
C 27.69559 -14.56241 74.96597
C 20.30454 -19.43776 74.96586
C 28.88694 -18.22196 75.12187
C 19.11298 -15.77815 75.12185
C 28.80234 -15.46358 75.11980
C 19.19776 -18.53651 75.11981
C 22.42213 -14.08251 76.09217
C 25.57785 -19.91746 76.09212
C 25.39295 -13.98580 76.09092
C 22.60714 -20.01428 76.09085
C 20.99908 -14.42297 76.08897
C 27.00086 -19.57697 76.08898
C 21.16520 -19.76910 76.08656
C 26.83493 -14.23102 76.08661
C 19.12963 -17.87050 76.37143
C 28.87040 -16.12964 76.37140
C 19.08738 -16.45034 76.37162
C 28.91263 -17.54977 76.37161
C 23.16816 -13.65728 77.25366
C 24.83191 -20.34276 77.25362
C 23.37906 -20.39198 77.25241
C 24.62099 -13.60805 77.25256
C 27.51908 -19.32352 77.39718
C 20.48090 -14.67639 77.39722
C 27.37066 -14.44186 77.39511
C 20.62941 -19.55820 77.39502
C 19.64644 -18.53577 77.51545
C 28.35367 -15.46434 77.51544
C 19.56480 -15.75911 77.51670
C 28.43529 -18.24091 77.51669
C 25.31458 -13.51653 78.50058
C 22.68551 -20.48346 78.50046
C 25.52862 -20.38245 78.50211
C 22.47140 -13.61758 78.50209
C 26.83628 -19.79919 78.56153
C 21.16373 -14.20079 78.56156
C 26.65938 -14.00785 78.55951
C 21.34072 -19.99207 78.55942
C 28.46980 -16.13933 78.75208
C 19.53032 -17.86073 78.75211
C 28.51090 -17.55716 78.75196
C 19.48925 -16.44289 78.75200
C 23.40337 -20.70998 79.71880
C 24.59663 -13.29006 79.71880
C 23.17152 -13.34194 79.71972
C 24.82846 -20.65809 79.71974
C 27.34449 -19.41615 79.83732
C 20.65552 -14.58392 79.83734
C 27.19163 -14.35305 79.83659
C 20.80852 -19.64686 79.83657
C 28.06959 -15.46308 79.92253
C 19.93042 -18.53694 79.92261
C 28.15159 -18.25390 79.92310
C 19.84844 -15.74617 79.92319
C 25.51132 -20.58463 80.97927
C 22.48862 -13.41545 80.97929
C 25.28185 -13.31261 80.97884
C 22.71817 -20.68746 80.97884
C 26.76656 -19.92476 81.03318
C 21.23336 -14.07527 81.03321
C 26.58077 -13.88254 81.03234
C 21.41926 -20.11756 81.03234
C 28.26516 -17.56139 81.15284
C 19.73486 -16.43873 81.15292
C 28.22315 -16.14603 81.15307
C 19.77693 -17.85406 81.15318
C 28.00347 -18.26447 82.34535
C 24.83426 -20.84587 82.20898
C 20.88893 -19.70741 82.28986
C 19.99660 -15.73566 82.34540
C 23.16570 -13.15422 82.20902
C 27.11105 -14.29281 82.28980
C 27.27081 -19.48007 82.28948
C 23.41361 -20.89813 82.20880
C 20.08085 -18.54089 82.34575
C 20.72921 -14.52006 82.28953
C 24.58634 -13.10197 82.20880
C 27.91919 -15.45930 82.34571
C 28.13311 -17.56511 83.56882
C 26.54717 -13.80764 83.49876
C 22.48371 -13.28536 83.46060
C 19.86691 -16.43501 83.56884
C 21.45278 -20.19247 83.49884
C 25.51622 -20.71466 83.46056
C 28.09115 -16.14828 83.56971
C 25.27383 -13.18324 83.46131
C 21.25755 -13.99788 83.49832
C 19.90884 -17.85185 83.56971
C 22.72609 -20.81685 83.46132
C 26.74242 -20.00222 83.49830
C 27.83877 -15.45763 84.77722
C 24.58001 -12.99337 84.69585
C 20.76532 -14.48884 84.74350
C 20.16118 -18.54245 84.77723
C 23.41991 -21.00657 84.69589
C 27.23456 -19.51118 84.74351
C 27.06973 -14.26351 84.74509
C 23.16020 -13.04565 84.69586
C 20.07633 -15.73053 84.77644
C 20.93025 -19.73655 84.74512
C 24.83971 -20.95426 84.69582
C 27.92366 -18.26952 84.77648
C 28.07151 -17.56695 85.99632
C 26.52747 -13.77455 85.96153
C 22.47819 -13.22225 85.93848
C 19.92843 -16.43303 85.99627
C 21.47251 -20.22540 85.96159
C 25.52167 -20.77762 85.93846
C 28.02840 -16.15015 85.99712
C 25.26995 -13.12049 85.93978
C 21.26985 -13.96338 85.96020
C 19.97156 -17.84983 85.99711
C 22.73002 -20.87950 85.93988
C 26.72998 -20.03648 85.96023
C 27.78975 -15.46365 87.21374
C 24.57236 -12.96310 87.17644
C 20.79210 -14.48747 87.19749
C 20.21024 -18.53624 87.21380
C 23.42759 -21.03701 87.17651
C 27.20773 -19.51239 87.19750
C 27.03617 -14.26632 87.19941
C 23.15841 -13.01433 87.17636
C 20.11977 -15.73235 87.21283
C 20.96382 -19.73357 87.19946
C 24.84150 -20.98563 87.17636
C 27.87998 -18.26754 87.21287
C 28.00054 -17.58167 88.44119
C 26.50030 -13.82504 88.43255
C 22.51307 -13.24388 88.42171
C 19.99933 -16.41832 88.44119
C 21.49963 -20.17502 88.43258
C 25.48686 -20.75622 88.42174
C 27.95258 -16.14119 88.44179
C 25.22663 -13.14822 88.42387
C 21.28988 -14.00886 88.43222
C 20.04744 -17.85879 88.44189
C 22.77333 -20.85182 88.42393
C 26.71001 -19.99110 88.43220
C 27.77178 -15.47610 89.67837
C 24.56616 -12.97159 89.67837
C 20.79437 -14.49549 89.67837
C 20.22822 -18.52390 89.67837
C 23.43384 -21.02841 89.67837
C 27.20563 -19.50451 89.67837
C 27.02311 -14.27798 89.67837
C 23.15421 -13.02090 89.67837
C 20.13110 -15.74292 89.67837
C 20.97689 -19.72202 89.67837
C 24.84579 -20.97910 89.67837
C 27.86890 -18.25708 89.67837
C 28.02841 -0.56616 34.36520
C 26.50451  3.20563 34.36520
C 22.47610  3.77178 34.36520
C 19.97159  0.56616 34.36520
C 21.49549 -3.20563 34.36520
C 25.52390 -3.77178 34.36520
C 27.97910  0.84578 34.36520
C 25.25708  3.86890 34.36520
C 21.27798  3.02311 34.36520
C 20.02090 -0.84579 34.36520
C 22.74292 -3.86890 34.36520
C 26.72202 -3.02311 34.36520
C 27.87834  1.58785 35.52868
C 24.54990  4.07414 35.56357
C 20.80122  2.54692 35.59358
C 20.12156 -1.58796 35.52862
C 23.45008 -4.07404 35.56356
C 27.19890 -2.54687 35.59354
C 27.12016  2.79184 35.53960
C 23.11936  3.96937 35.60745
C 20.07201  1.31173 35.53623
C 20.87993 -2.79178 35.53967
C 24.88068 -3.96924 35.60745
C 27.92802 -1.31166 35.53626
C 28.12131 -0.56421 36.74312
C 26.56421  3.27470 36.77160
C 22.47485  3.76778 36.84593
C 19.87868  0.56422 36.74300
C 21.43573 -3.27459 36.77177
C 25.52519 -3.76772 36.84592
C 28.09238  0.86269 36.73985
C 25.28705  3.90840 36.79299
C 21.26525  3.03700 36.82840
C 19.90752 -0.86264 36.73975
C 22.71304 -3.90839 36.79309
C 26.73484 -3.03694 36.82820
C 27.86768  1.56117 37.96280
C 24.59423  4.00498 38.05076
C 20.75794  2.48811 38.03124
C 20.13227 -1.56112 37.96272
C 23.40571 -4.00500 38.05086
C 27.24219 -2.48811 38.03118
C 27.09659  2.75537 37.99305
C 23.17810  3.93952 38.07470
C 20.05864  1.25550 37.97691
C 20.90347 -2.75538 37.99314
C 24.82187 -3.93960 38.07468
C 27.94144 -1.25534 37.97701
C 28.14494 -0.54681 39.18129
C 26.56947  3.20368 39.24176
C 22.49871  3.68836 39.30157
C 19.85509  0.54678 39.18116
C 21.43054 -3.20357 39.24187
C 25.50124 -3.68843 39.30144
C 28.10931  0.87194 39.17466
C 25.28951  3.81821 39.28366
C 21.26883  2.97416 39.26639
C 19.89064 -0.87189 39.17453
C 22.71050 -3.81815 39.28378
C 26.73113 -2.97411 39.26637
C 27.93612  1.55885 40.40022
C 24.59875  3.89096 40.53713
C 20.73945  2.45198 40.46945
C 20.06377 -1.55889 40.40003
C 23.40121 -3.89096 40.53728
C 27.26050 -2.45197 40.46946
C 27.13130  2.72320 40.45418
C 23.18162  3.82437 40.54624
C 20.00026  1.24392 40.40544
C 20.86887 -2.72312 40.45422
C 24.81840 -3.82457 40.54624
C 27.99956 -1.24388 40.40555
C 28.26404 -0.54370 41.60041
C 19.73595  0.54361 41.60030
C 28.23332  0.87054 41.59739
C 19.76675 -0.87064 41.59729
C 26.59668  3.13129 41.71493
C 21.40337 -3.13127 41.71500
C 26.75320 -2.90132 41.72362
C 21.24680  2.90122 41.72363
C 25.49946 -3.56292 41.77529
C 22.50058  3.56275 41.77527
C 25.29452  3.68986 41.77086
C 22.70545 -3.68986 41.77102
C 28.14544 -1.23735 42.82742
C 19.85456  1.23722 42.82730
C 28.08037  1.55195 42.82677
C 19.91959 -1.55191 42.82669
C 27.33416 -2.39712 42.91560
C 20.66585  2.39700 42.91556
C 27.20383  2.66286 42.91146
C 20.79605 -2.66292 42.91152
C 23.39477 -3.70955 43.02855
C 24.60539  3.70962 43.02848
C 24.81940 -3.64660 43.03111
C 23.18075  3.64646 43.03107
C 28.50760 -0.54338 43.99972
C 19.49240  0.54333 43.99956
C 28.47328  0.87158 43.99876
C 19.52680 -0.87164 43.99861
C 26.82566 -2.78418 44.19012
C 21.17447  2.78401 44.19016
C 26.66488  3.00353 44.18925
C 21.33515 -3.00354 44.18925
C 25.32168  3.48789 44.24910
C 22.67842 -3.48777 44.24918
C 25.52276 -3.37065 44.24840
C 22.47737  3.37056 44.24839
C 19.56965  1.22995 45.23464
C 28.43025 -1.22987 45.23478
C 19.64283 -1.54698 45.23583
C 28.35719  1.54703 45.23584
C 27.51208 -2.31178 45.35463
C 20.48781  2.31172 45.35446
C 27.37429  2.56951 45.35574
C 20.62574 -2.56944 45.35573
C 23.37521 -3.39294 45.49746
C 24.62492  3.39321 45.49746
C 23.17248  3.33833 45.49831
C 24.82768 -3.33809 45.49840
C 28.87134  0.88005 46.37774
C 19.12864 -0.88000 46.37762
C 28.90994 -0.53977 46.37777
C 19.08994  0.53975 46.37770
C 26.99619 -2.56868 46.66030
C 21.00373  2.56871 46.66013
C 21.16499 -2.77753 46.66111
C 26.83514  2.77766 46.66117
C 25.57624 -2.91689 46.65880
C 22.42371  2.91693 46.65868
C 25.39449  3.02066 46.65941
C 22.60554 -3.02037 46.65934
C 28.88231 -1.21248 47.62841
C 19.11764  1.21242 47.62833
C 28.80315  1.54800 47.62915
C 19.19691 -1.54795 47.62908
C 27.83998 -2.18401 47.78075
C 20.16002  2.18399 47.78064
C 23.36669 -2.32098 47.61424
C 24.63329  2.32099 47.61415
C 23.22766  2.27518 47.61680
C 24.77228 -2.27524 47.61698
C 27.69809  2.44613 47.78256
C 20.30197 -2.44615 47.78246
C 18.58972 -0.89634 48.77446
C 18.54805  0.52644 48.77414
C 29.41021  0.89626 48.77444
C 29.45184 -0.52644 48.77415
C 25.25568  1.31655 48.43343
C 22.74435 -1.31664 48.43343
C 25.33207 -1.23483 48.43748
C 22.66798  1.23486 48.43735
C 24.68529  0.02223 48.35655
C 23.31482 -0.02230 48.35651
C 20.53587  2.19630 49.19098
C 27.46423 -2.19631 49.19113
C 20.68463 -2.42415 49.19033
C 27.31544  2.42404 49.19041
C 21.70154  1.45214 49.41168
C 26.29855 -1.45222 49.41177
C 21.79485 -1.59805 49.40770
C 26.20511  1.59806 49.40782
C 18.48469  1.17357 50.06463
C 29.51533 -1.17354 50.06455
C 18.57031 -1.54576 50.06514
C 29.42962  1.54574 50.06508
C 19.57693  2.06169 50.26309
C 28.42323 -2.06175 50.26313
C 19.72108 -2.35621 50.26386
C 28.27891  2.35621 50.26400
C 21.78310  0.63096 50.58735
C 26.21702 -0.63106 50.58734
C 21.82702 -0.77662 50.58556
C 26.17302  0.77651 50.58564
C 30.04315 -0.51022 51.24248
C 17.95684  0.51021 51.24253
C 29.99659  0.91819 51.24321
C 18.00335 -0.91828 51.24319
C 27.89480 -2.03501 51.60507
C 20.10535  2.03487 51.60510
C 27.74973  2.29205 51.60418
C 20.25034 -2.29210 51.60410
C 26.69674 -1.27992 51.75758
C 21.30339  1.27978 51.75762
C 26.60523  1.45771 51.75583
C 21.39492 -1.45788 51.75586
C 29.95370 -1.14415 52.54749
C 18.04631  1.14408 52.54753
C 29.86209  1.54613 52.54798
C 18.13789 -1.54625 52.54797
C 28.79402 -1.95967 52.71937
C 19.20605  1.95960 52.71929
C 28.64904  2.27904 52.72024
C 19.35106 -2.27908 52.72019
C 26.45923 -0.62972 52.98745
C 21.54065  0.62957 52.98747
C 26.40939  0.79413 52.98658
C 21.59076 -0.79429 52.98660
C 17.57235  0.49204 53.75769
C 30.42760 -0.49204 53.75770
C 17.62189 -0.93038 53.75851
C 30.37805  0.93036 53.75855
C 19.79153  1.94746 54.02895
C 28.20843 -1.94754 54.02907
C 19.93743 -2.22826 54.02904
C 28.06263  2.22822 54.02914
C 21.03262  1.26650 54.14950
C 26.96724 -1.26660 54.14951
C 21.12902 -1.46393 54.14921
C 26.87098  1.46389 54.14922
C 30.24748 -1.11978 55.06224
C 17.75245  1.11973 55.06220
C 30.15259  1.54607 55.06246
C 17.84743 -1.54610 55.06244
C 18.93716  1.89813 55.18285
C 29.06277 -1.89814 55.18292
C 19.08437 -2.23922 55.18419
C 28.91572  2.23918 55.18429
C 21.31194  0.62149 55.38278
C 26.68809 -0.62142 55.38274
C 21.36255 -0.79994 55.38261
C 26.63750  0.79994 55.38266
C 30.68845 -0.48311 56.29240
C 17.31155  0.48301 56.29243
C 30.63710  0.94505 56.29342
C 17.36291 -0.94513 56.29343
C 28.43312 -1.92355 56.46952
C 19.56687  1.92357 56.46947
C 28.28491  2.22119 56.47109
C 19.71521 -2.22118 56.47104
C 27.17258 -1.25872 56.55348
C 20.82739  1.25879 56.55353
C 27.07409  1.46882 56.55457
C 20.92597 -1.46873 56.55464
C 30.44041 -1.11065 57.57866
C 17.55957  1.11061 57.57873
C 17.65606 -1.55474 57.58008
C 30.34394  1.55456 57.58004
C 29.24436 -1.88231 57.64904
C 18.75565  1.88230 57.64906
C 29.09506  2.23780 57.65206
C 18.90497 -2.23791 57.65208
C 26.80105  0.80487 57.77552
C 21.19890 -0.80488 57.77561
C 26.85350 -0.61789 57.77487
C 21.14648  0.61789 57.77495
C 17.22671 -0.94722 58.83224
C 30.77334  0.94707 58.83222
C 17.17478  0.47374 58.83102
C 30.82523 -0.47385 58.83106
C 19.57961 -2.21206 58.92007
C 28.42031  2.21191 58.92003
C 19.42936  1.90716 58.91657
C 28.57066 -1.90713 58.91660
C 20.78720 -1.46562 58.96316
C 27.21275  1.46548 58.96313
C 20.68812  1.25075 58.96060
C 27.31190 -1.25074 58.96052
C 30.53472 -1.10814 60.10871
C 17.46528  1.10812 60.10865
C 30.43636  1.55585 60.11194
C 17.56367 -1.55587 60.11200
C 18.66347  1.88015 60.13094
C 29.33647 -1.88016 60.13097
C 29.18498  2.23831 60.13559
C 18.81497 -2.23845 60.13559
C 21.11001 -0.80409 60.17664
C 26.89004  0.80393 60.17657
C 21.05798  0.61889 60.17557
C 26.94214 -0.61900 60.17555
C 30.87896 -0.47797 61.37172
C 17.12095  0.47798 61.37175
C 28.61669 -1.91839 61.37008
C 19.38337  1.91832 61.37003
C 27.25133  1.46739 61.37472
C 20.74880 -1.46747 61.37490
C 30.82674  0.94927 61.37355
C 17.17331 -0.94927 61.37357
C 27.35149 -1.25987 61.37116
C 20.64856  1.25980 61.37113
C 28.46415  2.21864 61.37503
C 19.53596 -2.21876 61.37503
C 21.10672 -0.79757 62.57202
C 26.89337  0.79750 62.57187
C 21.05525  0.62420 62.57082
C 26.94483 -0.62421 62.57077
C 18.66236  1.88538 62.60936
C 29.33771 -1.88534 62.60939
C 29.18624  2.23429 62.61431
C 18.81396 -2.23439 62.61439
C 30.43653  1.55218 62.63723
C 17.56357 -1.55228 62.63728
C 30.53404 -1.11244 62.63348
C 17.46603  1.11236 62.63352
C 20.78497 -1.45661 63.78642
C 27.21505  1.45647 63.78634
C 20.68633  1.26205 63.78347
C 27.31381 -1.26205 63.78347
C 19.42696  1.91944 63.82482
C 28.57318 -1.91940 63.82487
C 19.57809 -2.20570 63.82973
C 28.42195  2.20563 63.82962
C 17.17477  0.48248 63.91376
C 30.82545 -0.48261 63.91369
C 17.22622 -0.93970 63.91510
C 30.77389  0.93961 63.91494
C 26.85707 -0.63170 64.97030
C 21.14299  0.63168 64.97030
C 26.80577  0.79085 64.97126
C 21.19419 -0.79092 64.97126
C 18.75367  1.89640 65.09290
C 29.24645 -1.89651 65.09292
C 29.09618  2.22820 65.09667
C 18.90372 -2.22829 65.09674
C 17.55885  1.12229 65.16464
C 30.44128 -1.12228 65.16456
C 30.34461  1.54411 65.16728
C 17.65532 -1.54418 65.16737
C 27.17566 -1.27424 66.19219
C 20.82428  1.27416 66.19222
C 27.07660  1.45414 66.19329
C 20.92325 -1.45419 66.19321
C 28.43584 -1.93858 66.27502
C 19.56419  1.93858 66.27510
C 28.28505  2.20829 66.27771
C 19.71491 -2.20836 66.27770
C 30.68757 -0.49561 66.45350
C 17.31242  0.49554 66.45354
C 30.63680  0.93191 66.45384
C 17.36314 -0.93184 66.45384
C 21.30985  0.63776 67.36312
C 26.69007 -0.63782 67.36308
C 21.36107 -0.78493 67.36344
C 26.63886  0.78489 67.36350
C 18.93579  1.91351 67.56271
C 29.06420 -1.91350 67.56267
C 19.08340 -2.22715 67.56347
C 28.91652  2.22720 67.56349
C 30.24888 -1.13318 67.68402
C 17.75111  1.13314 67.68403
C 17.84596 -1.53346 67.68464
C 30.15405  1.53350 67.68461
C 21.03062  1.28097 68.59691
C 26.96939 -1.28103 68.59684
C 21.12702 -1.44826 68.59657
C 26.87304  1.44815 68.59658
C 19.78945  1.96097 68.71735
C 28.21055 -1.96113 68.71735
C 19.93666 -2.21390 68.71745
C 28.06331  2.21389 68.71747
C 17.57251  0.50499 68.98840
C 30.42756 -0.50496 68.98837
C 17.62179 -0.91724 68.98778
C 30.37825  0.91725 68.98773
C 26.46008 -0.64369 69.75965
C 21.53987  0.64361 69.75972
C 26.41135  0.77947 69.76059
C 21.58877 -0.77953 69.76058
C 28.79519 -1.97150 70.02899
C 19.20475  1.97136 70.02899
C 28.65008  2.26685 70.02697
C 19.34989 -2.26688 70.02702
C 29.95403 -1.15595 70.20036
C 18.04603  1.15590 70.20045
C 29.86255  1.53375 70.19940
C 18.13747 -1.53374 70.19949
C 26.69648 -1.29257 70.98985
C 21.30351  1.29245 70.98984
C 26.60601  1.44640 70.98930
C 21.39407 -1.44647 70.98928
C 27.89591 -2.04798 71.14338
C 20.10406  2.04787 71.14332
C 27.75081  2.28200 71.14184
C 20.24920 -2.28211 71.14187
C 30.04470 -0.52265 71.50548
C 17.95530  0.52265 71.50555
C 29.99830  0.90746 71.50439
C 18.00164 -0.90754 71.50447
C 21.78103  0.63957 72.15916
C 26.21898 -0.63976 72.15919
C 21.82600 -0.76746 72.16007
C 26.17407  0.76727 72.15997
C 19.57603  2.07166 72.48565
C 28.42406 -2.07180 72.48580
C 19.71943 -2.34615 72.48211
C 28.28060  2.34608 72.48214
C 18.48348  1.18467 72.68356
C 29.51657 -1.18473 72.68368
C 18.56978 -1.53469 72.68191
C 29.43020  1.53455 72.68185
C 21.69959  1.45833 73.33828
C 26.30054 -1.45839 73.33828
C 21.79489 -1.59299 73.33760
C 26.20516  1.59291 73.33759
C 20.53538  2.20377 73.55898
C 27.46467 -2.20389 73.55904
C 20.68356 -2.41521 73.55627
C 27.31649  2.41517 73.55639
C 24.68432  0.02077 74.38443
C 23.31572 -0.02078 74.38447
C 25.25462  1.31596 74.31116
C 22.74533 -1.31599 74.31122
C 25.33364 -1.23669 74.31052
C 22.66645  1.23674 74.31064
C 18.54608  0.53673 73.97553
C 29.45395 -0.53682 73.97560
C 18.59026 -0.88546 73.97472
C 29.40976  0.88539 73.97467
C 27.84186 -2.19455 74.96923
C 20.15809  2.19457 74.96921
C 23.22519  2.27100 75.13832
C 24.77484 -2.27090 75.13823
C 23.36633 -2.31529 75.13778
C 24.63369  2.31532 75.13778
C 27.69559  2.43759 74.96597
C 20.30454 -2.43776 74.96586
C 28.88694 -1.22196 75.12187
C 19.11298  1.22185 75.12185
C 28.80234  1.53642 75.11980
C 19.19776 -1.53651 75.11981
C 22.42213  2.91749 76.09217
C 25.57785 -2.91746 76.09212
C 25.39295  3.01420 76.09092
C 22.60714 -3.01428 76.09085
C 20.99908  2.57703 76.08897
C 27.00086 -2.57697 76.08898
C 21.16520 -2.76910 76.08656
C 26.83493  2.76898 76.08661
C 19.12963 -0.87050 76.37143
C 28.87040  0.87036 76.37140
C 19.08738  0.54966 76.37162
C 28.91263 -0.54977 76.37161
C 23.16816  3.34272 77.25366
C 24.83191 -3.34276 77.25362
C 23.37906 -3.39198 77.25241
C 24.62099  3.39195 77.25256
C 27.51908 -2.32352 77.39718
C 20.48090  2.32361 77.39722
C 27.37066  2.55814 77.39511
C 20.62941 -2.55820 77.39502
C 19.64644 -1.53577 77.51545
C 28.35367  1.53566 77.51544
C 19.56480  1.24089 77.51670
C 28.43529 -1.24091 77.51669
C 25.31458  3.48347 78.50058
C 22.68551 -3.48346 78.50046
C 25.52862 -3.38245 78.50211
C 22.47140  3.38242 78.50209
C 26.83628 -2.79919 78.56153
C 21.16373  2.79921 78.56156
C 26.65938  2.99215 78.55951
C 21.34072 -2.99207 78.55942
C 28.46980  0.86067 78.75208
C 19.53032 -0.86073 78.75211
C 28.51090 -0.55716 78.75196
C 19.48925  0.55711 78.75200
C 23.40337 -3.70998 79.71880
C 24.59663  3.70994 79.71880
C 23.17152  3.65806 79.71972
C 24.82846 -3.65809 79.71974
C 27.34449 -2.41615 79.83732
C 20.65552  2.41608 79.83734
C 27.19163  2.64695 79.83659
C 20.80852 -2.64686 79.83657
C 28.06959  1.53692 79.92253
C 19.93042 -1.53694 79.92261
C 28.15159 -1.25390 79.92310
C 19.84844  1.25383 79.92319
C 25.51132 -3.58463 80.97927
C 22.48862  3.58455 80.97929
C 25.28185  3.68739 80.97884
C 22.71817 -3.68746 80.97884
C 26.76656 -2.92476 81.03318
C 21.23336  2.92473 81.03321
C 26.58077  3.11746 81.03234
C 21.41926 -3.11756 81.03234
C 28.26516 -0.56139 81.15284
C 19.73486  0.56127 81.15292
C 28.22315  0.85397 81.15307
C 19.77693 -0.85406 81.15318
C 28.00347 -1.26447 82.34535
C 24.83426 -3.84587 82.20898
C 20.88893 -2.70741 82.28986
C 19.99660  1.26434 82.34540
C 23.16570  3.84578 82.20902
C 27.11105  2.70719 82.28980
C 27.27081 -2.48007 82.28948
C 23.41361 -3.89813 82.20880
C 20.08085 -1.54089 82.34575
C 20.72921  2.47994 82.28953
C 24.58634  3.89803 82.20880
C 27.91919  1.54070 82.34571
C 28.13311 -0.56511 83.56882
C 26.54717  3.19236 83.49876
C 22.48371  3.71464 83.46060
C 19.86691  0.56499 83.56884
C 21.45278 -3.19247 83.49884
C 25.51622 -3.71466 83.46056
C 28.09115  0.85172 83.56971
C 25.27383  3.81676 83.46131
C 21.25755  3.00212 83.49832
C 19.90884 -0.85185 83.56971
C 22.72609 -3.81685 83.46132
C 26.74242 -3.00222 83.49830
C 27.83877  1.54237 84.77722
C 24.58001  4.00663 84.69585
C 20.76532  2.51116 84.74350
C 20.16118 -1.54245 84.77723
C 23.41991 -4.00657 84.69589
C 27.23456 -2.51118 84.74351
C 27.06973  2.73649 84.74509
C 23.16020  3.95435 84.69586
C 20.07633  1.26947 84.77644
C 20.93025 -2.73655 84.74512
C 24.83971 -3.95426 84.69582
C 27.92366 -1.26952 84.77648
C 28.07151 -0.56695 85.99632
C 26.52747  3.22545 85.96153
C 22.47819  3.77775 85.93848
C 19.92843  0.56697 85.99627
C 21.47251 -3.22540 85.96159
C 25.52167 -3.77762 85.93846
C 28.02840  0.84985 85.99712
C 25.26995  3.87951 85.93978
C 21.26985  3.03662 85.96020
C 19.97156 -0.84983 85.99711
C 22.73002 -3.87950 85.93988
C 26.72998 -3.03648 85.96023
C 27.78975  1.53635 87.21374
C 24.57236  4.03690 87.17644
C 20.79210  2.51253 87.19749
C 20.21024 -1.53624 87.21380
C 23.42759 -4.03701 87.17651
C 27.20773 -2.51239 87.19750
C 27.03617  2.73368 87.19941
C 23.15841  3.98567 87.17636
C 20.11977  1.26765 87.21283
C 20.96382 -2.73357 87.19946
C 24.84150 -3.98563 87.17636
C 27.87998 -1.26754 87.21287
C 28.00054 -0.58167 88.44119
C 26.50030  3.17496 88.43255
C 22.51307  3.75612 88.42171
C 19.99933  0.58168 88.44119
C 21.49963 -3.17502 88.43258
C 25.48686 -3.75622 88.42174
C 27.95258  0.85881 88.44179
C 25.22663  3.85178 88.42387
C 21.28988  2.99114 88.43222
C 20.04744 -0.85879 88.44189
C 22.77333 -3.85182 88.42393
C 26.71001 -2.99110 88.43220
C 27.77178  1.52390 89.67837
C 24.56616  4.02841 89.67837
C 20.79437  2.50451 89.67837
C 20.22822 -1.52390 89.67837
C 23.43384 -4.02841 89.67837
C 27.20563 -2.50451 89.67837
C 27.02311  2.72202 89.67837
C 23.15421  3.97910 89.67837
C 20.13110  1.25708 89.67837
C 20.97689 -2.72202 89.67837
C 24.84579 -3.97910 89.67837
C 27.86890 -1.25708 89.67837
C 28.02841 16.43384 34.36520
C 26.50451 20.20563 34.36520
C 22.47610 20.77178 34.36520
C 19.97159 17.56616 34.36520
C 21.49549 13.79437 34.36520
C 25.52390 13.22822 34.36520
C 27.97910 17.84578 34.36520
C 25.25708 20.86890 34.36520
C 21.27798 20.02311 34.36520
C 20.02090 16.15421 34.36520
C 22.74292 13.13110 34.36520
C 26.72202 13.97689 34.36520
C 27.87834 18.58785 35.52868
C 24.54990 21.07414 35.56357
C 20.80122 19.54692 35.59358
C 20.12156 15.41204 35.52862
C 23.45008 12.92596 35.56356
C 27.19890 14.45313 35.59354
C 27.12016 19.79184 35.53960
C 23.11936 20.96937 35.60745
C 20.07201 18.31173 35.53623
C 20.87993 14.20822 35.53967
C 24.88068 13.03076 35.60745
C 27.92802 15.68834 35.53626
C 28.12131 16.43579 36.74312
C 26.56421 20.27470 36.77160
C 22.47485 20.76778 36.84593
C 19.87868 17.56422 36.74300
C 21.43573 13.72541 36.77177
C 25.52519 13.23228 36.84592
C 28.09238 17.86269 36.73985
C 25.28705 20.90840 36.79299
C 21.26525 20.03700 36.82840
C 19.90752 16.13736 36.73975
C 22.71304 13.09161 36.79309
C 26.73484 13.96306 36.82820
C 27.86768 18.56117 37.96280
C 24.59423 21.00498 38.05076
C 20.75794 19.48811 38.03124
C 20.13227 15.43888 37.96272
C 23.40571 12.99500 38.05086
C 27.24219 14.51189 38.03118
C 27.09659 19.75537 37.99305
C 23.17810 20.93952 38.07470
C 20.05864 18.25550 37.97691
C 20.90347 14.24462 37.99314
C 24.82187 13.06040 38.07468
C 27.94144 15.74466 37.97701
C 28.14494 16.45319 39.18129
C 26.56947 20.20368 39.24176
C 22.49871 20.68836 39.30157
C 19.85509 17.54678 39.18116
C 21.43054 13.79643 39.24187
C 25.50124 13.31157 39.30144
C 28.10931 17.87194 39.17466
C 25.28951 20.81821 39.28366
C 21.26883 19.97416 39.26639
C 19.89064 16.12811 39.17453
C 22.71050 13.18185 39.28378
C 26.73113 14.02589 39.26637
C 27.93612 18.55885 40.40022
C 24.59875 20.89096 40.53713
C 20.73945 19.45198 40.46945
C 20.06377 15.44111 40.40003
C 23.40121 13.10904 40.53728
C 27.26050 14.54803 40.46946
C 27.13130 19.72320 40.45418
C 23.18162 20.82437 40.54624
C 20.00026 18.24392 40.40544
C 20.86887 14.27688 40.45422
C 24.81840 13.17543 40.54624
C 27.99956 15.75612 40.40555
C 28.26404 16.45630 41.60041
C 19.73595 17.54361 41.60030
C 28.23332 17.87054 41.59739
C 19.76675 16.12936 41.59729
C 26.59668 20.13129 41.71493
C 21.40337 13.86873 41.71500
C 26.75320 14.09868 41.72362
C 21.24680 19.90122 41.72363
C 25.49946 13.43708 41.77529
C 22.50058 20.56275 41.77527
C 25.29452 20.68986 41.77086
C 22.70545 13.31014 41.77102
C 28.14544 15.76265 42.82742
C 19.85456 18.23722 42.82730
C 28.08037 18.55195 42.82677
C 19.91959 15.44809 42.82669
C 27.33416 14.60288 42.91560
C 20.66585 19.39700 42.91556
C 27.20383 19.66286 42.91146
C 20.79605 14.33708 42.91152
C 23.39477 13.29045 43.02855
C 24.60539 20.70962 43.02848
C 24.81940 13.35340 43.03111
C 23.18075 20.64646 43.03107
C 28.50760 16.45662 43.99972
C 19.49240 17.54333 43.99956
C 28.47328 17.87158 43.99876
C 19.52680 16.12836 43.99861
C 26.82566 14.21582 44.19012
C 21.17447 19.78401 44.19016
C 26.66488 20.00353 44.18925
C 21.33515 13.99646 44.18925
C 25.32168 20.48789 44.24910
C 22.67842 13.51223 44.24918
C 25.52276 13.62935 44.24840
C 22.47737 20.37056 44.24839
C 19.56965 18.22995 45.23464
C 28.43025 15.77013 45.23478
C 19.64283 15.45302 45.23583
C 28.35719 18.54703 45.23584
C 27.51208 14.68822 45.35463
C 20.48781 19.31172 45.35446
C 27.37429 19.56951 45.35574
C 20.62574 14.43056 45.35573
C 23.37521 13.60706 45.49746
C 24.62492 20.39321 45.49746
C 23.17248 20.33833 45.49831
C 24.82768 13.66191 45.49840
C 28.87134 17.88005 46.37774
C 19.12864 16.12000 46.37762
C 28.90994 16.46023 46.37777
C 19.08994 17.53975 46.37770
C 26.99619 14.43132 46.66030
C 21.00373 19.56871 46.66013
C 21.16499 14.22247 46.66111
C 26.83514 19.77766 46.66117
C 25.57624 14.08311 46.65880
C 22.42371 19.91693 46.65868
C 25.39449 20.02066 46.65941
C 22.60554 13.97963 46.65934
C 28.88231 15.78752 47.62841
C 19.11764 18.21242 47.62833
C 28.80315 18.54800 47.62915
C 19.19691 15.45205 47.62908
C 27.83998 14.81599 47.78075
C 20.16002 19.18399 47.78064
C 23.36669 14.67902 47.61424
C 24.63329 19.32099 47.61415
C 23.22766 19.27518 47.61680
C 24.77228 14.72476 47.61698
C 27.69809 19.44613 47.78256
C 20.30197 14.55385 47.78246
C 18.58972 16.10366 48.77446
C 18.54805 17.52644 48.77414
C 29.41021 17.89626 48.77444
C 29.45184 16.47356 48.77415
C 25.25568 18.31655 48.43343
C 22.74435 15.68336 48.43343
C 25.33207 15.76517 48.43748
C 22.66798 18.23486 48.43735
C 24.68529 17.02223 48.35655
C 23.31482 16.97770 48.35651
C 20.53587 19.19630 49.19098
C 27.46423 14.80369 49.19113
C 20.68463 14.57585 49.19033
C 27.31544 19.42404 49.19041
C 21.70154 18.45214 49.41168
C 26.29855 15.54778 49.41177
C 21.79485 15.40195 49.40770
C 26.20511 18.59806 49.40782
C 18.48469 18.17357 50.06463
C 29.51533 15.82646 50.06455
C 18.57031 15.45424 50.06514
C 29.42962 18.54574 50.06508
C 19.57693 19.06169 50.26309
C 28.42323 14.93825 50.26313
C 19.72108 14.64379 50.26386
C 28.27891 19.35621 50.26400
C 21.78310 17.63096 50.58735
C 26.21702 16.36894 50.58734
C 21.82702 16.22338 50.58556
C 26.17302 17.77651 50.58564
C 30.04315 16.48978 51.24248
C 17.95684 17.51021 51.24253
C 29.99659 17.91819 51.24321
C 18.00335 16.08172 51.24319
C 27.89480 14.96499 51.60507
C 20.10535 19.03487 51.60510
C 27.74973 19.29205 51.60418
C 20.25034 14.70790 51.60410
C 26.69674 15.72008 51.75758
C 21.30339 18.27978 51.75762
C 26.60523 18.45771 51.75583
C 21.39492 15.54212 51.75586
C 29.95370 15.85585 52.54749
C 18.04631 18.14408 52.54753
C 29.86209 18.54613 52.54798
C 18.13789 15.45375 52.54797
C 28.79402 15.04033 52.71937
C 19.20605 18.95960 52.71929
C 28.64904 19.27904 52.72024
C 19.35106 14.72092 52.72019
C 26.45923 16.37028 52.98745
C 21.54065 17.62957 52.98747
C 26.40939 17.79413 52.98658
C 21.59076 16.20571 52.98660
C 17.57235 17.49204 53.75769
C 30.42760 16.50796 53.75770
C 17.62189 16.06962 53.75851
C 30.37805 17.93036 53.75855
C 19.79153 18.94746 54.02895
C 28.20843 15.05246 54.02907
C 19.93743 14.77174 54.02904
C 28.06263 19.22822 54.02914
C 21.03262 18.26650 54.14950
C 26.96724 15.73340 54.14951
C 21.12902 15.53607 54.14921
C 26.87098 18.46389 54.14922
C 30.24748 15.88022 55.06224
C 17.75245 18.11973 55.06220
C 30.15259 18.54607 55.06246
C 17.84743 15.45390 55.06244
C 18.93716 18.89813 55.18285
C 29.06277 15.10186 55.18292
C 19.08437 14.76078 55.18419
C 28.91572 19.23918 55.18429
C 21.31194 17.62149 55.38278
C 26.68809 16.37858 55.38274
C 21.36255 16.20006 55.38261
C 26.63750 17.79994 55.38266
C 30.68845 16.51689 56.29240
C 17.31155 17.48301 56.29243
C 30.63710 17.94505 56.29342
C 17.36291 16.05487 56.29343
C 28.43312 15.07645 56.46952
C 19.56687 18.92357 56.46947
C 28.28491 19.22119 56.47109
C 19.71521 14.77882 56.47104
C 27.17258 15.74128 56.55348
C 20.82739 18.25879 56.55353
C 27.07409 18.46882 56.55457
C 20.92597 15.53127 56.55464
C 30.44041 15.88935 57.57866
C 17.55957 18.11061 57.57873
C 17.65606 15.44526 57.58008
C 30.34394 18.55456 57.58004
C 29.24436 15.11769 57.64904
C 18.75565 18.88230 57.64906
C 29.09506 19.23780 57.65206
C 18.90497 14.76209 57.65208
C 26.80105 17.80487 57.77552
C 21.19890 16.19512 57.77561
C 26.85350 16.38211 57.77487
C 21.14648 17.61789 57.77495
C 17.22671 16.05278 58.83224
C 30.77334 17.94707 58.83222
C 17.17478 17.47374 58.83102
C 30.82523 16.52615 58.83106
C 19.57961 14.78794 58.92007
C 28.42031 19.21191 58.92003
C 19.42936 18.90716 58.91657
C 28.57066 15.09287 58.91660
C 20.78720 15.53438 58.96316
C 27.21275 18.46548 58.96313
C 20.68812 18.25075 58.96060
C 27.31190 15.74926 58.96052
C 30.53472 15.89186 60.10871
C 17.46528 18.10812 60.10865
C 30.43636 18.55585 60.11194
C 17.56367 15.44413 60.11200
C 18.66347 18.88015 60.13094
C 29.33647 15.11984 60.13097
C 29.18498 19.23831 60.13559
C 18.81497 14.76155 60.13559
C 21.11001 16.19591 60.17664
C 26.89004 17.80393 60.17657
C 21.05798 17.61889 60.17557
C 26.94214 16.38100 60.17555
C 30.87896 16.52203 61.37172
C 17.12095 17.47798 61.37175
C 28.61669 15.08161 61.37008
C 19.38337 18.91832 61.37003
C 27.25133 18.46739 61.37472
C 20.74880 15.53253 61.37490
C 30.82674 17.94927 61.37355
C 17.17331 16.05073 61.37357
C 27.35149 15.74013 61.37116
C 20.64856 18.25980 61.37113
C 28.46415 19.21864 61.37503
C 19.53596 14.78124 61.37503
C 21.10672 16.20243 62.57202
C 26.89337 17.79750 62.57187
C 21.05525 17.62420 62.57082
C 26.94483 16.37579 62.57077
C 18.66236 18.88538 62.60936
C 29.33771 15.11466 62.60939
C 29.18624 19.23429 62.61431
C 18.81396 14.76561 62.61439
C 30.43653 18.55218 62.63723
C 17.56357 15.44772 62.63728
C 30.53404 15.88756 62.63348
C 17.46603 18.11236 62.63352
C 20.78497 15.54339 63.78642
C 27.21505 18.45647 63.78634
C 20.68633 18.26205 63.78347
C 27.31381 15.73795 63.78347
C 19.42696 18.91944 63.82482
C 28.57318 15.08060 63.82487
C 19.57809 14.79430 63.82973
C 28.42195 19.20563 63.82962
C 17.17477 17.48248 63.91376
C 30.82545 16.51739 63.91369
C 17.22622 16.06030 63.91510
C 30.77389 17.93961 63.91494
C 26.85707 16.36830 64.97030
C 21.14299 17.63168 64.97030
C 26.80577 17.79085 64.97126
C 21.19419 16.20908 64.97126
C 18.75367 18.89640 65.09290
C 29.24645 15.10349 65.09292
C 29.09618 19.22820 65.09667
C 18.90372 14.77171 65.09674
C 17.55885 18.12229 65.16464
C 30.44128 15.87772 65.16456
C 30.34461 18.54411 65.16728
C 17.65532 15.45582 65.16737
C 27.17566 15.72576 66.19219
C 20.82428 18.27416 66.19222
C 27.07660 18.45414 66.19329
C 20.92325 15.54581 66.19321
C 28.43584 15.06142 66.27502
C 19.56419 18.93858 66.27510
C 28.28505 19.20829 66.27771
C 19.71491 14.79164 66.27770
C 30.68757 16.50439 66.45350
C 17.31242 17.49554 66.45354
C 30.63680 17.93191 66.45384
C 17.36314 16.06816 66.45384
C 21.30985 17.63776 67.36312
C 26.69007 16.36218 67.36308
C 21.36107 16.21507 67.36344
C 26.63886 17.78489 67.36350
C 18.93579 18.91351 67.56271
C 29.06420 15.08650 67.56267
C 19.08340 14.77285 67.56347
C 28.91652 19.22720 67.56349
C 30.24888 15.86682 67.68402
C 17.75111 18.13314 67.68403
C 17.84596 15.46654 67.68464
C 30.15405 18.53350 67.68461
C 21.03062 18.28097 68.59691
C 26.96939 15.71897 68.59684
C 21.12702 15.55174 68.59657
C 26.87304 18.44815 68.59658
C 19.78945 18.96097 68.71735
C 28.21055 15.03887 68.71735
C 19.93666 14.78610 68.71745
C 28.06331 19.21389 68.71747
C 17.57251 17.50499 68.98840
C 30.42756 16.49504 68.98837
C 17.62179 16.08276 68.98778
C 30.37825 17.91725 68.98773
C 26.46008 16.35631 69.75965
C 21.53987 17.64361 69.75972
C 26.41135 17.77947 69.76059
C 21.58877 16.22047 69.76058
C 28.79519 15.02850 70.02899
C 19.20475 18.97136 70.02899
C 28.65008 19.26685 70.02697
C 19.34989 14.73312 70.02702
C 29.95403 15.84405 70.20036
C 18.04603 18.15590 70.20045
C 29.86255 18.53375 70.19940
C 18.13747 15.46626 70.19949
C 26.69648 15.70743 70.98985
C 21.30351 18.29245 70.98984
C 26.60601 18.44640 70.98930
C 21.39407 15.55353 70.98928
C 27.89591 14.95202 71.14338
C 20.10406 19.04787 71.14332
C 27.75081 19.28200 71.14184
C 20.24920 14.71789 71.14187
C 30.04470 16.47735 71.50548
C 17.95530 17.52265 71.50555
C 29.99830 17.90746 71.50439
C 18.00164 16.09246 71.50447
C 21.78103 17.63957 72.15916
C 26.21898 16.36024 72.15919
C 21.82600 16.23254 72.16007
C 26.17407 17.76727 72.15997
C 19.57603 19.07166 72.48565
C 28.42406 14.92820 72.48580
C 19.71943 14.65385 72.48211
C 28.28060 19.34608 72.48214
C 18.48348 18.18467 72.68356
C 29.51657 15.81527 72.68368
C 18.56978 15.46531 72.68191
C 29.43020 18.53455 72.68185
C 21.69959 18.45833 73.33828
C 26.30054 15.54161 73.33828
C 21.79489 15.40701 73.33760
C 26.20516 18.59291 73.33759
C 20.53538 19.20377 73.55898
C 27.46467 14.79611 73.55904
C 20.68356 14.58479 73.55627
C 27.31649 19.41517 73.55639
C 24.68432 17.02077 74.38443
C 23.31572 16.97922 74.38447
C 25.25462 18.31596 74.31116
C 22.74533 15.68401 74.31122
C 25.33364 15.76331 74.31052
C 22.66645 18.23674 74.31064
C 18.54608 17.53673 73.97553
C 29.45395 16.46318 73.97560
C 18.59026 16.11454 73.97472
C 29.40976 17.88539 73.97467
C 27.84186 14.80545 74.96923
C 20.15809 19.19457 74.96921
C 23.22519 19.27100 75.13832
C 24.77484 14.72910 75.13823
C 23.36633 14.68471 75.13778
C 24.63369 19.31532 75.13778
C 27.69559 19.43759 74.96597
C 20.30454 14.56224 74.96586
C 28.88694 15.77804 75.12187
C 19.11298 18.22185 75.12185
C 28.80234 18.53642 75.11980
C 19.19776 15.46349 75.11981
C 22.42213 19.91749 76.09217
C 25.57785 14.08254 76.09212
C 25.39295 20.01420 76.09092
C 22.60714 13.98572 76.09085
C 20.99908 19.57703 76.08897
C 27.00086 14.42303 76.08898
C 21.16520 14.23090 76.08656
C 26.83493 19.76898 76.08661
C 19.12963 16.12950 76.37143
C 28.87040 17.87036 76.37140
C 19.08738 17.54966 76.37162
C 28.91263 16.45023 76.37161
C 23.16816 20.34272 77.25366
C 24.83191 13.65724 77.25362
C 23.37906 13.60802 77.25241
C 24.62099 20.39195 77.25256
C 27.51908 14.67648 77.39718
C 20.48090 19.32361 77.39722
C 27.37066 19.55814 77.39511
C 20.62941 14.44180 77.39502
C 19.64644 15.46423 77.51545
C 28.35367 18.53566 77.51544
C 19.56480 18.24089 77.51670
C 28.43529 15.75909 77.51669
C 25.31458 20.48347 78.50058
C 22.68551 13.51654 78.50046
C 25.52862 13.61755 78.50211
C 22.47140 20.38242 78.50209
C 26.83628 14.20081 78.56153
C 21.16373 19.79921 78.56156
C 26.65938 19.99215 78.55951
C 21.34072 14.00793 78.55942
C 28.46980 17.86067 78.75208
C 19.53032 16.13927 78.75211
C 28.51090 16.44284 78.75196
C 19.48925 17.55711 78.75200
C 23.40337 13.29002 79.71880
C 24.59663 20.70994 79.71880
C 23.17152 20.65806 79.71972
C 24.82846 13.34191 79.71974
C 27.34449 14.58385 79.83732
C 20.65552 19.41608 79.83734
C 27.19163 19.64695 79.83659
C 20.80852 14.35314 79.83657
C 28.06959 18.53692 79.92253
C 19.93042 15.46306 79.92261
C 28.15159 15.74610 79.92310
C 19.84844 18.25383 79.92319
C 25.51132 13.41537 80.97927
C 22.48862 20.58455 80.97929
C 25.28185 20.68739 80.97884
C 22.71817 13.31254 80.97884
C 26.76656 14.07524 81.03318
C 21.23336 19.92473 81.03321
C 26.58077 20.11746 81.03234
C 21.41926 13.88244 81.03234
C 28.26516 16.43861 81.15284
C 19.73486 17.56127 81.15292
C 28.22315 17.85397 81.15307
C 19.77693 16.14594 81.15318
C 28.00347 15.73553 82.34535
C 24.83426 13.15413 82.20898
C 20.88893 14.29259 82.28986
C 19.99660 18.26434 82.34540
C 23.16570 20.84578 82.20902
C 27.11105 19.70719 82.28980
C 27.27081 14.51993 82.28948
C 23.41361 13.10187 82.20880
C 20.08085 15.45911 82.34575
C 20.72921 19.47994 82.28953
C 24.58634 20.89803 82.20880
C 27.91919 18.54070 82.34571
C 28.13311 16.43489 83.56882
C 26.54717 20.19236 83.49876
C 22.48371 20.71464 83.46060
C 19.86691 17.56499 83.56884
C 21.45278 13.80753 83.49884
C 25.51622 13.28534 83.46056
C 28.09115 17.85172 83.56971
C 25.27383 20.81676 83.46131
C 21.25755 20.00212 83.49832
C 19.90884 16.14815 83.56971
C 22.72609 13.18315 83.46132
C 26.74242 13.99778 83.49830
C 27.83877 18.54237 84.77722
C 24.58001 21.00663 84.69585
C 20.76532 19.51116 84.74350
C 20.16118 15.45755 84.77723
C 23.41991 12.99343 84.69589
C 27.23456 14.48882 84.74351
C 27.06973 19.73649 84.74509
C 23.16020 20.95435 84.69586
C 20.07633 18.26947 84.77644
C 20.93025 14.26345 84.74512
C 24.83971 13.04574 84.69582
C 27.92366 15.73048 84.77648
C 28.07151 16.43305 85.99632
C 26.52747 20.22545 85.96153
C 22.47819 20.77775 85.93848
C 19.92843 17.56697 85.99627
C 21.47251 13.77460 85.96159
C 25.52167 13.22238 85.93846
C 28.02840 17.84985 85.99712
C 25.26995 20.87951 85.93978
C 21.26985 20.03662 85.96020
C 19.97156 16.15017 85.99711
C 22.73002 13.12050 85.93988
C 26.72998 13.96352 85.96023
C 27.78975 18.53635 87.21374
C 24.57236 21.03690 87.17644
C 20.79210 19.51253 87.19749
C 20.21024 15.46376 87.21380
C 23.42759 12.96299 87.17651
C 27.20773 14.48761 87.19750
C 27.03617 19.73368 87.19941
C 23.15841 20.98567 87.17636
C 20.11977 18.26765 87.21283
C 20.96382 14.26643 87.19946
C 24.84150 13.01437 87.17636
C 27.87998 15.73246 87.21287
C 28.00054 16.41833 88.44119
C 26.50030 20.17496 88.43255
C 22.51307 20.75612 88.42171
C 19.99933 17.58168 88.44119
C 21.49963 13.82498 88.43258
C 25.48686 13.24378 88.42174
C 27.95258 17.85881 88.44179
C 25.22663 20.85178 88.42387
C 21.28988 19.99114 88.43222
C 20.04744 16.14121 88.44189
C 22.77333 13.14818 88.42393
C 26.71001 14.00890 88.43220
C 27.77178 18.52390 89.67837
C 24.56616 21.02841 89.67837
C 20.79437 19.50451 89.67837
C 20.22822 15.47610 89.67837
C 23.43384 12.97159 89.67837
C 27.20563 14.49549 89.67837
C 27.02311 19.72202 89.67837
C 23.15421 20.97910 89.67837
C 20.13110 18.25708 89.67837
C 20.97689 14.27798 89.67837
C 24.84579 13.02090 89.67837
C 27.86890 15.74292 89.67837
