27000

N -17.83500 -17.83500 -17.83500
C -17.83500 -16.05150 -16.05150
C -16.05150 -17.83500 -16.05150
C -16.05150 -16.05150 -17.83500
C -16.94325 -16.94325 -16.94325
C -16.94325 -15.15975 -15.15975
C -15.15975 -16.94325 -15.15975
C -15.15975 -15.15975 -16.94325
C -17.83500 -17.83500 -14.26800
C -17.83500 -16.05150 -12.48450
C -16.05150 -17.83500 -12.48450
C -16.05150 -16.05150 -14.26800
C -16.94325 -16.94325 -13.37625
C -16.94325 -15.15975 -11.59275
C -15.15975 -16.94325 -11.59275
C -15.15975 -15.15975 -13.37625
C -17.83500 -17.83500 -10.70100
C -17.83500 -16.05150 -8.91750
C -16.05150 -17.83500 -8.91750
C -16.05150 -16.05150 -10.70100
C -16.94325 -16.94325 -9.80925
C -16.94325 -15.15975 -8.02575
C -15.15975 -16.94325 -8.02575
C -15.15975 -15.15975 -9.80925
C -17.83500 -17.83500 -7.13400
C -17.83500 -16.05150 -5.35050
C -16.05150 -17.83500 -5.35050
C -16.05150 -16.05150 -7.13400
C -16.94325 -16.94325 -6.24225
C -16.94325 -15.15975 -4.45875
C -15.15975 -16.94325 -4.45875
C -15.15975 -15.15975 -6.24225
C -17.83500 -17.83500 -3.56700
C -17.83500 -16.05150 -1.78350
C -16.05150 -17.83500 -1.78350
C -16.05150 -16.05150 -3.56700
C -16.94325 -16.94325 -2.67525
C -16.94325 -15.15975 -0.89175
C -15.15975 -16.94325 -0.89175
C -15.15975 -15.15975 -2.67525
C -17.83500 -14.26800 -17.83500
C -17.83500 -12.48450 -16.05150
C -16.05150 -14.26800 -16.05150
C -16.05150 -12.48450 -17.83500
C -16.94325 -13.37625 -16.94325
C -16.94325 -11.59275 -15.15975
C -15.15975 -13.37625 -15.15975
C -15.15975 -11.59275 -16.94325
C -17.83500 -14.26800 -14.26800
C -17.83500 -12.48450 -12.48450
C -16.05150 -14.26800 -12.48450
C -16.05150 -12.48450 -14.26800
C -16.94325 -13.37625 -13.37625
C -16.94325 -11.59275 -11.59275
C -15.15975 -13.37625 -11.59275
C -15.15975 -11.59275 -13.37625
C -17.83500 -14.26800 -10.70100
C -17.83500 -12.48450 -8.91750
C -16.05150 -14.26800 -8.91750
C -16.05150 -12.48450 -10.70100
C -16.94325 -13.37625 -9.80925
C -16.94325 -11.59275 -8.02575
C -15.15975 -13.37625 -8.02575
C -15.15975 -11.59275 -9.80925
C -17.83500 -14.26800 -7.13400
C -17.83500 -12.48450 -5.35050
C -16.05150 -14.26800 -5.35050
C -16.05150 -12.48450 -7.13400
C -16.94325 -13.37625 -6.24225
C -16.94325 -11.59275 -4.45875
C -15.15975 -13.37625 -4.45875
C -15.15975 -11.59275 -6.24225
C -17.83500 -14.26800 -3.56700
C -17.83500 -12.48450 -1.78350
C -16.05150 -14.26800 -1.78350
C -16.05150 -12.48450 -3.56700
C -16.94325 -13.37625 -2.67525
C -16.94325 -11.59275 -0.89175
C -15.15975 -13.37625 -0.89175
C -15.15975 -11.59275 -2.67525
C -17.83500 -10.70100 -17.83500
C -17.83500 -8.91750 -16.05150
C -16.05150 -10.70100 -16.05150
C -16.05150 -8.91750 -17.83500
C -16.94325 -9.80925 -16.94325
C -16.94325 -8.02575 -15.15975
C -15.15975 -9.80925 -15.15975
C -15.15975 -8.02575 -16.94325
C -17.83500 -10.70100 -14.26800
C -17.83500 -8.91750 -12.48450
C -16.05150 -10.70100 -12.48450
C -16.05150 -8.91750 -14.26800
C -16.94325 -9.80925 -13.37625
C -16.94325 -8.02575 -11.59275
C -15.15975 -9.80925 -11.59275
C -15.15975 -8.02575 -13.37625
C -17.83500 -10.70100 -10.70100
C -17.83500 -8.91750 -8.91750
C -16.05150 -10.70100 -8.91750
C -16.05150 -8.91750 -10.70100
C -16.94325 -9.80925 -9.80925
C -16.94325 -8.02575 -8.02575
C -15.15975 -9.80925 -8.02575
C -15.15975 -8.02575 -9.80925
C -17.83500 -10.70100 -7.13400
C -17.83500 -8.91750 -5.35050
C -16.05150 -10.70100 -5.35050
C -16.05150 -8.91750 -7.13400
C -16.94325 -9.80925 -6.24225
C -16.94325 -8.02575 -4.45875
C -15.15975 -9.80925 -4.45875
C -15.15975 -8.02575 -6.24225
C -17.83500 -10.70100 -3.56700
C -17.83500 -8.91750 -1.78350
C -16.05150 -10.70100 -1.78350
C -16.05150 -8.91750 -3.56700
C -16.94325 -9.80925 -2.67525
C -16.94325 -8.02575 -0.89175
C -15.15975 -9.80925 -0.89175
C -15.15975 -8.02575 -2.67525
C -17.83500 -7.13400 -17.83500
C -17.83500 -5.35050 -16.05150
C -16.05150 -7.13400 -16.05150
C -16.05150 -5.35050 -17.83500
C -16.94325 -6.24225 -16.94325
C -16.94325 -4.45875 -15.15975
C -15.15975 -6.24225 -15.15975
C -15.15975 -4.45875 -16.94325
C -17.83500 -7.13400 -14.26800
C -17.83500 -5.35050 -12.48450
C -16.05150 -7.13400 -12.48450
C -16.05150 -5.35050 -14.26800
C -16.94325 -6.24225 -13.37625
C -16.94325 -4.45875 -11.59275
C -15.15975 -6.24225 -11.59275
C -15.15975 -4.45875 -13.37625
C -17.83500 -7.13400 -10.70100
C -17.83500 -5.35050 -8.91750
C -16.05150 -7.13400 -8.91750
C -16.05150 -5.35050 -10.70100
C -16.94325 -6.24225 -9.80925
C -16.94325 -4.45875 -8.02575
C -15.15975 -6.24225 -8.02575
C -15.15975 -4.45875 -9.80925
C -17.83500 -7.13400 -7.13400
C -17.83500 -5.35050 -5.35050
C -16.05150 -7.13400 -5.35050
C -16.05150 -5.35050 -7.13400
C -16.94325 -6.24225 -6.24225
C -16.94325 -4.45875 -4.45875
C -15.15975 -6.24225 -4.45875
C -15.15975 -4.45875 -6.24225
C -17.83500 -7.13400 -3.56700
C -17.83500 -5.35050 -1.78350
C -16.05150 -7.13400 -1.78350
C -16.05150 -5.35050 -3.56700
C -16.94325 -6.24225 -2.67525
C -16.94325 -4.45875 -0.89175
C -15.15975 -6.24225 -0.89175
C -15.15975 -4.45875 -2.67525
C -17.83500 -3.56700 -17.83500
C -17.83500 -1.78350 -16.05150
C -16.05150 -3.56700 -16.05150
C -16.05150 -1.78350 -17.83500
C -16.94325 -2.67525 -16.94325
C -16.94325 -0.89175 -15.15975
C -15.15975 -2.67525 -15.15975
C -15.15975 -0.89175 -16.94325
C -17.83500 -3.56700 -14.26800
C -17.83500 -1.78350 -12.48450
C -16.05150 -3.56700 -12.48450
C -16.05150 -1.78350 -14.26800
C -16.94325 -2.67525 -13.37625
C -16.94325 -0.89175 -11.59275
C -15.15975 -2.67525 -11.59275
C -15.15975 -0.89175 -13.37625
C -17.83500 -3.56700 -10.70100
C -17.83500 -1.78350 -8.91750
C -16.05150 -3.56700 -8.91750
C -16.05150 -1.78350 -10.70100
C -16.94325 -2.67525 -9.80925
C -16.94325 -0.89175 -8.02575
C -15.15975 -2.67525 -8.02575
C -15.15975 -0.89175 -9.80925
C -17.83500 -3.56700 -7.13400
C -17.83500 -1.78350 -5.35050
C -16.05150 -3.56700 -5.35050
C -16.05150 -1.78350 -7.13400
C -16.94325 -2.67525 -6.24225
C -16.94325 -0.89175 -4.45875
C -15.15975 -2.67525 -4.45875
C -15.15975 -0.89175 -6.24225
C -17.83500 -3.56700 -3.56700
C -17.83500 -1.78350 -1.78350
C -16.05150 -3.56700 -1.78350
C -16.05150 -1.78350 -3.56700
C -16.94325 -2.67525 -2.67525
C -16.94325 -0.89175 -0.89175
C -15.15975 -2.67525 -0.89175
C -15.15975 -0.89175 -2.67525
C -14.26800 -17.83500 -17.83500
C -14.26800 -16.05150 -16.05150
C -12.48450 -17.83500 -16.05150
C -12.48450 -16.05150 -17.83500
C -13.37625 -16.94325 -16.94325
C -13.37625 -15.15975 -15.15975
C -11.59275 -16.94325 -15.15975
C -11.59275 -15.15975 -16.94325
C -14.26800 -17.83500 -14.26800
C -14.26800 -16.05150 -12.48450
C -12.48450 -17.83500 -12.48450
C -12.48450 -16.05150 -14.26800
C -13.37625 -16.94325 -13.37625
C -13.37625 -15.15975 -11.59275
C -11.59275 -16.94325 -11.59275
C -11.59275 -15.15975 -13.37625
C -14.26800 -17.83500 -10.70100
C -14.26800 -16.05150 -8.91750
C -12.48450 -17.83500 -8.91750
C -12.48450 -16.05150 -10.70100
C -13.37625 -16.94325 -9.80925
C -13.37625 -15.15975 -8.02575
C -11.59275 -16.94325 -8.02575
C -11.59275 -15.15975 -9.80925
C -14.26800 -17.83500 -7.13400
C -14.26800 -16.05150 -5.35050
C -12.48450 -17.83500 -5.35050
C -12.48450 -16.05150 -7.13400
C -13.37625 -16.94325 -6.24225
C -13.37625 -15.15975 -4.45875
C -11.59275 -16.94325 -4.45875
C -11.59275 -15.15975 -6.24225
C -14.26800 -17.83500 -3.56700
C -14.26800 -16.05150 -1.78350
C -12.48450 -17.83500 -1.78350
C -12.48450 -16.05150 -3.56700
C -13.37625 -16.94325 -2.67525
C -13.37625 -15.15975 -0.89175
C -11.59275 -16.94325 -0.89175
C -11.59275 -15.15975 -2.67525
C -14.26800 -14.26800 -17.83500
C -14.26800 -12.48450 -16.05150
C -12.48450 -14.26800 -16.05150
C -12.48450 -12.48450 -17.83500
C -13.37625 -13.37625 -16.94325
C -13.37625 -11.59275 -15.15975
C -11.59275 -13.37625 -15.15975
C -11.59275 -11.59275 -16.94325
C -14.26800 -14.26800 -14.26800
C -14.26800 -12.48450 -12.48450
C -12.48450 -14.26800 -12.48450
C -12.48450 -12.48450 -14.26800
C -13.37625 -13.37625 -13.37625
C -13.37625 -11.59275 -11.59275
C -11.59275 -13.37625 -11.59275
C -11.59275 -11.59275 -13.37625
C -14.26800 -14.26800 -10.70100
C -14.26800 -12.48450 -8.91750
C -12.48450 -14.26800 -8.91750
C -12.48450 -12.48450 -10.70100
C -13.37625 -13.37625 -9.80925
C -13.37625 -11.59275 -8.02575
C -11.59275 -13.37625 -8.02575
C -11.59275 -11.59275 -9.80925
C -14.26800 -14.26800 -7.13400
C -14.26800 -12.48450 -5.35050
C -12.48450 -14.26800 -5.35050
C -12.48450 -12.48450 -7.13400
C -13.37625 -13.37625 -6.24225
C -13.37625 -11.59275 -4.45875
C -11.59275 -13.37625 -4.45875
C -11.59275 -11.59275 -6.24225
C -14.26800 -14.26800 -3.56700
C -14.26800 -12.48450 -1.78350
C -12.48450 -14.26800 -1.78350
C -12.48450 -12.48450 -3.56700
C -13.37625 -13.37625 -2.67525
C -13.37625 -11.59275 -0.89175
C -11.59275 -13.37625 -0.89175
C -11.59275 -11.59275 -2.67525
C -14.26800 -10.70100 -17.83500
C -14.26800 -8.91750 -16.05150
C -12.48450 -10.70100 -16.05150
C -12.48450 -8.91750 -17.83500
C -13.37625 -9.80925 -16.94325
C -13.37625 -8.02575 -15.15975
C -11.59275 -9.80925 -15.15975
C -11.59275 -8.02575 -16.94325
C -14.26800 -10.70100 -14.26800
C -14.26800 -8.91750 -12.48450
C -12.48450 -10.70100 -12.48450
C -12.48450 -8.91750 -14.26800
C -13.37625 -9.80925 -13.37625
C -13.37625 -8.02575 -11.59275
C -11.59275 -9.80925 -11.59275
C -11.59275 -8.02575 -13.37625
C -14.26800 -10.70100 -10.70100
C -14.26800 -8.91750 -8.91750
C -12.48450 -10.70100 -8.91750
C -12.48450 -8.91750 -10.70100
C -13.37625 -9.80925 -9.80925
C -13.37625 -8.02575 -8.02575
C -11.59275 -9.80925 -8.02575
C -11.59275 -8.02575 -9.80925
C -14.26800 -10.70100 -7.13400
C -14.26800 -8.91750 -5.35050
C -12.48450 -10.70100 -5.35050
C -12.48450 -8.91750 -7.13400
C -13.37625 -9.80925 -6.24225
C -13.37625 -8.02575 -4.45875
C -11.59275 -9.80925 -4.45875
C -11.59275 -8.02575 -6.24225
C -14.26800 -10.70100 -3.56700
C -14.26800 -8.91750 -1.78350
C -12.48450 -10.70100 -1.78350
C -12.48450 -8.91750 -3.56700
C -13.37625 -9.80925 -2.67525
C -13.37625 -8.02575 -0.89175
C -11.59275 -9.80925 -0.89175
C -11.59275 -8.02575 -2.67525
C -14.26800 -7.13400 -17.83500
C -14.26800 -5.35050 -16.05150
C -12.48450 -7.13400 -16.05150
C -12.48450 -5.35050 -17.83500
C -13.37625 -6.24225 -16.94325
C -13.37625 -4.45875 -15.15975
C -11.59275 -6.24225 -15.15975
C -11.59275 -4.45875 -16.94325
C -14.26800 -7.13400 -14.26800
C -14.26800 -5.35050 -12.48450
C -12.48450 -7.13400 -12.48450
C -12.48450 -5.35050 -14.26800
C -13.37625 -6.24225 -13.37625
C -13.37625 -4.45875 -11.59275
C -11.59275 -6.24225 -11.59275
C -11.59275 -4.45875 -13.37625
C -14.26800 -7.13400 -10.70100
C -14.26800 -5.35050 -8.91750
C -12.48450 -7.13400 -8.91750
C -12.48450 -5.35050 -10.70100
C -13.37625 -6.24225 -9.80925
C -13.37625 -4.45875 -8.02575
C -11.59275 -6.24225 -8.02575
C -11.59275 -4.45875 -9.80925
C -14.26800 -7.13400 -7.13400
C -14.26800 -5.35050 -5.35050
C -12.48450 -7.13400 -5.35050
C -12.48450 -5.35050 -7.13400
C -13.37625 -6.24225 -6.24225
C -13.37625 -4.45875 -4.45875
C -11.59275 -6.24225 -4.45875
C -11.59275 -4.45875 -6.24225
C -14.26800 -7.13400 -3.56700
C -14.26800 -5.35050 -1.78350
C -12.48450 -7.13400 -1.78350
C -12.48450 -5.35050 -3.56700
C -13.37625 -6.24225 -2.67525
C -13.37625 -4.45875 -0.89175
C -11.59275 -6.24225 -0.89175
C -11.59275 -4.45875 -2.67525
C -14.26800 -3.56700 -17.83500
C -14.26800 -1.78350 -16.05150
C -12.48450 -3.56700 -16.05150
C -12.48450 -1.78350 -17.83500
C -13.37625 -2.67525 -16.94325
C -13.37625 -0.89175 -15.15975
C -11.59275 -2.67525 -15.15975
C -11.59275 -0.89175 -16.94325
C -14.26800 -3.56700 -14.26800
C -14.26800 -1.78350 -12.48450
C -12.48450 -3.56700 -12.48450
C -12.48450 -1.78350 -14.26800
C -13.37625 -2.67525 -13.37625
C -13.37625 -0.89175 -11.59275
C -11.59275 -2.67525 -11.59275
C -11.59275 -0.89175 -13.37625
C -14.26800 -3.56700 -10.70100
C -14.26800 -1.78350 -8.91750
C -12.48450 -3.56700 -8.91750
C -12.48450 -1.78350 -10.70100
C -13.37625 -2.67525 -9.80925
C -13.37625 -0.89175 -8.02575
C -11.59275 -2.67525 -8.02575
C -11.59275 -0.89175 -9.80925
C -14.26800 -3.56700 -7.13400
C -14.26800 -1.78350 -5.35050
C -12.48450 -3.56700 -5.35050
C -12.48450 -1.78350 -7.13400
C -13.37625 -2.67525 -6.24225
C -13.37625 -0.89175 -4.45875
C -11.59275 -2.67525 -4.45875
C -11.59275 -0.89175 -6.24225
C -14.26800 -3.56700 -3.56700
C -14.26800 -1.78350 -1.78350
C -12.48450 -3.56700 -1.78350
C -12.48450 -1.78350 -3.56700
C -13.37625 -2.67525 -2.67525
C -13.37625 -0.89175 -0.89175
C -11.59275 -2.67525 -0.89175
C -11.59275 -0.89175 -2.67525
C -10.70100 -17.83500 -17.83500
C -10.70100 -16.05150 -16.05150
C -8.91750 -17.83500 -16.05150
C -8.91750 -16.05150 -17.83500
C -9.80925 -16.94325 -16.94325
C -9.80925 -15.15975 -15.15975
C -8.02575 -16.94325 -15.15975
C -8.02575 -15.15975 -16.94325
C -10.70100 -17.83500 -14.26800
C -10.70100 -16.05150 -12.48450
C -8.91750 -17.83500 -12.48450
C -8.91750 -16.05150 -14.26800
C -9.80925 -16.94325 -13.37625
C -9.80925 -15.15975 -11.59275
C -8.02575 -16.94325 -11.59275
C -8.02575 -15.15975 -13.37625
C -10.70100 -17.83500 -10.70100
C -10.70100 -16.05150 -8.91750
C -8.91750 -17.83500 -8.91750
C -8.91750 -16.05150 -10.70100
C -9.80925 -16.94325 -9.80925
C -9.80925 -15.15975 -8.02575
C -8.02575 -16.94325 -8.02575
C -8.02575 -15.15975 -9.80925
C -10.70100 -17.83500 -7.13400
C -10.70100 -16.05150 -5.35050
C -8.91750 -17.83500 -5.35050
C -8.91750 -16.05150 -7.13400
C -9.80925 -16.94325 -6.24225
C -9.80925 -15.15975 -4.45875
C -8.02575 -16.94325 -4.45875
C -8.02575 -15.15975 -6.24225
C -10.70100 -17.83500 -3.56700
C -10.70100 -16.05150 -1.78350
C -8.91750 -17.83500 -1.78350
C -8.91750 -16.05150 -3.56700
C -9.80925 -16.94325 -2.67525
C -9.80925 -15.15975 -0.89175
C -8.02575 -16.94325 -0.89175
C -8.02575 -15.15975 -2.67525
C -10.70100 -14.26800 -17.83500
C -10.70100 -12.48450 -16.05150
C -8.91750 -14.26800 -16.05150
C -8.91750 -12.48450 -17.83500
C -9.80925 -13.37625 -16.94325
C -9.80925 -11.59275 -15.15975
C -8.02575 -13.37625 -15.15975
C -8.02575 -11.59275 -16.94325
C -10.70100 -14.26800 -14.26800
C -10.70100 -12.48450 -12.48450
C -8.91750 -14.26800 -12.48450
C -8.91750 -12.48450 -14.26800
C -9.80925 -13.37625 -13.37625
C -9.80925 -11.59275 -11.59275
C -8.02575 -13.37625 -11.59275
C -8.02575 -11.59275 -13.37625
C -10.70100 -14.26800 -10.70100
C -10.70100 -12.48450 -8.91750
C -8.91750 -14.26800 -8.91750
C -8.91750 -12.48450 -10.70100
C -9.80925 -13.37625 -9.80925
C -9.80925 -11.59275 -8.02575
C -8.02575 -13.37625 -8.02575
C -8.02575 -11.59275 -9.80925
C -10.70100 -14.26800 -7.13400
C -10.70100 -12.48450 -5.35050
C -8.91750 -14.26800 -5.35050
C -8.91750 -12.48450 -7.13400
C -9.80925 -13.37625 -6.24225
C -9.80925 -11.59275 -4.45875
C -8.02575 -13.37625 -4.45875
C -8.02575 -11.59275 -6.24225
C -10.70100 -14.26800 -3.56700
C -10.70100 -12.48450 -1.78350
C -8.91750 -14.26800 -1.78350
C -8.91750 -12.48450 -3.56700
C -9.80925 -13.37625 -2.67525
C -9.80925 -11.59275 -0.89175
C -8.02575 -13.37625 -0.89175
C -8.02575 -11.59275 -2.67525
C -10.70100 -10.70100 -17.83500
C -10.70100 -8.91750 -16.05150
C -8.91750 -10.70100 -16.05150
C -8.91750 -8.91750 -17.83500
C -9.80925 -9.80925 -16.94325
C -9.80925 -8.02575 -15.15975
C -8.02575 -9.80925 -15.15975
C -8.02575 -8.02575 -16.94325
C -10.70100 -10.70100 -14.26800
C -10.70100 -8.91750 -12.48450
C -8.91750 -10.70100 -12.48450
C -8.91750 -8.91750 -14.26800
C -9.80925 -9.80925 -13.37625
C -9.80925 -8.02575 -11.59275
C -8.02575 -9.80925 -11.59275
C -8.02575 -8.02575 -13.37625
C -10.70100 -10.70100 -10.70100
C -10.70100 -8.91750 -8.91750
C -8.91750 -10.70100 -8.91750
C -8.91750 -8.91750 -10.70100
C -9.80925 -9.80925 -9.80925
C -9.80925 -8.02575 -8.02575
C -8.02575 -9.80925 -8.02575
C -8.02575 -8.02575 -9.80925
C -10.70100 -10.70100 -7.13400
C -10.70100 -8.91750 -5.35050
C -8.91750 -10.70100 -5.35050
C -8.91750 -8.91750 -7.13400
C -9.80925 -9.80925 -6.24225
C -9.80925 -8.02575 -4.45875
C -8.02575 -9.80925 -4.45875
C -8.02575 -8.02575 -6.24225
C -10.70100 -10.70100 -3.56700
C -10.70100 -8.91750 -1.78350
C -8.91750 -10.70100 -1.78350
C -8.91750 -8.91750 -3.56700
C -9.80925 -9.80925 -2.67525
C -9.80925 -8.02575 -0.89175
C -8.02575 -9.80925 -0.89175
C -8.02575 -8.02575 -2.67525
C -10.70100 -7.13400 -17.83500
C -10.70100 -5.35050 -16.05150
C -8.91750 -7.13400 -16.05150
C -8.91750 -5.35050 -17.83500
C -9.80925 -6.24225 -16.94325
C -9.80925 -4.45875 -15.15975
C -8.02575 -6.24225 -15.15975
C -8.02575 -4.45875 -16.94325
C -10.70100 -7.13400 -14.26800
C -10.70100 -5.35050 -12.48450
C -8.91750 -7.13400 -12.48450
C -8.91750 -5.35050 -14.26800
C -9.80925 -6.24225 -13.37625
C -9.80925 -4.45875 -11.59275
C -8.02575 -6.24225 -11.59275
C -8.02575 -4.45875 -13.37625
C -10.70100 -7.13400 -10.70100
C -10.70100 -5.35050 -8.91750
C -8.91750 -7.13400 -8.91750
C -8.91750 -5.35050 -10.70100
C -9.80925 -6.24225 -9.80925
C -9.80925 -4.45875 -8.02575
C -8.02575 -6.24225 -8.02575
C -8.02575 -4.45875 -9.80925
C -10.70100 -7.13400 -7.13400
C -10.70100 -5.35050 -5.35050
C -8.91750 -7.13400 -5.35050
C -8.91750 -5.35050 -7.13400
C -9.80925 -6.24225 -6.24225
C -9.80925 -4.45875 -4.45875
C -8.02575 -6.24225 -4.45875
C -8.02575 -4.45875 -6.24225
C -10.70100 -7.13400 -3.56700
C -10.70100 -5.35050 -1.78350
C -8.91750 -7.13400 -1.78350
C -8.91750 -5.35050 -3.56700
C -9.80925 -6.24225 -2.67525
C -9.80925 -4.45875 -0.89175
C -8.02575 -6.24225 -0.89175
C -8.02575 -4.45875 -2.67525
C -10.70100 -3.56700 -17.83500
C -10.70100 -1.78350 -16.05150
C -8.91750 -3.56700 -16.05150
C -8.91750 -1.78350 -17.83500
C -9.80925 -2.67525 -16.94325
C -9.80925 -0.89175 -15.15975
C -8.02575 -2.67525 -15.15975
C -8.02575 -0.89175 -16.94325
C -10.70100 -3.56700 -14.26800
C -10.70100 -1.78350 -12.48450
C -8.91750 -3.56700 -12.48450
C -8.91750 -1.78350 -14.26800
C -9.80925 -2.67525 -13.37625
C -9.80925 -0.89175 -11.59275
C -8.02575 -2.67525 -11.59275
C -8.02575 -0.89175 -13.37625
C -10.70100 -3.56700 -10.70100
C -10.70100 -1.78350 -8.91750
C -8.91750 -3.56700 -8.91750
C -8.91750 -1.78350 -10.70100
C -9.80925 -2.67525 -9.80925
C -9.80925 -0.89175 -8.02575
C -8.02575 -2.67525 -8.02575
C -8.02575 -0.89175 -9.80925
C -10.70100 -3.56700 -7.13400
C -10.70100 -1.78350 -5.35050
C -8.91750 -3.56700 -5.35050
C -8.91750 -1.78350 -7.13400
C -9.80925 -2.67525 -6.24225
C -9.80925 -0.89175 -4.45875
C -8.02575 -2.67525 -4.45875
C -8.02575 -0.89175 -6.24225
C -10.70100 -3.56700 -3.56700
C -10.70100 -1.78350 -1.78350
C -8.91750 -3.56700 -1.78350
C -8.91750 -1.78350 -3.56700
C -9.80925 -2.67525 -2.67525
C -9.80925 -0.89175 -0.89175
C -8.02575 -2.67525 -0.89175
C -8.02575 -0.89175 -2.67525
C -7.13400 -17.83500 -17.83500
C -7.13400 -16.05150 -16.05150
C -5.35050 -17.83500 -16.05150
C -5.35050 -16.05150 -17.83500
C -6.24225 -16.94325 -16.94325
C -6.24225 -15.15975 -15.15975
C -4.45875 -16.94325 -15.15975
C -4.45875 -15.15975 -16.94325
C -7.13400 -17.83500 -14.26800
C -7.13400 -16.05150 -12.48450
C -5.35050 -17.83500 -12.48450
C -5.35050 -16.05150 -14.26800
C -6.24225 -16.94325 -13.37625
C -6.24225 -15.15975 -11.59275
C -4.45875 -16.94325 -11.59275
C -4.45875 -15.15975 -13.37625
C -7.13400 -17.83500 -10.70100
C -7.13400 -16.05150 -8.91750
C -5.35050 -17.83500 -8.91750
C -5.35050 -16.05150 -10.70100
C -6.24225 -16.94325 -9.80925
C -6.24225 -15.15975 -8.02575
C -4.45875 -16.94325 -8.02575
C -4.45875 -15.15975 -9.80925
C -7.13400 -17.83500 -7.13400
C -7.13400 -16.05150 -5.35050
C -5.35050 -17.83500 -5.35050
C -5.35050 -16.05150 -7.13400
C -6.24225 -16.94325 -6.24225
C -6.24225 -15.15975 -4.45875
C -4.45875 -16.94325 -4.45875
C -4.45875 -15.15975 -6.24225
C -7.13400 -17.83500 -3.56700
C -7.13400 -16.05150 -1.78350
C -5.35050 -17.83500 -1.78350
C -5.35050 -16.05150 -3.56700
C -6.24225 -16.94325 -2.67525
C -6.24225 -15.15975 -0.89175
C -4.45875 -16.94325 -0.89175
C -4.45875 -15.15975 -2.67525
C -7.13400 -14.26800 -17.83500
C -7.13400 -12.48450 -16.05150
C -5.35050 -14.26800 -16.05150
C -5.35050 -12.48450 -17.83500
C -6.24225 -13.37625 -16.94325
C -6.24225 -11.59275 -15.15975
C -4.45875 -13.37625 -15.15975
C -4.45875 -11.59275 -16.94325
C -7.13400 -14.26800 -14.26800
C -7.13400 -12.48450 -12.48450
C -5.35050 -14.26800 -12.48450
C -5.35050 -12.48450 -14.26800
C -6.24225 -13.37625 -13.37625
C -6.24225 -11.59275 -11.59275
C -4.45875 -13.37625 -11.59275
C -4.45875 -11.59275 -13.37625
C -7.13400 -14.26800 -10.70100
C -7.13400 -12.48450 -8.91750
C -5.35050 -14.26800 -8.91750
C -5.35050 -12.48450 -10.70100
C -6.24225 -13.37625 -9.80925
C -6.24225 -11.59275 -8.02575
C -4.45875 -13.37625 -8.02575
C -4.45875 -11.59275 -9.80925
C -7.13400 -14.26800 -7.13400
C -7.13400 -12.48450 -5.35050
C -5.35050 -14.26800 -5.35050
C -5.35050 -12.48450 -7.13400
C -6.24225 -13.37625 -6.24225
C -6.24225 -11.59275 -4.45875
C -4.45875 -13.37625 -4.45875
C -4.45875 -11.59275 -6.24225
C -7.13400 -14.26800 -3.56700
C -7.13400 -12.48450 -1.78350
C -5.35050 -14.26800 -1.78350
C -5.35050 -12.48450 -3.56700
C -6.24225 -13.37625 -2.67525
C -6.24225 -11.59275 -0.89175
C -4.45875 -13.37625 -0.89175
C -4.45875 -11.59275 -2.67525
C -7.13400 -10.70100 -17.83500
C -7.13400 -8.91750 -16.05150
C -5.35050 -10.70100 -16.05150
C -5.35050 -8.91750 -17.83500
C -6.24225 -9.80925 -16.94325
C -6.24225 -8.02575 -15.15975
C -4.45875 -9.80925 -15.15975
C -4.45875 -8.02575 -16.94325
C -7.13400 -10.70100 -14.26800
C -7.13400 -8.91750 -12.48450
C -5.35050 -10.70100 -12.48450
C -5.35050 -8.91750 -14.26800
C -6.24225 -9.80925 -13.37625
C -6.24225 -8.02575 -11.59275
C -4.45875 -9.80925 -11.59275
C -4.45875 -8.02575 -13.37625
C -7.13400 -10.70100 -10.70100
C -7.13400 -8.91750 -8.91750
C -5.35050 -10.70100 -8.91750
C -5.35050 -8.91750 -10.70100
C -6.24225 -9.80925 -9.80925
C -6.24225 -8.02575 -8.02575
C -4.45875 -9.80925 -8.02575
C -4.45875 -8.02575 -9.80925
C -7.13400 -10.70100 -7.13400
C -7.13400 -8.91750 -5.35050
C -5.35050 -10.70100 -5.35050
C -5.35050 -8.91750 -7.13400
C -6.24225 -9.80925 -6.24225
C -6.24225 -8.02575 -4.45875
C -4.45875 -9.80925 -4.45875
C -4.45875 -8.02575 -6.24225
C -7.13400 -10.70100 -3.56700
C -7.13400 -8.91750 -1.78350
C -5.35050 -10.70100 -1.78350
C -5.35050 -8.91750 -3.56700
C -6.24225 -9.80925 -2.67525
C -6.24225 -8.02575 -0.89175
C -4.45875 -9.80925 -0.89175
C -4.45875 -8.02575 -2.67525
C -7.13400 -7.13400 -17.83500
C -7.13400 -5.35050 -16.05150
C -5.35050 -7.13400 -16.05150
C -5.35050 -5.35050 -17.83500
C -6.24225 -6.24225 -16.94325
C -6.24225 -4.45875 -15.15975
C -4.45875 -6.24225 -15.15975
C -4.45875 -4.45875 -16.94325
C -7.13400 -7.13400 -14.26800
C -7.13400 -5.35050 -12.48450
C -5.35050 -7.13400 -12.48450
C -5.35050 -5.35050 -14.26800
C -6.24225 -6.24225 -13.37625
C -6.24225 -4.45875 -11.59275
C -4.45875 -6.24225 -11.59275
C -4.45875 -4.45875 -13.37625
C -7.13400 -7.13400 -10.70100
C -7.13400 -5.35050 -8.91750
C -5.35050 -7.13400 -8.91750
C -5.35050 -5.35050 -10.70100
C -6.24225 -6.24225 -9.80925
C -6.24225 -4.45875 -8.02575
C -4.45875 -6.24225 -8.02575
C -4.45875 -4.45875 -9.80925
C -7.13400 -7.13400 -7.13400
C -7.13400 -5.35050 -5.35050
C -5.35050 -7.13400 -5.35050
C -5.35050 -5.35050 -7.13400
C -6.24225 -6.24225 -6.24225
C -6.24225 -4.45875 -4.45875
C -4.45875 -6.24225 -4.45875
C -4.45875 -4.45875 -6.24225
C -7.13400 -7.13400 -3.56700
C -7.13400 -5.35050 -1.78350
C -5.35050 -7.13400 -1.78350
C -5.35050 -5.35050 -3.56700
C -6.24225 -6.24225 -2.67525
C -6.24225 -4.45875 -0.89175
C -4.45875 -6.24225 -0.89175
C -4.45875 -4.45875 -2.67525
C -7.13400 -3.56700 -17.83500
C -7.13400 -1.78350 -16.05150
C -5.35050 -3.56700 -16.05150
C -5.35050 -1.78350 -17.83500
C -6.24225 -2.67525 -16.94325
C -6.24225 -0.89175 -15.15975
C -4.45875 -2.67525 -15.15975
C -4.45875 -0.89175 -16.94325
C -7.13400 -3.56700 -14.26800
C -7.13400 -1.78350 -12.48450
C -5.35050 -3.56700 -12.48450
C -5.35050 -1.78350 -14.26800
C -6.24225 -2.67525 -13.37625
C -6.24225 -0.89175 -11.59275
C -4.45875 -2.67525 -11.59275
C -4.45875 -0.89175 -13.37625
C -7.13400 -3.56700 -10.70100
C -7.13400 -1.78350 -8.91750
C -5.35050 -3.56700 -8.91750
C -5.35050 -1.78350 -10.70100
C -6.24225 -2.67525 -9.80925
C -6.24225 -0.89175 -8.02575
C -4.45875 -2.67525 -8.02575
C -4.45875 -0.89175 -9.80925
C -7.13400 -3.56700 -7.13400
C -7.13400 -1.78350 -5.35050
C -5.35050 -3.56700 -5.35050
C -5.35050 -1.78350 -7.13400
C -6.24225 -2.67525 -6.24225
C -6.24225 -0.89175 -4.45875
C -4.45875 -2.67525 -4.45875
C -4.45875 -0.89175 -6.24225
C -7.13400 -3.56700 -3.56700
C -7.13400 -1.78350 -1.78350
C -5.35050 -3.56700 -1.78350
C -5.35050 -1.78350 -3.56700
C -6.24225 -2.67525 -2.67525
C -6.24225 -0.89175 -0.89175
C -4.45875 -2.67525 -0.89175
C -4.45875 -0.89175 -2.67525
C -3.56700 -17.83500 -17.83500
C -3.56700 -16.05150 -16.05150
C -1.78350 -17.83500 -16.05150
C -1.78350 -16.05150 -17.83500
C -2.67525 -16.94325 -16.94325
C -2.67525 -15.15975 -15.15975
C -0.89175 -16.94325 -15.15975
C -0.89175 -15.15975 -16.94325
C -3.56700 -17.83500 -14.26800
C -3.56700 -16.05150 -12.48450
C -1.78350 -17.83500 -12.48450
C -1.78350 -16.05150 -14.26800
C -2.67525 -16.94325 -13.37625
C -2.67525 -15.15975 -11.59275
C -0.89175 -16.94325 -11.59275
C -0.89175 -15.15975 -13.37625
C -3.56700 -17.83500 -10.70100
C -3.56700 -16.05150 -8.91750
C -1.78350 -17.83500 -8.91750
C -1.78350 -16.05150 -10.70100
C -2.67525 -16.94325 -9.80925
C -2.67525 -15.15975 -8.02575
C -0.89175 -16.94325 -8.02575
C -0.89175 -15.15975 -9.80925
C -3.56700 -17.83500 -7.13400
C -3.56700 -16.05150 -5.35050
C -1.78350 -17.83500 -5.35050
C -1.78350 -16.05150 -7.13400
C -2.67525 -16.94325 -6.24225
C -2.67525 -15.15975 -4.45875
C -0.89175 -16.94325 -4.45875
C -0.89175 -15.15975 -6.24225
C -3.56700 -17.83500 -3.56700
C -3.56700 -16.05150 -1.78350
C -1.78350 -17.83500 -1.78350
C -1.78350 -16.05150 -3.56700
C -2.67525 -16.94325 -2.67525
C -2.67525 -15.15975 -0.89175
C -0.89175 -16.94325 -0.89175
C -0.89175 -15.15975 -2.67525
C -3.56700 -14.26800 -17.83500
C -3.56700 -12.48450 -16.05150
C -1.78350 -14.26800 -16.05150
C -1.78350 -12.48450 -17.83500
C -2.67525 -13.37625 -16.94325
C -2.67525 -11.59275 -15.15975
C -0.89175 -13.37625 -15.15975
C -0.89175 -11.59275 -16.94325
C -3.56700 -14.26800 -14.26800
C -3.56700 -12.48450 -12.48450
C -1.78350 -14.26800 -12.48450
C -1.78350 -12.48450 -14.26800
C -2.67525 -13.37625 -13.37625
C -2.67525 -11.59275 -11.59275
C -0.89175 -13.37625 -11.59275
C -0.89175 -11.59275 -13.37625
C -3.56700 -14.26800 -10.70100
C -3.56700 -12.48450 -8.91750
C -1.78350 -14.26800 -8.91750
C -1.78350 -12.48450 -10.70100
C -2.67525 -13.37625 -9.80925
C -2.67525 -11.59275 -8.02575
C -0.89175 -13.37625 -8.02575
C -0.89175 -11.59275 -9.80925
C -3.56700 -14.26800 -7.13400
C -3.56700 -12.48450 -5.35050
C -1.78350 -14.26800 -5.35050
C -1.78350 -12.48450 -7.13400
C -2.67525 -13.37625 -6.24225
C -2.67525 -11.59275 -4.45875
C -0.89175 -13.37625 -4.45875
C -0.89175 -11.59275 -6.24225
C -3.56700 -14.26800 -3.56700
C -3.56700 -12.48450 -1.78350
C -1.78350 -14.26800 -1.78350
C -1.78350 -12.48450 -3.56700
C -2.67525 -13.37625 -2.67525
C -2.67525 -11.59275 -0.89175
C -0.89175 -13.37625 -0.89175
C -0.89175 -11.59275 -2.67525
C -3.56700 -10.70100 -17.83500
C -3.56700 -8.91750 -16.05150
C -1.78350 -10.70100 -16.05150
C -1.78350 -8.91750 -17.83500
C -2.67525 -9.80925 -16.94325
C -2.67525 -8.02575 -15.15975
C -0.89175 -9.80925 -15.15975
C -0.89175 -8.02575 -16.94325
C -3.56700 -10.70100 -14.26800
C -3.56700 -8.91750 -12.48450
C -1.78350 -10.70100 -12.48450
C -1.78350 -8.91750 -14.26800
C -2.67525 -9.80925 -13.37625
C -2.67525 -8.02575 -11.59275
C -0.89175 -9.80925 -11.59275
C -0.89175 -8.02575 -13.37625
C -3.56700 -10.70100 -10.70100
C -3.56700 -8.91750 -8.91750
C -1.78350 -10.70100 -8.91750
C -1.78350 -8.91750 -10.70100
C -2.67525 -9.80925 -9.80925
C -2.67525 -8.02575 -8.02575
C -0.89175 -9.80925 -8.02575
C -0.89175 -8.02575 -9.80925
C -3.56700 -10.70100 -7.13400
C -3.56700 -8.91750 -5.35050
C -1.78350 -10.70100 -5.35050
C -1.78350 -8.91750 -7.13400
C -2.67525 -9.80925 -6.24225
C -2.67525 -8.02575 -4.45875
C -0.89175 -9.80925 -4.45875
C -0.89175 -8.02575 -6.24225
C -3.56700 -10.70100 -3.56700
C -3.56700 -8.91750 -1.78350
C -1.78350 -10.70100 -1.78350
C -1.78350 -8.91750 -3.56700
C -2.67525 -9.80925 -2.67525
C -2.67525 -8.02575 -0.89175
C -0.89175 -9.80925 -0.89175
C -0.89175 -8.02575 -2.67525
C -3.56700 -7.13400 -17.83500
C -3.56700 -5.35050 -16.05150
C -1.78350 -7.13400 -16.05150
C -1.78350 -5.35050 -17.83500
C -2.67525 -6.24225 -16.94325
C -2.67525 -4.45875 -15.15975
C -0.89175 -6.24225 -15.15975
C -0.89175 -4.45875 -16.94325
C -3.56700 -7.13400 -14.26800
C -3.56700 -5.35050 -12.48450
C -1.78350 -7.13400 -12.48450
C -1.78350 -5.35050 -14.26800
C -2.67525 -6.24225 -13.37625
C -2.67525 -4.45875 -11.59275
C -0.89175 -6.24225 -11.59275
C -0.89175 -4.45875 -13.37625
C -3.56700 -7.13400 -10.70100
C -3.56700 -5.35050 -8.91750
C -1.78350 -7.13400 -8.91750
C -1.78350 -5.35050 -10.70100
C -2.67525 -6.24225 -9.80925
C -2.67525 -4.45875 -8.02575
C -0.89175 -6.24225 -8.02575
C -0.89175 -4.45875 -9.80925
C -3.56700 -7.13400 -7.13400
C -3.56700 -5.35050 -5.35050
C -1.78350 -7.13400 -5.35050
C -1.78350 -5.35050 -7.13400
C -2.67525 -6.24225 -6.24225
C -2.67525 -4.45875 -4.45875
C -0.89175 -6.24225 -4.45875
C -0.89175 -4.45875 -6.24225
C -3.56700 -7.13400 -3.56700
C -3.56700 -5.35050 -1.78350
C -1.78350 -7.13400 -1.78350
C -1.78350 -5.35050 -3.56700
C -2.67525 -6.24225 -2.67525
C -2.67525 -4.45875 -0.89175
C -0.89175 -6.24225 -0.89175
C -0.89175 -4.45875 -2.67525
C -3.56700 -3.56700 -17.83500
C -3.56700 -1.78350 -16.05150
C -1.78350 -3.56700 -16.05150
C -1.78350 -1.78350 -17.83500
C -2.67525 -2.67525 -16.94325
C -2.67525 -0.89175 -15.15975
C -0.89175 -2.67525 -15.15975
C -0.89175 -0.89175 -16.94325
C -3.56700 -3.56700 -14.26800
C -3.56700 -1.78350 -12.48450
C -1.78350 -3.56700 -12.48450
C -1.78350 -1.78350 -14.26800
C -2.67525 -2.67525 -13.37625
C -2.67525 -0.89175 -11.59275
C -0.89175 -2.67525 -11.59275
C -0.89175 -0.89175 -13.37625
C -3.56700 -3.56700 -10.70100
C -3.56700 -1.78350 -8.91750
C -1.78350 -3.56700 -8.91750
C -1.78350 -1.78350 -10.70100
C -2.67525 -2.67525 -9.80925
C -2.67525 -0.89175 -8.02575
C -0.89175 -2.67525 -8.02575
C -0.89175 -0.89175 -9.80925
C -3.56700 -3.56700 -7.13400
C -3.56700 -1.78350 -5.35050
C -1.78350 -3.56700 -5.35050
C -1.78350 -1.78350 -7.13400
C -2.67525 -2.67525 -6.24225
C -2.67525 -0.89175 -4.45875
C -0.89175 -2.67525 -4.45875
C -0.89175 -0.89175 -6.24225
C -3.56700 -3.56700 -3.56700
C -3.56700 -1.78350 -1.78350
C -1.78350 -3.56700 -1.78350
C -1.78350 -1.78350 -3.56700
C -2.67525 -2.67525 -2.67525
C -2.67525 -0.89175 -0.89175
C -0.89175 -2.67525 -0.89175
C -0.89175 -0.89175 -2.67525
N -17.83500 -17.83500  0.00000
C -17.83500 -16.05150  1.78350
C -16.05150 -17.83500  1.78350
C -16.05150 -16.05150  0.00000
C -16.94325 -16.94325  0.89175
C -16.94325 -15.15975  2.67525
C -15.15975 -16.94325  2.67525
C -15.15975 -15.15975  0.89175
C -17.83500 -17.83500  3.56700
C -17.83500 -16.05150  5.35050
C -16.05150 -17.83500  5.35050
C -16.05150 -16.05150  3.56700
C -16.94325 -16.94325  4.45875
C -16.94325 -15.15975  6.24225
C -15.15975 -16.94325  6.24225
C -15.15975 -15.15975  4.45875
C -17.83500 -17.83500  7.13400
C -17.83500 -16.05150  8.91750
C -16.05150 -17.83500  8.91750
C -16.05150 -16.05150  7.13400
C -16.94325 -16.94325  8.02575
C -16.94325 -15.15975  9.80925
C -15.15975 -16.94325  9.80925
C -15.15975 -15.15975  8.02575
C -17.83500 -17.83500 10.70100
C -17.83500 -16.05150 12.48450
C -16.05150 -17.83500 12.48450
C -16.05150 -16.05150 10.70100
C -16.94325 -16.94325 11.59275
C -16.94325 -15.15975 13.37625
C -15.15975 -16.94325 13.37625
C -15.15975 -15.15975 11.59275
C -17.83500 -17.83500 14.26800
C -17.83500 -16.05150 16.05150
C -16.05150 -17.83500 16.05150
C -16.05150 -16.05150 14.26800
C -16.94325 -16.94325 15.15975
C -16.94325 -15.15975 16.94325
C -15.15975 -16.94325 16.94325
C -15.15975 -15.15975 15.15975
C -17.83500 -14.26800  0.00000
C -17.83500 -12.48450  1.78350
C -16.05150 -14.26800  1.78350
C -16.05150 -12.48450  0.00000
C -16.94325 -13.37625  0.89175
C -16.94325 -11.59275  2.67525
C -15.15975 -13.37625  2.67525
C -15.15975 -11.59275  0.89175
C -17.83500 -14.26800  3.56700
C -17.83500 -12.48450  5.35050
C -16.05150 -14.26800  5.35050
C -16.05150 -12.48450  3.56700
C -16.94325 -13.37625  4.45875
C -16.94325 -11.59275  6.24225
C -15.15975 -13.37625  6.24225
C -15.15975 -11.59275  4.45875
C -17.83500 -14.26800  7.13400
C -17.83500 -12.48450  8.91750
C -16.05150 -14.26800  8.91750
C -16.05150 -12.48450  7.13400
C -16.94325 -13.37625  8.02575
C -16.94325 -11.59275  9.80925
C -15.15975 -13.37625  9.80925
C -15.15975 -11.59275  8.02575
C -17.83500 -14.26800 10.70100
C -17.83500 -12.48450 12.48450
C -16.05150 -14.26800 12.48450
C -16.05150 -12.48450 10.70100
C -16.94325 -13.37625 11.59275
C -16.94325 -11.59275 13.37625
C -15.15975 -13.37625 13.37625
C -15.15975 -11.59275 11.59275
C -17.83500 -14.26800 14.26800
C -17.83500 -12.48450 16.05150
C -16.05150 -14.26800 16.05150
C -16.05150 -12.48450 14.26800
C -16.94325 -13.37625 15.15975
C -16.94325 -11.59275 16.94325
C -15.15975 -13.37625 16.94325
C -15.15975 -11.59275 15.15975
C -17.83500 -10.70100  0.00000
C -17.83500 -8.91750  1.78350
C -16.05150 -10.70100  1.78350
C -16.05150 -8.91750  0.00000
C -16.94325 -9.80925  0.89175
C -16.94325 -8.02575  2.67525
C -15.15975 -9.80925  2.67525
C -15.15975 -8.02575  0.89175
C -17.83500 -10.70100  3.56700
C -17.83500 -8.91750  5.35050
C -16.05150 -10.70100  5.35050
C -16.05150 -8.91750  3.56700
C -16.94325 -9.80925  4.45875
C -16.94325 -8.02575  6.24225
C -15.15975 -9.80925  6.24225
C -15.15975 -8.02575  4.45875
C -17.83500 -10.70100  7.13400
C -17.83500 -8.91750  8.91750
C -16.05150 -10.70100  8.91750
C -16.05150 -8.91750  7.13400
C -16.94325 -9.80925  8.02575
C -16.94325 -8.02575  9.80925
C -15.15975 -9.80925  9.80925
C -15.15975 -8.02575  8.02575
C -17.83500 -10.70100 10.70100
C -17.83500 -8.91750 12.48450
C -16.05150 -10.70100 12.48450
C -16.05150 -8.91750 10.70100
C -16.94325 -9.80925 11.59275
C -16.94325 -8.02575 13.37625
C -15.15975 -9.80925 13.37625
C -15.15975 -8.02575 11.59275
C -17.83500 -10.70100 14.26800
C -17.83500 -8.91750 16.05150
C -16.05150 -10.70100 16.05150
C -16.05150 -8.91750 14.26800
C -16.94325 -9.80925 15.15975
C -16.94325 -8.02575 16.94325
C -15.15975 -9.80925 16.94325
C -15.15975 -8.02575 15.15975
C -17.83500 -7.13400  0.00000
C -17.83500 -5.35050  1.78350
C -16.05150 -7.13400  1.78350
C -16.05150 -5.35050  0.00000
C -16.94325 -6.24225  0.89175
C -16.94325 -4.45875  2.67525
C -15.15975 -6.24225  2.67525
C -15.15975 -4.45875  0.89175
C -17.83500 -7.13400  3.56700
C -17.83500 -5.35050  5.35050
C -16.05150 -7.13400  5.35050
C -16.05150 -5.35050  3.56700
C -16.94325 -6.24225  4.45875
C -16.94325 -4.45875  6.24225
C -15.15975 -6.24225  6.24225
C -15.15975 -4.45875  4.45875
C -17.83500 -7.13400  7.13400
C -17.83500 -5.35050  8.91750
C -16.05150 -7.13400  8.91750
C -16.05150 -5.35050  7.13400
C -16.94325 -6.24225  8.02575
C -16.94325 -4.45875  9.80925
C -15.15975 -6.24225  9.80925
C -15.15975 -4.45875  8.02575
C -17.83500 -7.13400 10.70100
C -17.83500 -5.35050 12.48450
C -16.05150 -7.13400 12.48450
C -16.05150 -5.35050 10.70100
C -16.94325 -6.24225 11.59275
C -16.94325 -4.45875 13.37625
C -15.15975 -6.24225 13.37625
C -15.15975 -4.45875 11.59275
C -17.83500 -7.13400 14.26800
C -17.83500 -5.35050 16.05150
C -16.05150 -7.13400 16.05150
C -16.05150 -5.35050 14.26800
C -16.94325 -6.24225 15.15975
C -16.94325 -4.45875 16.94325
C -15.15975 -6.24225 16.94325
C -15.15975 -4.45875 15.15975
C -17.83500 -3.56700  0.00000
C -17.83500 -1.78350  1.78350
C -16.05150 -3.56700  1.78350
C -16.05150 -1.78350  0.00000
C -16.94325 -2.67525  0.89175
C -16.94325 -0.89175  2.67525
C -15.15975 -2.67525  2.67525
C -15.15975 -0.89175  0.89175
C -17.83500 -3.56700  3.56700
C -17.83500 -1.78350  5.35050
C -16.05150 -3.56700  5.35050
C -16.05150 -1.78350  3.56700
C -16.94325 -2.67525  4.45875
C -16.94325 -0.89175  6.24225
C -15.15975 -2.67525  6.24225
C -15.15975 -0.89175  4.45875
C -17.83500 -3.56700  7.13400
C -17.83500 -1.78350  8.91750
C -16.05150 -3.56700  8.91750
C -16.05150 -1.78350  7.13400
C -16.94325 -2.67525  8.02575
C -16.94325 -0.89175  9.80925
C -15.15975 -2.67525  9.80925
C -15.15975 -0.89175  8.02575
C -17.83500 -3.56700 10.70100
C -17.83500 -1.78350 12.48450
C -16.05150 -3.56700 12.48450
C -16.05150 -1.78350 10.70100
C -16.94325 -2.67525 11.59275
C -16.94325 -0.89175 13.37625
C -15.15975 -2.67525 13.37625
C -15.15975 -0.89175 11.59275
C -17.83500 -3.56700 14.26800
C -17.83500 -1.78350 16.05150
C -16.05150 -3.56700 16.05150
C -16.05150 -1.78350 14.26800
C -16.94325 -2.67525 15.15975
C -16.94325 -0.89175 16.94325
C -15.15975 -2.67525 16.94325
C -15.15975 -0.89175 15.15975
C -14.26800 -17.83500  0.00000
C -14.26800 -16.05150  1.78350
C -12.48450 -17.83500  1.78350
C -12.48450 -16.05150  0.00000
C -13.37625 -16.94325  0.89175
C -13.37625 -15.15975  2.67525
C -11.59275 -16.94325  2.67525
C -11.59275 -15.15975  0.89175
C -14.26800 -17.83500  3.56700
C -14.26800 -16.05150  5.35050
C -12.48450 -17.83500  5.35050
C -12.48450 -16.05150  3.56700
C -13.37625 -16.94325  4.45875
C -13.37625 -15.15975  6.24225
C -11.59275 -16.94325  6.24225
C -11.59275 -15.15975  4.45875
C -14.26800 -17.83500  7.13400
C -14.26800 -16.05150  8.91750
C -12.48450 -17.83500  8.91750
C -12.48450 -16.05150  7.13400
C -13.37625 -16.94325  8.02575
C -13.37625 -15.15975  9.80925
C -11.59275 -16.94325  9.80925
C -11.59275 -15.15975  8.02575
C -14.26800 -17.83500 10.70100
C -14.26800 -16.05150 12.48450
C -12.48450 -17.83500 12.48450
C -12.48450 -16.05150 10.70100
C -13.37625 -16.94325 11.59275
C -13.37625 -15.15975 13.37625
C -11.59275 -16.94325 13.37625
C -11.59275 -15.15975 11.59275
C -14.26800 -17.83500 14.26800
C -14.26800 -16.05150 16.05150
C -12.48450 -17.83500 16.05150
C -12.48450 -16.05150 14.26800
C -13.37625 -16.94325 15.15975
C -13.37625 -15.15975 16.94325
C -11.59275 -16.94325 16.94325
C -11.59275 -15.15975 15.15975
C -14.26800 -14.26800  0.00000
C -14.26800 -12.48450  1.78350
C -12.48450 -14.26800  1.78350
C -12.48450 -12.48450  0.00000
C -13.37625 -13.37625  0.89175
C -13.37625 -11.59275  2.67525
C -11.59275 -13.37625  2.67525
C -11.59275 -11.59275  0.89175
C -14.26800 -14.26800  3.56700
C -14.26800 -12.48450  5.35050
C -12.48450 -14.26800  5.35050
C -12.48450 -12.48450  3.56700
C -13.37625 -13.37625  4.45875
C -13.37625 -11.59275  6.24225
C -11.59275 -13.37625  6.24225
C -11.59275 -11.59275  4.45875
C -14.26800 -14.26800  7.13400
C -14.26800 -12.48450  8.91750
C -12.48450 -14.26800  8.91750
C -12.48450 -12.48450  7.13400
C -13.37625 -13.37625  8.02575
C -13.37625 -11.59275  9.80925
C -11.59275 -13.37625  9.80925
C -11.59275 -11.59275  8.02575
C -14.26800 -14.26800 10.70100
C -14.26800 -12.48450 12.48450
C -12.48450 -14.26800 12.48450
C -12.48450 -12.48450 10.70100
C -13.37625 -13.37625 11.59275
C -13.37625 -11.59275 13.37625
C -11.59275 -13.37625 13.37625
C -11.59275 -11.59275 11.59275
C -14.26800 -14.26800 14.26800
C -14.26800 -12.48450 16.05150
C -12.48450 -14.26800 16.05150
C -12.48450 -12.48450 14.26800
C -13.37625 -13.37625 15.15975
C -13.37625 -11.59275 16.94325
C -11.59275 -13.37625 16.94325
C -11.59275 -11.59275 15.15975
C -14.26800 -10.70100  0.00000
C -14.26800 -8.91750  1.78350
C -12.48450 -10.70100  1.78350
C -12.48450 -8.91750  0.00000
C -13.37625 -9.80925  0.89175
C -13.37625 -8.02575  2.67525
C -11.59275 -9.80925  2.67525
C -11.59275 -8.02575  0.89175
C -14.26800 -10.70100  3.56700
C -14.26800 -8.91750  5.35050
C -12.48450 -10.70100  5.35050
C -12.48450 -8.91750  3.56700
C -13.37625 -9.80925  4.45875
C -13.37625 -8.02575  6.24225
C -11.59275 -9.80925  6.24225
C -11.59275 -8.02575  4.45875
C -14.26800 -10.70100  7.13400
C -14.26800 -8.91750  8.91750
C -12.48450 -10.70100  8.91750
C -12.48450 -8.91750  7.13400
C -13.37625 -9.80925  8.02575
C -13.37625 -8.02575  9.80925
C -11.59275 -9.80925  9.80925
C -11.59275 -8.02575  8.02575
C -14.26800 -10.70100 10.70100
C -14.26800 -8.91750 12.48450
C -12.48450 -10.70100 12.48450
C -12.48450 -8.91750 10.70100
C -13.37625 -9.80925 11.59275
C -13.37625 -8.02575 13.37625
C -11.59275 -9.80925 13.37625
C -11.59275 -8.02575 11.59275
C -14.26800 -10.70100 14.26800
C -14.26800 -8.91750 16.05150
C -12.48450 -10.70100 16.05150
C -12.48450 -8.91750 14.26800
C -13.37625 -9.80925 15.15975
C -13.37625 -8.02575 16.94325
C -11.59275 -9.80925 16.94325
C -11.59275 -8.02575 15.15975
C -14.26800 -7.13400  0.00000
C -14.26800 -5.35050  1.78350
C -12.48450 -7.13400  1.78350
C -12.48450 -5.35050  0.00000
C -13.37625 -6.24225  0.89175
C -13.37625 -4.45875  2.67525
C -11.59275 -6.24225  2.67525
C -11.59275 -4.45875  0.89175
C -14.26800 -7.13400  3.56700
C -14.26800 -5.35050  5.35050
C -12.48450 -7.13400  5.35050
C -12.48450 -5.35050  3.56700
C -13.37625 -6.24225  4.45875
C -13.37625 -4.45875  6.24225
C -11.59275 -6.24225  6.24225
C -11.59275 -4.45875  4.45875
C -14.26800 -7.13400  7.13400
C -14.26800 -5.35050  8.91750
C -12.48450 -7.13400  8.91750
C -12.48450 -5.35050  7.13400
C -13.37625 -6.24225  8.02575
C -13.37625 -4.45875  9.80925
C -11.59275 -6.24225  9.80925
C -11.59275 -4.45875  8.02575
C -14.26800 -7.13400 10.70100
C -14.26800 -5.35050 12.48450
C -12.48450 -7.13400 12.48450
C -12.48450 -5.35050 10.70100
C -13.37625 -6.24225 11.59275
C -13.37625 -4.45875 13.37625
C -11.59275 -6.24225 13.37625
C -11.59275 -4.45875 11.59275
C -14.26800 -7.13400 14.26800
C -14.26800 -5.35050 16.05150
C -12.48450 -7.13400 16.05150
C -12.48450 -5.35050 14.26800
C -13.37625 -6.24225 15.15975
C -13.37625 -4.45875 16.94325
C -11.59275 -6.24225 16.94325
C -11.59275 -4.45875 15.15975
C -14.26800 -3.56700  0.00000
C -14.26800 -1.78350  1.78350
C -12.48450 -3.56700  1.78350
C -12.48450 -1.78350  0.00000
C -13.37625 -2.67525  0.89175
C -13.37625 -0.89175  2.67525
C -11.59275 -2.67525  2.67525
C -11.59275 -0.89175  0.89175
C -14.26800 -3.56700  3.56700
C -14.26800 -1.78350  5.35050
C -12.48450 -3.56700  5.35050
C -12.48450 -1.78350  3.56700
C -13.37625 -2.67525  4.45875
C -13.37625 -0.89175  6.24225
C -11.59275 -2.67525  6.24225
C -11.59275 -0.89175  4.45875
C -14.26800 -3.56700  7.13400
C -14.26800 -1.78350  8.91750
C -12.48450 -3.56700  8.91750
C -12.48450 -1.78350  7.13400
C -13.37625 -2.67525  8.02575
C -13.37625 -0.89175  9.80925
C -11.59275 -2.67525  9.80925
C -11.59275 -0.89175  8.02575
C -14.26800 -3.56700 10.70100
C -14.26800 -1.78350 12.48450
C -12.48450 -3.56700 12.48450
C -12.48450 -1.78350 10.70100
C -13.37625 -2.67525 11.59275
C -13.37625 -0.89175 13.37625
C -11.59275 -2.67525 13.37625
C -11.59275 -0.89175 11.59275
C -14.26800 -3.56700 14.26800
C -14.26800 -1.78350 16.05150
C -12.48450 -3.56700 16.05150
C -12.48450 -1.78350 14.26800
C -13.37625 -2.67525 15.15975
C -13.37625 -0.89175 16.94325
C -11.59275 -2.67525 16.94325
C -11.59275 -0.89175 15.15975
C -10.70100 -17.83500  0.00000
C -10.70100 -16.05150  1.78350
C -8.91750 -17.83500  1.78350
C -8.91750 -16.05150  0.00000
C -9.80925 -16.94325  0.89175
C -9.80925 -15.15975  2.67525
C -8.02575 -16.94325  2.67525
C -8.02575 -15.15975  0.89175
C -10.70100 -17.83500  3.56700
C -10.70100 -16.05150  5.35050
C -8.91750 -17.83500  5.35050
C -8.91750 -16.05150  3.56700
C -9.80925 -16.94325  4.45875
C -9.80925 -15.15975  6.24225
C -8.02575 -16.94325  6.24225
C -8.02575 -15.15975  4.45875
C -10.70100 -17.83500  7.13400
C -10.70100 -16.05150  8.91750
C -8.91750 -17.83500  8.91750
C -8.91750 -16.05150  7.13400
C -9.80925 -16.94325  8.02575
C -9.80925 -15.15975  9.80925
C -8.02575 -16.94325  9.80925
C -8.02575 -15.15975  8.02575
C -10.70100 -17.83500 10.70100
C -10.70100 -16.05150 12.48450
C -8.91750 -17.83500 12.48450
C -8.91750 -16.05150 10.70100
C -9.80925 -16.94325 11.59275
C -9.80925 -15.15975 13.37625
C -8.02575 -16.94325 13.37625
C -8.02575 -15.15975 11.59275
C -10.70100 -17.83500 14.26800
C -10.70100 -16.05150 16.05150
C -8.91750 -17.83500 16.05150
C -8.91750 -16.05150 14.26800
C -9.80925 -16.94325 15.15975
C -9.80925 -15.15975 16.94325
C -8.02575 -16.94325 16.94325
C -8.02575 -15.15975 15.15975
C -10.70100 -14.26800  0.00000
C -10.70100 -12.48450  1.78350
C -8.91750 -14.26800  1.78350
C -8.91750 -12.48450  0.00000
C -9.80925 -13.37625  0.89175
C -9.80925 -11.59275  2.67525
C -8.02575 -13.37625  2.67525
C -8.02575 -11.59275  0.89175
C -10.70100 -14.26800  3.56700
C -10.70100 -12.48450  5.35050
C -8.91750 -14.26800  5.35050
C -8.91750 -12.48450  3.56700
C -9.80925 -13.37625  4.45875
C -9.80925 -11.59275  6.24225
C -8.02575 -13.37625  6.24225
C -8.02575 -11.59275  4.45875
C -10.70100 -14.26800  7.13400
C -10.70100 -12.48450  8.91750
C -8.91750 -14.26800  8.91750
C -8.91750 -12.48450  7.13400
C -9.80925 -13.37625  8.02575
C -9.80925 -11.59275  9.80925
C -8.02575 -13.37625  9.80925
C -8.02575 -11.59275  8.02575
C -10.70100 -14.26800 10.70100
C -10.70100 -12.48450 12.48450
C -8.91750 -14.26800 12.48450
C -8.91750 -12.48450 10.70100
C -9.80925 -13.37625 11.59275
C -9.80925 -11.59275 13.37625
C -8.02575 -13.37625 13.37625
C -8.02575 -11.59275 11.59275
C -10.70100 -14.26800 14.26800
C -10.70100 -12.48450 16.05150
C -8.91750 -14.26800 16.05150
C -8.91750 -12.48450 14.26800
C -9.80925 -13.37625 15.15975
C -9.80925 -11.59275 16.94325
C -8.02575 -13.37625 16.94325
C -8.02575 -11.59275 15.15975
C -10.70100 -10.70100  0.00000
C -10.70100 -8.91750  1.78350
C -8.91750 -10.70100  1.78350
C -8.91750 -8.91750  0.00000
C -9.80925 -9.80925  0.89175
C -9.80925 -8.02575  2.67525
C -8.02575 -9.80925  2.67525
C -8.02575 -8.02575  0.89175
C -10.70100 -10.70100  3.56700
C -10.70100 -8.91750  5.35050
C -8.91750 -10.70100  5.35050
C -8.91750 -8.91750  3.56700
C -9.80925 -9.80925  4.45875
C -9.80925 -8.02575  6.24225
C -8.02575 -9.80925  6.24225
C -8.02575 -8.02575  4.45875
C -10.70100 -10.70100  7.13400
C -10.70100 -8.91750  8.91750
C -8.91750 -10.70100  8.91750
C -8.91750 -8.91750  7.13400
C -9.80925 -9.80925  8.02575
C -9.80925 -8.02575  9.80925
C -8.02575 -9.80925  9.80925
C -8.02575 -8.02575  8.02575
C -10.70100 -10.70100 10.70100
C -10.70100 -8.91750 12.48450
C -8.91750 -10.70100 12.48450
C -8.91750 -8.91750 10.70100
C -9.80925 -9.80925 11.59275
C -9.80925 -8.02575 13.37625
C -8.02575 -9.80925 13.37625
C -8.02575 -8.02575 11.59275
C -10.70100 -10.70100 14.26800
C -10.70100 -8.91750 16.05150
C -8.91750 -10.70100 16.05150
C -8.91750 -8.91750 14.26800
C -9.80925 -9.80925 15.15975
C -9.80925 -8.02575 16.94325
C -8.02575 -9.80925 16.94325
C -8.02575 -8.02575 15.15975
C -10.70100 -7.13400  0.00000
C -10.70100 -5.35050  1.78350
C -8.91750 -7.13400  1.78350
C -8.91750 -5.35050  0.00000
C -9.80925 -6.24225  0.89175
C -9.80925 -4.45875  2.67525
C -8.02575 -6.24225  2.67525
C -8.02575 -4.45875  0.89175
C -10.70100 -7.13400  3.56700
C -10.70100 -5.35050  5.35050
C -8.91750 -7.13400  5.35050
C -8.91750 -5.35050  3.56700
C -9.80925 -6.24225  4.45875
C -9.80925 -4.45875  6.24225
C -8.02575 -6.24225  6.24225
C -8.02575 -4.45875  4.45875
C -10.70100 -7.13400  7.13400
C -10.70100 -5.35050  8.91750
C -8.91750 -7.13400  8.91750
C -8.91750 -5.35050  7.13400
C -9.80925 -6.24225  8.02575
C -9.80925 -4.45875  9.80925
C -8.02575 -6.24225  9.80925
C -8.02575 -4.45875  8.02575
C -10.70100 -7.13400 10.70100
C -10.70100 -5.35050 12.48450
C -8.91750 -7.13400 12.48450
C -8.91750 -5.35050 10.70100
C -9.80925 -6.24225 11.59275
C -9.80925 -4.45875 13.37625
C -8.02575 -6.24225 13.37625
C -8.02575 -4.45875 11.59275
C -10.70100 -7.13400 14.26800
C -10.70100 -5.35050 16.05150
C -8.91750 -7.13400 16.05150
C -8.91750 -5.35050 14.26800
C -9.80925 -6.24225 15.15975
C -9.80925 -4.45875 16.94325
C -8.02575 -6.24225 16.94325
C -8.02575 -4.45875 15.15975
C -10.70100 -3.56700  0.00000
C -10.70100 -1.78350  1.78350
C -8.91750 -3.56700  1.78350
C -8.91750 -1.78350  0.00000
C -9.80925 -2.67525  0.89175
C -9.80925 -0.89175  2.67525
C -8.02575 -2.67525  2.67525
C -8.02575 -0.89175  0.89175
C -10.70100 -3.56700  3.56700
C -10.70100 -1.78350  5.35050
C -8.91750 -3.56700  5.35050
C -8.91750 -1.78350  3.56700
C -9.80925 -2.67525  4.45875
C -9.80925 -0.89175  6.24225
C -8.02575 -2.67525  6.24225
C -8.02575 -0.89175  4.45875
C -10.70100 -3.56700  7.13400
C -10.70100 -1.78350  8.91750
C -8.91750 -3.56700  8.91750
C -8.91750 -1.78350  7.13400
C -9.80925 -2.67525  8.02575
C -9.80925 -0.89175  9.80925
C -8.02575 -2.67525  9.80925
C -8.02575 -0.89175  8.02575
C -10.70100 -3.56700 10.70100
C -10.70100 -1.78350 12.48450
C -8.91750 -3.56700 12.48450
C -8.91750 -1.78350 10.70100
C -9.80925 -2.67525 11.59275
C -9.80925 -0.89175 13.37625
C -8.02575 -2.67525 13.37625
C -8.02575 -0.89175 11.59275
C -10.70100 -3.56700 14.26800
C -10.70100 -1.78350 16.05150
C -8.91750 -3.56700 16.05150
C -8.91750 -1.78350 14.26800
C -9.80925 -2.67525 15.15975
C -9.80925 -0.89175 16.94325
C -8.02575 -2.67525 16.94325
C -8.02575 -0.89175 15.15975
C -7.13400 -17.83500  0.00000
C -7.13400 -16.05150  1.78350
C -5.35050 -17.83500  1.78350
C -5.35050 -16.05150  0.00000
C -6.24225 -16.94325  0.89175
C -6.24225 -15.15975  2.67525
C -4.45875 -16.94325  2.67525
C -4.45875 -15.15975  0.89175
C -7.13400 -17.83500  3.56700
C -7.13400 -16.05150  5.35050
C -5.35050 -17.83500  5.35050
C -5.35050 -16.05150  3.56700
C -6.24225 -16.94325  4.45875
C -6.24225 -15.15975  6.24225
C -4.45875 -16.94325  6.24225
C -4.45875 -15.15975  4.45875
C -7.13400 -17.83500  7.13400
C -7.13400 -16.05150  8.91750
C -5.35050 -17.83500  8.91750
C -5.35050 -16.05150  7.13400
C -6.24225 -16.94325  8.02575
C -6.24225 -15.15975  9.80925
C -4.45875 -16.94325  9.80925
C -4.45875 -15.15975  8.02575
C -7.13400 -17.83500 10.70100
C -7.13400 -16.05150 12.48450
C -5.35050 -17.83500 12.48450
C -5.35050 -16.05150 10.70100
C -6.24225 -16.94325 11.59275
C -6.24225 -15.15975 13.37625
C -4.45875 -16.94325 13.37625
C -4.45875 -15.15975 11.59275
C -7.13400 -17.83500 14.26800
C -7.13400 -16.05150 16.05150
C -5.35050 -17.83500 16.05150
C -5.35050 -16.05150 14.26800
C -6.24225 -16.94325 15.15975
C -6.24225 -15.15975 16.94325
C -4.45875 -16.94325 16.94325
C -4.45875 -15.15975 15.15975
C -7.13400 -14.26800  0.00000
C -7.13400 -12.48450  1.78350
C -5.35050 -14.26800  1.78350
C -5.35050 -12.48450  0.00000
C -6.24225 -13.37625  0.89175
C -6.24225 -11.59275  2.67525
C -4.45875 -13.37625  2.67525
C -4.45875 -11.59275  0.89175
C -7.13400 -14.26800  3.56700
C -7.13400 -12.48450  5.35050
C -5.35050 -14.26800  5.35050
C -5.35050 -12.48450  3.56700
C -6.24225 -13.37625  4.45875
C -6.24225 -11.59275  6.24225
C -4.45875 -13.37625  6.24225
C -4.45875 -11.59275  4.45875
C -7.13400 -14.26800  7.13400
C -7.13400 -12.48450  8.91750
C -5.35050 -14.26800  8.91750
C -5.35050 -12.48450  7.13400
C -6.24225 -13.37625  8.02575
C -6.24225 -11.59275  9.80925
C -4.45875 -13.37625  9.80925
C -4.45875 -11.59275  8.02575
C -7.13400 -14.26800 10.70100
C -7.13400 -12.48450 12.48450
C -5.35050 -14.26800 12.48450
C -5.35050 -12.48450 10.70100
C -6.24225 -13.37625 11.59275
C -6.24225 -11.59275 13.37625
C -4.45875 -13.37625 13.37625
C -4.45875 -11.59275 11.59275
C -7.13400 -14.26800 14.26800
C -7.13400 -12.48450 16.05150
C -5.35050 -14.26800 16.05150
C -5.35050 -12.48450 14.26800
C -6.24225 -13.37625 15.15975
C -6.24225 -11.59275 16.94325
C -4.45875 -13.37625 16.94325
C -4.45875 -11.59275 15.15975
C -7.13400 -10.70100  0.00000
C -7.13400 -8.91750  1.78350
C -5.35050 -10.70100  1.78350
C -5.35050 -8.91750  0.00000
C -6.24225 -9.80925  0.89175
C -6.24225 -8.02575  2.67525
C -4.45875 -9.80925  2.67525
C -4.45875 -8.02575  0.89175
C -7.13400 -10.70100  3.56700
C -7.13400 -8.91750  5.35050
C -5.35050 -10.70100  5.35050
C -5.35050 -8.91750  3.56700
C -6.24225 -9.80925  4.45875
C -6.24225 -8.02575  6.24225
C -4.45875 -9.80925  6.24225
C -4.45875 -8.02575  4.45875
C -7.13400 -10.70100  7.13400
C -7.13400 -8.91750  8.91750
C -5.35050 -10.70100  8.91750
C -5.35050 -8.91750  7.13400
C -6.24225 -9.80925  8.02575
C -6.24225 -8.02575  9.80925
C -4.45875 -9.80925  9.80925
C -4.45875 -8.02575  8.02575
C -7.13400 -10.70100 10.70100
C -7.13400 -8.91750 12.48450
C -5.35050 -10.70100 12.48450
C -5.35050 -8.91750 10.70100
C -6.24225 -9.80925 11.59275
C -6.24225 -8.02575 13.37625
C -4.45875 -9.80925 13.37625
C -4.45875 -8.02575 11.59275
C -7.13400 -10.70100 14.26800
C -7.13400 -8.91750 16.05150
C -5.35050 -10.70100 16.05150
C -5.35050 -8.91750 14.26800
C -6.24225 -9.80925 15.15975
C -6.24225 -8.02575 16.94325
C -4.45875 -9.80925 16.94325
C -4.45875 -8.02575 15.15975
C -7.13400 -7.13400  0.00000
C -7.13400 -5.35050  1.78350
C -5.35050 -7.13400  1.78350
C -5.35050 -5.35050  0.00000
C -6.24225 -6.24225  0.89175
C -6.24225 -4.45875  2.67525
C -4.45875 -6.24225  2.67525
C -4.45875 -4.45875  0.89175
C -7.13400 -7.13400  3.56700
C -7.13400 -5.35050  5.35050
C -5.35050 -7.13400  5.35050
C -5.35050 -5.35050  3.56700
C -6.24225 -6.24225  4.45875
C -6.24225 -4.45875  6.24225
C -4.45875 -6.24225  6.24225
C -4.45875 -4.45875  4.45875
C -7.13400 -7.13400  7.13400
C -7.13400 -5.35050  8.91750
C -5.35050 -7.13400  8.91750
C -5.35050 -5.35050  7.13400
C -6.24225 -6.24225  8.02575
C -6.24225 -4.45875  9.80925
C -4.45875 -6.24225  9.80925
C -4.45875 -4.45875  8.02575
C -7.13400 -7.13400 10.70100
C -7.13400 -5.35050 12.48450
C -5.35050 -7.13400 12.48450
C -5.35050 -5.35050 10.70100
C -6.24225 -6.24225 11.59275
C -6.24225 -4.45875 13.37625
C -4.45875 -6.24225 13.37625
C -4.45875 -4.45875 11.59275
C -7.13400 -7.13400 14.26800
C -7.13400 -5.35050 16.05150
C -5.35050 -7.13400 16.05150
C -5.35050 -5.35050 14.26800
C -6.24225 -6.24225 15.15975
C -6.24225 -4.45875 16.94325
C -4.45875 -6.24225 16.94325
C -4.45875 -4.45875 15.15975
C -7.13400 -3.56700  0.00000
C -7.13400 -1.78350  1.78350
C -5.35050 -3.56700  1.78350
C -5.35050 -1.78350  0.00000
C -6.24225 -2.67525  0.89175
C -6.24225 -0.89175  2.67525
C -4.45875 -2.67525  2.67525
C -4.45875 -0.89175  0.89175
C -7.13400 -3.56700  3.56700
C -7.13400 -1.78350  5.35050
C -5.35050 -3.56700  5.35050
C -5.35050 -1.78350  3.56700
C -6.24225 -2.67525  4.45875
C -6.24225 -0.89175  6.24225
C -4.45875 -2.67525  6.24225
C -4.45875 -0.89175  4.45875
C -7.13400 -3.56700  7.13400
C -7.13400 -1.78350  8.91750
C -5.35050 -3.56700  8.91750
C -5.35050 -1.78350  7.13400
C -6.24225 -2.67525  8.02575
C -6.24225 -0.89175  9.80925
C -4.45875 -2.67525  9.80925
C -4.45875 -0.89175  8.02575
C -7.13400 -3.56700 10.70100
C -7.13400 -1.78350 12.48450
C -5.35050 -3.56700 12.48450
C -5.35050 -1.78350 10.70100
C -6.24225 -2.67525 11.59275
C -6.24225 -0.89175 13.37625
C -4.45875 -2.67525 13.37625
C -4.45875 -0.89175 11.59275
C -7.13400 -3.56700 14.26800
C -7.13400 -1.78350 16.05150
C -5.35050 -3.56700 16.05150
C -5.35050 -1.78350 14.26800
C -6.24225 -2.67525 15.15975
C -6.24225 -0.89175 16.94325
C -4.45875 -2.67525 16.94325
C -4.45875 -0.89175 15.15975
C -3.56700 -17.83500  0.00000
C -3.56700 -16.05150  1.78350
C -1.78350 -17.83500  1.78350
C -1.78350 -16.05150  0.00000
C -2.67525 -16.94325  0.89175
C -2.67525 -15.15975  2.67525
C -0.89175 -16.94325  2.67525
C -0.89175 -15.15975  0.89175
C -3.56700 -17.83500  3.56700
C -3.56700 -16.05150  5.35050
C -1.78350 -17.83500  5.35050
C -1.78350 -16.05150  3.56700
C -2.67525 -16.94325  4.45875
C -2.67525 -15.15975  6.24225
C -0.89175 -16.94325  6.24225
C -0.89175 -15.15975  4.45875
C -3.56700 -17.83500  7.13400
C -3.56700 -16.05150  8.91750
C -1.78350 -17.83500  8.91750
C -1.78350 -16.05150  7.13400
C -2.67525 -16.94325  8.02575
C -2.67525 -15.15975  9.80925
C -0.89175 -16.94325  9.80925
C -0.89175 -15.15975  8.02575
C -3.56700 -17.83500 10.70100
C -3.56700 -16.05150 12.48450
C -1.78350 -17.83500 12.48450
C -1.78350 -16.05150 10.70100
C -2.67525 -16.94325 11.59275
C -2.67525 -15.15975 13.37625
C -0.89175 -16.94325 13.37625
C -0.89175 -15.15975 11.59275
C -3.56700 -17.83500 14.26800
C -3.56700 -16.05150 16.05150
C -1.78350 -17.83500 16.05150
C -1.78350 -16.05150 14.26800
C -2.67525 -16.94325 15.15975
C -2.67525 -15.15975 16.94325
C -0.89175 -16.94325 16.94325
C -0.89175 -15.15975 15.15975
C -3.56700 -14.26800  0.00000
C -3.56700 -12.48450  1.78350
C -1.78350 -14.26800  1.78350
C -1.78350 -12.48450  0.00000
C -2.67525 -13.37625  0.89175
C -2.67525 -11.59275  2.67525
C -0.89175 -13.37625  2.67525
C -0.89175 -11.59275  0.89175
C -3.56700 -14.26800  3.56700
C -3.56700 -12.48450  5.35050
C -1.78350 -14.26800  5.35050
C -1.78350 -12.48450  3.56700
C -2.67525 -13.37625  4.45875
C -2.67525 -11.59275  6.24225
C -0.89175 -13.37625  6.24225
C -0.89175 -11.59275  4.45875
C -3.56700 -14.26800  7.13400
C -3.56700 -12.48450  8.91750
C -1.78350 -14.26800  8.91750
C -1.78350 -12.48450  7.13400
C -2.67525 -13.37625  8.02575
C -2.67525 -11.59275  9.80925
C -0.89175 -13.37625  9.80925
C -0.89175 -11.59275  8.02575
C -3.56700 -14.26800 10.70100
C -3.56700 -12.48450 12.48450
C -1.78350 -14.26800 12.48450
C -1.78350 -12.48450 10.70100
C -2.67525 -13.37625 11.59275
C -2.67525 -11.59275 13.37625
C -0.89175 -13.37625 13.37625
C -0.89175 -11.59275 11.59275
C -3.56700 -14.26800 14.26800
C -3.56700 -12.48450 16.05150
C -1.78350 -14.26800 16.05150
C -1.78350 -12.48450 14.26800
C -2.67525 -13.37625 15.15975
C -2.67525 -11.59275 16.94325
C -0.89175 -13.37625 16.94325
C -0.89175 -11.59275 15.15975
C -3.56700 -10.70100  0.00000
C -3.56700 -8.91750  1.78350
C -1.78350 -10.70100  1.78350
C -1.78350 -8.91750  0.00000
C -2.67525 -9.80925  0.89175
C -2.67525 -8.02575  2.67525
C -0.89175 -9.80925  2.67525
C -0.89175 -8.02575  0.89175
C -3.56700 -10.70100  3.56700
C -3.56700 -8.91750  5.35050
C -1.78350 -10.70100  5.35050
C -1.78350 -8.91750  3.56700
C -2.67525 -9.80925  4.45875
C -2.67525 -8.02575  6.24225
C -0.89175 -9.80925  6.24225
C -0.89175 -8.02575  4.45875
C -3.56700 -10.70100  7.13400
C -3.56700 -8.91750  8.91750
C -1.78350 -10.70100  8.91750
C -1.78350 -8.91750  7.13400
C -2.67525 -9.80925  8.02575
C -2.67525 -8.02575  9.80925
C -0.89175 -9.80925  9.80925
C -0.89175 -8.02575  8.02575
C -3.56700 -10.70100 10.70100
C -3.56700 -8.91750 12.48450
C -1.78350 -10.70100 12.48450
C -1.78350 -8.91750 10.70100
C -2.67525 -9.80925 11.59275
C -2.67525 -8.02575 13.37625
C -0.89175 -9.80925 13.37625
C -0.89175 -8.02575 11.59275
C -3.56700 -10.70100 14.26800
C -3.56700 -8.91750 16.05150
C -1.78350 -10.70100 16.05150
C -1.78350 -8.91750 14.26800
C -2.67525 -9.80925 15.15975
C -2.67525 -8.02575 16.94325
C -0.89175 -9.80925 16.94325
C -0.89175 -8.02575 15.15975
C -3.56700 -7.13400  0.00000
C -3.56700 -5.35050  1.78350
C -1.78350 -7.13400  1.78350
C -1.78350 -5.35050  0.00000
C -2.67525 -6.24225  0.89175
C -2.67525 -4.45875  2.67525
C -0.89175 -6.24225  2.67525
C -0.89175 -4.45875  0.89175
C -3.56700 -7.13400  3.56700
C -3.56700 -5.35050  5.35050
C -1.78350 -7.13400  5.35050
C -1.78350 -5.35050  3.56700
C -2.67525 -6.24225  4.45875
C -2.67525 -4.45875  6.24225
C -0.89175 -6.24225  6.24225
C -0.89175 -4.45875  4.45875
C -3.56700 -7.13400  7.13400
C -3.56700 -5.35050  8.91750
C -1.78350 -7.13400  8.91750
C -1.78350 -5.35050  7.13400
C -2.67525 -6.24225  8.02575
C -2.67525 -4.45875  9.80925
C -0.89175 -6.24225  9.80925
C -0.89175 -4.45875  8.02575
C -3.56700 -7.13400 10.70100
C -3.56700 -5.35050 12.48450
C -1.78350 -7.13400 12.48450
C -1.78350 -5.35050 10.70100
C -2.67525 -6.24225 11.59275
C -2.67525 -4.45875 13.37625
C -0.89175 -6.24225 13.37625
C -0.89175 -4.45875 11.59275
C -3.56700 -7.13400 14.26800
C -3.56700 -5.35050 16.05150
C -1.78350 -7.13400 16.05150
C -1.78350 -5.35050 14.26800
C -2.67525 -6.24225 15.15975
C -2.67525 -4.45875 16.94325
C -0.89175 -6.24225 16.94325
C -0.89175 -4.45875 15.15975
C -3.56700 -3.56700  0.00000
C -3.56700 -1.78350  1.78350
C -1.78350 -3.56700  1.78350
C -1.78350 -1.78350  0.00000
C -2.67525 -2.67525  0.89175
C -2.67525 -0.89175  2.67525
C -0.89175 -2.67525  2.67525
C -0.89175 -0.89175  0.89175
C -3.56700 -3.56700  3.56700
C -3.56700 -1.78350  5.35050
C -1.78350 -3.56700  5.35050
C -1.78350 -1.78350  3.56700
C -2.67525 -2.67525  4.45875
C -2.67525 -0.89175  6.24225
C -0.89175 -2.67525  6.24225
C -0.89175 -0.89175  4.45875
C -3.56700 -3.56700  7.13400
C -3.56700 -1.78350  8.91750
C -1.78350 -3.56700  8.91750
C -1.78350 -1.78350  7.13400
C -2.67525 -2.67525  8.02575
C -2.67525 -0.89175  9.80925
C -0.89175 -2.67525  9.80925
C -0.89175 -0.89175  8.02575
C -3.56700 -3.56700 10.70100
C -3.56700 -1.78350 12.48450
C -1.78350 -3.56700 12.48450
C -1.78350 -1.78350 10.70100
C -2.67525 -2.67525 11.59275
C -2.67525 -0.89175 13.37625
C -0.89175 -2.67525 13.37625
C -0.89175 -0.89175 11.59275
C -3.56700 -3.56700 14.26800
C -3.56700 -1.78350 16.05150
C -1.78350 -3.56700 16.05150
C -1.78350 -1.78350 14.26800
C -2.67525 -2.67525 15.15975
C -2.67525 -0.89175 16.94325
C -0.89175 -2.67525 16.94325
C -0.89175 -0.89175 15.15975
N -17.83500 -17.83500 17.83500
C -17.83500 -16.05150 19.61850
C -16.05150 -17.83500 19.61850
C -16.05150 -16.05150 17.83500
C -16.94325 -16.94325 18.72675
C -16.94325 -15.15975 20.51025
C -15.15975 -16.94325 20.51025
C -15.15975 -15.15975 18.72675
C -17.83500 -17.83500 21.40200
C -17.83500 -16.05150 23.18550
C -16.05150 -17.83500 23.18550
C -16.05150 -16.05150 21.40200
C -16.94325 -16.94325 22.29375
C -16.94325 -15.15975 24.07725
C -15.15975 -16.94325 24.07725
C -15.15975 -15.15975 22.29375
C -17.83500 -17.83500 24.96900
C -17.83500 -16.05150 26.75250
C -16.05150 -17.83500 26.75250
C -16.05150 -16.05150 24.96900
C -16.94325 -16.94325 25.86075
C -16.94325 -15.15975 27.64425
C -15.15975 -16.94325 27.64425
C -15.15975 -15.15975 25.86075
C -17.83500 -17.83500 28.53600
C -17.83500 -16.05150 30.31950
C -16.05150 -17.83500 30.31950
C -16.05150 -16.05150 28.53600
C -16.94325 -16.94325 29.42775
C -16.94325 -15.15975 31.21125
C -15.15975 -16.94325 31.21125
C -15.15975 -15.15975 29.42775
C -17.83500 -17.83500 32.10300
C -17.83500 -16.05150 33.88650
C -16.05150 -17.83500 33.88650
C -16.05150 -16.05150 32.10300
C -16.94325 -16.94325 32.99475
C -16.94325 -15.15975 34.77825
C -15.15975 -16.94325 34.77825
C -15.15975 -15.15975 32.99475
C -17.83500 -14.26800 17.83500
C -17.83500 -12.48450 19.61850
C -16.05150 -14.26800 19.61850
C -16.05150 -12.48450 17.83500
C -16.94325 -13.37625 18.72675
C -16.94325 -11.59275 20.51025
C -15.15975 -13.37625 20.51025
C -15.15975 -11.59275 18.72675
C -17.83500 -14.26800 21.40200
C -17.83500 -12.48450 23.18550
C -16.05150 -14.26800 23.18550
C -16.05150 -12.48450 21.40200
C -16.94325 -13.37625 22.29375
C -16.94325 -11.59275 24.07725
C -15.15975 -13.37625 24.07725
C -15.15975 -11.59275 22.29375
C -17.83500 -14.26800 24.96900
C -17.83500 -12.48450 26.75250
C -16.05150 -14.26800 26.75250
C -16.05150 -12.48450 24.96900
C -16.94325 -13.37625 25.86075
C -16.94325 -11.59275 27.64425
C -15.15975 -13.37625 27.64425
C -15.15975 -11.59275 25.86075
C -17.83500 -14.26800 28.53600
C -17.83500 -12.48450 30.31950
C -16.05150 -14.26800 30.31950
C -16.05150 -12.48450 28.53600
C -16.94325 -13.37625 29.42775
C -16.94325 -11.59275 31.21125
C -15.15975 -13.37625 31.21125
C -15.15975 -11.59275 29.42775
C -17.83500 -14.26800 32.10300
C -17.83500 -12.48450 33.88650
C -16.05150 -14.26800 33.88650
C -16.05150 -12.48450 32.10300
C -16.94325 -13.37625 32.99475
C -16.94325 -11.59275 34.77825
C -15.15975 -13.37625 34.77825
C -15.15975 -11.59275 32.99475
C -17.83500 -10.70100 17.83500
C -17.83500 -8.91750 19.61850
C -16.05150 -10.70100 19.61850
C -16.05150 -8.91750 17.83500
C -16.94325 -9.80925 18.72675
C -16.94325 -8.02575 20.51025
C -15.15975 -9.80925 20.51025
C -15.15975 -8.02575 18.72675
C -17.83500 -10.70100 21.40200
C -17.83500 -8.91750 23.18550
C -16.05150 -10.70100 23.18550
C -16.05150 -8.91750 21.40200
C -16.94325 -9.80925 22.29375
C -16.94325 -8.02575 24.07725
C -15.15975 -9.80925 24.07725
C -15.15975 -8.02575 22.29375
C -17.83500 -10.70100 24.96900
C -17.83500 -8.91750 26.75250
C -16.05150 -10.70100 26.75250
C -16.05150 -8.91750 24.96900
C -16.94325 -9.80925 25.86075
C -16.94325 -8.02575 27.64425
C -15.15975 -9.80925 27.64425
C -15.15975 -8.02575 25.86075
C -17.83500 -10.70100 28.53600
C -17.83500 -8.91750 30.31950
C -16.05150 -10.70100 30.31950
C -16.05150 -8.91750 28.53600
C -16.94325 -9.80925 29.42775
C -16.94325 -8.02575 31.21125
C -15.15975 -9.80925 31.21125
C -15.15975 -8.02575 29.42775
C -17.83500 -10.70100 32.10300
C -17.83500 -8.91750 33.88650
C -16.05150 -10.70100 33.88650
C -16.05150 -8.91750 32.10300
C -16.94325 -9.80925 32.99475
C -16.94325 -8.02575 34.77825
C -15.15975 -9.80925 34.77825
C -15.15975 -8.02575 32.99475
C -17.83500 -7.13400 17.83500
C -17.83500 -5.35050 19.61850
C -16.05150 -7.13400 19.61850
C -16.05150 -5.35050 17.83500
C -16.94325 -6.24225 18.72675
C -16.94325 -4.45875 20.51025
C -15.15975 -6.24225 20.51025
C -15.15975 -4.45875 18.72675
C -17.83500 -7.13400 21.40200
C -17.83500 -5.35050 23.18550
C -16.05150 -7.13400 23.18550
C -16.05150 -5.35050 21.40200
C -16.94325 -6.24225 22.29375
C -16.94325 -4.45875 24.07725
C -15.15975 -6.24225 24.07725
C -15.15975 -4.45875 22.29375
C -17.83500 -7.13400 24.96900
C -17.83500 -5.35050 26.75250
C -16.05150 -7.13400 26.75250
C -16.05150 -5.35050 24.96900
C -16.94325 -6.24225 25.86075
C -16.94325 -4.45875 27.64425
C -15.15975 -6.24225 27.64425
C -15.15975 -4.45875 25.86075
C -17.83500 -7.13400 28.53600
C -17.83500 -5.35050 30.31950
C -16.05150 -7.13400 30.31950
C -16.05150 -5.35050 28.53600
C -16.94325 -6.24225 29.42775
C -16.94325 -4.45875 31.21125
C -15.15975 -6.24225 31.21125
C -15.15975 -4.45875 29.42775
C -17.83500 -7.13400 32.10300
C -17.83500 -5.35050 33.88650
C -16.05150 -7.13400 33.88650
C -16.05150 -5.35050 32.10300
C -16.94325 -6.24225 32.99475
C -16.94325 -4.45875 34.77825
C -15.15975 -6.24225 34.77825
C -15.15975 -4.45875 32.99475
C -17.83500 -3.56700 17.83500
C -17.83500 -1.78350 19.61850
C -16.05150 -3.56700 19.61850
C -16.05150 -1.78350 17.83500
C -16.94325 -2.67525 18.72675
C -16.94325 -0.89175 20.51025
C -15.15975 -2.67525 20.51025
C -15.15975 -0.89175 18.72675
C -17.83500 -3.56700 21.40200
C -17.83500 -1.78350 23.18550
C -16.05150 -3.56700 23.18550
C -16.05150 -1.78350 21.40200
C -16.94325 -2.67525 22.29375
C -16.94325 -0.89175 24.07725
C -15.15975 -2.67525 24.07725
C -15.15975 -0.89175 22.29375
C -17.83500 -3.56700 24.96900
C -17.83500 -1.78350 26.75250
C -16.05150 -3.56700 26.75250
C -16.05150 -1.78350 24.96900
C -16.94325 -2.67525 25.86075
C -16.94325 -0.89175 27.64425
C -15.15975 -2.67525 27.64425
C -15.15975 -0.89175 25.86075
C -17.83500 -3.56700 28.53600
C -17.83500 -1.78350 30.31950
C -16.05150 -3.56700 30.31950
C -16.05150 -1.78350 28.53600
C -16.94325 -2.67525 29.42775
C -16.94325 -0.89175 31.21125
C -15.15975 -2.67525 31.21125
C -15.15975 -0.89175 29.42775
C -17.83500 -3.56700 32.10300
C -17.83500 -1.78350 33.88650
C -16.05150 -3.56700 33.88650
C -16.05150 -1.78350 32.10300
C -16.94325 -2.67525 32.99475
C -16.94325 -0.89175 34.77825
C -15.15975 -2.67525 34.77825
C -15.15975 -0.89175 32.99475
C -14.26800 -17.83500 17.83500
C -14.26800 -16.05150 19.61850
C -12.48450 -17.83500 19.61850
C -12.48450 -16.05150 17.83500
C -13.37625 -16.94325 18.72675
C -13.37625 -15.15975 20.51025
C -11.59275 -16.94325 20.51025
C -11.59275 -15.15975 18.72675
C -14.26800 -17.83500 21.40200
C -14.26800 -16.05150 23.18550
C -12.48450 -17.83500 23.18550
C -12.48450 -16.05150 21.40200
C -13.37625 -16.94325 22.29375
C -13.37625 -15.15975 24.07725
C -11.59275 -16.94325 24.07725
C -11.59275 -15.15975 22.29375
C -14.26800 -17.83500 24.96900
C -14.26800 -16.05150 26.75250
C -12.48450 -17.83500 26.75250
C -12.48450 -16.05150 24.96900
C -13.37625 -16.94325 25.86075
C -13.37625 -15.15975 27.64425
C -11.59275 -16.94325 27.64425
C -11.59275 -15.15975 25.86075
C -14.26800 -17.83500 28.53600
C -14.26800 -16.05150 30.31950
C -12.48450 -17.83500 30.31950
C -12.48450 -16.05150 28.53600
C -13.37625 -16.94325 29.42775
C -13.37625 -15.15975 31.21125
C -11.59275 -16.94325 31.21125
C -11.59275 -15.15975 29.42775
C -14.26800 -17.83500 32.10300
C -14.26800 -16.05150 33.88650
C -12.48450 -17.83500 33.88650
C -12.48450 -16.05150 32.10300
C -13.37625 -16.94325 32.99475
C -13.37625 -15.15975 34.77825
C -11.59275 -16.94325 34.77825
C -11.59275 -15.15975 32.99475
C -14.26800 -14.26800 17.83500
C -14.26800 -12.48450 19.61850
C -12.48450 -14.26800 19.61850
C -12.48450 -12.48450 17.83500
C -13.37625 -13.37625 18.72675
C -13.37625 -11.59275 20.51025
C -11.59275 -13.37625 20.51025
C -11.59275 -11.59275 18.72675
C -14.26800 -14.26800 21.40200
C -14.26800 -12.48450 23.18550
C -12.48450 -14.26800 23.18550
C -12.48450 -12.48450 21.40200
C -13.37625 -13.37625 22.29375
C -13.37625 -11.59275 24.07725
C -11.59275 -13.37625 24.07725
C -11.59275 -11.59275 22.29375
C -14.26800 -14.26800 24.96900
C -14.26800 -12.48450 26.75250
C -12.48450 -14.26800 26.75250
C -12.48450 -12.48450 24.96900
C -13.37625 -13.37625 25.86075
C -13.37625 -11.59275 27.64425
C -11.59275 -13.37625 27.64425
C -11.59275 -11.59275 25.86075
C -14.26800 -14.26800 28.53600
C -14.26800 -12.48450 30.31950
C -12.48450 -14.26800 30.31950
C -12.48450 -12.48450 28.53600
C -13.37625 -13.37625 29.42775
C -13.37625 -11.59275 31.21125
C -11.59275 -13.37625 31.21125
C -11.59275 -11.59275 29.42775
C -14.26800 -14.26800 32.10300
C -14.26800 -12.48450 33.88650
C -12.48450 -14.26800 33.88650
C -12.48450 -12.48450 32.10300
C -13.37625 -13.37625 32.99475
C -13.37625 -11.59275 34.77825
C -11.59275 -13.37625 34.77825
C -11.59275 -11.59275 32.99475
C -14.26800 -10.70100 17.83500
C -14.26800 -8.91750 19.61850
C -12.48450 -10.70100 19.61850
C -12.48450 -8.91750 17.83500
C -13.37625 -9.80925 18.72675
C -13.37625 -8.02575 20.51025
C -11.59275 -9.80925 20.51025
C -11.59275 -8.02575 18.72675
C -14.26800 -10.70100 21.40200
C -14.26800 -8.91750 23.18550
C -12.48450 -10.70100 23.18550
C -12.48450 -8.91750 21.40200
C -13.37625 -9.80925 22.29375
C -13.37625 -8.02575 24.07725
C -11.59275 -9.80925 24.07725
C -11.59275 -8.02575 22.29375
C -14.26800 -10.70100 24.96900
C -14.26800 -8.91750 26.75250
C -12.48450 -10.70100 26.75250
C -12.48450 -8.91750 24.96900
C -13.37625 -9.80925 25.86075
C -13.37625 -8.02575 27.64425
C -11.59275 -9.80925 27.64425
C -11.59275 -8.02575 25.86075
C -14.26800 -10.70100 28.53600
C -14.26800 -8.91750 30.31950
C -12.48450 -10.70100 30.31950
C -12.48450 -8.91750 28.53600
C -13.37625 -9.80925 29.42775
C -13.37625 -8.02575 31.21125
C -11.59275 -9.80925 31.21125
C -11.59275 -8.02575 29.42775
C -14.26800 -10.70100 32.10300
C -14.26800 -8.91750 33.88650
C -12.48450 -10.70100 33.88650
C -12.48450 -8.91750 32.10300
C -13.37625 -9.80925 32.99475
C -13.37625 -8.02575 34.77825
C -11.59275 -9.80925 34.77825
C -11.59275 -8.02575 32.99475
C -14.26800 -7.13400 17.83500
C -14.26800 -5.35050 19.61850
C -12.48450 -7.13400 19.61850
C -12.48450 -5.35050 17.83500
C -13.37625 -6.24225 18.72675
C -13.37625 -4.45875 20.51025
C -11.59275 -6.24225 20.51025
C -11.59275 -4.45875 18.72675
C -14.26800 -7.13400 21.40200
C -14.26800 -5.35050 23.18550
C -12.48450 -7.13400 23.18550
C -12.48450 -5.35050 21.40200
C -13.37625 -6.24225 22.29375
C -13.37625 -4.45875 24.07725
C -11.59275 -6.24225 24.07725
C -11.59275 -4.45875 22.29375
C -14.26800 -7.13400 24.96900
C -14.26800 -5.35050 26.75250
C -12.48450 -7.13400 26.75250
C -12.48450 -5.35050 24.96900
C -13.37625 -6.24225 25.86075
C -13.37625 -4.45875 27.64425
C -11.59275 -6.24225 27.64425
C -11.59275 -4.45875 25.86075
C -14.26800 -7.13400 28.53600
C -14.26800 -5.35050 30.31950
C -12.48450 -7.13400 30.31950
C -12.48450 -5.35050 28.53600
C -13.37625 -6.24225 29.42775
C -13.37625 -4.45875 31.21125
C -11.59275 -6.24225 31.21125
C -11.59275 -4.45875 29.42775
C -14.26800 -7.13400 32.10300
C -14.26800 -5.35050 33.88650
C -12.48450 -7.13400 33.88650
C -12.48450 -5.35050 32.10300
C -13.37625 -6.24225 32.99475
C -13.37625 -4.45875 34.77825
C -11.59275 -6.24225 34.77825
C -11.59275 -4.45875 32.99475
C -14.26800 -3.56700 17.83500
C -14.26800 -1.78350 19.61850
C -12.48450 -3.56700 19.61850
C -12.48450 -1.78350 17.83500
C -13.37625 -2.67525 18.72675
C -13.37625 -0.89175 20.51025
C -11.59275 -2.67525 20.51025
C -11.59275 -0.89175 18.72675
C -14.26800 -3.56700 21.40200
C -14.26800 -1.78350 23.18550
C -12.48450 -3.56700 23.18550
C -12.48450 -1.78350 21.40200
C -13.37625 -2.67525 22.29375
C -13.37625 -0.89175 24.07725
C -11.59275 -2.67525 24.07725
C -11.59275 -0.89175 22.29375
C -14.26800 -3.56700 24.96900
C -14.26800 -1.78350 26.75250
C -12.48450 -3.56700 26.75250
C -12.48450 -1.78350 24.96900
C -13.37625 -2.67525 25.86075
C -13.37625 -0.89175 27.64425
C -11.59275 -2.67525 27.64425
C -11.59275 -0.89175 25.86075
C -14.26800 -3.56700 28.53600
C -14.26800 -1.78350 30.31950
C -12.48450 -3.56700 30.31950
C -12.48450 -1.78350 28.53600
C -13.37625 -2.67525 29.42775
C -13.37625 -0.89175 31.21125
C -11.59275 -2.67525 31.21125
C -11.59275 -0.89175 29.42775
C -14.26800 -3.56700 32.10300
C -14.26800 -1.78350 33.88650
C -12.48450 -3.56700 33.88650
C -12.48450 -1.78350 32.10300
C -13.37625 -2.67525 32.99475
C -13.37625 -0.89175 34.77825
C -11.59275 -2.67525 34.77825
C -11.59275 -0.89175 32.99475
C -10.70100 -17.83500 17.83500
C -10.70100 -16.05150 19.61850
C -8.91750 -17.83500 19.61850
C -8.91750 -16.05150 17.83500
C -9.80925 -16.94325 18.72675
C -9.80925 -15.15975 20.51025
C -8.02575 -16.94325 20.51025
C -8.02575 -15.15975 18.72675
C -10.70100 -17.83500 21.40200
C -10.70100 -16.05150 23.18550
C -8.91750 -17.83500 23.18550
C -8.91750 -16.05150 21.40200
C -9.80925 -16.94325 22.29375
C -9.80925 -15.15975 24.07725
C -8.02575 -16.94325 24.07725
C -8.02575 -15.15975 22.29375
C -10.70100 -17.83500 24.96900
C -10.70100 -16.05150 26.75250
C -8.91750 -17.83500 26.75250
C -8.91750 -16.05150 24.96900
C -9.80925 -16.94325 25.86075
C -9.80925 -15.15975 27.64425
C -8.02575 -16.94325 27.64425
C -8.02575 -15.15975 25.86075
C -10.70100 -17.83500 28.53600
C -10.70100 -16.05150 30.31950
C -8.91750 -17.83500 30.31950
C -8.91750 -16.05150 28.53600
C -9.80925 -16.94325 29.42775
C -9.80925 -15.15975 31.21125
C -8.02575 -16.94325 31.21125
C -8.02575 -15.15975 29.42775
C -10.70100 -17.83500 32.10300
C -10.70100 -16.05150 33.88650
C -8.91750 -17.83500 33.88650
C -8.91750 -16.05150 32.10300
C -9.80925 -16.94325 32.99475
C -9.80925 -15.15975 34.77825
C -8.02575 -16.94325 34.77825
C -8.02575 -15.15975 32.99475
C -10.70100 -14.26800 17.83500
C -10.70100 -12.48450 19.61850
C -8.91750 -14.26800 19.61850
C -8.91750 -12.48450 17.83500
C -9.80925 -13.37625 18.72675
C -9.80925 -11.59275 20.51025
C -8.02575 -13.37625 20.51025
C -8.02575 -11.59275 18.72675
C -10.70100 -14.26800 21.40200
C -10.70100 -12.48450 23.18550
C -8.91750 -14.26800 23.18550
C -8.91750 -12.48450 21.40200
C -9.80925 -13.37625 22.29375
C -9.80925 -11.59275 24.07725
C -8.02575 -13.37625 24.07725
C -8.02575 -11.59275 22.29375
C -10.70100 -14.26800 24.96900
C -10.70100 -12.48450 26.75250
C -8.91750 -14.26800 26.75250
C -8.91750 -12.48450 24.96900
C -9.80925 -13.37625 25.86075
C -9.80925 -11.59275 27.64425
C -8.02575 -13.37625 27.64425
C -8.02575 -11.59275 25.86075
C -10.70100 -14.26800 28.53600
C -10.70100 -12.48450 30.31950
C -8.91750 -14.26800 30.31950
C -8.91750 -12.48450 28.53600
C -9.80925 -13.37625 29.42775
C -9.80925 -11.59275 31.21125
C -8.02575 -13.37625 31.21125
C -8.02575 -11.59275 29.42775
C -10.70100 -14.26800 32.10300
C -10.70100 -12.48450 33.88650
C -8.91750 -14.26800 33.88650
C -8.91750 -12.48450 32.10300
C -9.80925 -13.37625 32.99475
C -9.80925 -11.59275 34.77825
C -8.02575 -13.37625 34.77825
C -8.02575 -11.59275 32.99475
C -10.70100 -10.70100 17.83500
C -10.70100 -8.91750 19.61850
C -8.91750 -10.70100 19.61850
C -8.91750 -8.91750 17.83500
C -9.80925 -9.80925 18.72675
C -9.80925 -8.02575 20.51025
C -8.02575 -9.80925 20.51025
C -8.02575 -8.02575 18.72675
C -10.70100 -10.70100 21.40200
C -10.70100 -8.91750 23.18550
C -8.91750 -10.70100 23.18550
C -8.91750 -8.91750 21.40200
C -9.80925 -9.80925 22.29375
C -9.80925 -8.02575 24.07725
C -8.02575 -9.80925 24.07725
C -8.02575 -8.02575 22.29375
C -10.70100 -10.70100 24.96900
C -10.70100 -8.91750 26.75250
C -8.91750 -10.70100 26.75250
C -8.91750 -8.91750 24.96900
C -9.80925 -9.80925 25.86075
C -9.80925 -8.02575 27.64425
C -8.02575 -9.80925 27.64425
C -8.02575 -8.02575 25.86075
C -10.70100 -10.70100 28.53600
C -10.70100 -8.91750 30.31950
C -8.91750 -10.70100 30.31950
C -8.91750 -8.91750 28.53600
C -9.80925 -9.80925 29.42775
C -9.80925 -8.02575 31.21125
C -8.02575 -9.80925 31.21125
C -8.02575 -8.02575 29.42775
C -10.70100 -10.70100 32.10300
C -10.70100 -8.91750 33.88650
C -8.91750 -10.70100 33.88650
C -8.91750 -8.91750 32.10300
C -9.80925 -9.80925 32.99475
C -9.80925 -8.02575 34.77825
C -8.02575 -9.80925 34.77825
C -8.02575 -8.02575 32.99475
C -10.70100 -7.13400 17.83500
C -10.70100 -5.35050 19.61850
C -8.91750 -7.13400 19.61850
C -8.91750 -5.35050 17.83500
C -9.80925 -6.24225 18.72675
C -9.80925 -4.45875 20.51025
C -8.02575 -6.24225 20.51025
C -8.02575 -4.45875 18.72675
C -10.70100 -7.13400 21.40200
C -10.70100 -5.35050 23.18550
C -8.91750 -7.13400 23.18550
C -8.91750 -5.35050 21.40200
C -9.80925 -6.24225 22.29375
C -9.80925 -4.45875 24.07725
C -8.02575 -6.24225 24.07725
C -8.02575 -4.45875 22.29375
C -10.70100 -7.13400 24.96900
C -10.70100 -5.35050 26.75250
C -8.91750 -7.13400 26.75250
C -8.91750 -5.35050 24.96900
C -9.80925 -6.24225 25.86075
C -9.80925 -4.45875 27.64425
C -8.02575 -6.24225 27.64425
C -8.02575 -4.45875 25.86075
C -10.70100 -7.13400 28.53600
C -10.70100 -5.35050 30.31950
C -8.91750 -7.13400 30.31950
C -8.91750 -5.35050 28.53600
C -9.80925 -6.24225 29.42775
C -9.80925 -4.45875 31.21125
C -8.02575 -6.24225 31.21125
C -8.02575 -4.45875 29.42775
C -10.70100 -7.13400 32.10300
C -10.70100 -5.35050 33.88650
C -8.91750 -7.13400 33.88650
C -8.91750 -5.35050 32.10300
C -9.80925 -6.24225 32.99475
C -9.80925 -4.45875 34.77825
C -8.02575 -6.24225 34.77825
C -8.02575 -4.45875 32.99475
C -10.70100 -3.56700 17.83500
C -10.70100 -1.78350 19.61850
C -8.91750 -3.56700 19.61850
C -8.91750 -1.78350 17.83500
C -9.80925 -2.67525 18.72675
C -9.80925 -0.89175 20.51025
C -8.02575 -2.67525 20.51025
C -8.02575 -0.89175 18.72675
C -10.70100 -3.56700 21.40200
C -10.70100 -1.78350 23.18550
C -8.91750 -3.56700 23.18550
C -8.91750 -1.78350 21.40200
C -9.80925 -2.67525 22.29375
C -9.80925 -0.89175 24.07725
C -8.02575 -2.67525 24.07725
C -8.02575 -0.89175 22.29375
C -10.70100 -3.56700 24.96900
C -10.70100 -1.78350 26.75250
C -8.91750 -3.56700 26.75250
C -8.91750 -1.78350 24.96900
C -9.80925 -2.67525 25.86075
C -9.80925 -0.89175 27.64425
C -8.02575 -2.67525 27.64425
C -8.02575 -0.89175 25.86075
C -10.70100 -3.56700 28.53600
C -10.70100 -1.78350 30.31950
C -8.91750 -3.56700 30.31950
C -8.91750 -1.78350 28.53600
C -9.80925 -2.67525 29.42775
C -9.80925 -0.89175 31.21125
C -8.02575 -2.67525 31.21125
C -8.02575 -0.89175 29.42775
C -10.70100 -3.56700 32.10300
C -10.70100 -1.78350 33.88650
C -8.91750 -3.56700 33.88650
C -8.91750 -1.78350 32.10300
C -9.80925 -2.67525 32.99475
C -9.80925 -0.89175 34.77825
C -8.02575 -2.67525 34.77825
C -8.02575 -0.89175 32.99475
C -7.13400 -17.83500 17.83500
C -7.13400 -16.05150 19.61850
C -5.35050 -17.83500 19.61850
C -5.35050 -16.05150 17.83500
C -6.24225 -16.94325 18.72675
C -6.24225 -15.15975 20.51025
C -4.45875 -16.94325 20.51025
C -4.45875 -15.15975 18.72675
C -7.13400 -17.83500 21.40200
C -7.13400 -16.05150 23.18550
C -5.35050 -17.83500 23.18550
C -5.35050 -16.05150 21.40200
C -6.24225 -16.94325 22.29375
C -6.24225 -15.15975 24.07725
C -4.45875 -16.94325 24.07725
C -4.45875 -15.15975 22.29375
C -7.13400 -17.83500 24.96900
C -7.13400 -16.05150 26.75250
C -5.35050 -17.83500 26.75250
C -5.35050 -16.05150 24.96900
C -6.24225 -16.94325 25.86075
C -6.24225 -15.15975 27.64425
C -4.45875 -16.94325 27.64425
C -4.45875 -15.15975 25.86075
C -7.13400 -17.83500 28.53600
C -7.13400 -16.05150 30.31950
C -5.35050 -17.83500 30.31950
C -5.35050 -16.05150 28.53600
C -6.24225 -16.94325 29.42775
C -6.24225 -15.15975 31.21125
C -4.45875 -16.94325 31.21125
C -4.45875 -15.15975 29.42775
C -7.13400 -17.83500 32.10300
C -7.13400 -16.05150 33.88650
C -5.35050 -17.83500 33.88650
C -5.35050 -16.05150 32.10300
C -6.24225 -16.94325 32.99475
C -6.24225 -15.15975 34.77825
C -4.45875 -16.94325 34.77825
C -4.45875 -15.15975 32.99475
C -7.13400 -14.26800 17.83500
C -7.13400 -12.48450 19.61850
C -5.35050 -14.26800 19.61850
C -5.35050 -12.48450 17.83500
C -6.24225 -13.37625 18.72675
C -6.24225 -11.59275 20.51025
C -4.45875 -13.37625 20.51025
C -4.45875 -11.59275 18.72675
C -7.13400 -14.26800 21.40200
C -7.13400 -12.48450 23.18550
C -5.35050 -14.26800 23.18550
C -5.35050 -12.48450 21.40200
C -6.24225 -13.37625 22.29375
C -6.24225 -11.59275 24.07725
C -4.45875 -13.37625 24.07725
C -4.45875 -11.59275 22.29375
C -7.13400 -14.26800 24.96900
C -7.13400 -12.48450 26.75250
C -5.35050 -14.26800 26.75250
C -5.35050 -12.48450 24.96900
C -6.24225 -13.37625 25.86075
C -6.24225 -11.59275 27.64425
C -4.45875 -13.37625 27.64425
C -4.45875 -11.59275 25.86075
C -7.13400 -14.26800 28.53600
C -7.13400 -12.48450 30.31950
C -5.35050 -14.26800 30.31950
C -5.35050 -12.48450 28.53600
C -6.24225 -13.37625 29.42775
C -6.24225 -11.59275 31.21125
C -4.45875 -13.37625 31.21125
C -4.45875 -11.59275 29.42775
C -7.13400 -14.26800 32.10300
C -7.13400 -12.48450 33.88650
C -5.35050 -14.26800 33.88650
C -5.35050 -12.48450 32.10300
C -6.24225 -13.37625 32.99475
C -6.24225 -11.59275 34.77825
C -4.45875 -13.37625 34.77825
C -4.45875 -11.59275 32.99475
C -7.13400 -10.70100 17.83500
C -7.13400 -8.91750 19.61850
C -5.35050 -10.70100 19.61850
C -5.35050 -8.91750 17.83500
C -6.24225 -9.80925 18.72675
C -6.24225 -8.02575 20.51025
C -4.45875 -9.80925 20.51025
C -4.45875 -8.02575 18.72675
C -7.13400 -10.70100 21.40200
C -7.13400 -8.91750 23.18550
C -5.35050 -10.70100 23.18550
C -5.35050 -8.91750 21.40200
C -6.24225 -9.80925 22.29375
C -6.24225 -8.02575 24.07725
C -4.45875 -9.80925 24.07725
C -4.45875 -8.02575 22.29375
C -7.13400 -10.70100 24.96900
C -7.13400 -8.91750 26.75250
C -5.35050 -10.70100 26.75250
C -5.35050 -8.91750 24.96900
C -6.24225 -9.80925 25.86075
C -6.24225 -8.02575 27.64425
C -4.45875 -9.80925 27.64425
C -4.45875 -8.02575 25.86075
C -7.13400 -10.70100 28.53600
C -7.13400 -8.91750 30.31950
C -5.35050 -10.70100 30.31950
C -5.35050 -8.91750 28.53600
C -6.24225 -9.80925 29.42775
C -6.24225 -8.02575 31.21125
C -4.45875 -9.80925 31.21125
C -4.45875 -8.02575 29.42775
C -7.13400 -10.70100 32.10300
C -7.13400 -8.91750 33.88650
C -5.35050 -10.70100 33.88650
C -5.35050 -8.91750 32.10300
C -6.24225 -9.80925 32.99475
C -6.24225 -8.02575 34.77825
C -4.45875 -9.80925 34.77825
C -4.45875 -8.02575 32.99475
C -7.13400 -7.13400 17.83500
C -7.13400 -5.35050 19.61850
C -5.35050 -7.13400 19.61850
C -5.35050 -5.35050 17.83500
C -6.24225 -6.24225 18.72675
C -6.24225 -4.45875 20.51025
C -4.45875 -6.24225 20.51025
C -4.45875 -4.45875 18.72675
C -7.13400 -7.13400 21.40200
C -7.13400 -5.35050 23.18550
C -5.35050 -7.13400 23.18550
C -5.35050 -5.35050 21.40200
C -6.24225 -6.24225 22.29375
C -6.24225 -4.45875 24.07725
C -4.45875 -6.24225 24.07725
C -4.45875 -4.45875 22.29375
C -7.13400 -7.13400 24.96900
C -7.13400 -5.35050 26.75250
C -5.35050 -7.13400 26.75250
C -5.35050 -5.35050 24.96900
C -6.24225 -6.24225 25.86075
C -6.24225 -4.45875 27.64425
C -4.45875 -6.24225 27.64425
C -4.45875 -4.45875 25.86075
C -7.13400 -7.13400 28.53600
C -7.13400 -5.35050 30.31950
C -5.35050 -7.13400 30.31950
C -5.35050 -5.35050 28.53600
C -6.24225 -6.24225 29.42775
C -6.24225 -4.45875 31.21125
C -4.45875 -6.24225 31.21125
C -4.45875 -4.45875 29.42775
C -7.13400 -7.13400 32.10300
C -7.13400 -5.35050 33.88650
C -5.35050 -7.13400 33.88650
C -5.35050 -5.35050 32.10300
C -6.24225 -6.24225 32.99475
C -6.24225 -4.45875 34.77825
C -4.45875 -6.24225 34.77825
C -4.45875 -4.45875 32.99475
C -7.13400 -3.56700 17.83500
C -7.13400 -1.78350 19.61850
C -5.35050 -3.56700 19.61850
C -5.35050 -1.78350 17.83500
C -6.24225 -2.67525 18.72675
C -6.24225 -0.89175 20.51025
C -4.45875 -2.67525 20.51025
C -4.45875 -0.89175 18.72675
C -7.13400 -3.56700 21.40200
C -7.13400 -1.78350 23.18550
C -5.35050 -3.56700 23.18550
C -5.35050 -1.78350 21.40200
C -6.24225 -2.67525 22.29375
C -6.24225 -0.89175 24.07725
C -4.45875 -2.67525 24.07725
C -4.45875 -0.89175 22.29375
C -7.13400 -3.56700 24.96900
C -7.13400 -1.78350 26.75250
C -5.35050 -3.56700 26.75250
C -5.35050 -1.78350 24.96900
C -6.24225 -2.67525 25.86075
C -6.24225 -0.89175 27.64425
C -4.45875 -2.67525 27.64425
C -4.45875 -0.89175 25.86075
C -7.13400 -3.56700 28.53600
C -7.13400 -1.78350 30.31950
C -5.35050 -3.56700 30.31950
C -5.35050 -1.78350 28.53600
C -6.24225 -2.67525 29.42775
C -6.24225 -0.89175 31.21125
C -4.45875 -2.67525 31.21125
C -4.45875 -0.89175 29.42775
C -7.13400 -3.56700 32.10300
C -7.13400 -1.78350 33.88650
C -5.35050 -3.56700 33.88650
C -5.35050 -1.78350 32.10300
C -6.24225 -2.67525 32.99475
C -6.24225 -0.89175 34.77825
C -4.45875 -2.67525 34.77825
C -4.45875 -0.89175 32.99475
C -3.56700 -17.83500 17.83500
C -3.56700 -16.05150 19.61850
C -1.78350 -17.83500 19.61850
C -1.78350 -16.05150 17.83500
C -2.67525 -16.94325 18.72675
C -2.67525 -15.15975 20.51025
C -0.89175 -16.94325 20.51025
C -0.89175 -15.15975 18.72675
C -3.56700 -17.83500 21.40200
C -3.56700 -16.05150 23.18550
C -1.78350 -17.83500 23.18550
C -1.78350 -16.05150 21.40200
C -2.67525 -16.94325 22.29375
C -2.67525 -15.15975 24.07725
C -0.89175 -16.94325 24.07725
C -0.89175 -15.15975 22.29375
C -3.56700 -17.83500 24.96900
C -3.56700 -16.05150 26.75250
C -1.78350 -17.83500 26.75250
C -1.78350 -16.05150 24.96900
C -2.67525 -16.94325 25.86075
C -2.67525 -15.15975 27.64425
C -0.89175 -16.94325 27.64425
C -0.89175 -15.15975 25.86075
C -3.56700 -17.83500 28.53600
C -3.56700 -16.05150 30.31950
C -1.78350 -17.83500 30.31950
C -1.78350 -16.05150 28.53600
C -2.67525 -16.94325 29.42775
C -2.67525 -15.15975 31.21125
C -0.89175 -16.94325 31.21125
C -0.89175 -15.15975 29.42775
C -3.56700 -17.83500 32.10300
C -3.56700 -16.05150 33.88650
C -1.78350 -17.83500 33.88650
C -1.78350 -16.05150 32.10300
C -2.67525 -16.94325 32.99475
C -2.67525 -15.15975 34.77825
C -0.89175 -16.94325 34.77825
C -0.89175 -15.15975 32.99475
C -3.56700 -14.26800 17.83500
C -3.56700 -12.48450 19.61850
C -1.78350 -14.26800 19.61850
C -1.78350 -12.48450 17.83500
C -2.67525 -13.37625 18.72675
C -2.67525 -11.59275 20.51025
C -0.89175 -13.37625 20.51025
C -0.89175 -11.59275 18.72675
C -3.56700 -14.26800 21.40200
C -3.56700 -12.48450 23.18550
C -1.78350 -14.26800 23.18550
C -1.78350 -12.48450 21.40200
C -2.67525 -13.37625 22.29375
C -2.67525 -11.59275 24.07725
C -0.89175 -13.37625 24.07725
C -0.89175 -11.59275 22.29375
C -3.56700 -14.26800 24.96900
C -3.56700 -12.48450 26.75250
C -1.78350 -14.26800 26.75250
C -1.78350 -12.48450 24.96900
C -2.67525 -13.37625 25.86075
C -2.67525 -11.59275 27.64425
C -0.89175 -13.37625 27.64425
C -0.89175 -11.59275 25.86075
C -3.56700 -14.26800 28.53600
C -3.56700 -12.48450 30.31950
C -1.78350 -14.26800 30.31950
C -1.78350 -12.48450 28.53600
C -2.67525 -13.37625 29.42775
C -2.67525 -11.59275 31.21125
C -0.89175 -13.37625 31.21125
C -0.89175 -11.59275 29.42775
C -3.56700 -14.26800 32.10300
C -3.56700 -12.48450 33.88650
C -1.78350 -14.26800 33.88650
C -1.78350 -12.48450 32.10300
C -2.67525 -13.37625 32.99475
C -2.67525 -11.59275 34.77825
C -0.89175 -13.37625 34.77825
C -0.89175 -11.59275 32.99475
C -3.56700 -10.70100 17.83500
C -3.56700 -8.91750 19.61850
C -1.78350 -10.70100 19.61850
C -1.78350 -8.91750 17.83500
C -2.67525 -9.80925 18.72675
C -2.67525 -8.02575 20.51025
C -0.89175 -9.80925 20.51025
C -0.89175 -8.02575 18.72675
C -3.56700 -10.70100 21.40200
C -3.56700 -8.91750 23.18550
C -1.78350 -10.70100 23.18550
C -1.78350 -8.91750 21.40200
C -2.67525 -9.80925 22.29375
C -2.67525 -8.02575 24.07725
C -0.89175 -9.80925 24.07725
C -0.89175 -8.02575 22.29375
C -3.56700 -10.70100 24.96900
C -3.56700 -8.91750 26.75250
C -1.78350 -10.70100 26.75250
C -1.78350 -8.91750 24.96900
C -2.67525 -9.80925 25.86075
C -2.67525 -8.02575 27.64425
C -0.89175 -9.80925 27.64425
C -0.89175 -8.02575 25.86075
C -3.56700 -10.70100 28.53600
C -3.56700 -8.91750 30.31950
C -1.78350 -10.70100 30.31950
C -1.78350 -8.91750 28.53600
C -2.67525 -9.80925 29.42775
C -2.67525 -8.02575 31.21125
C -0.89175 -9.80925 31.21125
C -0.89175 -8.02575 29.42775
C -3.56700 -10.70100 32.10300
C -3.56700 -8.91750 33.88650
C -1.78350 -10.70100 33.88650
C -1.78350 -8.91750 32.10300
C -2.67525 -9.80925 32.99475
C -2.67525 -8.02575 34.77825
C -0.89175 -9.80925 34.77825
C -0.89175 -8.02575 32.99475
C -3.56700 -7.13400 17.83500
C -3.56700 -5.35050 19.61850
C -1.78350 -7.13400 19.61850
C -1.78350 -5.35050 17.83500
C -2.67525 -6.24225 18.72675
C -2.67525 -4.45875 20.51025
C -0.89175 -6.24225 20.51025
C -0.89175 -4.45875 18.72675
C -3.56700 -7.13400 21.40200
C -3.56700 -5.35050 23.18550
C -1.78350 -7.13400 23.18550
C -1.78350 -5.35050 21.40200
C -2.67525 -6.24225 22.29375
C -2.67525 -4.45875 24.07725
C -0.89175 -6.24225 24.07725
C -0.89175 -4.45875 22.29375
C -3.56700 -7.13400 24.96900
C -3.56700 -5.35050 26.75250
C -1.78350 -7.13400 26.75250
C -1.78350 -5.35050 24.96900
C -2.67525 -6.24225 25.86075
C -2.67525 -4.45875 27.64425
C -0.89175 -6.24225 27.64425
C -0.89175 -4.45875 25.86075
C -3.56700 -7.13400 28.53600
C -3.56700 -5.35050 30.31950
C -1.78350 -7.13400 30.31950
C -1.78350 -5.35050 28.53600
C -2.67525 -6.24225 29.42775
C -2.67525 -4.45875 31.21125
C -0.89175 -6.24225 31.21125
C -0.89175 -4.45875 29.42775
C -3.56700 -7.13400 32.10300
C -3.56700 -5.35050 33.88650
C -1.78350 -7.13400 33.88650
C -1.78350 -5.35050 32.10300
C -2.67525 -6.24225 32.99475
C -2.67525 -4.45875 34.77825
C -0.89175 -6.24225 34.77825
C -0.89175 -4.45875 32.99475
C -3.56700 -3.56700 17.83500
C -3.56700 -1.78350 19.61850
C -1.78350 -3.56700 19.61850
C -1.78350 -1.78350 17.83500
C -2.67525 -2.67525 18.72675
C -2.67525 -0.89175 20.51025
C -0.89175 -2.67525 20.51025
C -0.89175 -0.89175 18.72675
C -3.56700 -3.56700 21.40200
C -3.56700 -1.78350 23.18550
C -1.78350 -3.56700 23.18550
C -1.78350 -1.78350 21.40200
C -2.67525 -2.67525 22.29375
C -2.67525 -0.89175 24.07725
C -0.89175 -2.67525 24.07725
C -0.89175 -0.89175 22.29375
C -3.56700 -3.56700 24.96900
C -3.56700 -1.78350 26.75250
C -1.78350 -3.56700 26.75250
C -1.78350 -1.78350 24.96900
C -2.67525 -2.67525 25.86075
C -2.67525 -0.89175 27.64425
C -0.89175 -2.67525 27.64425
C -0.89175 -0.89175 25.86075
C -3.56700 -3.56700 28.53600
C -3.56700 -1.78350 30.31950
C -1.78350 -3.56700 30.31950
C -1.78350 -1.78350 28.53600
C -2.67525 -2.67525 29.42775
C -2.67525 -0.89175 31.21125
C -0.89175 -2.67525 31.21125
C -0.89175 -0.89175 29.42775
C -3.56700 -3.56700 32.10300
C -3.56700 -1.78350 33.88650
C -1.78350 -3.56700 33.88650
C -1.78350 -1.78350 32.10300
C -2.67525 -2.67525 32.99475
C -2.67525 -0.89175 34.77825
C -0.89175 -2.67525 34.77825
C -0.89175 -0.89175 32.99475
N -17.83500  0.00000 -17.83500
C -17.83500  1.78350 -16.05150
C -16.05150  0.00000 -16.05150
C -16.05150  1.78350 -17.83500
C -16.94325  0.89175 -16.94325
C -16.94325  2.67525 -15.15975
C -15.15975  0.89175 -15.15975
C -15.15975  2.67525 -16.94325
C -17.83500  0.00000 -14.26800
C -17.83500  1.78350 -12.48450
C -16.05150  0.00000 -12.48450
C -16.05150  1.78350 -14.26800
C -16.94325  0.89175 -13.37625
C -16.94325  2.67525 -11.59275
C -15.15975  0.89175 -11.59275
C -15.15975  2.67525 -13.37625
C -17.83500  0.00000 -10.70100
C -17.83500  1.78350 -8.91750
C -16.05150  0.00000 -8.91750
C -16.05150  1.78350 -10.70100
C -16.94325  0.89175 -9.80925
C -16.94325  2.67525 -8.02575
C -15.15975  0.89175 -8.02575
C -15.15975  2.67525 -9.80925
C -17.83500  0.00000 -7.13400
C -17.83500  1.78350 -5.35050
C -16.05150  0.00000 -5.35050
C -16.05150  1.78350 -7.13400
C -16.94325  0.89175 -6.24225
C -16.94325  2.67525 -4.45875
C -15.15975  0.89175 -4.45875
C -15.15975  2.67525 -6.24225
C -17.83500  0.00000 -3.56700
C -17.83500  1.78350 -1.78350
C -16.05150  0.00000 -1.78350
C -16.05150  1.78350 -3.56700
C -16.94325  0.89175 -2.67525
C -16.94325  2.67525 -0.89175
C -15.15975  0.89175 -0.89175
C -15.15975  2.67525 -2.67525
C -17.83500  3.56700 -17.83500
C -17.83500  5.35050 -16.05150
C -16.05150  3.56700 -16.05150
C -16.05150  5.35050 -17.83500
C -16.94325  4.45875 -16.94325
C -16.94325  6.24225 -15.15975
C -15.15975  4.45875 -15.15975
C -15.15975  6.24225 -16.94325
C -17.83500  3.56700 -14.26800
C -17.83500  5.35050 -12.48450
C -16.05150  3.56700 -12.48450
C -16.05150  5.35050 -14.26800
C -16.94325  4.45875 -13.37625
C -16.94325  6.24225 -11.59275
C -15.15975  4.45875 -11.59275
C -15.15975  6.24225 -13.37625
C -17.83500  3.56700 -10.70100
C -17.83500  5.35050 -8.91750
C -16.05150  3.56700 -8.91750
C -16.05150  5.35050 -10.70100
C -16.94325  4.45875 -9.80925
C -16.94325  6.24225 -8.02575
C -15.15975  4.45875 -8.02575
C -15.15975  6.24225 -9.80925
C -17.83500  3.56700 -7.13400
C -17.83500  5.35050 -5.35050
C -16.05150  3.56700 -5.35050
C -16.05150  5.35050 -7.13400
C -16.94325  4.45875 -6.24225
C -16.94325  6.24225 -4.45875
C -15.15975  4.45875 -4.45875
C -15.15975  6.24225 -6.24225
C -17.83500  3.56700 -3.56700
C -17.83500  5.35050 -1.78350
C -16.05150  3.56700 -1.78350
C -16.05150  5.35050 -3.56700
C -16.94325  4.45875 -2.67525
C -16.94325  6.24225 -0.89175
C -15.15975  4.45875 -0.89175
C -15.15975  6.24225 -2.67525
C -17.83500  7.13400 -17.83500
C -17.83500  8.91750 -16.05150
C -16.05150  7.13400 -16.05150
C -16.05150  8.91750 -17.83500
C -16.94325  8.02575 -16.94325
C -16.94325  9.80925 -15.15975
C -15.15975  8.02575 -15.15975
C -15.15975  9.80925 -16.94325
C -17.83500  7.13400 -14.26800
C -17.83500  8.91750 -12.48450
C -16.05150  7.13400 -12.48450
C -16.05150  8.91750 -14.26800
C -16.94325  8.02575 -13.37625
C -16.94325  9.80925 -11.59275
C -15.15975  8.02575 -11.59275
C -15.15975  9.80925 -13.37625
C -17.83500  7.13400 -10.70100
C -17.83500  8.91750 -8.91750
C -16.05150  7.13400 -8.91750
C -16.05150  8.91750 -10.70100
C -16.94325  8.02575 -9.80925
C -16.94325  9.80925 -8.02575
C -15.15975  8.02575 -8.02575
C -15.15975  9.80925 -9.80925
C -17.83500  7.13400 -7.13400
C -17.83500  8.91750 -5.35050
C -16.05150  7.13400 -5.35050
C -16.05150  8.91750 -7.13400
C -16.94325  8.02575 -6.24225
C -16.94325  9.80925 -4.45875
C -15.15975  8.02575 -4.45875
C -15.15975  9.80925 -6.24225
C -17.83500  7.13400 -3.56700
C -17.83500  8.91750 -1.78350
C -16.05150  7.13400 -1.78350
C -16.05150  8.91750 -3.56700
C -16.94325  8.02575 -2.67525
C -16.94325  9.80925 -0.89175
C -15.15975  8.02575 -0.89175
C -15.15975  9.80925 -2.67525
C -17.83500 10.70100 -17.83500
C -17.83500 12.48450 -16.05150
C -16.05150 10.70100 -16.05150
C -16.05150 12.48450 -17.83500
C -16.94325 11.59275 -16.94325
C -16.94325 13.37625 -15.15975
C -15.15975 11.59275 -15.15975
C -15.15975 13.37625 -16.94325
C -17.83500 10.70100 -14.26800
C -17.83500 12.48450 -12.48450
C -16.05150 10.70100 -12.48450
C -16.05150 12.48450 -14.26800
C -16.94325 11.59275 -13.37625
C -16.94325 13.37625 -11.59275
C -15.15975 11.59275 -11.59275
C -15.15975 13.37625 -13.37625
C -17.83500 10.70100 -10.70100
C -17.83500 12.48450 -8.91750
C -16.05150 10.70100 -8.91750
C -16.05150 12.48450 -10.70100
C -16.94325 11.59275 -9.80925
C -16.94325 13.37625 -8.02575
C -15.15975 11.59275 -8.02575
C -15.15975 13.37625 -9.80925
C -17.83500 10.70100 -7.13400
C -17.83500 12.48450 -5.35050
C -16.05150 10.70100 -5.35050
C -16.05150 12.48450 -7.13400
C -16.94325 11.59275 -6.24225
C -16.94325 13.37625 -4.45875
C -15.15975 11.59275 -4.45875
C -15.15975 13.37625 -6.24225
C -17.83500 10.70100 -3.56700
C -17.83500 12.48450 -1.78350
C -16.05150 10.70100 -1.78350
C -16.05150 12.48450 -3.56700
C -16.94325 11.59275 -2.67525
C -16.94325 13.37625 -0.89175
C -15.15975 11.59275 -0.89175
C -15.15975 13.37625 -2.67525
C -17.83500 14.26800 -17.83500
C -17.83500 16.05150 -16.05150
C -16.05150 14.26800 -16.05150
C -16.05150 16.05150 -17.83500
C -16.94325 15.15975 -16.94325
C -16.94325 16.94325 -15.15975
C -15.15975 15.15975 -15.15975
C -15.15975 16.94325 -16.94325
C -17.83500 14.26800 -14.26800
C -17.83500 16.05150 -12.48450
C -16.05150 14.26800 -12.48450
C -16.05150 16.05150 -14.26800
C -16.94325 15.15975 -13.37625
C -16.94325 16.94325 -11.59275
C -15.15975 15.15975 -11.59275
C -15.15975 16.94325 -13.37625
C -17.83500 14.26800 -10.70100
C -17.83500 16.05150 -8.91750
C -16.05150 14.26800 -8.91750
C -16.05150 16.05150 -10.70100
C -16.94325 15.15975 -9.80925
C -16.94325 16.94325 -8.02575
C -15.15975 15.15975 -8.02575
C -15.15975 16.94325 -9.80925
C -17.83500 14.26800 -7.13400
C -17.83500 16.05150 -5.35050
C -16.05150 14.26800 -5.35050
C -16.05150 16.05150 -7.13400
C -16.94325 15.15975 -6.24225
C -16.94325 16.94325 -4.45875
C -15.15975 15.15975 -4.45875
C -15.15975 16.94325 -6.24225
C -17.83500 14.26800 -3.56700
C -17.83500 16.05150 -1.78350
C -16.05150 14.26800 -1.78350
C -16.05150 16.05150 -3.56700
C -16.94325 15.15975 -2.67525
C -16.94325 16.94325 -0.89175
C -15.15975 15.15975 -0.89175
C -15.15975 16.94325 -2.67525
C -14.26800  0.00000 -17.83500
C -14.26800  1.78350 -16.05150
C -12.48450  0.00000 -16.05150
C -12.48450  1.78350 -17.83500
C -13.37625  0.89175 -16.94325
C -13.37625  2.67525 -15.15975
C -11.59275  0.89175 -15.15975
C -11.59275  2.67525 -16.94325
C -14.26800  0.00000 -14.26800
C -14.26800  1.78350 -12.48450
C -12.48450  0.00000 -12.48450
C -12.48450  1.78350 -14.26800
C -13.37625  0.89175 -13.37625
C -13.37625  2.67525 -11.59275
C -11.59275  0.89175 -11.59275
C -11.59275  2.67525 -13.37625
C -14.26800  0.00000 -10.70100
C -14.26800  1.78350 -8.91750
C -12.48450  0.00000 -8.91750
C -12.48450  1.78350 -10.70100
C -13.37625  0.89175 -9.80925
C -13.37625  2.67525 -8.02575
C -11.59275  0.89175 -8.02575
C -11.59275  2.67525 -9.80925
C -14.26800  0.00000 -7.13400
C -14.26800  1.78350 -5.35050
C -12.48450  0.00000 -5.35050
C -12.48450  1.78350 -7.13400
C -13.37625  0.89175 -6.24225
C -13.37625  2.67525 -4.45875
C -11.59275  0.89175 -4.45875
C -11.59275  2.67525 -6.24225
C -14.26800  0.00000 -3.56700
C -14.26800  1.78350 -1.78350
C -12.48450  0.00000 -1.78350
C -12.48450  1.78350 -3.56700
C -13.37625  0.89175 -2.67525
C -13.37625  2.67525 -0.89175
C -11.59275  0.89175 -0.89175
C -11.59275  2.67525 -2.67525
C -14.26800  3.56700 -17.83500
C -14.26800  5.35050 -16.05150
C -12.48450  3.56700 -16.05150
C -12.48450  5.35050 -17.83500
C -13.37625  4.45875 -16.94325
C -13.37625  6.24225 -15.15975
C -11.59275  4.45875 -15.15975
C -11.59275  6.24225 -16.94325
C -14.26800  3.56700 -14.26800
C -14.26800  5.35050 -12.48450
C -12.48450  3.56700 -12.48450
C -12.48450  5.35050 -14.26800
C -13.37625  4.45875 -13.37625
C -13.37625  6.24225 -11.59275
C -11.59275  4.45875 -11.59275
C -11.59275  6.24225 -13.37625
C -14.26800  3.56700 -10.70100
C -14.26800  5.35050 -8.91750
C -12.48450  3.56700 -8.91750
C -12.48450  5.35050 -10.70100
C -13.37625  4.45875 -9.80925
C -13.37625  6.24225 -8.02575
C -11.59275  4.45875 -8.02575
C -11.59275  6.24225 -9.80925
C -14.26800  3.56700 -7.13400
C -14.26800  5.35050 -5.35050
C -12.48450  3.56700 -5.35050
C -12.48450  5.35050 -7.13400
C -13.37625  4.45875 -6.24225
C -13.37625  6.24225 -4.45875
C -11.59275  4.45875 -4.45875
C -11.59275  6.24225 -6.24225
C -14.26800  3.56700 -3.56700
C -14.26800  5.35050 -1.78350
C -12.48450  3.56700 -1.78350
C -12.48450  5.35050 -3.56700
C -13.37625  4.45875 -2.67525
C -13.37625  6.24225 -0.89175
C -11.59275  4.45875 -0.89175
C -11.59275  6.24225 -2.67525
C -14.26800  7.13400 -17.83500
C -14.26800  8.91750 -16.05150
C -12.48450  7.13400 -16.05150
C -12.48450  8.91750 -17.83500
C -13.37625  8.02575 -16.94325
C -13.37625  9.80925 -15.15975
C -11.59275  8.02575 -15.15975
C -11.59275  9.80925 -16.94325
C -14.26800  7.13400 -14.26800
C -14.26800  8.91750 -12.48450
C -12.48450  7.13400 -12.48450
C -12.48450  8.91750 -14.26800
C -13.37625  8.02575 -13.37625
C -13.37625  9.80925 -11.59275
C -11.59275  8.02575 -11.59275
C -11.59275  9.80925 -13.37625
C -14.26800  7.13400 -10.70100
C -14.26800  8.91750 -8.91750
C -12.48450  7.13400 -8.91750
C -12.48450  8.91750 -10.70100
C -13.37625  8.02575 -9.80925
C -13.37625  9.80925 -8.02575
C -11.59275  8.02575 -8.02575
C -11.59275  9.80925 -9.80925
C -14.26800  7.13400 -7.13400
C -14.26800  8.91750 -5.35050
C -12.48450  7.13400 -5.35050
C -12.48450  8.91750 -7.13400
C -13.37625  8.02575 -6.24225
C -13.37625  9.80925 -4.45875
C -11.59275  8.02575 -4.45875
C -11.59275  9.80925 -6.24225
C -14.26800  7.13400 -3.56700
C -14.26800  8.91750 -1.78350
C -12.48450  7.13400 -1.78350
C -12.48450  8.91750 -3.56700
C -13.37625  8.02575 -2.67525
C -13.37625  9.80925 -0.89175
C -11.59275  8.02575 -0.89175
C -11.59275  9.80925 -2.67525
C -14.26800 10.70100 -17.83500
C -14.26800 12.48450 -16.05150
C -12.48450 10.70100 -16.05150
C -12.48450 12.48450 -17.83500
C -13.37625 11.59275 -16.94325
C -13.37625 13.37625 -15.15975
C -11.59275 11.59275 -15.15975
C -11.59275 13.37625 -16.94325
C -14.26800 10.70100 -14.26800
C -14.26800 12.48450 -12.48450
C -12.48450 10.70100 -12.48450
C -12.48450 12.48450 -14.26800
C -13.37625 11.59275 -13.37625
C -13.37625 13.37625 -11.59275
C -11.59275 11.59275 -11.59275
C -11.59275 13.37625 -13.37625
C -14.26800 10.70100 -10.70100
C -14.26800 12.48450 -8.91750
C -12.48450 10.70100 -8.91750
C -12.48450 12.48450 -10.70100
C -13.37625 11.59275 -9.80925
C -13.37625 13.37625 -8.02575
C -11.59275 11.59275 -8.02575
C -11.59275 13.37625 -9.80925
C -14.26800 10.70100 -7.13400
C -14.26800 12.48450 -5.35050
C -12.48450 10.70100 -5.35050
C -12.48450 12.48450 -7.13400
C -13.37625 11.59275 -6.24225
C -13.37625 13.37625 -4.45875
C -11.59275 11.59275 -4.45875
C -11.59275 13.37625 -6.24225
C -14.26800 10.70100 -3.56700
C -14.26800 12.48450 -1.78350
C -12.48450 10.70100 -1.78350
C -12.48450 12.48450 -3.56700
C -13.37625 11.59275 -2.67525
C -13.37625 13.37625 -0.89175
C -11.59275 11.59275 -0.89175
C -11.59275 13.37625 -2.67525
C -14.26800 14.26800 -17.83500
C -14.26800 16.05150 -16.05150
C -12.48450 14.26800 -16.05150
C -12.48450 16.05150 -17.83500
C -13.37625 15.15975 -16.94325
C -13.37625 16.94325 -15.15975
C -11.59275 15.15975 -15.15975
C -11.59275 16.94325 -16.94325
C -14.26800 14.26800 -14.26800
C -14.26800 16.05150 -12.48450
C -12.48450 14.26800 -12.48450
C -12.48450 16.05150 -14.26800
C -13.37625 15.15975 -13.37625
C -13.37625 16.94325 -11.59275
C -11.59275 15.15975 -11.59275
C -11.59275 16.94325 -13.37625
C -14.26800 14.26800 -10.70100
C -14.26800 16.05150 -8.91750
C -12.48450 14.26800 -8.91750
C -12.48450 16.05150 -10.70100
C -13.37625 15.15975 -9.80925
C -13.37625 16.94325 -8.02575
C -11.59275 15.15975 -8.02575
C -11.59275 16.94325 -9.80925
C -14.26800 14.26800 -7.13400
C -14.26800 16.05150 -5.35050
C -12.48450 14.26800 -5.35050
C -12.48450 16.05150 -7.13400
C -13.37625 15.15975 -6.24225
C -13.37625 16.94325 -4.45875
C -11.59275 15.15975 -4.45875
C -11.59275 16.94325 -6.24225
C -14.26800 14.26800 -3.56700
C -14.26800 16.05150 -1.78350
C -12.48450 14.26800 -1.78350
C -12.48450 16.05150 -3.56700
C -13.37625 15.15975 -2.67525
C -13.37625 16.94325 -0.89175
C -11.59275 15.15975 -0.89175
C -11.59275 16.94325 -2.67525
C -10.70100  0.00000 -17.83500
C -10.70100  1.78350 -16.05150
C -8.91750  0.00000 -16.05150
C -8.91750  1.78350 -17.83500
C -9.80925  0.89175 -16.94325
C -9.80925  2.67525 -15.15975
C -8.02575  0.89175 -15.15975
C -8.02575  2.67525 -16.94325
C -10.70100  0.00000 -14.26800
C -10.70100  1.78350 -12.48450
C -8.91750  0.00000 -12.48450
C -8.91750  1.78350 -14.26800
C -9.80925  0.89175 -13.37625
C -9.80925  2.67525 -11.59275
C -8.02575  0.89175 -11.59275
C -8.02575  2.67525 -13.37625
C -10.70100  0.00000 -10.70100
C -10.70100  1.78350 -8.91750
C -8.91750  0.00000 -8.91750
C -8.91750  1.78350 -10.70100
C -9.80925  0.89175 -9.80925
C -9.80925  2.67525 -8.02575
C -8.02575  0.89175 -8.02575
C -8.02575  2.67525 -9.80925
C -10.70100  0.00000 -7.13400
C -10.70100  1.78350 -5.35050
C -8.91750  0.00000 -5.35050
C -8.91750  1.78350 -7.13400
C -9.80925  0.89175 -6.24225
C -9.80925  2.67525 -4.45875
C -8.02575  0.89175 -4.45875
C -8.02575  2.67525 -6.24225
C -10.70100  0.00000 -3.56700
C -10.70100  1.78350 -1.78350
C -8.91750  0.00000 -1.78350
C -8.91750  1.78350 -3.56700
C -9.80925  0.89175 -2.67525
C -9.80925  2.67525 -0.89175
C -8.02575  0.89175 -0.89175
C -8.02575  2.67525 -2.67525
C -10.70100  3.56700 -17.83500
C -10.70100  5.35050 -16.05150
C -8.91750  3.56700 -16.05150
C -8.91750  5.35050 -17.83500
C -9.80925  4.45875 -16.94325
C -9.80925  6.24225 -15.15975
C -8.02575  4.45875 -15.15975
C -8.02575  6.24225 -16.94325
C -10.70100  3.56700 -14.26800
C -10.70100  5.35050 -12.48450
C -8.91750  3.56700 -12.48450
C -8.91750  5.35050 -14.26800
C -9.80925  4.45875 -13.37625
C -9.80925  6.24225 -11.59275
C -8.02575  4.45875 -11.59275
C -8.02575  6.24225 -13.37625
C -10.70100  3.56700 -10.70100
C -10.70100  5.35050 -8.91750
C -8.91750  3.56700 -8.91750
C -8.91750  5.35050 -10.70100
C -9.80925  4.45875 -9.80925
C -9.80925  6.24225 -8.02575
C -8.02575  4.45875 -8.02575
C -8.02575  6.24225 -9.80925
C -10.70100  3.56700 -7.13400
C -10.70100  5.35050 -5.35050
C -8.91750  3.56700 -5.35050
C -8.91750  5.35050 -7.13400
C -9.80925  4.45875 -6.24225
C -9.80925  6.24225 -4.45875
C -8.02575  4.45875 -4.45875
C -8.02575  6.24225 -6.24225
C -10.70100  3.56700 -3.56700
C -10.70100  5.35050 -1.78350
C -8.91750  3.56700 -1.78350
C -8.91750  5.35050 -3.56700
C -9.80925  4.45875 -2.67525
C -9.80925  6.24225 -0.89175
C -8.02575  4.45875 -0.89175
C -8.02575  6.24225 -2.67525
C -10.70100  7.13400 -17.83500
C -10.70100  8.91750 -16.05150
C -8.91750  7.13400 -16.05150
C -8.91750  8.91750 -17.83500
C -9.80925  8.02575 -16.94325
C -9.80925  9.80925 -15.15975
C -8.02575  8.02575 -15.15975
C -8.02575  9.80925 -16.94325
C -10.70100  7.13400 -14.26800
C -10.70100  8.91750 -12.48450
C -8.91750  7.13400 -12.48450
C -8.91750  8.91750 -14.26800
C -9.80925  8.02575 -13.37625
C -9.80925  9.80925 -11.59275
C -8.02575  8.02575 -11.59275
C -8.02575  9.80925 -13.37625
C -10.70100  7.13400 -10.70100
C -10.70100  8.91750 -8.91750
C -8.91750  7.13400 -8.91750
C -8.91750  8.91750 -10.70100
C -9.80925  8.02575 -9.80925
C -9.80925  9.80925 -8.02575
C -8.02575  8.02575 -8.02575
C -8.02575  9.80925 -9.80925
C -10.70100  7.13400 -7.13400
C -10.70100  8.91750 -5.35050
C -8.91750  7.13400 -5.35050
C -8.91750  8.91750 -7.13400
C -9.80925  8.02575 -6.24225
C -9.80925  9.80925 -4.45875
C -8.02575  8.02575 -4.45875
C -8.02575  9.80925 -6.24225
C -10.70100  7.13400 -3.56700
C -10.70100  8.91750 -1.78350
C -8.91750  7.13400 -1.78350
C -8.91750  8.91750 -3.56700
C -9.80925  8.02575 -2.67525
C -9.80925  9.80925 -0.89175
C -8.02575  8.02575 -0.89175
C -8.02575  9.80925 -2.67525
C -10.70100 10.70100 -17.83500
C -10.70100 12.48450 -16.05150
C -8.91750 10.70100 -16.05150
C -8.91750 12.48450 -17.83500
C -9.80925 11.59275 -16.94325
C -9.80925 13.37625 -15.15975
C -8.02575 11.59275 -15.15975
C -8.02575 13.37625 -16.94325
C -10.70100 10.70100 -14.26800
C -10.70100 12.48450 -12.48450
C -8.91750 10.70100 -12.48450
C -8.91750 12.48450 -14.26800
C -9.80925 11.59275 -13.37625
C -9.80925 13.37625 -11.59275
C -8.02575 11.59275 -11.59275
C -8.02575 13.37625 -13.37625
C -10.70100 10.70100 -10.70100
C -10.70100 12.48450 -8.91750
C -8.91750 10.70100 -8.91750
C -8.91750 12.48450 -10.70100
C -9.80925 11.59275 -9.80925
C -9.80925 13.37625 -8.02575
C -8.02575 11.59275 -8.02575
C -8.02575 13.37625 -9.80925
C -10.70100 10.70100 -7.13400
C -10.70100 12.48450 -5.35050
C -8.91750 10.70100 -5.35050
C -8.91750 12.48450 -7.13400
C -9.80925 11.59275 -6.24225
C -9.80925 13.37625 -4.45875
C -8.02575 11.59275 -4.45875
C -8.02575 13.37625 -6.24225
C -10.70100 10.70100 -3.56700
C -10.70100 12.48450 -1.78350
C -8.91750 10.70100 -1.78350
C -8.91750 12.48450 -3.56700
C -9.80925 11.59275 -2.67525
C -9.80925 13.37625 -0.89175
C -8.02575 11.59275 -0.89175
C -8.02575 13.37625 -2.67525
C -10.70100 14.26800 -17.83500
C -10.70100 16.05150 -16.05150
C -8.91750 14.26800 -16.05150
C -8.91750 16.05150 -17.83500
C -9.80925 15.15975 -16.94325
C -9.80925 16.94325 -15.15975
C -8.02575 15.15975 -15.15975
C -8.02575 16.94325 -16.94325
C -10.70100 14.26800 -14.26800
C -10.70100 16.05150 -12.48450
C -8.91750 14.26800 -12.48450
C -8.91750 16.05150 -14.26800
C -9.80925 15.15975 -13.37625
C -9.80925 16.94325 -11.59275
C -8.02575 15.15975 -11.59275
C -8.02575 16.94325 -13.37625
C -10.70100 14.26800 -10.70100
C -10.70100 16.05150 -8.91750
C -8.91750 14.26800 -8.91750
C -8.91750 16.05150 -10.70100
C -9.80925 15.15975 -9.80925
C -9.80925 16.94325 -8.02575
C -8.02575 15.15975 -8.02575
C -8.02575 16.94325 -9.80925
C -10.70100 14.26800 -7.13400
C -10.70100 16.05150 -5.35050
C -8.91750 14.26800 -5.35050
C -8.91750 16.05150 -7.13400
C -9.80925 15.15975 -6.24225
C -9.80925 16.94325 -4.45875
C -8.02575 15.15975 -4.45875
C -8.02575 16.94325 -6.24225
C -10.70100 14.26800 -3.56700
C -10.70100 16.05150 -1.78350
C -8.91750 14.26800 -1.78350
C -8.91750 16.05150 -3.56700
C -9.80925 15.15975 -2.67525
C -9.80925 16.94325 -0.89175
C -8.02575 15.15975 -0.89175
C -8.02575 16.94325 -2.67525
C -7.13400  0.00000 -17.83500
C -7.13400  1.78350 -16.05150
C -5.35050  0.00000 -16.05150
C -5.35050  1.78350 -17.83500
C -6.24225  0.89175 -16.94325
C -6.24225  2.67525 -15.15975
C -4.45875  0.89175 -15.15975
C -4.45875  2.67525 -16.94325
C -7.13400  0.00000 -14.26800
C -7.13400  1.78350 -12.48450
C -5.35050  0.00000 -12.48450
C -5.35050  1.78350 -14.26800
C -6.24225  0.89175 -13.37625
C -6.24225  2.67525 -11.59275
C -4.45875  0.89175 -11.59275
C -4.45875  2.67525 -13.37625
C -7.13400  0.00000 -10.70100
C -7.13400  1.78350 -8.91750
C -5.35050  0.00000 -8.91750
C -5.35050  1.78350 -10.70100
C -6.24225  0.89175 -9.80925
C -6.24225  2.67525 -8.02575
C -4.45875  0.89175 -8.02575
C -4.45875  2.67525 -9.80925
C -7.13400  0.00000 -7.13400
C -7.13400  1.78350 -5.35050
C -5.35050  0.00000 -5.35050
C -5.35050  1.78350 -7.13400
C -6.24225  0.89175 -6.24225
C -6.24225  2.67525 -4.45875
C -4.45875  0.89175 -4.45875
C -4.45875  2.67525 -6.24225
C -7.13400  0.00000 -3.56700
C -7.13400  1.78350 -1.78350
C -5.35050  0.00000 -1.78350
C -5.35050  1.78350 -3.56700
C -6.24225  0.89175 -2.67525
C -6.24225  2.67525 -0.89175
C -4.45875  0.89175 -0.89175
C -4.45875  2.67525 -2.67525
C -7.13400  3.56700 -17.83500
C -7.13400  5.35050 -16.05150
C -5.35050  3.56700 -16.05150
C -5.35050  5.35050 -17.83500
C -6.24225  4.45875 -16.94325
C -6.24225  6.24225 -15.15975
C -4.45875  4.45875 -15.15975
C -4.45875  6.24225 -16.94325
C -7.13400  3.56700 -14.26800
C -7.13400  5.35050 -12.48450
C -5.35050  3.56700 -12.48450
C -5.35050  5.35050 -14.26800
C -6.24225  4.45875 -13.37625
C -6.24225  6.24225 -11.59275
C -4.45875  4.45875 -11.59275
C -4.45875  6.24225 -13.37625
C -7.13400  3.56700 -10.70100
C -7.13400  5.35050 -8.91750
C -5.35050  3.56700 -8.91750
C -5.35050  5.35050 -10.70100
C -6.24225  4.45875 -9.80925
C -6.24225  6.24225 -8.02575
C -4.45875  4.45875 -8.02575
C -4.45875  6.24225 -9.80925
C -7.13400  3.56700 -7.13400
C -7.13400  5.35050 -5.35050
C -5.35050  3.56700 -5.35050
C -5.35050  5.35050 -7.13400
C -6.24225  4.45875 -6.24225
C -6.24225  6.24225 -4.45875
C -4.45875  4.45875 -4.45875
C -4.45875  6.24225 -6.24225
C -7.13400  3.56700 -3.56700
C -7.13400  5.35050 -1.78350
C -5.35050  3.56700 -1.78350
C -5.35050  5.35050 -3.56700
C -6.24225  4.45875 -2.67525
C -6.24225  6.24225 -0.89175
C -4.45875  4.45875 -0.89175
C -4.45875  6.24225 -2.67525
C -7.13400  7.13400 -17.83500
C -7.13400  8.91750 -16.05150
C -5.35050  7.13400 -16.05150
C -5.35050  8.91750 -17.83500
C -6.24225  8.02575 -16.94325
C -6.24225  9.80925 -15.15975
C -4.45875  8.02575 -15.15975
C -4.45875  9.80925 -16.94325
C -7.13400  7.13400 -14.26800
C -7.13400  8.91750 -12.48450
C -5.35050  7.13400 -12.48450
C -5.35050  8.91750 -14.26800
C -6.24225  8.02575 -13.37625
C -6.24225  9.80925 -11.59275
C -4.45875  8.02575 -11.59275
C -4.45875  9.80925 -13.37625
C -7.13400  7.13400 -10.70100
C -7.13400  8.91750 -8.91750
C -5.35050  7.13400 -8.91750
C -5.35050  8.91750 -10.70100
C -6.24225  8.02575 -9.80925
C -6.24225  9.80925 -8.02575
C -4.45875  8.02575 -8.02575
C -4.45875  9.80925 -9.80925
C -7.13400  7.13400 -7.13400
C -7.13400  8.91750 -5.35050
C -5.35050  7.13400 -5.35050
C -5.35050  8.91750 -7.13400
C -6.24225  8.02575 -6.24225
C -6.24225  9.80925 -4.45875
C -4.45875  8.02575 -4.45875
C -4.45875  9.80925 -6.24225
C -7.13400  7.13400 -3.56700
C -7.13400  8.91750 -1.78350
C -5.35050  7.13400 -1.78350
C -5.35050  8.91750 -3.56700
C -6.24225  8.02575 -2.67525
C -6.24225  9.80925 -0.89175
C -4.45875  8.02575 -0.89175
C -4.45875  9.80925 -2.67525
C -7.13400 10.70100 -17.83500
C -7.13400 12.48450 -16.05150
C -5.35050 10.70100 -16.05150
C -5.35050 12.48450 -17.83500
C -6.24225 11.59275 -16.94325
C -6.24225 13.37625 -15.15975
C -4.45875 11.59275 -15.15975
C -4.45875 13.37625 -16.94325
C -7.13400 10.70100 -14.26800
C -7.13400 12.48450 -12.48450
C -5.35050 10.70100 -12.48450
C -5.35050 12.48450 -14.26800
C -6.24225 11.59275 -13.37625
C -6.24225 13.37625 -11.59275
C -4.45875 11.59275 -11.59275
C -4.45875 13.37625 -13.37625
C -7.13400 10.70100 -10.70100
C -7.13400 12.48450 -8.91750
C -5.35050 10.70100 -8.91750
C -5.35050 12.48450 -10.70100
C -6.24225 11.59275 -9.80925
C -6.24225 13.37625 -8.02575
C -4.45875 11.59275 -8.02575
C -4.45875 13.37625 -9.80925
C -7.13400 10.70100 -7.13400
C -7.13400 12.48450 -5.35050
C -5.35050 10.70100 -5.35050
C -5.35050 12.48450 -7.13400
C -6.24225 11.59275 -6.24225
C -6.24225 13.37625 -4.45875
C -4.45875 11.59275 -4.45875
C -4.45875 13.37625 -6.24225
C -7.13400 10.70100 -3.56700
C -7.13400 12.48450 -1.78350
C -5.35050 10.70100 -1.78350
C -5.35050 12.48450 -3.56700
C -6.24225 11.59275 -2.67525
C -6.24225 13.37625 -0.89175
C -4.45875 11.59275 -0.89175
C -4.45875 13.37625 -2.67525
C -7.13400 14.26800 -17.83500
C -7.13400 16.05150 -16.05150
C -5.35050 14.26800 -16.05150
C -5.35050 16.05150 -17.83500
C -6.24225 15.15975 -16.94325
C -6.24225 16.94325 -15.15975
C -4.45875 15.15975 -15.15975
C -4.45875 16.94325 -16.94325
C -7.13400 14.26800 -14.26800
C -7.13400 16.05150 -12.48450
C -5.35050 14.26800 -12.48450
C -5.35050 16.05150 -14.26800
C -6.24225 15.15975 -13.37625
C -6.24225 16.94325 -11.59275
C -4.45875 15.15975 -11.59275
C -4.45875 16.94325 -13.37625
C -7.13400 14.26800 -10.70100
C -7.13400 16.05150 -8.91750
C -5.35050 14.26800 -8.91750
C -5.35050 16.05150 -10.70100
C -6.24225 15.15975 -9.80925
C -6.24225 16.94325 -8.02575
C -4.45875 15.15975 -8.02575
C -4.45875 16.94325 -9.80925
C -7.13400 14.26800 -7.13400
C -7.13400 16.05150 -5.35050
C -5.35050 14.26800 -5.35050
C -5.35050 16.05150 -7.13400
C -6.24225 15.15975 -6.24225
C -6.24225 16.94325 -4.45875
C -4.45875 15.15975 -4.45875
C -4.45875 16.94325 -6.24225
C -7.13400 14.26800 -3.56700
C -7.13400 16.05150 -1.78350
C -5.35050 14.26800 -1.78350
C -5.35050 16.05150 -3.56700
C -6.24225 15.15975 -2.67525
C -6.24225 16.94325 -0.89175
C -4.45875 15.15975 -0.89175
C -4.45875 16.94325 -2.67525
C -3.56700  0.00000 -17.83500
C -3.56700  1.78350 -16.05150
C -1.78350  0.00000 -16.05150
C -1.78350  1.78350 -17.83500
C -2.67525  0.89175 -16.94325
C -2.67525  2.67525 -15.15975
C -0.89175  0.89175 -15.15975
C -0.89175  2.67525 -16.94325
C -3.56700  0.00000 -14.26800
C -3.56700  1.78350 -12.48450
C -1.78350  0.00000 -12.48450
C -1.78350  1.78350 -14.26800
C -2.67525  0.89175 -13.37625
C -2.67525  2.67525 -11.59275
C -0.89175  0.89175 -11.59275
C -0.89175  2.67525 -13.37625
C -3.56700  0.00000 -10.70100
C -3.56700  1.78350 -8.91750
C -1.78350  0.00000 -8.91750
C -1.78350  1.78350 -10.70100
C -2.67525  0.89175 -9.80925
C -2.67525  2.67525 -8.02575
C -0.89175  0.89175 -8.02575
C -0.89175  2.67525 -9.80925
C -3.56700  0.00000 -7.13400
C -3.56700  1.78350 -5.35050
C -1.78350  0.00000 -5.35050
C -1.78350  1.78350 -7.13400
C -2.67525  0.89175 -6.24225
C -2.67525  2.67525 -4.45875
C -0.89175  0.89175 -4.45875
C -0.89175  2.67525 -6.24225
C -3.56700  0.00000 -3.56700
C -3.56700  1.78350 -1.78350
C -1.78350  0.00000 -1.78350
C -1.78350  1.78350 -3.56700
C -2.67525  0.89175 -2.67525
C -2.67525  2.67525 -0.89175
C -0.89175  0.89175 -0.89175
C -0.89175  2.67525 -2.67525
C -3.56700  3.56700 -17.83500
C -3.56700  5.35050 -16.05150
C -1.78350  3.56700 -16.05150
C -1.78350  5.35050 -17.83500
C -2.67525  4.45875 -16.94325
C -2.67525  6.24225 -15.15975
C -0.89175  4.45875 -15.15975
C -0.89175  6.24225 -16.94325
C -3.56700  3.56700 -14.26800
C -3.56700  5.35050 -12.48450
C -1.78350  3.56700 -12.48450
C -1.78350  5.35050 -14.26800
C -2.67525  4.45875 -13.37625
C -2.67525  6.24225 -11.59275
C -0.89175  4.45875 -11.59275
C -0.89175  6.24225 -13.37625
C -3.56700  3.56700 -10.70100
C -3.56700  5.35050 -8.91750
C -1.78350  3.56700 -8.91750
C -1.78350  5.35050 -10.70100
C -2.67525  4.45875 -9.80925
C -2.67525  6.24225 -8.02575
C -0.89175  4.45875 -8.02575
C -0.89175  6.24225 -9.80925
C -3.56700  3.56700 -7.13400
C -3.56700  5.35050 -5.35050
C -1.78350  3.56700 -5.35050
C -1.78350  5.35050 -7.13400
C -2.67525  4.45875 -6.24225
C -2.67525  6.24225 -4.45875
C -0.89175  4.45875 -4.45875
C -0.89175  6.24225 -6.24225
C -3.56700  3.56700 -3.56700
C -3.56700  5.35050 -1.78350
C -1.78350  3.56700 -1.78350
C -1.78350  5.35050 -3.56700
C -2.67525  4.45875 -2.67525
C -2.67525  6.24225 -0.89175
C -0.89175  4.45875 -0.89175
C -0.89175  6.24225 -2.67525
C -3.56700  7.13400 -17.83500
C -3.56700  8.91750 -16.05150
C -1.78350  7.13400 -16.05150
C -1.78350  8.91750 -17.83500
C -2.67525  8.02575 -16.94325
C -2.67525  9.80925 -15.15975
C -0.89175  8.02575 -15.15975
C -0.89175  9.80925 -16.94325
C -3.56700  7.13400 -14.26800
C -3.56700  8.91750 -12.48450
C -1.78350  7.13400 -12.48450
C -1.78350  8.91750 -14.26800
C -2.67525  8.02575 -13.37625
C -2.67525  9.80925 -11.59275
C -0.89175  8.02575 -11.59275
C -0.89175  9.80925 -13.37625
C -3.56700  7.13400 -10.70100
C -3.56700  8.91750 -8.91750
C -1.78350  7.13400 -8.91750
C -1.78350  8.91750 -10.70100
C -2.67525  8.02575 -9.80925
C -2.67525  9.80925 -8.02575
C -0.89175  8.02575 -8.02575
C -0.89175  9.80925 -9.80925
C -3.56700  7.13400 -7.13400
C -3.56700  8.91750 -5.35050
C -1.78350  7.13400 -5.35050
C -1.78350  8.91750 -7.13400
C -2.67525  8.02575 -6.24225
C -2.67525  9.80925 -4.45875
C -0.89175  8.02575 -4.45875
C -0.89175  9.80925 -6.24225
C -3.56700  7.13400 -3.56700
C -3.56700  8.91750 -1.78350
C -1.78350  7.13400 -1.78350
C -1.78350  8.91750 -3.56700
C -2.67525  8.02575 -2.67525
C -2.67525  9.80925 -0.89175
C -0.89175  8.02575 -0.89175
C -0.89175  9.80925 -2.67525
C -3.56700 10.70100 -17.83500
C -3.56700 12.48450 -16.05150
C -1.78350 10.70100 -16.05150
C -1.78350 12.48450 -17.83500
C -2.67525 11.59275 -16.94325
C -2.67525 13.37625 -15.15975
C -0.89175 11.59275 -15.15975
C -0.89175 13.37625 -16.94325
C -3.56700 10.70100 -14.26800
C -3.56700 12.48450 -12.48450
C -1.78350 10.70100 -12.48450
C -1.78350 12.48450 -14.26800
C -2.67525 11.59275 -13.37625
C -2.67525 13.37625 -11.59275
C -0.89175 11.59275 -11.59275
C -0.89175 13.37625 -13.37625
C -3.56700 10.70100 -10.70100
C -3.56700 12.48450 -8.91750
C -1.78350 10.70100 -8.91750
C -1.78350 12.48450 -10.70100
C -2.67525 11.59275 -9.80925
C -2.67525 13.37625 -8.02575
C -0.89175 11.59275 -8.02575
C -0.89175 13.37625 -9.80925
C -3.56700 10.70100 -7.13400
C -3.56700 12.48450 -5.35050
C -1.78350 10.70100 -5.35050
C -1.78350 12.48450 -7.13400
C -2.67525 11.59275 -6.24225
C -2.67525 13.37625 -4.45875
C -0.89175 11.59275 -4.45875
C -0.89175 13.37625 -6.24225
C -3.56700 10.70100 -3.56700
C -3.56700 12.48450 -1.78350
C -1.78350 10.70100 -1.78350
C -1.78350 12.48450 -3.56700
C -2.67525 11.59275 -2.67525
C -2.67525 13.37625 -0.89175
C -0.89175 11.59275 -0.89175
C -0.89175 13.37625 -2.67525
C -3.56700 14.26800 -17.83500
C -3.56700 16.05150 -16.05150
C -1.78350 14.26800 -16.05150
C -1.78350 16.05150 -17.83500
C -2.67525 15.15975 -16.94325
C -2.67525 16.94325 -15.15975
C -0.89175 15.15975 -15.15975
C -0.89175 16.94325 -16.94325
C -3.56700 14.26800 -14.26800
C -3.56700 16.05150 -12.48450
C -1.78350 14.26800 -12.48450
C -1.78350 16.05150 -14.26800
C -2.67525 15.15975 -13.37625
C -2.67525 16.94325 -11.59275
C -0.89175 15.15975 -11.59275
C -0.89175 16.94325 -13.37625
C -3.56700 14.26800 -10.70100
C -3.56700 16.05150 -8.91750
C -1.78350 14.26800 -8.91750
C -1.78350 16.05150 -10.70100
C -2.67525 15.15975 -9.80925
C -2.67525 16.94325 -8.02575
C -0.89175 15.15975 -8.02575
C -0.89175 16.94325 -9.80925
C -3.56700 14.26800 -7.13400
C -3.56700 16.05150 -5.35050
C -1.78350 14.26800 -5.35050
C -1.78350 16.05150 -7.13400
C -2.67525 15.15975 -6.24225
C -2.67525 16.94325 -4.45875
C -0.89175 15.15975 -4.45875
C -0.89175 16.94325 -6.24225
C -3.56700 14.26800 -3.56700
C -3.56700 16.05150 -1.78350
C -1.78350 14.26800 -1.78350
C -1.78350 16.05150 -3.56700
C -2.67525 15.15975 -2.67525
C -2.67525 16.94325 -0.89175
C -0.89175 15.15975 -0.89175
C -0.89175 16.94325 -2.67525
N -17.83500  0.00000  0.00000
C -17.83500  1.78350  1.78350
C -16.05150  0.00000  1.78350
C -16.05150  1.78350  0.00000
C -16.94325  0.89175  0.89175
C -16.94325  2.67525  2.67525
C -15.15975  0.89175  2.67525
C -15.15975  2.67525  0.89175
C -17.83500  0.00000  3.56700
C -17.83500  1.78350  5.35050
C -16.05150  0.00000  5.35050
C -16.05150  1.78350  3.56700
C -16.94325  0.89175  4.45875
C -16.94325  2.67525  6.24225
C -15.15975  0.89175  6.24225
C -15.15975  2.67525  4.45875
C -17.83500  0.00000  7.13400
C -17.83500  1.78350  8.91750
C -16.05150  0.00000  8.91750
C -16.05150  1.78350  7.13400
C -16.94325  0.89175  8.02575
C -16.94325  2.67525  9.80925
C -15.15975  0.89175  9.80925
C -15.15975  2.67525  8.02575
C -17.83500  0.00000 10.70100
C -17.83500  1.78350 12.48450
C -16.05150  0.00000 12.48450
C -16.05150  1.78350 10.70100
C -16.94325  0.89175 11.59275
C -16.94325  2.67525 13.37625
C -15.15975  0.89175 13.37625
C -15.15975  2.67525 11.59275
C -17.83500  0.00000 14.26800
C -17.83500  1.78350 16.05150
C -16.05150  0.00000 16.05150
C -16.05150  1.78350 14.26800
C -16.94325  0.89175 15.15975
C -16.94325  2.67525 16.94325
C -15.15975  0.89175 16.94325
C -15.15975  2.67525 15.15975
C -17.83500  3.56700  0.00000
C -17.83500  5.35050  1.78350
C -16.05150  3.56700  1.78350
C -16.05150  5.35050  0.00000
C -16.94325  4.45875  0.89175
C -16.94325  6.24225  2.67525
C -15.15975  4.45875  2.67525
C -15.15975  6.24225  0.89175
C -17.83500  3.56700  3.56700
C -17.83500  5.35050  5.35050
C -16.05150  3.56700  5.35050
C -16.05150  5.35050  3.56700
C -16.94325  4.45875  4.45875
C -16.94325  6.24225  6.24225
C -15.15975  4.45875  6.24225
C -15.15975  6.24225  4.45875
C -17.83500  3.56700  7.13400
C -17.83500  5.35050  8.91750
C -16.05150  3.56700  8.91750
C -16.05150  5.35050  7.13400
C -16.94325  4.45875  8.02575
C -16.94325  6.24225  9.80925
C -15.15975  4.45875  9.80925
C -15.15975  6.24225  8.02575
C -17.83500  3.56700 10.70100
C -17.83500  5.35050 12.48450
C -16.05150  3.56700 12.48450
C -16.05150  5.35050 10.70100
C -16.94325  4.45875 11.59275
C -16.94325  6.24225 13.37625
C -15.15975  4.45875 13.37625
C -15.15975  6.24225 11.59275
C -17.83500  3.56700 14.26800
C -17.83500  5.35050 16.05150
C -16.05150  3.56700 16.05150
C -16.05150  5.35050 14.26800
C -16.94325  4.45875 15.15975
C -16.94325  6.24225 16.94325
C -15.15975  4.45875 16.94325
C -15.15975  6.24225 15.15975
C -17.83500  7.13400  0.00000
C -17.83500  8.91750  1.78350
C -16.05150  7.13400  1.78350
C -16.05150  8.91750  0.00000
C -16.94325  8.02575  0.89175
C -16.94325  9.80925  2.67525
C -15.15975  8.02575  2.67525
C -15.15975  9.80925  0.89175
C -17.83500  7.13400  3.56700
C -17.83500  8.91750  5.35050
C -16.05150  7.13400  5.35050
C -16.05150  8.91750  3.56700
C -16.94325  8.02575  4.45875
C -16.94325  9.80925  6.24225
C -15.15975  8.02575  6.24225
C -15.15975  9.80925  4.45875
C -17.83500  7.13400  7.13400
C -17.83500  8.91750  8.91750
C -16.05150  7.13400  8.91750
C -16.05150  8.91750  7.13400
C -16.94325  8.02575  8.02575
C -16.94325  9.80925  9.80925
C -15.15975  8.02575  9.80925
C -15.15975  9.80925  8.02575
C -17.83500  7.13400 10.70100
C -17.83500  8.91750 12.48450
C -16.05150  7.13400 12.48450
C -16.05150  8.91750 10.70100
C -16.94325  8.02575 11.59275
C -16.94325  9.80925 13.37625
C -15.15975  8.02575 13.37625
C -15.15975  9.80925 11.59275
C -17.83500  7.13400 14.26800
C -17.83500  8.91750 16.05150
C -16.05150  7.13400 16.05150
C -16.05150  8.91750 14.26800
C -16.94325  8.02575 15.15975
C -16.94325  9.80925 16.94325
C -15.15975  8.02575 16.94325
C -15.15975  9.80925 15.15975
C -17.83500 10.70100  0.00000
C -17.83500 12.48450  1.78350
C -16.05150 10.70100  1.78350
C -16.05150 12.48450  0.00000
C -16.94325 11.59275  0.89175
C -16.94325 13.37625  2.67525
C -15.15975 11.59275  2.67525
C -15.15975 13.37625  0.89175
C -17.83500 10.70100  3.56700
C -17.83500 12.48450  5.35050
C -16.05150 10.70100  5.35050
C -16.05150 12.48450  3.56700
C -16.94325 11.59275  4.45875
C -16.94325 13.37625  6.24225
C -15.15975 11.59275  6.24225
C -15.15975 13.37625  4.45875
C -17.83500 10.70100  7.13400
C -17.83500 12.48450  8.91750
C -16.05150 10.70100  8.91750
C -16.05150 12.48450  7.13400
C -16.94325 11.59275  8.02575
C -16.94325 13.37625  9.80925
C -15.15975 11.59275  9.80925
C -15.15975 13.37625  8.02575
C -17.83500 10.70100 10.70100
C -17.83500 12.48450 12.48450
C -16.05150 10.70100 12.48450
C -16.05150 12.48450 10.70100
C -16.94325 11.59275 11.59275
C -16.94325 13.37625 13.37625
C -15.15975 11.59275 13.37625
C -15.15975 13.37625 11.59275
C -17.83500 10.70100 14.26800
C -17.83500 12.48450 16.05150
C -16.05150 10.70100 16.05150
C -16.05150 12.48450 14.26800
C -16.94325 11.59275 15.15975
C -16.94325 13.37625 16.94325
C -15.15975 11.59275 16.94325
C -15.15975 13.37625 15.15975
C -17.83500 14.26800  0.00000
C -17.83500 16.05150  1.78350
C -16.05150 14.26800  1.78350
C -16.05150 16.05150  0.00000
C -16.94325 15.15975  0.89175
C -16.94325 16.94325  2.67525
C -15.15975 15.15975  2.67525
C -15.15975 16.94325  0.89175
C -17.83500 14.26800  3.56700
C -17.83500 16.05150  5.35050
C -16.05150 14.26800  5.35050
C -16.05150 16.05150  3.56700
C -16.94325 15.15975  4.45875
C -16.94325 16.94325  6.24225
C -15.15975 15.15975  6.24225
C -15.15975 16.94325  4.45875
C -17.83500 14.26800  7.13400
C -17.83500 16.05150  8.91750
C -16.05150 14.26800  8.91750
C -16.05150 16.05150  7.13400
C -16.94325 15.15975  8.02575
C -16.94325 16.94325  9.80925
C -15.15975 15.15975  9.80925
C -15.15975 16.94325  8.02575
C -17.83500 14.26800 10.70100
C -17.83500 16.05150 12.48450
C -16.05150 14.26800 12.48450
C -16.05150 16.05150 10.70100
C -16.94325 15.15975 11.59275
C -16.94325 16.94325 13.37625
C -15.15975 15.15975 13.37625
C -15.15975 16.94325 11.59275
C -17.83500 14.26800 14.26800
C -17.83500 16.05150 16.05150
C -16.05150 14.26800 16.05150
C -16.05150 16.05150 14.26800
C -16.94325 15.15975 15.15975
C -16.94325 16.94325 16.94325
C -15.15975 15.15975 16.94325
C -15.15975 16.94325 15.15975
C -14.26800  0.00000  0.00000
C -14.26800  1.78350  1.78350
C -12.48450  0.00000  1.78350
C -12.48450  1.78350  0.00000
C -13.37625  0.89175  0.89175
C -13.37625  2.67525  2.67525
C -11.59275  0.89175  2.67525
C -11.59275  2.67525  0.89175
C -14.26800  0.00000  3.56700
C -14.26800  1.78350  5.35050
C -12.48450  0.00000  5.35050
C -12.48450  1.78350  3.56700
C -13.37625  0.89175  4.45875
C -13.37625  2.67525  6.24225
C -11.59275  0.89175  6.24225
C -11.59275  2.67525  4.45875
C -14.26800  0.00000  7.13400
C -14.26800  1.78350  8.91750
C -12.48450  0.00000  8.91750
C -12.48450  1.78350  7.13400
C -13.37625  0.89175  8.02575
C -13.37625  2.67525  9.80925
C -11.59275  0.89175  9.80925
C -11.59275  2.67525  8.02575
C -14.26800  0.00000 10.70100
C -14.26800  1.78350 12.48450
C -12.48450  0.00000 12.48450
C -12.48450  1.78350 10.70100
C -13.37625  0.89175 11.59275
C -13.37625  2.67525 13.37625
C -11.59275  0.89175 13.37625
C -11.59275  2.67525 11.59275
C -14.26800  0.00000 14.26800
C -14.26800  1.78350 16.05150
C -12.48450  0.00000 16.05150
C -12.48450  1.78350 14.26800
C -13.37625  0.89175 15.15975
C -13.37625  2.67525 16.94325
C -11.59275  0.89175 16.94325
C -11.59275  2.67525 15.15975
C -14.26800  3.56700  0.00000
C -14.26800  5.35050  1.78350
C -12.48450  3.56700  1.78350
C -12.48450  5.35050  0.00000
C -13.37625  4.45875  0.89175
C -13.37625  6.24225  2.67525
C -11.59275  4.45875  2.67525
C -11.59275  6.24225  0.89175
C -14.26800  3.56700  3.56700
C -14.26800  5.35050  5.35050
C -12.48450  3.56700  5.35050
C -12.48450  5.35050  3.56700
C -13.37625  4.45875  4.45875
C -13.37625  6.24225  6.24225
C -11.59275  4.45875  6.24225
C -11.59275  6.24225  4.45875
C -14.26800  3.56700  7.13400
C -14.26800  5.35050  8.91750
C -12.48450  3.56700  8.91750
C -12.48450  5.35050  7.13400
C -13.37625  4.45875  8.02575
C -13.37625  6.24225  9.80925
C -11.59275  4.45875  9.80925
C -11.59275  6.24225  8.02575
C -14.26800  3.56700 10.70100
C -14.26800  5.35050 12.48450
C -12.48450  3.56700 12.48450
C -12.48450  5.35050 10.70100
C -13.37625  4.45875 11.59275
C -13.37625  6.24225 13.37625
C -11.59275  4.45875 13.37625
C -11.59275  6.24225 11.59275
C -14.26800  3.56700 14.26800
C -14.26800  5.35050 16.05150
C -12.48450  3.56700 16.05150
C -12.48450  5.35050 14.26800
C -13.37625  4.45875 15.15975
C -13.37625  6.24225 16.94325
C -11.59275  4.45875 16.94325
C -11.59275  6.24225 15.15975
C -14.26800  7.13400  0.00000
C -14.26800  8.91750  1.78350
C -12.48450  7.13400  1.78350
C -12.48450  8.91750  0.00000
C -13.37625  8.02575  0.89175
C -13.37625  9.80925  2.67525
C -11.59275  8.02575  2.67525
C -11.59275  9.80925  0.89175
C -14.26800  7.13400  3.56700
C -14.26800  8.91750  5.35050
C -12.48450  7.13400  5.35050
C -12.48450  8.91750  3.56700
C -13.37625  8.02575  4.45875
C -13.37625  9.80925  6.24225
C -11.59275  8.02575  6.24225
C -11.59275  9.80925  4.45875
C -14.26800  7.13400  7.13400
C -14.26800  8.91750  8.91750
C -12.48450  7.13400  8.91750
C -12.48450  8.91750  7.13400
C -13.37625  8.02575  8.02575
C -13.37625  9.80925  9.80925
C -11.59275  8.02575  9.80925
C -11.59275  9.80925  8.02575
C -14.26800  7.13400 10.70100
C -14.26800  8.91750 12.48450
C -12.48450  7.13400 12.48450
C -12.48450  8.91750 10.70100
C -13.37625  8.02575 11.59275
C -13.37625  9.80925 13.37625
C -11.59275  8.02575 13.37625
C -11.59275  9.80925 11.59275
C -14.26800  7.13400 14.26800
C -14.26800  8.91750 16.05150
C -12.48450  7.13400 16.05150
C -12.48450  8.91750 14.26800
C -13.37625  8.02575 15.15975
C -13.37625  9.80925 16.94325
C -11.59275  8.02575 16.94325
C -11.59275  9.80925 15.15975
C -14.26800 10.70100  0.00000
C -14.26800 12.48450  1.78350
C -12.48450 10.70100  1.78350
C -12.48450 12.48450  0.00000
C -13.37625 11.59275  0.89175
C -13.37625 13.37625  2.67525
C -11.59275 11.59275  2.67525
C -11.59275 13.37625  0.89175
C -14.26800 10.70100  3.56700
C -14.26800 12.48450  5.35050
C -12.48450 10.70100  5.35050
C -12.48450 12.48450  3.56700
C -13.37625 11.59275  4.45875
C -13.37625 13.37625  6.24225
C -11.59275 11.59275  6.24225
C -11.59275 13.37625  4.45875
C -14.26800 10.70100  7.13400
C -14.26800 12.48450  8.91750
C -12.48450 10.70100  8.91750
C -12.48450 12.48450  7.13400
C -13.37625 11.59275  8.02575
C -13.37625 13.37625  9.80925
C -11.59275 11.59275  9.80925
C -11.59275 13.37625  8.02575
C -14.26800 10.70100 10.70100
C -14.26800 12.48450 12.48450
C -12.48450 10.70100 12.48450
C -12.48450 12.48450 10.70100
C -13.37625 11.59275 11.59275
C -13.37625 13.37625 13.37625
C -11.59275 11.59275 13.37625
C -11.59275 13.37625 11.59275
C -14.26800 10.70100 14.26800
C -14.26800 12.48450 16.05150
C -12.48450 10.70100 16.05150
C -12.48450 12.48450 14.26800
C -13.37625 11.59275 15.15975
C -13.37625 13.37625 16.94325
C -11.59275 11.59275 16.94325
C -11.59275 13.37625 15.15975
C -14.26800 14.26800  0.00000
C -14.26800 16.05150  1.78350
C -12.48450 14.26800  1.78350
C -12.48450 16.05150  0.00000
C -13.37625 15.15975  0.89175
C -13.37625 16.94325  2.67525
C -11.59275 15.15975  2.67525
C -11.59275 16.94325  0.89175
C -14.26800 14.26800  3.56700
C -14.26800 16.05150  5.35050
C -12.48450 14.26800  5.35050
C -12.48450 16.05150  3.56700
C -13.37625 15.15975  4.45875
C -13.37625 16.94325  6.24225
C -11.59275 15.15975  6.24225
C -11.59275 16.94325  4.45875
C -14.26800 14.26800  7.13400
C -14.26800 16.05150  8.91750
C -12.48450 14.26800  8.91750
C -12.48450 16.05150  7.13400
C -13.37625 15.15975  8.02575
C -13.37625 16.94325  9.80925
C -11.59275 15.15975  9.80925
C -11.59275 16.94325  8.02575
C -14.26800 14.26800 10.70100
C -14.26800 16.05150 12.48450
C -12.48450 14.26800 12.48450
C -12.48450 16.05150 10.70100
C -13.37625 15.15975 11.59275
C -13.37625 16.94325 13.37625
C -11.59275 15.15975 13.37625
C -11.59275 16.94325 11.59275
C -14.26800 14.26800 14.26800
C -14.26800 16.05150 16.05150
C -12.48450 14.26800 16.05150
C -12.48450 16.05150 14.26800
C -13.37625 15.15975 15.15975
C -13.37625 16.94325 16.94325
C -11.59275 15.15975 16.94325
C -11.59275 16.94325 15.15975
C -10.70100  0.00000  0.00000
C -10.70100  1.78350  1.78350
C -8.91750  0.00000  1.78350
C -8.91750  1.78350  0.00000
C -9.80925  0.89175  0.89175
C -9.80925  2.67525  2.67525
C -8.02575  0.89175  2.67525
C -8.02575  2.67525  0.89175
C -10.70100  0.00000  3.56700
C -10.70100  1.78350  5.35050
C -8.91750  0.00000  5.35050
C -8.91750  1.78350  3.56700
C -9.80925  0.89175  4.45875
C -9.80925  2.67525  6.24225
C -8.02575  0.89175  6.24225
C -8.02575  2.67525  4.45875
C -10.70100  0.00000  7.13400
C -10.70100  1.78350  8.91750
C -8.91750  0.00000  8.91750
C -8.91750  1.78350  7.13400
C -9.80925  0.89175  8.02575
C -9.80925  2.67525  9.80925
C -8.02575  0.89175  9.80925
C -8.02575  2.67525  8.02575
C -10.70100  0.00000 10.70100
C -10.70100  1.78350 12.48450
C -8.91750  0.00000 12.48450
C -8.91750  1.78350 10.70100
C -9.80925  0.89175 11.59275
C -9.80925  2.67525 13.37625
C -8.02575  0.89175 13.37625
C -8.02575  2.67525 11.59275
C -10.70100  0.00000 14.26800
C -10.70100  1.78350 16.05150
C -8.91750  0.00000 16.05150
C -8.91750  1.78350 14.26800
C -9.80925  0.89175 15.15975
C -9.80925  2.67525 16.94325
C -8.02575  0.89175 16.94325
C -8.02575  2.67525 15.15975
C -10.70100  3.56700  0.00000
C -10.70100  5.35050  1.78350
C -8.91750  3.56700  1.78350
C -8.91750  5.35050  0.00000
C -9.80925  4.45875  0.89175
C -9.80925  6.24225  2.67525
C -8.02575  4.45875  2.67525
C -8.02575  6.24225  0.89175
C -10.70100  3.56700  3.56700
C -10.70100  5.35050  5.35050
C -8.91750  3.56700  5.35050
C -8.91750  5.35050  3.56700
C -9.80925  4.45875  4.45875
C -9.80925  6.24225  6.24225
C -8.02575  4.45875  6.24225
C -8.02575  6.24225  4.45875
C -10.70100  3.56700  7.13400
C -10.70100  5.35050  8.91750
C -8.91750  3.56700  8.91750
C -8.91750  5.35050  7.13400
C -9.80925  4.45875  8.02575
C -9.80925  6.24225  9.80925
C -8.02575  4.45875  9.80925
C -8.02575  6.24225  8.02575
C -10.70100  3.56700 10.70100
C -10.70100  5.35050 12.48450
C -8.91750  3.56700 12.48450
C -8.91750  5.35050 10.70100
C -9.80925  4.45875 11.59275
C -9.80925  6.24225 13.37625
C -8.02575  4.45875 13.37625
C -8.02575  6.24225 11.59275
C -10.70100  3.56700 14.26800
C -10.70100  5.35050 16.05150
C -8.91750  3.56700 16.05150
C -8.91750  5.35050 14.26800
C -9.80925  4.45875 15.15975
C -9.80925  6.24225 16.94325
C -8.02575  4.45875 16.94325
C -8.02575  6.24225 15.15975
C -10.70100  7.13400  0.00000
C -10.70100  8.91750  1.78350
C -8.91750  7.13400  1.78350
C -8.91750  8.91750  0.00000
C -9.80925  8.02575  0.89175
C -9.80925  9.80925  2.67525
C -8.02575  8.02575  2.67525
C -8.02575  9.80925  0.89175
C -10.70100  7.13400  3.56700
C -10.70100  8.91750  5.35050
C -8.91750  7.13400  5.35050
C -8.91750  8.91750  3.56700
C -9.80925  8.02575  4.45875
C -9.80925  9.80925  6.24225
C -8.02575  8.02575  6.24225
C -8.02575  9.80925  4.45875
C -10.70100  7.13400  7.13400
C -10.70100  8.91750  8.91750
C -8.91750  7.13400  8.91750
C -8.91750  8.91750  7.13400
C -9.80925  8.02575  8.02575
C -9.80925  9.80925  9.80925
C -8.02575  8.02575  9.80925
C -8.02575  9.80925  8.02575
C -10.70100  7.13400 10.70100
C -10.70100  8.91750 12.48450
C -8.91750  7.13400 12.48450
C -8.91750  8.91750 10.70100
C -9.80925  8.02575 11.59275
C -9.80925  9.80925 13.37625
C -8.02575  8.02575 13.37625
C -8.02575  9.80925 11.59275
C -10.70100  7.13400 14.26800
C -10.70100  8.91750 16.05150
C -8.91750  7.13400 16.05150
C -8.91750  8.91750 14.26800
C -9.80925  8.02575 15.15975
C -9.80925  9.80925 16.94325
C -8.02575  8.02575 16.94325
C -8.02575  9.80925 15.15975
C -10.70100 10.70100  0.00000
C -10.70100 12.48450  1.78350
C -8.91750 10.70100  1.78350
C -8.91750 12.48450  0.00000
C -9.80925 11.59275  0.89175
C -9.80925 13.37625  2.67525
C -8.02575 11.59275  2.67525
C -8.02575 13.37625  0.89175
C -10.70100 10.70100  3.56700
C -10.70100 12.48450  5.35050
C -8.91750 10.70100  5.35050
C -8.91750 12.48450  3.56700
C -9.80925 11.59275  4.45875
C -9.80925 13.37625  6.24225
C -8.02575 11.59275  6.24225
C -8.02575 13.37625  4.45875
C -10.70100 10.70100  7.13400
C -10.70100 12.48450  8.91750
C -8.91750 10.70100  8.91750
C -8.91750 12.48450  7.13400
C -9.80925 11.59275  8.02575
C -9.80925 13.37625  9.80925
C -8.02575 11.59275  9.80925
C -8.02575 13.37625  8.02575
C -10.70100 10.70100 10.70100
C -10.70100 12.48450 12.48450
C -8.91750 10.70100 12.48450
C -8.91750 12.48450 10.70100
C -9.80925 11.59275 11.59275
C -9.80925 13.37625 13.37625
C -8.02575 11.59275 13.37625
C -8.02575 13.37625 11.59275
C -10.70100 10.70100 14.26800
C -10.70100 12.48450 16.05150
C -8.91750 10.70100 16.05150
C -8.91750 12.48450 14.26800
C -9.80925 11.59275 15.15975
C -9.80925 13.37625 16.94325
C -8.02575 11.59275 16.94325
C -8.02575 13.37625 15.15975
C -10.70100 14.26800  0.00000
C -10.70100 16.05150  1.78350
C -8.91750 14.26800  1.78350
C -8.91750 16.05150  0.00000
C -9.80925 15.15975  0.89175
C -9.80925 16.94325  2.67525
C -8.02575 15.15975  2.67525
C -8.02575 16.94325  0.89175
C -10.70100 14.26800  3.56700
C -10.70100 16.05150  5.35050
C -8.91750 14.26800  5.35050
C -8.91750 16.05150  3.56700
C -9.80925 15.15975  4.45875
C -9.80925 16.94325  6.24225
C -8.02575 15.15975  6.24225
C -8.02575 16.94325  4.45875
C -10.70100 14.26800  7.13400
C -10.70100 16.05150  8.91750
C -8.91750 14.26800  8.91750
C -8.91750 16.05150  7.13400
C -9.80925 15.15975  8.02575
C -9.80925 16.94325  9.80925
C -8.02575 15.15975  9.80925
C -8.02575 16.94325  8.02575
C -10.70100 14.26800 10.70100
C -10.70100 16.05150 12.48450
C -8.91750 14.26800 12.48450
C -8.91750 16.05150 10.70100
C -9.80925 15.15975 11.59275
C -9.80925 16.94325 13.37625
C -8.02575 15.15975 13.37625
C -8.02575 16.94325 11.59275
C -10.70100 14.26800 14.26800
C -10.70100 16.05150 16.05150
C -8.91750 14.26800 16.05150
C -8.91750 16.05150 14.26800
C -9.80925 15.15975 15.15975
C -9.80925 16.94325 16.94325
C -8.02575 15.15975 16.94325
C -8.02575 16.94325 15.15975
C -7.13400  0.00000  0.00000
C -7.13400  1.78350  1.78350
C -5.35050  0.00000  1.78350
C -5.35050  1.78350  0.00000
C -6.24225  0.89175  0.89175
C -6.24225  2.67525  2.67525
C -4.45875  0.89175  2.67525
C -4.45875  2.67525  0.89175
C -7.13400  0.00000  3.56700
C -7.13400  1.78350  5.35050
C -5.35050  0.00000  5.35050
C -5.35050  1.78350  3.56700
C -6.24225  0.89175  4.45875
C -6.24225  2.67525  6.24225
C -4.45875  0.89175  6.24225
C -4.45875  2.67525  4.45875
C -7.13400  0.00000  7.13400
C -7.13400  1.78350  8.91750
C -5.35050  0.00000  8.91750
C -5.35050  1.78350  7.13400
C -6.24225  0.89175  8.02575
C -6.24225  2.67525  9.80925
C -4.45875  0.89175  9.80925
C -4.45875  2.67525  8.02575
C -7.13400  0.00000 10.70100
C -7.13400  1.78350 12.48450
C -5.35050  0.00000 12.48450
C -5.35050  1.78350 10.70100
C -6.24225  0.89175 11.59275
C -6.24225  2.67525 13.37625
C -4.45875  0.89175 13.37625
C -4.45875  2.67525 11.59275
C -7.13400  0.00000 14.26800
C -7.13400  1.78350 16.05150
C -5.35050  0.00000 16.05150
C -5.35050  1.78350 14.26800
C -6.24225  0.89175 15.15975
C -6.24225  2.67525 16.94325
C -4.45875  0.89175 16.94325
C -4.45875  2.67525 15.15975
C -7.13400  3.56700  0.00000
C -7.13400  5.35050  1.78350
C -5.35050  3.56700  1.78350
C -5.35050  5.35050  0.00000
C -6.24225  4.45875  0.89175
C -6.24225  6.24225  2.67525
C -4.45875  4.45875  2.67525
C -4.45875  6.24225  0.89175
C -7.13400  3.56700  3.56700
C -7.13400  5.35050  5.35050
C -5.35050  3.56700  5.35050
C -5.35050  5.35050  3.56700
C -6.24225  4.45875  4.45875
C -6.24225  6.24225  6.24225
C -4.45875  4.45875  6.24225
C -4.45875  6.24225  4.45875
C -7.13400  3.56700  7.13400
C -7.13400  5.35050  8.91750
C -5.35050  3.56700  8.91750
C -5.35050  5.35050  7.13400
C -6.24225  4.45875  8.02575
C -6.24225  6.24225  9.80925
C -4.45875  4.45875  9.80925
C -4.45875  6.24225  8.02575
C -7.13400  3.56700 10.70100
C -7.13400  5.35050 12.48450
C -5.35050  3.56700 12.48450
C -5.35050  5.35050 10.70100
C -6.24225  4.45875 11.59275
C -6.24225  6.24225 13.37625
C -4.45875  4.45875 13.37625
C -4.45875  6.24225 11.59275
C -7.13400  3.56700 14.26800
C -7.13400  5.35050 16.05150
C -5.35050  3.56700 16.05150
C -5.35050  5.35050 14.26800
C -6.24225  4.45875 15.15975
C -6.24225  6.24225 16.94325
C -4.45875  4.45875 16.94325
C -4.45875  6.24225 15.15975
C -7.13400  7.13400  0.00000
C -7.13400  8.91750  1.78350
C -5.35050  7.13400  1.78350
C -5.35050  8.91750  0.00000
C -6.24225  8.02575  0.89175
C -6.24225  9.80925  2.67525
C -4.45875  8.02575  2.67525
C -4.45875  9.80925  0.89175
C -7.13400  7.13400  3.56700
C -7.13400  8.91750  5.35050
C -5.35050  7.13400  5.35050
C -5.35050  8.91750  3.56700
C -6.24225  8.02575  4.45875
C -6.24225  9.80925  6.24225
C -4.45875  8.02575  6.24225
C -4.45875  9.80925  4.45875
C -7.13400  7.13400  7.13400
C -7.13400  8.91750  8.91750
C -5.35050  7.13400  8.91750
C -5.35050  8.91750  7.13400
C -6.24225  8.02575  8.02575
C -6.24225  9.80925  9.80925
C -4.45875  8.02575  9.80925
C -4.45875  9.80925  8.02575
C -7.13400  7.13400 10.70100
C -7.13400  8.91750 12.48450
C -5.35050  7.13400 12.48450
C -5.35050  8.91750 10.70100
C -6.24225  8.02575 11.59275
C -6.24225  9.80925 13.37625
C -4.45875  8.02575 13.37625
C -4.45875  9.80925 11.59275
C -7.13400  7.13400 14.26800
C -7.13400  8.91750 16.05150
C -5.35050  7.13400 16.05150
C -5.35050  8.91750 14.26800
C -6.24225  8.02575 15.15975
C -6.24225  9.80925 16.94325
C -4.45875  8.02575 16.94325
C -4.45875  9.80925 15.15975
C -7.13400 10.70100  0.00000
C -7.13400 12.48450  1.78350
C -5.35050 10.70100  1.78350
C -5.35050 12.48450  0.00000
C -6.24225 11.59275  0.89175
C -6.24225 13.37625  2.67525
C -4.45875 11.59275  2.67525
C -4.45875 13.37625  0.89175
C -7.13400 10.70100  3.56700
C -7.13400 12.48450  5.35050
C -5.35050 10.70100  5.35050
C -5.35050 12.48450  3.56700
C -6.24225 11.59275  4.45875
C -6.24225 13.37625  6.24225
C -4.45875 11.59275  6.24225
C -4.45875 13.37625  4.45875
C -7.13400 10.70100  7.13400
C -7.13400 12.48450  8.91750
C -5.35050 10.70100  8.91750
C -5.35050 12.48450  7.13400
C -6.24225 11.59275  8.02575
C -6.24225 13.37625  9.80925
C -4.45875 11.59275  9.80925
C -4.45875 13.37625  8.02575
C -7.13400 10.70100 10.70100
C -7.13400 12.48450 12.48450
C -5.35050 10.70100 12.48450
C -5.35050 12.48450 10.70100
C -6.24225 11.59275 11.59275
C -6.24225 13.37625 13.37625
C -4.45875 11.59275 13.37625
C -4.45875 13.37625 11.59275
C -7.13400 10.70100 14.26800
C -7.13400 12.48450 16.05150
C -5.35050 10.70100 16.05150
C -5.35050 12.48450 14.26800
C -6.24225 11.59275 15.15975
C -6.24225 13.37625 16.94325
C -4.45875 11.59275 16.94325
C -4.45875 13.37625 15.15975
C -7.13400 14.26800  0.00000
C -7.13400 16.05150  1.78350
C -5.35050 14.26800  1.78350
C -5.35050 16.05150  0.00000
C -6.24225 15.15975  0.89175
C -6.24225 16.94325  2.67525
C -4.45875 15.15975  2.67525
C -4.45875 16.94325  0.89175
C -7.13400 14.26800  3.56700
C -7.13400 16.05150  5.35050
C -5.35050 14.26800  5.35050
C -5.35050 16.05150  3.56700
C -6.24225 15.15975  4.45875
C -6.24225 16.94325  6.24225
C -4.45875 15.15975  6.24225
C -4.45875 16.94325  4.45875
C -7.13400 14.26800  7.13400
C -7.13400 16.05150  8.91750
C -5.35050 14.26800  8.91750
C -5.35050 16.05150  7.13400
C -6.24225 15.15975  8.02575
C -6.24225 16.94325  9.80925
C -4.45875 15.15975  9.80925
C -4.45875 16.94325  8.02575
C -7.13400 14.26800 10.70100
C -7.13400 16.05150 12.48450
C -5.35050 14.26800 12.48450
C -5.35050 16.05150 10.70100
C -6.24225 15.15975 11.59275
C -6.24225 16.94325 13.37625
C -4.45875 15.15975 13.37625
C -4.45875 16.94325 11.59275
C -7.13400 14.26800 14.26800
C -7.13400 16.05150 16.05150
C -5.35050 14.26800 16.05150
C -5.35050 16.05150 14.26800
C -6.24225 15.15975 15.15975
C -6.24225 16.94325 16.94325
C -4.45875 15.15975 16.94325
C -4.45875 16.94325 15.15975
C -3.56700  0.00000  0.00000
C -3.56700  1.78350  1.78350
C -1.78350  0.00000  1.78350
C -1.78350  1.78350  0.00000
C -2.67525  0.89175  0.89175
C -2.67525  2.67525  2.67525
C -0.89175  0.89175  2.67525
C -0.89175  2.67525  0.89175
C -3.56700  0.00000  3.56700
C -3.56700  1.78350  5.35050
C -1.78350  0.00000  5.35050
C -1.78350  1.78350  3.56700
C -2.67525  0.89175  4.45875
C -2.67525  2.67525  6.24225
C -0.89175  0.89175  6.24225
C -0.89175  2.67525  4.45875
C -3.56700  0.00000  7.13400
C -3.56700  1.78350  8.91750
C -1.78350  0.00000  8.91750
C -1.78350  1.78350  7.13400
C -2.67525  0.89175  8.02575
C -2.67525  2.67525  9.80925
C -0.89175  0.89175  9.80925
C -0.89175  2.67525  8.02575
C -3.56700  0.00000 10.70100
C -3.56700  1.78350 12.48450
C -1.78350  0.00000 12.48450
C -1.78350  1.78350 10.70100
C -2.67525  0.89175 11.59275
C -2.67525  2.67525 13.37625
C -0.89175  0.89175 13.37625
C -0.89175  2.67525 11.59275
C -3.56700  0.00000 14.26800
C -3.56700  1.78350 16.05150
C -1.78350  0.00000 16.05150
C -1.78350  1.78350 14.26800
C -2.67525  0.89175 15.15975
C -2.67525  2.67525 16.94325
C -0.89175  0.89175 16.94325
C -0.89175  2.67525 15.15975
C -3.56700  3.56700  0.00000
C -3.56700  5.35050  1.78350
C -1.78350  3.56700  1.78350
C -1.78350  5.35050  0.00000
C -2.67525  4.45875  0.89175
C -2.67525  6.24225  2.67525
C -0.89175  4.45875  2.67525
C -0.89175  6.24225  0.89175
C -3.56700  3.56700  3.56700
C -3.56700  5.35050  5.35050
C -1.78350  3.56700  5.35050
C -1.78350  5.35050  3.56700
C -2.67525  4.45875  4.45875
C -2.67525  6.24225  6.24225
C -0.89175  4.45875  6.24225
C -0.89175  6.24225  4.45875
C -3.56700  3.56700  7.13400
C -3.56700  5.35050  8.91750
C -1.78350  3.56700  8.91750
C -1.78350  5.35050  7.13400
C -2.67525  4.45875  8.02575
C -2.67525  6.24225  9.80925
C -0.89175  4.45875  9.80925
C -0.89175  6.24225  8.02575
C -3.56700  3.56700 10.70100
C -3.56700  5.35050 12.48450
C -1.78350  3.56700 12.48450
C -1.78350  5.35050 10.70100
C -2.67525  4.45875 11.59275
C -2.67525  6.24225 13.37625
C -0.89175  4.45875 13.37625
C -0.89175  6.24225 11.59275
C -3.56700  3.56700 14.26800
C -3.56700  5.35050 16.05150
C -1.78350  3.56700 16.05150
C -1.78350  5.35050 14.26800
C -2.67525  4.45875 15.15975
C -2.67525  6.24225 16.94325
C -0.89175  4.45875 16.94325
C -0.89175  6.24225 15.15975
C -3.56700  7.13400  0.00000
C -3.56700  8.91750  1.78350
C -1.78350  7.13400  1.78350
C -1.78350  8.91750  0.00000
C -2.67525  8.02575  0.89175
C -2.67525  9.80925  2.67525
C -0.89175  8.02575  2.67525
C -0.89175  9.80925  0.89175
C -3.56700  7.13400  3.56700
C -3.56700  8.91750  5.35050
C -1.78350  7.13400  5.35050
C -1.78350  8.91750  3.56700
C -2.67525  8.02575  4.45875
C -2.67525  9.80925  6.24225
C -0.89175  8.02575  6.24225
C -0.89175  9.80925  4.45875
C -3.56700  7.13400  7.13400
C -3.56700  8.91750  8.91750
C -1.78350  7.13400  8.91750
C -1.78350  8.91750  7.13400
C -2.67525  8.02575  8.02575
C -2.67525  9.80925  9.80925
C -0.89175  8.02575  9.80925
C -0.89175  9.80925  8.02575
C -3.56700  7.13400 10.70100
C -3.56700  8.91750 12.48450
C -1.78350  7.13400 12.48450
C -1.78350  8.91750 10.70100
C -2.67525  8.02575 11.59275
C -2.67525  9.80925 13.37625
C -0.89175  8.02575 13.37625
C -0.89175  9.80925 11.59275
C -3.56700  7.13400 14.26800
C -3.56700  8.91750 16.05150
C -1.78350  7.13400 16.05150
C -1.78350  8.91750 14.26800
C -2.67525  8.02575 15.15975
C -2.67525  9.80925 16.94325
C -0.89175  8.02575 16.94325
C -0.89175  9.80925 15.15975
C -3.56700 10.70100  0.00000
C -3.56700 12.48450  1.78350
C -1.78350 10.70100  1.78350
C -1.78350 12.48450  0.00000
C -2.67525 11.59275  0.89175
C -2.67525 13.37625  2.67525
C -0.89175 11.59275  2.67525
C -0.89175 13.37625  0.89175
C -3.56700 10.70100  3.56700
C -3.56700 12.48450  5.35050
C -1.78350 10.70100  5.35050
C -1.78350 12.48450  3.56700
C -2.67525 11.59275  4.45875
C -2.67525 13.37625  6.24225
C -0.89175 11.59275  6.24225
C -0.89175 13.37625  4.45875
C -3.56700 10.70100  7.13400
C -3.56700 12.48450  8.91750
C -1.78350 10.70100  8.91750
C -1.78350 12.48450  7.13400
C -2.67525 11.59275  8.02575
C -2.67525 13.37625  9.80925
C -0.89175 11.59275  9.80925
C -0.89175 13.37625  8.02575
C -3.56700 10.70100 10.70100
C -3.56700 12.48450 12.48450
C -1.78350 10.70100 12.48450
C -1.78350 12.48450 10.70100
C -2.67525 11.59275 11.59275
C -2.67525 13.37625 13.37625
C -0.89175 11.59275 13.37625
C -0.89175 13.37625 11.59275
C -3.56700 10.70100 14.26800
C -3.56700 12.48450 16.05150
C -1.78350 10.70100 16.05150
C -1.78350 12.48450 14.26800
C -2.67525 11.59275 15.15975
C -2.67525 13.37625 16.94325
C -0.89175 11.59275 16.94325
C -0.89175 13.37625 15.15975
C -3.56700 14.26800  0.00000
C -3.56700 16.05150  1.78350
C -1.78350 14.26800  1.78350
C -1.78350 16.05150  0.00000
C -2.67525 15.15975  0.89175
C -2.67525 16.94325  2.67525
C -0.89175 15.15975  2.67525
C -0.89175 16.94325  0.89175
C -3.56700 14.26800  3.56700
C -3.56700 16.05150  5.35050
C -1.78350 14.26800  5.35050
C -1.78350 16.05150  3.56700
C -2.67525 15.15975  4.45875
C -2.67525 16.94325  6.24225
C -0.89175 15.15975  6.24225
C -0.89175 16.94325  4.45875
C -3.56700 14.26800  7.13400
C -3.56700 16.05150  8.91750
C -1.78350 14.26800  8.91750
C -1.78350 16.05150  7.13400
C -2.67525 15.15975  8.02575
C -2.67525 16.94325  9.80925
C -0.89175 15.15975  9.80925
C -0.89175 16.94325  8.02575
C -3.56700 14.26800 10.70100
C -3.56700 16.05150 12.48450
C -1.78350 14.26800 12.48450
C -1.78350 16.05150 10.70100
C -2.67525 15.15975 11.59275
C -2.67525 16.94325 13.37625
C -0.89175 15.15975 13.37625
C -0.89175 16.94325 11.59275
C -3.56700 14.26800 14.26800
C -3.56700 16.05150 16.05150
C -1.78350 14.26800 16.05150
C -1.78350 16.05150 14.26800
C -2.67525 15.15975 15.15975
C -2.67525 16.94325 16.94325
C -0.89175 15.15975 16.94325
C -0.89175 16.94325 15.15975
N -17.83500  0.00000 17.83500
C -17.83500  1.78350 19.61850
C -16.05150  0.00000 19.61850
C -16.05150  1.78350 17.83500
C -16.94325  0.89175 18.72675
C -16.94325  2.67525 20.51025
C -15.15975  0.89175 20.51025
C -15.15975  2.67525 18.72675
C -17.83500  0.00000 21.40200
C -17.83500  1.78350 23.18550
C -16.05150  0.00000 23.18550
C -16.05150  1.78350 21.40200
C -16.94325  0.89175 22.29375
C -16.94325  2.67525 24.07725
C -15.15975  0.89175 24.07725
C -15.15975  2.67525 22.29375
C -17.83500  0.00000 24.96900
C -17.83500  1.78350 26.75250
C -16.05150  0.00000 26.75250
C -16.05150  1.78350 24.96900
C -16.94325  0.89175 25.86075
C -16.94325  2.67525 27.64425
C -15.15975  0.89175 27.64425
C -15.15975  2.67525 25.86075
C -17.83500  0.00000 28.53600
C -17.83500  1.78350 30.31950
C -16.05150  0.00000 30.31950
C -16.05150  1.78350 28.53600
C -16.94325  0.89175 29.42775
C -16.94325  2.67525 31.21125
C -15.15975  0.89175 31.21125
C -15.15975  2.67525 29.42775
C -17.83500  0.00000 32.10300
C -17.83500  1.78350 33.88650
C -16.05150  0.00000 33.88650
C -16.05150  1.78350 32.10300
C -16.94325  0.89175 32.99475
C -16.94325  2.67525 34.77825
C -15.15975  0.89175 34.77825
C -15.15975  2.67525 32.99475
C -17.83500  3.56700 17.83500
C -17.83500  5.35050 19.61850
C -16.05150  3.56700 19.61850
C -16.05150  5.35050 17.83500
C -16.94325  4.45875 18.72675
C -16.94325  6.24225 20.51025
C -15.15975  4.45875 20.51025
C -15.15975  6.24225 18.72675
C -17.83500  3.56700 21.40200
C -17.83500  5.35050 23.18550
C -16.05150  3.56700 23.18550
C -16.05150  5.35050 21.40200
C -16.94325  4.45875 22.29375
C -16.94325  6.24225 24.07725
C -15.15975  4.45875 24.07725
C -15.15975  6.24225 22.29375
C -17.83500  3.56700 24.96900
C -17.83500  5.35050 26.75250
C -16.05150  3.56700 26.75250
C -16.05150  5.35050 24.96900
C -16.94325  4.45875 25.86075
C -16.94325  6.24225 27.64425
C -15.15975  4.45875 27.64425
C -15.15975  6.24225 25.86075
C -17.83500  3.56700 28.53600
C -17.83500  5.35050 30.31950
C -16.05150  3.56700 30.31950
C -16.05150  5.35050 28.53600
C -16.94325  4.45875 29.42775
C -16.94325  6.24225 31.21125
C -15.15975  4.45875 31.21125
C -15.15975  6.24225 29.42775
C -17.83500  3.56700 32.10300
C -17.83500  5.35050 33.88650
C -16.05150  3.56700 33.88650
C -16.05150  5.35050 32.10300
C -16.94325  4.45875 32.99475
C -16.94325  6.24225 34.77825
C -15.15975  4.45875 34.77825
C -15.15975  6.24225 32.99475
C -17.83500  7.13400 17.83500
C -17.83500  8.91750 19.61850
C -16.05150  7.13400 19.61850
C -16.05150  8.91750 17.83500
C -16.94325  8.02575 18.72675
C -16.94325  9.80925 20.51025
C -15.15975  8.02575 20.51025
C -15.15975  9.80925 18.72675
C -17.83500  7.13400 21.40200
C -17.83500  8.91750 23.18550
C -16.05150  7.13400 23.18550
C -16.05150  8.91750 21.40200
C -16.94325  8.02575 22.29375
C -16.94325  9.80925 24.07725
C -15.15975  8.02575 24.07725
C -15.15975  9.80925 22.29375
C -17.83500  7.13400 24.96900
C -17.83500  8.91750 26.75250
C -16.05150  7.13400 26.75250
C -16.05150  8.91750 24.96900
C -16.94325  8.02575 25.86075
C -16.94325  9.80925 27.64425
C -15.15975  8.02575 27.64425
C -15.15975  9.80925 25.86075
C -17.83500  7.13400 28.53600
C -17.83500  8.91750 30.31950
C -16.05150  7.13400 30.31950
C -16.05150  8.91750 28.53600
C -16.94325  8.02575 29.42775
C -16.94325  9.80925 31.21125
C -15.15975  8.02575 31.21125
C -15.15975  9.80925 29.42775
C -17.83500  7.13400 32.10300
C -17.83500  8.91750 33.88650
C -16.05150  7.13400 33.88650
C -16.05150  8.91750 32.10300
C -16.94325  8.02575 32.99475
C -16.94325  9.80925 34.77825
C -15.15975  8.02575 34.77825
C -15.15975  9.80925 32.99475
C -17.83500 10.70100 17.83500
C -17.83500 12.48450 19.61850
C -16.05150 10.70100 19.61850
C -16.05150 12.48450 17.83500
C -16.94325 11.59275 18.72675
C -16.94325 13.37625 20.51025
C -15.15975 11.59275 20.51025
C -15.15975 13.37625 18.72675
C -17.83500 10.70100 21.40200
C -17.83500 12.48450 23.18550
C -16.05150 10.70100 23.18550
C -16.05150 12.48450 21.40200
C -16.94325 11.59275 22.29375
C -16.94325 13.37625 24.07725
C -15.15975 11.59275 24.07725
C -15.15975 13.37625 22.29375
C -17.83500 10.70100 24.96900
C -17.83500 12.48450 26.75250
C -16.05150 10.70100 26.75250
C -16.05150 12.48450 24.96900
C -16.94325 11.59275 25.86075
C -16.94325 13.37625 27.64425
C -15.15975 11.59275 27.64425
C -15.15975 13.37625 25.86075
C -17.83500 10.70100 28.53600
C -17.83500 12.48450 30.31950
C -16.05150 10.70100 30.31950
C -16.05150 12.48450 28.53600
C -16.94325 11.59275 29.42775
C -16.94325 13.37625 31.21125
C -15.15975 11.59275 31.21125
C -15.15975 13.37625 29.42775
C -17.83500 10.70100 32.10300
C -17.83500 12.48450 33.88650
C -16.05150 10.70100 33.88650
C -16.05150 12.48450 32.10300
C -16.94325 11.59275 32.99475
C -16.94325 13.37625 34.77825
C -15.15975 11.59275 34.77825
C -15.15975 13.37625 32.99475
C -17.83500 14.26800 17.83500
C -17.83500 16.05150 19.61850
C -16.05150 14.26800 19.61850
C -16.05150 16.05150 17.83500
C -16.94325 15.15975 18.72675
C -16.94325 16.94325 20.51025
C -15.15975 15.15975 20.51025
C -15.15975 16.94325 18.72675
C -17.83500 14.26800 21.40200
C -17.83500 16.05150 23.18550
C -16.05150 14.26800 23.18550
C -16.05150 16.05150 21.40200
C -16.94325 15.15975 22.29375
C -16.94325 16.94325 24.07725
C -15.15975 15.15975 24.07725
C -15.15975 16.94325 22.29375
C -17.83500 14.26800 24.96900
C -17.83500 16.05150 26.75250
C -16.05150 14.26800 26.75250
C -16.05150 16.05150 24.96900
C -16.94325 15.15975 25.86075
C -16.94325 16.94325 27.64425
C -15.15975 15.15975 27.64425
C -15.15975 16.94325 25.86075
C -17.83500 14.26800 28.53600
C -17.83500 16.05150 30.31950
C -16.05150 14.26800 30.31950
C -16.05150 16.05150 28.53600
C -16.94325 15.15975 29.42775
C -16.94325 16.94325 31.21125
C -15.15975 15.15975 31.21125
C -15.15975 16.94325 29.42775
C -17.83500 14.26800 32.10300
C -17.83500 16.05150 33.88650
C -16.05150 14.26800 33.88650
C -16.05150 16.05150 32.10300
C -16.94325 15.15975 32.99475
C -16.94325 16.94325 34.77825
C -15.15975 15.15975 34.77825
C -15.15975 16.94325 32.99475
C -14.26800  0.00000 17.83500
C -14.26800  1.78350 19.61850
C -12.48450  0.00000 19.61850
C -12.48450  1.78350 17.83500
C -13.37625  0.89175 18.72675
C -13.37625  2.67525 20.51025
C -11.59275  0.89175 20.51025
C -11.59275  2.67525 18.72675
C -14.26800  0.00000 21.40200
C -14.26800  1.78350 23.18550
C -12.48450  0.00000 23.18550
C -12.48450  1.78350 21.40200
C -13.37625  0.89175 22.29375
C -13.37625  2.67525 24.07725
C -11.59275  0.89175 24.07725
C -11.59275  2.67525 22.29375
C -14.26800  0.00000 24.96900
C -14.26800  1.78350 26.75250
C -12.48450  0.00000 26.75250
C -12.48450  1.78350 24.96900
C -13.37625  0.89175 25.86075
C -13.37625  2.67525 27.64425
C -11.59275  0.89175 27.64425
C -11.59275  2.67525 25.86075
C -14.26800  0.00000 28.53600
C -14.26800  1.78350 30.31950
C -12.48450  0.00000 30.31950
C -12.48450  1.78350 28.53600
C -13.37625  0.89175 29.42775
C -13.37625  2.67525 31.21125
C -11.59275  0.89175 31.21125
C -11.59275  2.67525 29.42775
C -14.26800  0.00000 32.10300
C -14.26800  1.78350 33.88650
C -12.48450  0.00000 33.88650
C -12.48450  1.78350 32.10300
C -13.37625  0.89175 32.99475
C -13.37625  2.67525 34.77825
C -11.59275  0.89175 34.77825
C -11.59275  2.67525 32.99475
C -14.26800  3.56700 17.83500
C -14.26800  5.35050 19.61850
C -12.48450  3.56700 19.61850
C -12.48450  5.35050 17.83500
C -13.37625  4.45875 18.72675
C -13.37625  6.24225 20.51025
C -11.59275  4.45875 20.51025
C -11.59275  6.24225 18.72675
C -14.26800  3.56700 21.40200
C -14.26800  5.35050 23.18550
C -12.48450  3.56700 23.18550
C -12.48450  5.35050 21.40200
C -13.37625  4.45875 22.29375
C -13.37625  6.24225 24.07725
C -11.59275  4.45875 24.07725
C -11.59275  6.24225 22.29375
C -14.26800  3.56700 24.96900
C -14.26800  5.35050 26.75250
C -12.48450  3.56700 26.75250
C -12.48450  5.35050 24.96900
C -13.37625  4.45875 25.86075
C -13.37625  6.24225 27.64425
C -11.59275  4.45875 27.64425
C -11.59275  6.24225 25.86075
C -14.26800  3.56700 28.53600
C -14.26800  5.35050 30.31950
C -12.48450  3.56700 30.31950
C -12.48450  5.35050 28.53600
C -13.37625  4.45875 29.42775
C -13.37625  6.24225 31.21125
C -11.59275  4.45875 31.21125
C -11.59275  6.24225 29.42775
C -14.26800  3.56700 32.10300
C -14.26800  5.35050 33.88650
C -12.48450  3.56700 33.88650
C -12.48450  5.35050 32.10300
C -13.37625  4.45875 32.99475
C -13.37625  6.24225 34.77825
C -11.59275  4.45875 34.77825
C -11.59275  6.24225 32.99475
C -14.26800  7.13400 17.83500
C -14.26800  8.91750 19.61850
C -12.48450  7.13400 19.61850
C -12.48450  8.91750 17.83500
C -13.37625  8.02575 18.72675
C -13.37625  9.80925 20.51025
C -11.59275  8.02575 20.51025
C -11.59275  9.80925 18.72675
C -14.26800  7.13400 21.40200
C -14.26800  8.91750 23.18550
C -12.48450  7.13400 23.18550
C -12.48450  8.91750 21.40200
C -13.37625  8.02575 22.29375
C -13.37625  9.80925 24.07725
C -11.59275  8.02575 24.07725
C -11.59275  9.80925 22.29375
C -14.26800  7.13400 24.96900
C -14.26800  8.91750 26.75250
C -12.48450  7.13400 26.75250
C -12.48450  8.91750 24.96900
C -13.37625  8.02575 25.86075
C -13.37625  9.80925 27.64425
C -11.59275  8.02575 27.64425
C -11.59275  9.80925 25.86075
C -14.26800  7.13400 28.53600
C -14.26800  8.91750 30.31950
C -12.48450  7.13400 30.31950
C -12.48450  8.91750 28.53600
C -13.37625  8.02575 29.42775
C -13.37625  9.80925 31.21125
C -11.59275  8.02575 31.21125
C -11.59275  9.80925 29.42775
C -14.26800  7.13400 32.10300
C -14.26800  8.91750 33.88650
C -12.48450  7.13400 33.88650
C -12.48450  8.91750 32.10300
C -13.37625  8.02575 32.99475
C -13.37625  9.80925 34.77825
C -11.59275  8.02575 34.77825
C -11.59275  9.80925 32.99475
C -14.26800 10.70100 17.83500
C -14.26800 12.48450 19.61850
C -12.48450 10.70100 19.61850
C -12.48450 12.48450 17.83500
C -13.37625 11.59275 18.72675
C -13.37625 13.37625 20.51025
C -11.59275 11.59275 20.51025
C -11.59275 13.37625 18.72675
C -14.26800 10.70100 21.40200
C -14.26800 12.48450 23.18550
C -12.48450 10.70100 23.18550
C -12.48450 12.48450 21.40200
C -13.37625 11.59275 22.29375
C -13.37625 13.37625 24.07725
C -11.59275 11.59275 24.07725
C -11.59275 13.37625 22.29375
C -14.26800 10.70100 24.96900
C -14.26800 12.48450 26.75250
C -12.48450 10.70100 26.75250
C -12.48450 12.48450 24.96900
C -13.37625 11.59275 25.86075
C -13.37625 13.37625 27.64425
C -11.59275 11.59275 27.64425
C -11.59275 13.37625 25.86075
C -14.26800 10.70100 28.53600
C -14.26800 12.48450 30.31950
C -12.48450 10.70100 30.31950
C -12.48450 12.48450 28.53600
C -13.37625 11.59275 29.42775
C -13.37625 13.37625 31.21125
C -11.59275 11.59275 31.21125
C -11.59275 13.37625 29.42775
C -14.26800 10.70100 32.10300
C -14.26800 12.48450 33.88650
C -12.48450 10.70100 33.88650
C -12.48450 12.48450 32.10300
C -13.37625 11.59275 32.99475
C -13.37625 13.37625 34.77825
C -11.59275 11.59275 34.77825
C -11.59275 13.37625 32.99475
C -14.26800 14.26800 17.83500
C -14.26800 16.05150 19.61850
C -12.48450 14.26800 19.61850
C -12.48450 16.05150 17.83500
C -13.37625 15.15975 18.72675
C -13.37625 16.94325 20.51025
C -11.59275 15.15975 20.51025
C -11.59275 16.94325 18.72675
C -14.26800 14.26800 21.40200
C -14.26800 16.05150 23.18550
C -12.48450 14.26800 23.18550
C -12.48450 16.05150 21.40200
C -13.37625 15.15975 22.29375
C -13.37625 16.94325 24.07725
C -11.59275 15.15975 24.07725
C -11.59275 16.94325 22.29375
C -14.26800 14.26800 24.96900
C -14.26800 16.05150 26.75250
C -12.48450 14.26800 26.75250
C -12.48450 16.05150 24.96900
C -13.37625 15.15975 25.86075
C -13.37625 16.94325 27.64425
C -11.59275 15.15975 27.64425
C -11.59275 16.94325 25.86075
C -14.26800 14.26800 28.53600
C -14.26800 16.05150 30.31950
C -12.48450 14.26800 30.31950
C -12.48450 16.05150 28.53600
C -13.37625 15.15975 29.42775
C -13.37625 16.94325 31.21125
C -11.59275 15.15975 31.21125
C -11.59275 16.94325 29.42775
C -14.26800 14.26800 32.10300
C -14.26800 16.05150 33.88650
C -12.48450 14.26800 33.88650
C -12.48450 16.05150 32.10300
C -13.37625 15.15975 32.99475
C -13.37625 16.94325 34.77825
C -11.59275 15.15975 34.77825
C -11.59275 16.94325 32.99475
C -10.70100  0.00000 17.83500
C -10.70100  1.78350 19.61850
C -8.91750  0.00000 19.61850
C -8.91750  1.78350 17.83500
C -9.80925  0.89175 18.72675
C -9.80925  2.67525 20.51025
C -8.02575  0.89175 20.51025
C -8.02575  2.67525 18.72675
C -10.70100  0.00000 21.40200
C -10.70100  1.78350 23.18550
C -8.91750  0.00000 23.18550
C -8.91750  1.78350 21.40200
C -9.80925  0.89175 22.29375
C -9.80925  2.67525 24.07725
C -8.02575  0.89175 24.07725
C -8.02575  2.67525 22.29375
C -10.70100  0.00000 24.96900
C -10.70100  1.78350 26.75250
C -8.91750  0.00000 26.75250
C -8.91750  1.78350 24.96900
C -9.80925  0.89175 25.86075
C -9.80925  2.67525 27.64425
C -8.02575  0.89175 27.64425
C -8.02575  2.67525 25.86075
C -10.70100  0.00000 28.53600
C -10.70100  1.78350 30.31950
C -8.91750  0.00000 30.31950
C -8.91750  1.78350 28.53600
C -9.80925  0.89175 29.42775
C -9.80925  2.67525 31.21125
C -8.02575  0.89175 31.21125
C -8.02575  2.67525 29.42775
C -10.70100  0.00000 32.10300
C -10.70100  1.78350 33.88650
C -8.91750  0.00000 33.88650
C -8.91750  1.78350 32.10300
C -9.80925  0.89175 32.99475
C -9.80925  2.67525 34.77825
C -8.02575  0.89175 34.77825
C -8.02575  2.67525 32.99475
C -10.70100  3.56700 17.83500
C -10.70100  5.35050 19.61850
C -8.91750  3.56700 19.61850
C -8.91750  5.35050 17.83500
C -9.80925  4.45875 18.72675
C -9.80925  6.24225 20.51025
C -8.02575  4.45875 20.51025
C -8.02575  6.24225 18.72675
C -10.70100  3.56700 21.40200
C -10.70100  5.35050 23.18550
C -8.91750  3.56700 23.18550
C -8.91750  5.35050 21.40200
C -9.80925  4.45875 22.29375
C -9.80925  6.24225 24.07725
C -8.02575  4.45875 24.07725
C -8.02575  6.24225 22.29375
C -10.70100  3.56700 24.96900
C -10.70100  5.35050 26.75250
C -8.91750  3.56700 26.75250
C -8.91750  5.35050 24.96900
C -9.80925  4.45875 25.86075
C -9.80925  6.24225 27.64425
C -8.02575  4.45875 27.64425
C -8.02575  6.24225 25.86075
C -10.70100  3.56700 28.53600
C -10.70100  5.35050 30.31950
C -8.91750  3.56700 30.31950
C -8.91750  5.35050 28.53600
C -9.80925  4.45875 29.42775
C -9.80925  6.24225 31.21125
C -8.02575  4.45875 31.21125
C -8.02575  6.24225 29.42775
C -10.70100  3.56700 32.10300
C -10.70100  5.35050 33.88650
C -8.91750  3.56700 33.88650
C -8.91750  5.35050 32.10300
C -9.80925  4.45875 32.99475
C -9.80925  6.24225 34.77825
C -8.02575  4.45875 34.77825
C -8.02575  6.24225 32.99475
C -10.70100  7.13400 17.83500
C -10.70100  8.91750 19.61850
C -8.91750  7.13400 19.61850
C -8.91750  8.91750 17.83500
C -9.80925  8.02575 18.72675
C -9.80925  9.80925 20.51025
C -8.02575  8.02575 20.51025
C -8.02575  9.80925 18.72675
C -10.70100  7.13400 21.40200
C -10.70100  8.91750 23.18550
C -8.91750  7.13400 23.18550
C -8.91750  8.91750 21.40200
C -9.80925  8.02575 22.29375
C -9.80925  9.80925 24.07725
C -8.02575  8.02575 24.07725
C -8.02575  9.80925 22.29375
C -10.70100  7.13400 24.96900
C -10.70100  8.91750 26.75250
C -8.91750  7.13400 26.75250
C -8.91750  8.91750 24.96900
C -9.80925  8.02575 25.86075
C -9.80925  9.80925 27.64425
C -8.02575  8.02575 27.64425
C -8.02575  9.80925 25.86075
C -10.70100  7.13400 28.53600
C -10.70100  8.91750 30.31950
C -8.91750  7.13400 30.31950
C -8.91750  8.91750 28.53600
C -9.80925  8.02575 29.42775
C -9.80925  9.80925 31.21125
C -8.02575  8.02575 31.21125
C -8.02575  9.80925 29.42775
C -10.70100  7.13400 32.10300
C -10.70100  8.91750 33.88650
C -8.91750  7.13400 33.88650
C -8.91750  8.91750 32.10300
C -9.80925  8.02575 32.99475
C -9.80925  9.80925 34.77825
C -8.02575  8.02575 34.77825
C -8.02575  9.80925 32.99475
C -10.70100 10.70100 17.83500
C -10.70100 12.48450 19.61850
C -8.91750 10.70100 19.61850
C -8.91750 12.48450 17.83500
C -9.80925 11.59275 18.72675
C -9.80925 13.37625 20.51025
C -8.02575 11.59275 20.51025
C -8.02575 13.37625 18.72675
C -10.70100 10.70100 21.40200
C -10.70100 12.48450 23.18550
C -8.91750 10.70100 23.18550
C -8.91750 12.48450 21.40200
C -9.80925 11.59275 22.29375
C -9.80925 13.37625 24.07725
C -8.02575 11.59275 24.07725
C -8.02575 13.37625 22.29375
C -10.70100 10.70100 24.96900
C -10.70100 12.48450 26.75250
C -8.91750 10.70100 26.75250
C -8.91750 12.48450 24.96900
C -9.80925 11.59275 25.86075
C -9.80925 13.37625 27.64425
C -8.02575 11.59275 27.64425
C -8.02575 13.37625 25.86075
C -10.70100 10.70100 28.53600
C -10.70100 12.48450 30.31950
C -8.91750 10.70100 30.31950
C -8.91750 12.48450 28.53600
C -9.80925 11.59275 29.42775
C -9.80925 13.37625 31.21125
C -8.02575 11.59275 31.21125
C -8.02575 13.37625 29.42775
C -10.70100 10.70100 32.10300
C -10.70100 12.48450 33.88650
C -8.91750 10.70100 33.88650
C -8.91750 12.48450 32.10300
C -9.80925 11.59275 32.99475
C -9.80925 13.37625 34.77825
C -8.02575 11.59275 34.77825
C -8.02575 13.37625 32.99475
C -10.70100 14.26800 17.83500
C -10.70100 16.05150 19.61850
C -8.91750 14.26800 19.61850
C -8.91750 16.05150 17.83500
C -9.80925 15.15975 18.72675
C -9.80925 16.94325 20.51025
C -8.02575 15.15975 20.51025
C -8.02575 16.94325 18.72675
C -10.70100 14.26800 21.40200
C -10.70100 16.05150 23.18550
C -8.91750 14.26800 23.18550
C -8.91750 16.05150 21.40200
C -9.80925 15.15975 22.29375
C -9.80925 16.94325 24.07725
C -8.02575 15.15975 24.07725
C -8.02575 16.94325 22.29375
C -10.70100 14.26800 24.96900
C -10.70100 16.05150 26.75250
C -8.91750 14.26800 26.75250
C -8.91750 16.05150 24.96900
C -9.80925 15.15975 25.86075
C -9.80925 16.94325 27.64425
C -8.02575 15.15975 27.64425
C -8.02575 16.94325 25.86075
C -10.70100 14.26800 28.53600
C -10.70100 16.05150 30.31950
C -8.91750 14.26800 30.31950
C -8.91750 16.05150 28.53600
C -9.80925 15.15975 29.42775
C -9.80925 16.94325 31.21125
C -8.02575 15.15975 31.21125
C -8.02575 16.94325 29.42775
C -10.70100 14.26800 32.10300
C -10.70100 16.05150 33.88650
C -8.91750 14.26800 33.88650
C -8.91750 16.05150 32.10300
C -9.80925 15.15975 32.99475
C -9.80925 16.94325 34.77825
C -8.02575 15.15975 34.77825
C -8.02575 16.94325 32.99475
C -7.13400  0.00000 17.83500
C -7.13400  1.78350 19.61850
C -5.35050  0.00000 19.61850
C -5.35050  1.78350 17.83500
C -6.24225  0.89175 18.72675
C -6.24225  2.67525 20.51025
C -4.45875  0.89175 20.51025
C -4.45875  2.67525 18.72675
C -7.13400  0.00000 21.40200
C -7.13400  1.78350 23.18550
C -5.35050  0.00000 23.18550
C -5.35050  1.78350 21.40200
C -6.24225  0.89175 22.29375
C -6.24225  2.67525 24.07725
C -4.45875  0.89175 24.07725
C -4.45875  2.67525 22.29375
C -7.13400  0.00000 24.96900
C -7.13400  1.78350 26.75250
C -5.35050  0.00000 26.75250
C -5.35050  1.78350 24.96900
C -6.24225  0.89175 25.86075
C -6.24225  2.67525 27.64425
C -4.45875  0.89175 27.64425
C -4.45875  2.67525 25.86075
C -7.13400  0.00000 28.53600
C -7.13400  1.78350 30.31950
C -5.35050  0.00000 30.31950
C -5.35050  1.78350 28.53600
C -6.24225  0.89175 29.42775
C -6.24225  2.67525 31.21125
C -4.45875  0.89175 31.21125
C -4.45875  2.67525 29.42775
C -7.13400  0.00000 32.10300
C -7.13400  1.78350 33.88650
C -5.35050  0.00000 33.88650
C -5.35050  1.78350 32.10300
C -6.24225  0.89175 32.99475
C -6.24225  2.67525 34.77825
C -4.45875  0.89175 34.77825
C -4.45875  2.67525 32.99475
C -7.13400  3.56700 17.83500
C -7.13400  5.35050 19.61850
C -5.35050  3.56700 19.61850
C -5.35050  5.35050 17.83500
C -6.24225  4.45875 18.72675
C -6.24225  6.24225 20.51025
C -4.45875  4.45875 20.51025
C -4.45875  6.24225 18.72675
C -7.13400  3.56700 21.40200
C -7.13400  5.35050 23.18550
C -5.35050  3.56700 23.18550
C -5.35050  5.35050 21.40200
C -6.24225  4.45875 22.29375
C -6.24225  6.24225 24.07725
C -4.45875  4.45875 24.07725
C -4.45875  6.24225 22.29375
C -7.13400  3.56700 24.96900
C -7.13400  5.35050 26.75250
C -5.35050  3.56700 26.75250
C -5.35050  5.35050 24.96900
C -6.24225  4.45875 25.86075
C -6.24225  6.24225 27.64425
C -4.45875  4.45875 27.64425
C -4.45875  6.24225 25.86075
C -7.13400  3.56700 28.53600
C -7.13400  5.35050 30.31950
C -5.35050  3.56700 30.31950
C -5.35050  5.35050 28.53600
C -6.24225  4.45875 29.42775
C -6.24225  6.24225 31.21125
C -4.45875  4.45875 31.21125
C -4.45875  6.24225 29.42775
C -7.13400  3.56700 32.10300
C -7.13400  5.35050 33.88650
C -5.35050  3.56700 33.88650
C -5.35050  5.35050 32.10300
C -6.24225  4.45875 32.99475
C -6.24225  6.24225 34.77825
C -4.45875  4.45875 34.77825
C -4.45875  6.24225 32.99475
C -7.13400  7.13400 17.83500
C -7.13400  8.91750 19.61850
C -5.35050  7.13400 19.61850
C -5.35050  8.91750 17.83500
C -6.24225  8.02575 18.72675
C -6.24225  9.80925 20.51025
C -4.45875  8.02575 20.51025
C -4.45875  9.80925 18.72675
C -7.13400  7.13400 21.40200
C -7.13400  8.91750 23.18550
C -5.35050  7.13400 23.18550
C -5.35050  8.91750 21.40200
C -6.24225  8.02575 22.29375
C -6.24225  9.80925 24.07725
C -4.45875  8.02575 24.07725
C -4.45875  9.80925 22.29375
C -7.13400  7.13400 24.96900
C -7.13400  8.91750 26.75250
C -5.35050  7.13400 26.75250
C -5.35050  8.91750 24.96900
C -6.24225  8.02575 25.86075
C -6.24225  9.80925 27.64425
C -4.45875  8.02575 27.64425
C -4.45875  9.80925 25.86075
C -7.13400  7.13400 28.53600
C -7.13400  8.91750 30.31950
C -5.35050  7.13400 30.31950
C -5.35050  8.91750 28.53600
C -6.24225  8.02575 29.42775
C -6.24225  9.80925 31.21125
C -4.45875  8.02575 31.21125
C -4.45875  9.80925 29.42775
C -7.13400  7.13400 32.10300
C -7.13400  8.91750 33.88650
C -5.35050  7.13400 33.88650
C -5.35050  8.91750 32.10300
C -6.24225  8.02575 32.99475
C -6.24225  9.80925 34.77825
C -4.45875  8.02575 34.77825
C -4.45875  9.80925 32.99475
C -7.13400 10.70100 17.83500
C -7.13400 12.48450 19.61850
C -5.35050 10.70100 19.61850
C -5.35050 12.48450 17.83500
C -6.24225 11.59275 18.72675
C -6.24225 13.37625 20.51025
C -4.45875 11.59275 20.51025
C -4.45875 13.37625 18.72675
C -7.13400 10.70100 21.40200
C -7.13400 12.48450 23.18550
C -5.35050 10.70100 23.18550
C -5.35050 12.48450 21.40200
C -6.24225 11.59275 22.29375
C -6.24225 13.37625 24.07725
C -4.45875 11.59275 24.07725
C -4.45875 13.37625 22.29375
C -7.13400 10.70100 24.96900
C -7.13400 12.48450 26.75250
C -5.35050 10.70100 26.75250
C -5.35050 12.48450 24.96900
C -6.24225 11.59275 25.86075
C -6.24225 13.37625 27.64425
C -4.45875 11.59275 27.64425
C -4.45875 13.37625 25.86075
C -7.13400 10.70100 28.53600
C -7.13400 12.48450 30.31950
C -5.35050 10.70100 30.31950
C -5.35050 12.48450 28.53600
C -6.24225 11.59275 29.42775
C -6.24225 13.37625 31.21125
C -4.45875 11.59275 31.21125
C -4.45875 13.37625 29.42775
C -7.13400 10.70100 32.10300
C -7.13400 12.48450 33.88650
C -5.35050 10.70100 33.88650
C -5.35050 12.48450 32.10300
C -6.24225 11.59275 32.99475
C -6.24225 13.37625 34.77825
C -4.45875 11.59275 34.77825
C -4.45875 13.37625 32.99475
C -7.13400 14.26800 17.83500
C -7.13400 16.05150 19.61850
C -5.35050 14.26800 19.61850
C -5.35050 16.05150 17.83500
C -6.24225 15.15975 18.72675
C -6.24225 16.94325 20.51025
C -4.45875 15.15975 20.51025
C -4.45875 16.94325 18.72675
C -7.13400 14.26800 21.40200
C -7.13400 16.05150 23.18550
C -5.35050 14.26800 23.18550
C -5.35050 16.05150 21.40200
C -6.24225 15.15975 22.29375
C -6.24225 16.94325 24.07725
C -4.45875 15.15975 24.07725
C -4.45875 16.94325 22.29375
C -7.13400 14.26800 24.96900
C -7.13400 16.05150 26.75250
C -5.35050 14.26800 26.75250
C -5.35050 16.05150 24.96900
C -6.24225 15.15975 25.86075
C -6.24225 16.94325 27.64425
C -4.45875 15.15975 27.64425
C -4.45875 16.94325 25.86075
C -7.13400 14.26800 28.53600
C -7.13400 16.05150 30.31950
C -5.35050 14.26800 30.31950
C -5.35050 16.05150 28.53600
C -6.24225 15.15975 29.42775
C -6.24225 16.94325 31.21125
C -4.45875 15.15975 31.21125
C -4.45875 16.94325 29.42775
C -7.13400 14.26800 32.10300
C -7.13400 16.05150 33.88650
C -5.35050 14.26800 33.88650
C -5.35050 16.05150 32.10300
C -6.24225 15.15975 32.99475
C -6.24225 16.94325 34.77825
C -4.45875 15.15975 34.77825
C -4.45875 16.94325 32.99475
C -3.56700  0.00000 17.83500
C -3.56700  1.78350 19.61850
C -1.78350  0.00000 19.61850
C -1.78350  1.78350 17.83500
C -2.67525  0.89175 18.72675
C -2.67525  2.67525 20.51025
C -0.89175  0.89175 20.51025
C -0.89175  2.67525 18.72675
C -3.56700  0.00000 21.40200
C -3.56700  1.78350 23.18550
C -1.78350  0.00000 23.18550
C -1.78350  1.78350 21.40200
C -2.67525  0.89175 22.29375
C -2.67525  2.67525 24.07725
C -0.89175  0.89175 24.07725
C -0.89175  2.67525 22.29375
C -3.56700  0.00000 24.96900
C -3.56700  1.78350 26.75250
C -1.78350  0.00000 26.75250
C -1.78350  1.78350 24.96900
C -2.67525  0.89175 25.86075
C -2.67525  2.67525 27.64425
C -0.89175  0.89175 27.64425
C -0.89175  2.67525 25.86075
C -3.56700  0.00000 28.53600
C -3.56700  1.78350 30.31950
C -1.78350  0.00000 30.31950
C -1.78350  1.78350 28.53600
C -2.67525  0.89175 29.42775
C -2.67525  2.67525 31.21125
C -0.89175  0.89175 31.21125
C -0.89175  2.67525 29.42775
C -3.56700  0.00000 32.10300
C -3.56700  1.78350 33.88650
C -1.78350  0.00000 33.88650
C -1.78350  1.78350 32.10300
C -2.67525  0.89175 32.99475
C -2.67525  2.67525 34.77825
C -0.89175  0.89175 34.77825
C -0.89175  2.67525 32.99475
C -3.56700  3.56700 17.83500
C -3.56700  5.35050 19.61850
C -1.78350  3.56700 19.61850
C -1.78350  5.35050 17.83500
C -2.67525  4.45875 18.72675
C -2.67525  6.24225 20.51025
C -0.89175  4.45875 20.51025
C -0.89175  6.24225 18.72675
C -3.56700  3.56700 21.40200
C -3.56700  5.35050 23.18550
C -1.78350  3.56700 23.18550
C -1.78350  5.35050 21.40200
C -2.67525  4.45875 22.29375
C -2.67525  6.24225 24.07725
C -0.89175  4.45875 24.07725
C -0.89175  6.24225 22.29375
C -3.56700  3.56700 24.96900
C -3.56700  5.35050 26.75250
C -1.78350  3.56700 26.75250
C -1.78350  5.35050 24.96900
C -2.67525  4.45875 25.86075
C -2.67525  6.24225 27.64425
C -0.89175  4.45875 27.64425
C -0.89175  6.24225 25.86075
C -3.56700  3.56700 28.53600
C -3.56700  5.35050 30.31950
C -1.78350  3.56700 30.31950
C -1.78350  5.35050 28.53600
C -2.67525  4.45875 29.42775
C -2.67525  6.24225 31.21125
C -0.89175  4.45875 31.21125
C -0.89175  6.24225 29.42775
C -3.56700  3.56700 32.10300
C -3.56700  5.35050 33.88650
C -1.78350  3.56700 33.88650
C -1.78350  5.35050 32.10300
C -2.67525  4.45875 32.99475
C -2.67525  6.24225 34.77825
C -0.89175  4.45875 34.77825
C -0.89175  6.24225 32.99475
C -3.56700  7.13400 17.83500
C -3.56700  8.91750 19.61850
C -1.78350  7.13400 19.61850
C -1.78350  8.91750 17.83500
C -2.67525  8.02575 18.72675
C -2.67525  9.80925 20.51025
C -0.89175  8.02575 20.51025
C -0.89175  9.80925 18.72675
C -3.56700  7.13400 21.40200
C -3.56700  8.91750 23.18550
C -1.78350  7.13400 23.18550
C -1.78350  8.91750 21.40200
C -2.67525  8.02575 22.29375
C -2.67525  9.80925 24.07725
C -0.89175  8.02575 24.07725
C -0.89175  9.80925 22.29375
C -3.56700  7.13400 24.96900
C -3.56700  8.91750 26.75250
C -1.78350  7.13400 26.75250
C -1.78350  8.91750 24.96900
C -2.67525  8.02575 25.86075
C -2.67525  9.80925 27.64425
C -0.89175  8.02575 27.64425
C -0.89175  9.80925 25.86075
C -3.56700  7.13400 28.53600
C -3.56700  8.91750 30.31950
C -1.78350  7.13400 30.31950
C -1.78350  8.91750 28.53600
C -2.67525  8.02575 29.42775
C -2.67525  9.80925 31.21125
C -0.89175  8.02575 31.21125
C -0.89175  9.80925 29.42775
C -3.56700  7.13400 32.10300
C -3.56700  8.91750 33.88650
C -1.78350  7.13400 33.88650
C -1.78350  8.91750 32.10300
C -2.67525  8.02575 32.99475
C -2.67525  9.80925 34.77825
C -0.89175  8.02575 34.77825
C -0.89175  9.80925 32.99475
C -3.56700 10.70100 17.83500
C -3.56700 12.48450 19.61850
C -1.78350 10.70100 19.61850
C -1.78350 12.48450 17.83500
C -2.67525 11.59275 18.72675
C -2.67525 13.37625 20.51025
C -0.89175 11.59275 20.51025
C -0.89175 13.37625 18.72675
C -3.56700 10.70100 21.40200
C -3.56700 12.48450 23.18550
C -1.78350 10.70100 23.18550
C -1.78350 12.48450 21.40200
C -2.67525 11.59275 22.29375
C -2.67525 13.37625 24.07725
C -0.89175 11.59275 24.07725
C -0.89175 13.37625 22.29375
C -3.56700 10.70100 24.96900
C -3.56700 12.48450 26.75250
C -1.78350 10.70100 26.75250
C -1.78350 12.48450 24.96900
C -2.67525 11.59275 25.86075
C -2.67525 13.37625 27.64425
C -0.89175 11.59275 27.64425
C -0.89175 13.37625 25.86075
C -3.56700 10.70100 28.53600
C -3.56700 12.48450 30.31950
C -1.78350 10.70100 30.31950
C -1.78350 12.48450 28.53600
C -2.67525 11.59275 29.42775
C -2.67525 13.37625 31.21125
C -0.89175 11.59275 31.21125
C -0.89175 13.37625 29.42775
C -3.56700 10.70100 32.10300
C -3.56700 12.48450 33.88650
C -1.78350 10.70100 33.88650
C -1.78350 12.48450 32.10300
C -2.67525 11.59275 32.99475
C -2.67525 13.37625 34.77825
C -0.89175 11.59275 34.77825
C -0.89175 13.37625 32.99475
C -3.56700 14.26800 17.83500
C -3.56700 16.05150 19.61850
C -1.78350 14.26800 19.61850
C -1.78350 16.05150 17.83500
C -2.67525 15.15975 18.72675
C -2.67525 16.94325 20.51025
C -0.89175 15.15975 20.51025
C -0.89175 16.94325 18.72675
C -3.56700 14.26800 21.40200
C -3.56700 16.05150 23.18550
C -1.78350 14.26800 23.18550
C -1.78350 16.05150 21.40200
C -2.67525 15.15975 22.29375
C -2.67525 16.94325 24.07725
C -0.89175 15.15975 24.07725
C -0.89175 16.94325 22.29375
C -3.56700 14.26800 24.96900
C -3.56700 16.05150 26.75250
C -1.78350 14.26800 26.75250
C -1.78350 16.05150 24.96900
C -2.67525 15.15975 25.86075
C -2.67525 16.94325 27.64425
C -0.89175 15.15975 27.64425
C -0.89175 16.94325 25.86075
C -3.56700 14.26800 28.53600
C -3.56700 16.05150 30.31950
C -1.78350 14.26800 30.31950
C -1.78350 16.05150 28.53600
C -2.67525 15.15975 29.42775
C -2.67525 16.94325 31.21125
C -0.89175 15.15975 31.21125
C -0.89175 16.94325 29.42775
C -3.56700 14.26800 32.10300
C -3.56700 16.05150 33.88650
C -1.78350 14.26800 33.88650
C -1.78350 16.05150 32.10300
C -2.67525 15.15975 32.99475
C -2.67525 16.94325 34.77825
C -0.89175 15.15975 34.77825
C -0.89175 16.94325 32.99475
N -17.83500 17.83500 -17.83500
C -17.83500 19.61850 -16.05150
C -16.05150 17.83500 -16.05150
C -16.05150 19.61850 -17.83500
C -16.94325 18.72675 -16.94325
C -16.94325 20.51025 -15.15975
C -15.15975 18.72675 -15.15975
C -15.15975 20.51025 -16.94325
C -17.83500 17.83500 -14.26800
C -17.83500 19.61850 -12.48450
C -16.05150 17.83500 -12.48450
C -16.05150 19.61850 -14.26800
C -16.94325 18.72675 -13.37625
C -16.94325 20.51025 -11.59275
C -15.15975 18.72675 -11.59275
C -15.15975 20.51025 -13.37625
C -17.83500 17.83500 -10.70100
C -17.83500 19.61850 -8.91750
C -16.05150 17.83500 -8.91750
C -16.05150 19.61850 -10.70100
C -16.94325 18.72675 -9.80925
C -16.94325 20.51025 -8.02575
C -15.15975 18.72675 -8.02575
C -15.15975 20.51025 -9.80925
C -17.83500 17.83500 -7.13400
C -17.83500 19.61850 -5.35050
C -16.05150 17.83500 -5.35050
C -16.05150 19.61850 -7.13400
C -16.94325 18.72675 -6.24225
C -16.94325 20.51025 -4.45875
C -15.15975 18.72675 -4.45875
C -15.15975 20.51025 -6.24225
C -17.83500 17.83500 -3.56700
C -17.83500 19.61850 -1.78350
C -16.05150 17.83500 -1.78350
C -16.05150 19.61850 -3.56700
C -16.94325 18.72675 -2.67525
C -16.94325 20.51025 -0.89175
C -15.15975 18.72675 -0.89175
C -15.15975 20.51025 -2.67525
C -17.83500 21.40200 -17.83500
C -17.83500 23.18550 -16.05150
C -16.05150 21.40200 -16.05150
C -16.05150 23.18550 -17.83500
C -16.94325 22.29375 -16.94325
C -16.94325 24.07725 -15.15975
C -15.15975 22.29375 -15.15975
C -15.15975 24.07725 -16.94325
C -17.83500 21.40200 -14.26800
C -17.83500 23.18550 -12.48450
C -16.05150 21.40200 -12.48450
C -16.05150 23.18550 -14.26800
C -16.94325 22.29375 -13.37625
C -16.94325 24.07725 -11.59275
C -15.15975 22.29375 -11.59275
C -15.15975 24.07725 -13.37625
C -17.83500 21.40200 -10.70100
C -17.83500 23.18550 -8.91750
C -16.05150 21.40200 -8.91750
C -16.05150 23.18550 -10.70100
C -16.94325 22.29375 -9.80925
C -16.94325 24.07725 -8.02575
C -15.15975 22.29375 -8.02575
C -15.15975 24.07725 -9.80925
C -17.83500 21.40200 -7.13400
C -17.83500 23.18550 -5.35050
C -16.05150 21.40200 -5.35050
C -16.05150 23.18550 -7.13400
C -16.94325 22.29375 -6.24225
C -16.94325 24.07725 -4.45875
C -15.15975 22.29375 -4.45875
C -15.15975 24.07725 -6.24225
C -17.83500 21.40200 -3.56700
C -17.83500 23.18550 -1.78350
C -16.05150 21.40200 -1.78350
C -16.05150 23.18550 -3.56700
C -16.94325 22.29375 -2.67525
C -16.94325 24.07725 -0.89175
C -15.15975 22.29375 -0.89175
C -15.15975 24.07725 -2.67525
C -17.83500 24.96900 -17.83500
C -17.83500 26.75250 -16.05150
C -16.05150 24.96900 -16.05150
C -16.05150 26.75250 -17.83500
C -16.94325 25.86075 -16.94325
C -16.94325 27.64425 -15.15975
C -15.15975 25.86075 -15.15975
C -15.15975 27.64425 -16.94325
C -17.83500 24.96900 -14.26800
C -17.83500 26.75250 -12.48450
C -16.05150 24.96900 -12.48450
C -16.05150 26.75250 -14.26800
C -16.94325 25.86075 -13.37625
C -16.94325 27.64425 -11.59275
C -15.15975 25.86075 -11.59275
C -15.15975 27.64425 -13.37625
C -17.83500 24.96900 -10.70100
C -17.83500 26.75250 -8.91750
C -16.05150 24.96900 -8.91750
C -16.05150 26.75250 -10.70100
C -16.94325 25.86075 -9.80925
C -16.94325 27.64425 -8.02575
C -15.15975 25.86075 -8.02575
C -15.15975 27.64425 -9.80925
C -17.83500 24.96900 -7.13400
C -17.83500 26.75250 -5.35050
C -16.05150 24.96900 -5.35050
C -16.05150 26.75250 -7.13400
C -16.94325 25.86075 -6.24225
C -16.94325 27.64425 -4.45875
C -15.15975 25.86075 -4.45875
C -15.15975 27.64425 -6.24225
C -17.83500 24.96900 -3.56700
C -17.83500 26.75250 -1.78350
C -16.05150 24.96900 -1.78350
C -16.05150 26.75250 -3.56700
C -16.94325 25.86075 -2.67525
C -16.94325 27.64425 -0.89175
C -15.15975 25.86075 -0.89175
C -15.15975 27.64425 -2.67525
C -17.83500 28.53600 -17.83500
C -17.83500 30.31950 -16.05150
C -16.05150 28.53600 -16.05150
C -16.05150 30.31950 -17.83500
C -16.94325 29.42775 -16.94325
C -16.94325 31.21125 -15.15975
C -15.15975 29.42775 -15.15975
C -15.15975 31.21125 -16.94325
C -17.83500 28.53600 -14.26800
C -17.83500 30.31950 -12.48450
C -16.05150 28.53600 -12.48450
C -16.05150 30.31950 -14.26800
C -16.94325 29.42775 -13.37625
C -16.94325 31.21125 -11.59275
C -15.15975 29.42775 -11.59275
C -15.15975 31.21125 -13.37625
C -17.83500 28.53600 -10.70100
C -17.83500 30.31950 -8.91750
C -16.05150 28.53600 -8.91750
C -16.05150 30.31950 -10.70100
C -16.94325 29.42775 -9.80925
C -16.94325 31.21125 -8.02575
C -15.15975 29.42775 -8.02575
C -15.15975 31.21125 -9.80925
C -17.83500 28.53600 -7.13400
C -17.83500 30.31950 -5.35050
C -16.05150 28.53600 -5.35050
C -16.05150 30.31950 -7.13400
C -16.94325 29.42775 -6.24225
C -16.94325 31.21125 -4.45875
C -15.15975 29.42775 -4.45875
C -15.15975 31.21125 -6.24225
C -17.83500 28.53600 -3.56700
C -17.83500 30.31950 -1.78350
C -16.05150 28.53600 -1.78350
C -16.05150 30.31950 -3.56700
C -16.94325 29.42775 -2.67525
C -16.94325 31.21125 -0.89175
C -15.15975 29.42775 -0.89175
C -15.15975 31.21125 -2.67525
C -17.83500 32.10300 -17.83500
C -17.83500 33.88650 -16.05150
C -16.05150 32.10300 -16.05150
C -16.05150 33.88650 -17.83500
C -16.94325 32.99475 -16.94325
C -16.94325 34.77825 -15.15975
C -15.15975 32.99475 -15.15975
C -15.15975 34.77825 -16.94325
C -17.83500 32.10300 -14.26800
C -17.83500 33.88650 -12.48450
C -16.05150 32.10300 -12.48450
C -16.05150 33.88650 -14.26800
C -16.94325 32.99475 -13.37625
C -16.94325 34.77825 -11.59275
C -15.15975 32.99475 -11.59275
C -15.15975 34.77825 -13.37625
C -17.83500 32.10300 -10.70100
C -17.83500 33.88650 -8.91750
C -16.05150 32.10300 -8.91750
C -16.05150 33.88650 -10.70100
C -16.94325 32.99475 -9.80925
C -16.94325 34.77825 -8.02575
C -15.15975 32.99475 -8.02575
C -15.15975 34.77825 -9.80925
C -17.83500 32.10300 -7.13400
C -17.83500 33.88650 -5.35050
C -16.05150 32.10300 -5.35050
C -16.05150 33.88650 -7.13400
C -16.94325 32.99475 -6.24225
C -16.94325 34.77825 -4.45875
C -15.15975 32.99475 -4.45875
C -15.15975 34.77825 -6.24225
C -17.83500 32.10300 -3.56700
C -17.83500 33.88650 -1.78350
C -16.05150 32.10300 -1.78350
C -16.05150 33.88650 -3.56700
C -16.94325 32.99475 -2.67525
C -16.94325 34.77825 -0.89175
C -15.15975 32.99475 -0.89175
C -15.15975 34.77825 -2.67525
C -14.26800 17.83500 -17.83500
C -14.26800 19.61850 -16.05150
C -12.48450 17.83500 -16.05150
C -12.48450 19.61850 -17.83500
C -13.37625 18.72675 -16.94325
C -13.37625 20.51025 -15.15975
C -11.59275 18.72675 -15.15975
C -11.59275 20.51025 -16.94325
C -14.26800 17.83500 -14.26800
C -14.26800 19.61850 -12.48450
C -12.48450 17.83500 -12.48450
C -12.48450 19.61850 -14.26800
C -13.37625 18.72675 -13.37625
C -13.37625 20.51025 -11.59275
C -11.59275 18.72675 -11.59275
C -11.59275 20.51025 -13.37625
C -14.26800 17.83500 -10.70100
C -14.26800 19.61850 -8.91750
C -12.48450 17.83500 -8.91750
C -12.48450 19.61850 -10.70100
C -13.37625 18.72675 -9.80925
C -13.37625 20.51025 -8.02575
C -11.59275 18.72675 -8.02575
C -11.59275 20.51025 -9.80925
C -14.26800 17.83500 -7.13400
C -14.26800 19.61850 -5.35050
C -12.48450 17.83500 -5.35050
C -12.48450 19.61850 -7.13400
C -13.37625 18.72675 -6.24225
C -13.37625 20.51025 -4.45875
C -11.59275 18.72675 -4.45875
C -11.59275 20.51025 -6.24225
C -14.26800 17.83500 -3.56700
C -14.26800 19.61850 -1.78350
C -12.48450 17.83500 -1.78350
C -12.48450 19.61850 -3.56700
C -13.37625 18.72675 -2.67525
C -13.37625 20.51025 -0.89175
C -11.59275 18.72675 -0.89175
C -11.59275 20.51025 -2.67525
C -14.26800 21.40200 -17.83500
C -14.26800 23.18550 -16.05150
C -12.48450 21.40200 -16.05150
C -12.48450 23.18550 -17.83500
C -13.37625 22.29375 -16.94325
C -13.37625 24.07725 -15.15975
C -11.59275 22.29375 -15.15975
C -11.59275 24.07725 -16.94325
C -14.26800 21.40200 -14.26800
C -14.26800 23.18550 -12.48450
C -12.48450 21.40200 -12.48450
C -12.48450 23.18550 -14.26800
C -13.37625 22.29375 -13.37625
C -13.37625 24.07725 -11.59275
C -11.59275 22.29375 -11.59275
C -11.59275 24.07725 -13.37625
C -14.26800 21.40200 -10.70100
C -14.26800 23.18550 -8.91750
C -12.48450 21.40200 -8.91750
C -12.48450 23.18550 -10.70100
C -13.37625 22.29375 -9.80925
C -13.37625 24.07725 -8.02575
C -11.59275 22.29375 -8.02575
C -11.59275 24.07725 -9.80925
C -14.26800 21.40200 -7.13400
C -14.26800 23.18550 -5.35050
C -12.48450 21.40200 -5.35050
C -12.48450 23.18550 -7.13400
C -13.37625 22.29375 -6.24225
C -13.37625 24.07725 -4.45875
C -11.59275 22.29375 -4.45875
C -11.59275 24.07725 -6.24225
C -14.26800 21.40200 -3.56700
C -14.26800 23.18550 -1.78350
C -12.48450 21.40200 -1.78350
C -12.48450 23.18550 -3.56700
C -13.37625 22.29375 -2.67525
C -13.37625 24.07725 -0.89175
C -11.59275 22.29375 -0.89175
C -11.59275 24.07725 -2.67525
C -14.26800 24.96900 -17.83500
C -14.26800 26.75250 -16.05150
C -12.48450 24.96900 -16.05150
C -12.48450 26.75250 -17.83500
C -13.37625 25.86075 -16.94325
C -13.37625 27.64425 -15.15975
C -11.59275 25.86075 -15.15975
C -11.59275 27.64425 -16.94325
C -14.26800 24.96900 -14.26800
C -14.26800 26.75250 -12.48450
C -12.48450 24.96900 -12.48450
C -12.48450 26.75250 -14.26800
C -13.37625 25.86075 -13.37625
C -13.37625 27.64425 -11.59275
C -11.59275 25.86075 -11.59275
C -11.59275 27.64425 -13.37625
C -14.26800 24.96900 -10.70100
C -14.26800 26.75250 -8.91750
C -12.48450 24.96900 -8.91750
C -12.48450 26.75250 -10.70100
C -13.37625 25.86075 -9.80925
C -13.37625 27.64425 -8.02575
C -11.59275 25.86075 -8.02575
C -11.59275 27.64425 -9.80925
C -14.26800 24.96900 -7.13400
C -14.26800 26.75250 -5.35050
C -12.48450 24.96900 -5.35050
C -12.48450 26.75250 -7.13400
C -13.37625 25.86075 -6.24225
C -13.37625 27.64425 -4.45875
C -11.59275 25.86075 -4.45875
C -11.59275 27.64425 -6.24225
C -14.26800 24.96900 -3.56700
C -14.26800 26.75250 -1.78350
C -12.48450 24.96900 -1.78350
C -12.48450 26.75250 -3.56700
C -13.37625 25.86075 -2.67525
C -13.37625 27.64425 -0.89175
C -11.59275 25.86075 -0.89175
C -11.59275 27.64425 -2.67525
C -14.26800 28.53600 -17.83500
C -14.26800 30.31950 -16.05150
C -12.48450 28.53600 -16.05150
C -12.48450 30.31950 -17.83500
C -13.37625 29.42775 -16.94325
C -13.37625 31.21125 -15.15975
C -11.59275 29.42775 -15.15975
C -11.59275 31.21125 -16.94325
C -14.26800 28.53600 -14.26800
C -14.26800 30.31950 -12.48450
C -12.48450 28.53600 -12.48450
C -12.48450 30.31950 -14.26800
C -13.37625 29.42775 -13.37625
C -13.37625 31.21125 -11.59275
C -11.59275 29.42775 -11.59275
C -11.59275 31.21125 -13.37625
C -14.26800 28.53600 -10.70100
C -14.26800 30.31950 -8.91750
C -12.48450 28.53600 -8.91750
C -12.48450 30.31950 -10.70100
C -13.37625 29.42775 -9.80925
C -13.37625 31.21125 -8.02575
C -11.59275 29.42775 -8.02575
C -11.59275 31.21125 -9.80925
C -14.26800 28.53600 -7.13400
C -14.26800 30.31950 -5.35050
C -12.48450 28.53600 -5.35050
C -12.48450 30.31950 -7.13400
C -13.37625 29.42775 -6.24225
C -13.37625 31.21125 -4.45875
C -11.59275 29.42775 -4.45875
C -11.59275 31.21125 -6.24225
C -14.26800 28.53600 -3.56700
C -14.26800 30.31950 -1.78350
C -12.48450 28.53600 -1.78350
C -12.48450 30.31950 -3.56700
C -13.37625 29.42775 -2.67525
C -13.37625 31.21125 -0.89175
C -11.59275 29.42775 -0.89175
C -11.59275 31.21125 -2.67525
C -14.26800 32.10300 -17.83500
C -14.26800 33.88650 -16.05150
C -12.48450 32.10300 -16.05150
C -12.48450 33.88650 -17.83500
C -13.37625 32.99475 -16.94325
C -13.37625 34.77825 -15.15975
C -11.59275 32.99475 -15.15975
C -11.59275 34.77825 -16.94325
C -14.26800 32.10300 -14.26800
C -14.26800 33.88650 -12.48450
C -12.48450 32.10300 -12.48450
C -12.48450 33.88650 -14.26800
C -13.37625 32.99475 -13.37625
C -13.37625 34.77825 -11.59275
C -11.59275 32.99475 -11.59275
C -11.59275 34.77825 -13.37625
C -14.26800 32.10300 -10.70100
C -14.26800 33.88650 -8.91750
C -12.48450 32.10300 -8.91750
C -12.48450 33.88650 -10.70100
C -13.37625 32.99475 -9.80925
C -13.37625 34.77825 -8.02575
C -11.59275 32.99475 -8.02575
C -11.59275 34.77825 -9.80925
C -14.26800 32.10300 -7.13400
C -14.26800 33.88650 -5.35050
C -12.48450 32.10300 -5.35050
C -12.48450 33.88650 -7.13400
C -13.37625 32.99475 -6.24225
C -13.37625 34.77825 -4.45875
C -11.59275 32.99475 -4.45875
C -11.59275 34.77825 -6.24225
C -14.26800 32.10300 -3.56700
C -14.26800 33.88650 -1.78350
C -12.48450 32.10300 -1.78350
C -12.48450 33.88650 -3.56700
C -13.37625 32.99475 -2.67525
C -13.37625 34.77825 -0.89175
C -11.59275 32.99475 -0.89175
C -11.59275 34.77825 -2.67525
C -10.70100 17.83500 -17.83500
C -10.70100 19.61850 -16.05150
C -8.91750 17.83500 -16.05150
C -8.91750 19.61850 -17.83500
C -9.80925 18.72675 -16.94325
C -9.80925 20.51025 -15.15975
C -8.02575 18.72675 -15.15975
C -8.02575 20.51025 -16.94325
C -10.70100 17.83500 -14.26800
C -10.70100 19.61850 -12.48450
C -8.91750 17.83500 -12.48450
C -8.91750 19.61850 -14.26800
C -9.80925 18.72675 -13.37625
C -9.80925 20.51025 -11.59275
C -8.02575 18.72675 -11.59275
C -8.02575 20.51025 -13.37625
C -10.70100 17.83500 -10.70100
C -10.70100 19.61850 -8.91750
C -8.91750 17.83500 -8.91750
C -8.91750 19.61850 -10.70100
C -9.80925 18.72675 -9.80925
C -9.80925 20.51025 -8.02575
C -8.02575 18.72675 -8.02575
C -8.02575 20.51025 -9.80925
C -10.70100 17.83500 -7.13400
C -10.70100 19.61850 -5.35050
C -8.91750 17.83500 -5.35050
C -8.91750 19.61850 -7.13400
C -9.80925 18.72675 -6.24225
C -9.80925 20.51025 -4.45875
C -8.02575 18.72675 -4.45875
C -8.02575 20.51025 -6.24225
C -10.70100 17.83500 -3.56700
C -10.70100 19.61850 -1.78350
C -8.91750 17.83500 -1.78350
C -8.91750 19.61850 -3.56700
C -9.80925 18.72675 -2.67525
C -9.80925 20.51025 -0.89175
C -8.02575 18.72675 -0.89175
C -8.02575 20.51025 -2.67525
C -10.70100 21.40200 -17.83500
C -10.70100 23.18550 -16.05150
C -8.91750 21.40200 -16.05150
C -8.91750 23.18550 -17.83500
C -9.80925 22.29375 -16.94325
C -9.80925 24.07725 -15.15975
C -8.02575 22.29375 -15.15975
C -8.02575 24.07725 -16.94325
C -10.70100 21.40200 -14.26800
C -10.70100 23.18550 -12.48450
C -8.91750 21.40200 -12.48450
C -8.91750 23.18550 -14.26800
C -9.80925 22.29375 -13.37625
C -9.80925 24.07725 -11.59275
C -8.02575 22.29375 -11.59275
C -8.02575 24.07725 -13.37625
C -10.70100 21.40200 -10.70100
C -10.70100 23.18550 -8.91750
C -8.91750 21.40200 -8.91750
C -8.91750 23.18550 -10.70100
C -9.80925 22.29375 -9.80925
C -9.80925 24.07725 -8.02575
C -8.02575 22.29375 -8.02575
C -8.02575 24.07725 -9.80925
C -10.70100 21.40200 -7.13400
C -10.70100 23.18550 -5.35050
C -8.91750 21.40200 -5.35050
C -8.91750 23.18550 -7.13400
C -9.80925 22.29375 -6.24225
C -9.80925 24.07725 -4.45875
C -8.02575 22.29375 -4.45875
C -8.02575 24.07725 -6.24225
C -10.70100 21.40200 -3.56700
C -10.70100 23.18550 -1.78350
C -8.91750 21.40200 -1.78350
C -8.91750 23.18550 -3.56700
C -9.80925 22.29375 -2.67525
C -9.80925 24.07725 -0.89175
C -8.02575 22.29375 -0.89175
C -8.02575 24.07725 -2.67525
C -10.70100 24.96900 -17.83500
C -10.70100 26.75250 -16.05150
C -8.91750 24.96900 -16.05150
C -8.91750 26.75250 -17.83500
C -9.80925 25.86075 -16.94325
C -9.80925 27.64425 -15.15975
C -8.02575 25.86075 -15.15975
C -8.02575 27.64425 -16.94325
C -10.70100 24.96900 -14.26800
C -10.70100 26.75250 -12.48450
C -8.91750 24.96900 -12.48450
C -8.91750 26.75250 -14.26800
C -9.80925 25.86075 -13.37625
C -9.80925 27.64425 -11.59275
C -8.02575 25.86075 -11.59275
C -8.02575 27.64425 -13.37625
C -10.70100 24.96900 -10.70100
C -10.70100 26.75250 -8.91750
C -8.91750 24.96900 -8.91750
C -8.91750 26.75250 -10.70100
C -9.80925 25.86075 -9.80925
C -9.80925 27.64425 -8.02575
C -8.02575 25.86075 -8.02575
C -8.02575 27.64425 -9.80925
C -10.70100 24.96900 -7.13400
C -10.70100 26.75250 -5.35050
C -8.91750 24.96900 -5.35050
C -8.91750 26.75250 -7.13400
C -9.80925 25.86075 -6.24225
C -9.80925 27.64425 -4.45875
C -8.02575 25.86075 -4.45875
C -8.02575 27.64425 -6.24225
C -10.70100 24.96900 -3.56700
C -10.70100 26.75250 -1.78350
C -8.91750 24.96900 -1.78350
C -8.91750 26.75250 -3.56700
C -9.80925 25.86075 -2.67525
C -9.80925 27.64425 -0.89175
C -8.02575 25.86075 -0.89175
C -8.02575 27.64425 -2.67525
C -10.70100 28.53600 -17.83500
C -10.70100 30.31950 -16.05150
C -8.91750 28.53600 -16.05150
C -8.91750 30.31950 -17.83500
C -9.80925 29.42775 -16.94325
C -9.80925 31.21125 -15.15975
C -8.02575 29.42775 -15.15975
C -8.02575 31.21125 -16.94325
C -10.70100 28.53600 -14.26800
C -10.70100 30.31950 -12.48450
C -8.91750 28.53600 -12.48450
C -8.91750 30.31950 -14.26800
C -9.80925 29.42775 -13.37625
C -9.80925 31.21125 -11.59275
C -8.02575 29.42775 -11.59275
C -8.02575 31.21125 -13.37625
C -10.70100 28.53600 -10.70100
C -10.70100 30.31950 -8.91750
C -8.91750 28.53600 -8.91750
C -8.91750 30.31950 -10.70100
C -9.80925 29.42775 -9.80925
C -9.80925 31.21125 -8.02575
C -8.02575 29.42775 -8.02575
C -8.02575 31.21125 -9.80925
C -10.70100 28.53600 -7.13400
C -10.70100 30.31950 -5.35050
C -8.91750 28.53600 -5.35050
C -8.91750 30.31950 -7.13400
C -9.80925 29.42775 -6.24225
C -9.80925 31.21125 -4.45875
C -8.02575 29.42775 -4.45875
C -8.02575 31.21125 -6.24225
C -10.70100 28.53600 -3.56700
C -10.70100 30.31950 -1.78350
C -8.91750 28.53600 -1.78350
C -8.91750 30.31950 -3.56700
C -9.80925 29.42775 -2.67525
C -9.80925 31.21125 -0.89175
C -8.02575 29.42775 -0.89175
C -8.02575 31.21125 -2.67525
C -10.70100 32.10300 -17.83500
C -10.70100 33.88650 -16.05150
C -8.91750 32.10300 -16.05150
C -8.91750 33.88650 -17.83500
C -9.80925 32.99475 -16.94325
C -9.80925 34.77825 -15.15975
C -8.02575 32.99475 -15.15975
C -8.02575 34.77825 -16.94325
C -10.70100 32.10300 -14.26800
C -10.70100 33.88650 -12.48450
C -8.91750 32.10300 -12.48450
C -8.91750 33.88650 -14.26800
C -9.80925 32.99475 -13.37625
C -9.80925 34.77825 -11.59275
C -8.02575 32.99475 -11.59275
C -8.02575 34.77825 -13.37625
C -10.70100 32.10300 -10.70100
C -10.70100 33.88650 -8.91750
C -8.91750 32.10300 -8.91750
C -8.91750 33.88650 -10.70100
C -9.80925 32.99475 -9.80925
C -9.80925 34.77825 -8.02575
C -8.02575 32.99475 -8.02575
C -8.02575 34.77825 -9.80925
C -10.70100 32.10300 -7.13400
C -10.70100 33.88650 -5.35050
C -8.91750 32.10300 -5.35050
C -8.91750 33.88650 -7.13400
C -9.80925 32.99475 -6.24225
C -9.80925 34.77825 -4.45875
C -8.02575 32.99475 -4.45875
C -8.02575 34.77825 -6.24225
C -10.70100 32.10300 -3.56700
C -10.70100 33.88650 -1.78350
C -8.91750 32.10300 -1.78350
C -8.91750 33.88650 -3.56700
C -9.80925 32.99475 -2.67525
C -9.80925 34.77825 -0.89175
C -8.02575 32.99475 -0.89175
C -8.02575 34.77825 -2.67525
C -7.13400 17.83500 -17.83500
C -7.13400 19.61850 -16.05150
C -5.35050 17.83500 -16.05150
C -5.35050 19.61850 -17.83500
C -6.24225 18.72675 -16.94325
C -6.24225 20.51025 -15.15975
C -4.45875 18.72675 -15.15975
C -4.45875 20.51025 -16.94325
C -7.13400 17.83500 -14.26800
C -7.13400 19.61850 -12.48450
C -5.35050 17.83500 -12.48450
C -5.35050 19.61850 -14.26800
C -6.24225 18.72675 -13.37625
C -6.24225 20.51025 -11.59275
C -4.45875 18.72675 -11.59275
C -4.45875 20.51025 -13.37625
C -7.13400 17.83500 -10.70100
C -7.13400 19.61850 -8.91750
C -5.35050 17.83500 -8.91750
C -5.35050 19.61850 -10.70100
C -6.24225 18.72675 -9.80925
C -6.24225 20.51025 -8.02575
C -4.45875 18.72675 -8.02575
C -4.45875 20.51025 -9.80925
C -7.13400 17.83500 -7.13400
C -7.13400 19.61850 -5.35050
C -5.35050 17.83500 -5.35050
C -5.35050 19.61850 -7.13400
C -6.24225 18.72675 -6.24225
C -6.24225 20.51025 -4.45875
C -4.45875 18.72675 -4.45875
C -4.45875 20.51025 -6.24225
C -7.13400 17.83500 -3.56700
C -7.13400 19.61850 -1.78350
C -5.35050 17.83500 -1.78350
C -5.35050 19.61850 -3.56700
C -6.24225 18.72675 -2.67525
C -6.24225 20.51025 -0.89175
C -4.45875 18.72675 -0.89175
C -4.45875 20.51025 -2.67525
C -7.13400 21.40200 -17.83500
C -7.13400 23.18550 -16.05150
C -5.35050 21.40200 -16.05150
C -5.35050 23.18550 -17.83500
C -6.24225 22.29375 -16.94325
C -6.24225 24.07725 -15.15975
C -4.45875 22.29375 -15.15975
C -4.45875 24.07725 -16.94325
C -7.13400 21.40200 -14.26800
C -7.13400 23.18550 -12.48450
C -5.35050 21.40200 -12.48450
C -5.35050 23.18550 -14.26800
C -6.24225 22.29375 -13.37625
C -6.24225 24.07725 -11.59275
C -4.45875 22.29375 -11.59275
C -4.45875 24.07725 -13.37625
C -7.13400 21.40200 -10.70100
C -7.13400 23.18550 -8.91750
C -5.35050 21.40200 -8.91750
C -5.35050 23.18550 -10.70100
C -6.24225 22.29375 -9.80925
C -6.24225 24.07725 -8.02575
C -4.45875 22.29375 -8.02575
C -4.45875 24.07725 -9.80925
C -7.13400 21.40200 -7.13400
C -7.13400 23.18550 -5.35050
C -5.35050 21.40200 -5.35050
C -5.35050 23.18550 -7.13400
C -6.24225 22.29375 -6.24225
C -6.24225 24.07725 -4.45875
C -4.45875 22.29375 -4.45875
C -4.45875 24.07725 -6.24225
C -7.13400 21.40200 -3.56700
C -7.13400 23.18550 -1.78350
C -5.35050 21.40200 -1.78350
C -5.35050 23.18550 -3.56700
C -6.24225 22.29375 -2.67525
C -6.24225 24.07725 -0.89175
C -4.45875 22.29375 -0.89175
C -4.45875 24.07725 -2.67525
C -7.13400 24.96900 -17.83500
C -7.13400 26.75250 -16.05150
C -5.35050 24.96900 -16.05150
C -5.35050 26.75250 -17.83500
C -6.24225 25.86075 -16.94325
C -6.24225 27.64425 -15.15975
C -4.45875 25.86075 -15.15975
C -4.45875 27.64425 -16.94325
C -7.13400 24.96900 -14.26800
C -7.13400 26.75250 -12.48450
C -5.35050 24.96900 -12.48450
C -5.35050 26.75250 -14.26800
C -6.24225 25.86075 -13.37625
C -6.24225 27.64425 -11.59275
C -4.45875 25.86075 -11.59275
C -4.45875 27.64425 -13.37625
C -7.13400 24.96900 -10.70100
C -7.13400 26.75250 -8.91750
C -5.35050 24.96900 -8.91750
C -5.35050 26.75250 -10.70100
C -6.24225 25.86075 -9.80925
C -6.24225 27.64425 -8.02575
C -4.45875 25.86075 -8.02575
C -4.45875 27.64425 -9.80925
C -7.13400 24.96900 -7.13400
C -7.13400 26.75250 -5.35050
C -5.35050 24.96900 -5.35050
C -5.35050 26.75250 -7.13400
C -6.24225 25.86075 -6.24225
C -6.24225 27.64425 -4.45875
C -4.45875 25.86075 -4.45875
C -4.45875 27.64425 -6.24225
C -7.13400 24.96900 -3.56700
C -7.13400 26.75250 -1.78350
C -5.35050 24.96900 -1.78350
C -5.35050 26.75250 -3.56700
C -6.24225 25.86075 -2.67525
C -6.24225 27.64425 -0.89175
C -4.45875 25.86075 -0.89175
C -4.45875 27.64425 -2.67525
C -7.13400 28.53600 -17.83500
C -7.13400 30.31950 -16.05150
C -5.35050 28.53600 -16.05150
C -5.35050 30.31950 -17.83500
C -6.24225 29.42775 -16.94325
C -6.24225 31.21125 -15.15975
C -4.45875 29.42775 -15.15975
C -4.45875 31.21125 -16.94325
C -7.13400 28.53600 -14.26800
C -7.13400 30.31950 -12.48450
C -5.35050 28.53600 -12.48450
C -5.35050 30.31950 -14.26800
C -6.24225 29.42775 -13.37625
C -6.24225 31.21125 -11.59275
C -4.45875 29.42775 -11.59275
C -4.45875 31.21125 -13.37625
C -7.13400 28.53600 -10.70100
C -7.13400 30.31950 -8.91750
C -5.35050 28.53600 -8.91750
C -5.35050 30.31950 -10.70100
C -6.24225 29.42775 -9.80925
C -6.24225 31.21125 -8.02575
C -4.45875 29.42775 -8.02575
C -4.45875 31.21125 -9.80925
C -7.13400 28.53600 -7.13400
C -7.13400 30.31950 -5.35050
C -5.35050 28.53600 -5.35050
C -5.35050 30.31950 -7.13400
C -6.24225 29.42775 -6.24225
C -6.24225 31.21125 -4.45875
C -4.45875 29.42775 -4.45875
C -4.45875 31.21125 -6.24225
C -7.13400 28.53600 -3.56700
C -7.13400 30.31950 -1.78350
C -5.35050 28.53600 -1.78350
C -5.35050 30.31950 -3.56700
C -6.24225 29.42775 -2.67525
C -6.24225 31.21125 -0.89175
C -4.45875 29.42775 -0.89175
C -4.45875 31.21125 -2.67525
C -7.13400 32.10300 -17.83500
C -7.13400 33.88650 -16.05150
C -5.35050 32.10300 -16.05150
C -5.35050 33.88650 -17.83500
C -6.24225 32.99475 -16.94325
C -6.24225 34.77825 -15.15975
C -4.45875 32.99475 -15.15975
C -4.45875 34.77825 -16.94325
C -7.13400 32.10300 -14.26800
C -7.13400 33.88650 -12.48450
C -5.35050 32.10300 -12.48450
C -5.35050 33.88650 -14.26800
C -6.24225 32.99475 -13.37625
C -6.24225 34.77825 -11.59275
C -4.45875 32.99475 -11.59275
C -4.45875 34.77825 -13.37625
C -7.13400 32.10300 -10.70100
C -7.13400 33.88650 -8.91750
C -5.35050 32.10300 -8.91750
C -5.35050 33.88650 -10.70100
C -6.24225 32.99475 -9.80925
C -6.24225 34.77825 -8.02575
C -4.45875 32.99475 -8.02575
C -4.45875 34.77825 -9.80925
C -7.13400 32.10300 -7.13400
C -7.13400 33.88650 -5.35050
C -5.35050 32.10300 -5.35050
C -5.35050 33.88650 -7.13400
C -6.24225 32.99475 -6.24225
C -6.24225 34.77825 -4.45875
C -4.45875 32.99475 -4.45875
C -4.45875 34.77825 -6.24225
C -7.13400 32.10300 -3.56700
C -7.13400 33.88650 -1.78350
C -5.35050 32.10300 -1.78350
C -5.35050 33.88650 -3.56700
C -6.24225 32.99475 -2.67525
C -6.24225 34.77825 -0.89175
C -4.45875 32.99475 -0.89175
C -4.45875 34.77825 -2.67525
C -3.56700 17.83500 -17.83500
C -3.56700 19.61850 -16.05150
C -1.78350 17.83500 -16.05150
C -1.78350 19.61850 -17.83500
C -2.67525 18.72675 -16.94325
C -2.67525 20.51025 -15.15975
C -0.89175 18.72675 -15.15975
C -0.89175 20.51025 -16.94325
C -3.56700 17.83500 -14.26800
C -3.56700 19.61850 -12.48450
C -1.78350 17.83500 -12.48450
C -1.78350 19.61850 -14.26800
C -2.67525 18.72675 -13.37625
C -2.67525 20.51025 -11.59275
C -0.89175 18.72675 -11.59275
C -0.89175 20.51025 -13.37625
C -3.56700 17.83500 -10.70100
C -3.56700 19.61850 -8.91750
C -1.78350 17.83500 -8.91750
C -1.78350 19.61850 -10.70100
C -2.67525 18.72675 -9.80925
C -2.67525 20.51025 -8.02575
C -0.89175 18.72675 -8.02575
C -0.89175 20.51025 -9.80925
C -3.56700 17.83500 -7.13400
C -3.56700 19.61850 -5.35050
C -1.78350 17.83500 -5.35050
C -1.78350 19.61850 -7.13400
C -2.67525 18.72675 -6.24225
C -2.67525 20.51025 -4.45875
C -0.89175 18.72675 -4.45875
C -0.89175 20.51025 -6.24225
C -3.56700 17.83500 -3.56700
C -3.56700 19.61850 -1.78350
C -1.78350 17.83500 -1.78350
C -1.78350 19.61850 -3.56700
C -2.67525 18.72675 -2.67525
C -2.67525 20.51025 -0.89175
C -0.89175 18.72675 -0.89175
C -0.89175 20.51025 -2.67525
C -3.56700 21.40200 -17.83500
C -3.56700 23.18550 -16.05150
C -1.78350 21.40200 -16.05150
C -1.78350 23.18550 -17.83500
C -2.67525 22.29375 -16.94325
C -2.67525 24.07725 -15.15975
C -0.89175 22.29375 -15.15975
C -0.89175 24.07725 -16.94325
C -3.56700 21.40200 -14.26800
C -3.56700 23.18550 -12.48450
C -1.78350 21.40200 -12.48450
C -1.78350 23.18550 -14.26800
C -2.67525 22.29375 -13.37625
C -2.67525 24.07725 -11.59275
C -0.89175 22.29375 -11.59275
C -0.89175 24.07725 -13.37625
C -3.56700 21.40200 -10.70100
C -3.56700 23.18550 -8.91750
C -1.78350 21.40200 -8.91750
C -1.78350 23.18550 -10.70100
C -2.67525 22.29375 -9.80925
C -2.67525 24.07725 -8.02575
C -0.89175 22.29375 -8.02575
C -0.89175 24.07725 -9.80925
C -3.56700 21.40200 -7.13400
C -3.56700 23.18550 -5.35050
C -1.78350 21.40200 -5.35050
C -1.78350 23.18550 -7.13400
C -2.67525 22.29375 -6.24225
C -2.67525 24.07725 -4.45875
C -0.89175 22.29375 -4.45875
C -0.89175 24.07725 -6.24225
C -3.56700 21.40200 -3.56700
C -3.56700 23.18550 -1.78350
C -1.78350 21.40200 -1.78350
C -1.78350 23.18550 -3.56700
C -2.67525 22.29375 -2.67525
C -2.67525 24.07725 -0.89175
C -0.89175 22.29375 -0.89175
C -0.89175 24.07725 -2.67525
C -3.56700 24.96900 -17.83500
C -3.56700 26.75250 -16.05150
C -1.78350 24.96900 -16.05150
C -1.78350 26.75250 -17.83500
C -2.67525 25.86075 -16.94325
C -2.67525 27.64425 -15.15975
C -0.89175 25.86075 -15.15975
C -0.89175 27.64425 -16.94325
C -3.56700 24.96900 -14.26800
C -3.56700 26.75250 -12.48450
C -1.78350 24.96900 -12.48450
C -1.78350 26.75250 -14.26800
C -2.67525 25.86075 -13.37625
C -2.67525 27.64425 -11.59275
C -0.89175 25.86075 -11.59275
C -0.89175 27.64425 -13.37625
C -3.56700 24.96900 -10.70100
C -3.56700 26.75250 -8.91750
C -1.78350 24.96900 -8.91750
C -1.78350 26.75250 -10.70100
C -2.67525 25.86075 -9.80925
C -2.67525 27.64425 -8.02575
C -0.89175 25.86075 -8.02575
C -0.89175 27.64425 -9.80925
C -3.56700 24.96900 -7.13400
C -3.56700 26.75250 -5.35050
C -1.78350 24.96900 -5.35050
C -1.78350 26.75250 -7.13400
C -2.67525 25.86075 -6.24225
C -2.67525 27.64425 -4.45875
C -0.89175 25.86075 -4.45875
C -0.89175 27.64425 -6.24225
C -3.56700 24.96900 -3.56700
C -3.56700 26.75250 -1.78350
C -1.78350 24.96900 -1.78350
C -1.78350 26.75250 -3.56700
C -2.67525 25.86075 -2.67525
C -2.67525 27.64425 -0.89175
C -0.89175 25.86075 -0.89175
C -0.89175 27.64425 -2.67525
C -3.56700 28.53600 -17.83500
C -3.56700 30.31950 -16.05150
C -1.78350 28.53600 -16.05150
C -1.78350 30.31950 -17.83500
C -2.67525 29.42775 -16.94325
C -2.67525 31.21125 -15.15975
C -0.89175 29.42775 -15.15975
C -0.89175 31.21125 -16.94325
C -3.56700 28.53600 -14.26800
C -3.56700 30.31950 -12.48450
C -1.78350 28.53600 -12.48450
C -1.78350 30.31950 -14.26800
C -2.67525 29.42775 -13.37625
C -2.67525 31.21125 -11.59275
C -0.89175 29.42775 -11.59275
C -0.89175 31.21125 -13.37625
C -3.56700 28.53600 -10.70100
C -3.56700 30.31950 -8.91750
C -1.78350 28.53600 -8.91750
C -1.78350 30.31950 -10.70100
C -2.67525 29.42775 -9.80925
C -2.67525 31.21125 -8.02575
C -0.89175 29.42775 -8.02575
C -0.89175 31.21125 -9.80925
C -3.56700 28.53600 -7.13400
C -3.56700 30.31950 -5.35050
C -1.78350 28.53600 -5.35050
C -1.78350 30.31950 -7.13400
C -2.67525 29.42775 -6.24225
C -2.67525 31.21125 -4.45875
C -0.89175 29.42775 -4.45875
C -0.89175 31.21125 -6.24225
C -3.56700 28.53600 -3.56700
C -3.56700 30.31950 -1.78350
C -1.78350 28.53600 -1.78350
C -1.78350 30.31950 -3.56700
C -2.67525 29.42775 -2.67525
C -2.67525 31.21125 -0.89175
C -0.89175 29.42775 -0.89175
C -0.89175 31.21125 -2.67525
C -3.56700 32.10300 -17.83500
C -3.56700 33.88650 -16.05150
C -1.78350 32.10300 -16.05150
C -1.78350 33.88650 -17.83500
C -2.67525 32.99475 -16.94325
C -2.67525 34.77825 -15.15975
C -0.89175 32.99475 -15.15975
C -0.89175 34.77825 -16.94325
C -3.56700 32.10300 -14.26800
C -3.56700 33.88650 -12.48450
C -1.78350 32.10300 -12.48450
C -1.78350 33.88650 -14.26800
C -2.67525 32.99475 -13.37625
C -2.67525 34.77825 -11.59275
C -0.89175 32.99475 -11.59275
C -0.89175 34.77825 -13.37625
C -3.56700 32.10300 -10.70100
C -3.56700 33.88650 -8.91750
C -1.78350 32.10300 -8.91750
C -1.78350 33.88650 -10.70100
C -2.67525 32.99475 -9.80925
C -2.67525 34.77825 -8.02575
C -0.89175 32.99475 -8.02575
C -0.89175 34.77825 -9.80925
C -3.56700 32.10300 -7.13400
C -3.56700 33.88650 -5.35050
C -1.78350 32.10300 -5.35050
C -1.78350 33.88650 -7.13400
C -2.67525 32.99475 -6.24225
C -2.67525 34.77825 -4.45875
C -0.89175 32.99475 -4.45875
C -0.89175 34.77825 -6.24225
C -3.56700 32.10300 -3.56700
C -3.56700 33.88650 -1.78350
C -1.78350 32.10300 -1.78350
C -1.78350 33.88650 -3.56700
C -2.67525 32.99475 -2.67525
C -2.67525 34.77825 -0.89175
C -0.89175 32.99475 -0.89175
C -0.89175 34.77825 -2.67525
N -17.83500 17.83500  0.00000
C -17.83500 19.61850  1.78350
C -16.05150 17.83500  1.78350
C -16.05150 19.61850  0.00000
C -16.94325 18.72675  0.89175
C -16.94325 20.51025  2.67525
C -15.15975 18.72675  2.67525
C -15.15975 20.51025  0.89175
C -17.83500 17.83500  3.56700
C -17.83500 19.61850  5.35050
C -16.05150 17.83500  5.35050
C -16.05150 19.61850  3.56700
C -16.94325 18.72675  4.45875
C -16.94325 20.51025  6.24225
C -15.15975 18.72675  6.24225
C -15.15975 20.51025  4.45875
C -17.83500 17.83500  7.13400
C -17.83500 19.61850  8.91750
C -16.05150 17.83500  8.91750
C -16.05150 19.61850  7.13400
C -16.94325 18.72675  8.02575
C -16.94325 20.51025  9.80925
C -15.15975 18.72675  9.80925
C -15.15975 20.51025  8.02575
C -17.83500 17.83500 10.70100
C -17.83500 19.61850 12.48450
C -16.05150 17.83500 12.48450
C -16.05150 19.61850 10.70100
C -16.94325 18.72675 11.59275
C -16.94325 20.51025 13.37625
C -15.15975 18.72675 13.37625
C -15.15975 20.51025 11.59275
C -17.83500 17.83500 14.26800
C -17.83500 19.61850 16.05150
C -16.05150 17.83500 16.05150
C -16.05150 19.61850 14.26800
C -16.94325 18.72675 15.15975
C -16.94325 20.51025 16.94325
C -15.15975 18.72675 16.94325
C -15.15975 20.51025 15.15975
C -17.83500 21.40200  0.00000
C -17.83500 23.18550  1.78350
C -16.05150 21.40200  1.78350
C -16.05150 23.18550  0.00000
C -16.94325 22.29375  0.89175
C -16.94325 24.07725  2.67525
C -15.15975 22.29375  2.67525
C -15.15975 24.07725  0.89175
C -17.83500 21.40200  3.56700
C -17.83500 23.18550  5.35050
C -16.05150 21.40200  5.35050
C -16.05150 23.18550  3.56700
C -16.94325 22.29375  4.45875
C -16.94325 24.07725  6.24225
C -15.15975 22.29375  6.24225
C -15.15975 24.07725  4.45875
C -17.83500 21.40200  7.13400
C -17.83500 23.18550  8.91750
C -16.05150 21.40200  8.91750
C -16.05150 23.18550  7.13400
C -16.94325 22.29375  8.02575
C -16.94325 24.07725  9.80925
C -15.15975 22.29375  9.80925
C -15.15975 24.07725  8.02575
C -17.83500 21.40200 10.70100
C -17.83500 23.18550 12.48450
C -16.05150 21.40200 12.48450
C -16.05150 23.18550 10.70100
C -16.94325 22.29375 11.59275
C -16.94325 24.07725 13.37625
C -15.15975 22.29375 13.37625
C -15.15975 24.07725 11.59275
C -17.83500 21.40200 14.26800
C -17.83500 23.18550 16.05150
C -16.05150 21.40200 16.05150
C -16.05150 23.18550 14.26800
C -16.94325 22.29375 15.15975
C -16.94325 24.07725 16.94325
C -15.15975 22.29375 16.94325
C -15.15975 24.07725 15.15975
C -17.83500 24.96900  0.00000
C -17.83500 26.75250  1.78350
C -16.05150 24.96900  1.78350
C -16.05150 26.75250  0.00000
C -16.94325 25.86075  0.89175
C -16.94325 27.64425  2.67525
C -15.15975 25.86075  2.67525
C -15.15975 27.64425  0.89175
C -17.83500 24.96900  3.56700
C -17.83500 26.75250  5.35050
C -16.05150 24.96900  5.35050
C -16.05150 26.75250  3.56700
C -16.94325 25.86075  4.45875
C -16.94325 27.64425  6.24225
C -15.15975 25.86075  6.24225
C -15.15975 27.64425  4.45875
C -17.83500 24.96900  7.13400
C -17.83500 26.75250  8.91750
C -16.05150 24.96900  8.91750
C -16.05150 26.75250  7.13400
C -16.94325 25.86075  8.02575
C -16.94325 27.64425  9.80925
C -15.15975 25.86075  9.80925
C -15.15975 27.64425  8.02575
C -17.83500 24.96900 10.70100
C -17.83500 26.75250 12.48450
C -16.05150 24.96900 12.48450
C -16.05150 26.75250 10.70100
C -16.94325 25.86075 11.59275
C -16.94325 27.64425 13.37625
C -15.15975 25.86075 13.37625
C -15.15975 27.64425 11.59275
C -17.83500 24.96900 14.26800
C -17.83500 26.75250 16.05150
C -16.05150 24.96900 16.05150
C -16.05150 26.75250 14.26800
C -16.94325 25.86075 15.15975
C -16.94325 27.64425 16.94325
C -15.15975 25.86075 16.94325
C -15.15975 27.64425 15.15975
C -17.83500 28.53600  0.00000
C -17.83500 30.31950  1.78350
C -16.05150 28.53600  1.78350
C -16.05150 30.31950  0.00000
C -16.94325 29.42775  0.89175
C -16.94325 31.21125  2.67525
C -15.15975 29.42775  2.67525
C -15.15975 31.21125  0.89175
C -17.83500 28.53600  3.56700
C -17.83500 30.31950  5.35050
C -16.05150 28.53600  5.35050
C -16.05150 30.31950  3.56700
C -16.94325 29.42775  4.45875
C -16.94325 31.21125  6.24225
C -15.15975 29.42775  6.24225
C -15.15975 31.21125  4.45875
C -17.83500 28.53600  7.13400
C -17.83500 30.31950  8.91750
C -16.05150 28.53600  8.91750
C -16.05150 30.31950  7.13400
C -16.94325 29.42775  8.02575
C -16.94325 31.21125  9.80925
C -15.15975 29.42775  9.80925
C -15.15975 31.21125  8.02575
C -17.83500 28.53600 10.70100
C -17.83500 30.31950 12.48450
C -16.05150 28.53600 12.48450
C -16.05150 30.31950 10.70100
C -16.94325 29.42775 11.59275
C -16.94325 31.21125 13.37625
C -15.15975 29.42775 13.37625
C -15.15975 31.21125 11.59275
C -17.83500 28.53600 14.26800
C -17.83500 30.31950 16.05150
C -16.05150 28.53600 16.05150
C -16.05150 30.31950 14.26800
C -16.94325 29.42775 15.15975
C -16.94325 31.21125 16.94325
C -15.15975 29.42775 16.94325
C -15.15975 31.21125 15.15975
C -17.83500 32.10300  0.00000
C -17.83500 33.88650  1.78350
C -16.05150 32.10300  1.78350
C -16.05150 33.88650  0.00000
C -16.94325 32.99475  0.89175
C -16.94325 34.77825  2.67525
C -15.15975 32.99475  2.67525
C -15.15975 34.77825  0.89175
C -17.83500 32.10300  3.56700
C -17.83500 33.88650  5.35050
C -16.05150 32.10300  5.35050
C -16.05150 33.88650  3.56700
C -16.94325 32.99475  4.45875
C -16.94325 34.77825  6.24225
C -15.15975 32.99475  6.24225
C -15.15975 34.77825  4.45875
C -17.83500 32.10300  7.13400
C -17.83500 33.88650  8.91750
C -16.05150 32.10300  8.91750
C -16.05150 33.88650  7.13400
C -16.94325 32.99475  8.02575
C -16.94325 34.77825  9.80925
C -15.15975 32.99475  9.80925
C -15.15975 34.77825  8.02575
C -17.83500 32.10300 10.70100
C -17.83500 33.88650 12.48450
C -16.05150 32.10300 12.48450
C -16.05150 33.88650 10.70100
C -16.94325 32.99475 11.59275
C -16.94325 34.77825 13.37625
C -15.15975 32.99475 13.37625
C -15.15975 34.77825 11.59275
C -17.83500 32.10300 14.26800
C -17.83500 33.88650 16.05150
C -16.05150 32.10300 16.05150
C -16.05150 33.88650 14.26800
C -16.94325 32.99475 15.15975
C -16.94325 34.77825 16.94325
C -15.15975 32.99475 16.94325
C -15.15975 34.77825 15.15975
C -14.26800 17.83500  0.00000
C -14.26800 19.61850  1.78350
C -12.48450 17.83500  1.78350
C -12.48450 19.61850  0.00000
C -13.37625 18.72675  0.89175
C -13.37625 20.51025  2.67525
C -11.59275 18.72675  2.67525
C -11.59275 20.51025  0.89175
C -14.26800 17.83500  3.56700
C -14.26800 19.61850  5.35050
C -12.48450 17.83500  5.35050
C -12.48450 19.61850  3.56700
C -13.37625 18.72675  4.45875
C -13.37625 20.51025  6.24225
C -11.59275 18.72675  6.24225
C -11.59275 20.51025  4.45875
C -14.26800 17.83500  7.13400
C -14.26800 19.61850  8.91750
C -12.48450 17.83500  8.91750
C -12.48450 19.61850  7.13400
C -13.37625 18.72675  8.02575
C -13.37625 20.51025  9.80925
C -11.59275 18.72675  9.80925
C -11.59275 20.51025  8.02575
C -14.26800 17.83500 10.70100
C -14.26800 19.61850 12.48450
C -12.48450 17.83500 12.48450
C -12.48450 19.61850 10.70100
C -13.37625 18.72675 11.59275
C -13.37625 20.51025 13.37625
C -11.59275 18.72675 13.37625
C -11.59275 20.51025 11.59275
C -14.26800 17.83500 14.26800
C -14.26800 19.61850 16.05150
C -12.48450 17.83500 16.05150
C -12.48450 19.61850 14.26800
C -13.37625 18.72675 15.15975
C -13.37625 20.51025 16.94325
C -11.59275 18.72675 16.94325
C -11.59275 20.51025 15.15975
C -14.26800 21.40200  0.00000
C -14.26800 23.18550  1.78350
C -12.48450 21.40200  1.78350
C -12.48450 23.18550  0.00000
C -13.37625 22.29375  0.89175
C -13.37625 24.07725  2.67525
C -11.59275 22.29375  2.67525
C -11.59275 24.07725  0.89175
C -14.26800 21.40200  3.56700
C -14.26800 23.18550  5.35050
C -12.48450 21.40200  5.35050
C -12.48450 23.18550  3.56700
C -13.37625 22.29375  4.45875
C -13.37625 24.07725  6.24225
C -11.59275 22.29375  6.24225
C -11.59275 24.07725  4.45875
C -14.26800 21.40200  7.13400
C -14.26800 23.18550  8.91750
C -12.48450 21.40200  8.91750
C -12.48450 23.18550  7.13400
C -13.37625 22.29375  8.02575
C -13.37625 24.07725  9.80925
C -11.59275 22.29375  9.80925
C -11.59275 24.07725  8.02575
C -14.26800 21.40200 10.70100
C -14.26800 23.18550 12.48450
C -12.48450 21.40200 12.48450
C -12.48450 23.18550 10.70100
C -13.37625 22.29375 11.59275
C -13.37625 24.07725 13.37625
C -11.59275 22.29375 13.37625
C -11.59275 24.07725 11.59275
C -14.26800 21.40200 14.26800
C -14.26800 23.18550 16.05150
C -12.48450 21.40200 16.05150
C -12.48450 23.18550 14.26800
C -13.37625 22.29375 15.15975
C -13.37625 24.07725 16.94325
C -11.59275 22.29375 16.94325
C -11.59275 24.07725 15.15975
C -14.26800 24.96900  0.00000
C -14.26800 26.75250  1.78350
C -12.48450 24.96900  1.78350
C -12.48450 26.75250  0.00000
C -13.37625 25.86075  0.89175
C -13.37625 27.64425  2.67525
C -11.59275 25.86075  2.67525
C -11.59275 27.64425  0.89175
C -14.26800 24.96900  3.56700
C -14.26800 26.75250  5.35050
C -12.48450 24.96900  5.35050
C -12.48450 26.75250  3.56700
C -13.37625 25.86075  4.45875
C -13.37625 27.64425  6.24225
C -11.59275 25.86075  6.24225
C -11.59275 27.64425  4.45875
C -14.26800 24.96900  7.13400
C -14.26800 26.75250  8.91750
C -12.48450 24.96900  8.91750
C -12.48450 26.75250  7.13400
C -13.37625 25.86075  8.02575
C -13.37625 27.64425  9.80925
C -11.59275 25.86075  9.80925
C -11.59275 27.64425  8.02575
C -14.26800 24.96900 10.70100
C -14.26800 26.75250 12.48450
C -12.48450 24.96900 12.48450
C -12.48450 26.75250 10.70100
C -13.37625 25.86075 11.59275
C -13.37625 27.64425 13.37625
C -11.59275 25.86075 13.37625
C -11.59275 27.64425 11.59275
C -14.26800 24.96900 14.26800
C -14.26800 26.75250 16.05150
C -12.48450 24.96900 16.05150
C -12.48450 26.75250 14.26800
C -13.37625 25.86075 15.15975
C -13.37625 27.64425 16.94325
C -11.59275 25.86075 16.94325
C -11.59275 27.64425 15.15975
C -14.26800 28.53600  0.00000
C -14.26800 30.31950  1.78350
C -12.48450 28.53600  1.78350
C -12.48450 30.31950  0.00000
C -13.37625 29.42775  0.89175
C -13.37625 31.21125  2.67525
C -11.59275 29.42775  2.67525
C -11.59275 31.21125  0.89175
C -14.26800 28.53600  3.56700
C -14.26800 30.31950  5.35050
C -12.48450 28.53600  5.35050
C -12.48450 30.31950  3.56700
C -13.37625 29.42775  4.45875
C -13.37625 31.21125  6.24225
C -11.59275 29.42775  6.24225
C -11.59275 31.21125  4.45875
C -14.26800 28.53600  7.13400
C -14.26800 30.31950  8.91750
C -12.48450 28.53600  8.91750
C -12.48450 30.31950  7.13400
C -13.37625 29.42775  8.02575
C -13.37625 31.21125  9.80925
C -11.59275 29.42775  9.80925
C -11.59275 31.21125  8.02575
C -14.26800 28.53600 10.70100
C -14.26800 30.31950 12.48450
C -12.48450 28.53600 12.48450
C -12.48450 30.31950 10.70100
C -13.37625 29.42775 11.59275
C -13.37625 31.21125 13.37625
C -11.59275 29.42775 13.37625
C -11.59275 31.21125 11.59275
C -14.26800 28.53600 14.26800
C -14.26800 30.31950 16.05150
C -12.48450 28.53600 16.05150
C -12.48450 30.31950 14.26800
C -13.37625 29.42775 15.15975
C -13.37625 31.21125 16.94325
C -11.59275 29.42775 16.94325
C -11.59275 31.21125 15.15975
C -14.26800 32.10300  0.00000
C -14.26800 33.88650  1.78350
C -12.48450 32.10300  1.78350
C -12.48450 33.88650  0.00000
C -13.37625 32.99475  0.89175
C -13.37625 34.77825  2.67525
C -11.59275 32.99475  2.67525
C -11.59275 34.77825  0.89175
C -14.26800 32.10300  3.56700
C -14.26800 33.88650  5.35050
C -12.48450 32.10300  5.35050
C -12.48450 33.88650  3.56700
C -13.37625 32.99475  4.45875
C -13.37625 34.77825  6.24225
C -11.59275 32.99475  6.24225
C -11.59275 34.77825  4.45875
C -14.26800 32.10300  7.13400
C -14.26800 33.88650  8.91750
C -12.48450 32.10300  8.91750
C -12.48450 33.88650  7.13400
C -13.37625 32.99475  8.02575
C -13.37625 34.77825  9.80925
C -11.59275 32.99475  9.80925
C -11.59275 34.77825  8.02575
C -14.26800 32.10300 10.70100
C -14.26800 33.88650 12.48450
C -12.48450 32.10300 12.48450
C -12.48450 33.88650 10.70100
C -13.37625 32.99475 11.59275
C -13.37625 34.77825 13.37625
C -11.59275 32.99475 13.37625
C -11.59275 34.77825 11.59275
C -14.26800 32.10300 14.26800
C -14.26800 33.88650 16.05150
C -12.48450 32.10300 16.05150
C -12.48450 33.88650 14.26800
C -13.37625 32.99475 15.15975
C -13.37625 34.77825 16.94325
C -11.59275 32.99475 16.94325
C -11.59275 34.77825 15.15975
C -10.70100 17.83500  0.00000
C -10.70100 19.61850  1.78350
C -8.91750 17.83500  1.78350
C -8.91750 19.61850  0.00000
C -9.80925 18.72675  0.89175
C -9.80925 20.51025  2.67525
C -8.02575 18.72675  2.67525
C -8.02575 20.51025  0.89175
C -10.70100 17.83500  3.56700
C -10.70100 19.61850  5.35050
C -8.91750 17.83500  5.35050
C -8.91750 19.61850  3.56700
C -9.80925 18.72675  4.45875
C -9.80925 20.51025  6.24225
C -8.02575 18.72675  6.24225
C -8.02575 20.51025  4.45875
C -10.70100 17.83500  7.13400
C -10.70100 19.61850  8.91750
C -8.91750 17.83500  8.91750
C -8.91750 19.61850  7.13400
C -9.80925 18.72675  8.02575
C -9.80925 20.51025  9.80925
C -8.02575 18.72675  9.80925
C -8.02575 20.51025  8.02575
C -10.70100 17.83500 10.70100
C -10.70100 19.61850 12.48450
C -8.91750 17.83500 12.48450
C -8.91750 19.61850 10.70100
C -9.80925 18.72675 11.59275
C -9.80925 20.51025 13.37625
C -8.02575 18.72675 13.37625
C -8.02575 20.51025 11.59275
C -10.70100 17.83500 14.26800
C -10.70100 19.61850 16.05150
C -8.91750 17.83500 16.05150
C -8.91750 19.61850 14.26800
C -9.80925 18.72675 15.15975
C -9.80925 20.51025 16.94325
C -8.02575 18.72675 16.94325
C -8.02575 20.51025 15.15975
C -10.70100 21.40200  0.00000
C -10.70100 23.18550  1.78350
C -8.91750 21.40200  1.78350
C -8.91750 23.18550  0.00000
C -9.80925 22.29375  0.89175
C -9.80925 24.07725  2.67525
C -8.02575 22.29375  2.67525
C -8.02575 24.07725  0.89175
C -10.70100 21.40200  3.56700
C -10.70100 23.18550  5.35050
C -8.91750 21.40200  5.35050
C -8.91750 23.18550  3.56700
C -9.80925 22.29375  4.45875
C -9.80925 24.07725  6.24225
C -8.02575 22.29375  6.24225
C -8.02575 24.07725  4.45875
C -10.70100 21.40200  7.13400
C -10.70100 23.18550  8.91750
C -8.91750 21.40200  8.91750
C -8.91750 23.18550  7.13400
C -9.80925 22.29375  8.02575
C -9.80925 24.07725  9.80925
C -8.02575 22.29375  9.80925
C -8.02575 24.07725  8.02575
C -10.70100 21.40200 10.70100
C -10.70100 23.18550 12.48450
C -8.91750 21.40200 12.48450
C -8.91750 23.18550 10.70100
C -9.80925 22.29375 11.59275
C -9.80925 24.07725 13.37625
C -8.02575 22.29375 13.37625
C -8.02575 24.07725 11.59275
C -10.70100 21.40200 14.26800
C -10.70100 23.18550 16.05150
C -8.91750 21.40200 16.05150
C -8.91750 23.18550 14.26800
C -9.80925 22.29375 15.15975
C -9.80925 24.07725 16.94325
C -8.02575 22.29375 16.94325
C -8.02575 24.07725 15.15975
C -10.70100 24.96900  0.00000
C -10.70100 26.75250  1.78350
C -8.91750 24.96900  1.78350
C -8.91750 26.75250  0.00000
C -9.80925 25.86075  0.89175
C -9.80925 27.64425  2.67525
C -8.02575 25.86075  2.67525
C -8.02575 27.64425  0.89175
C -10.70100 24.96900  3.56700
C -10.70100 26.75250  5.35050
C -8.91750 24.96900  5.35050
C -8.91750 26.75250  3.56700
C -9.80925 25.86075  4.45875
C -9.80925 27.64425  6.24225
C -8.02575 25.86075  6.24225
C -8.02575 27.64425  4.45875
C -10.70100 24.96900  7.13400
C -10.70100 26.75250  8.91750
C -8.91750 24.96900  8.91750
C -8.91750 26.75250  7.13400
C -9.80925 25.86075  8.02575
C -9.80925 27.64425  9.80925
C -8.02575 25.86075  9.80925
C -8.02575 27.64425  8.02575
C -10.70100 24.96900 10.70100
C -10.70100 26.75250 12.48450
C -8.91750 24.96900 12.48450
C -8.91750 26.75250 10.70100
C -9.80925 25.86075 11.59275
C -9.80925 27.64425 13.37625
C -8.02575 25.86075 13.37625
C -8.02575 27.64425 11.59275
C -10.70100 24.96900 14.26800
C -10.70100 26.75250 16.05150
C -8.91750 24.96900 16.05150
C -8.91750 26.75250 14.26800
C -9.80925 25.86075 15.15975
C -9.80925 27.64425 16.94325
C -8.02575 25.86075 16.94325
C -8.02575 27.64425 15.15975
C -10.70100 28.53600  0.00000
C -10.70100 30.31950  1.78350
C -8.91750 28.53600  1.78350
C -8.91750 30.31950  0.00000
C -9.80925 29.42775  0.89175
C -9.80925 31.21125  2.67525
C -8.02575 29.42775  2.67525
C -8.02575 31.21125  0.89175
C -10.70100 28.53600  3.56700
C -10.70100 30.31950  5.35050
C -8.91750 28.53600  5.35050
C -8.91750 30.31950  3.56700
C -9.80925 29.42775  4.45875
C -9.80925 31.21125  6.24225
C -8.02575 29.42775  6.24225
C -8.02575 31.21125  4.45875
C -10.70100 28.53600  7.13400
C -10.70100 30.31950  8.91750
C -8.91750 28.53600  8.91750
C -8.91750 30.31950  7.13400
C -9.80925 29.42775  8.02575
C -9.80925 31.21125  9.80925
C -8.02575 29.42775  9.80925
C -8.02575 31.21125  8.02575
C -10.70100 28.53600 10.70100
C -10.70100 30.31950 12.48450
C -8.91750 28.53600 12.48450
C -8.91750 30.31950 10.70100
C -9.80925 29.42775 11.59275
C -9.80925 31.21125 13.37625
C -8.02575 29.42775 13.37625
C -8.02575 31.21125 11.59275
C -10.70100 28.53600 14.26800
C -10.70100 30.31950 16.05150
C -8.91750 28.53600 16.05150
C -8.91750 30.31950 14.26800
C -9.80925 29.42775 15.15975
C -9.80925 31.21125 16.94325
C -8.02575 29.42775 16.94325
C -8.02575 31.21125 15.15975
C -10.70100 32.10300  0.00000
C -10.70100 33.88650  1.78350
C -8.91750 32.10300  1.78350
C -8.91750 33.88650  0.00000
C -9.80925 32.99475  0.89175
C -9.80925 34.77825  2.67525
C -8.02575 32.99475  2.67525
C -8.02575 34.77825  0.89175
C -10.70100 32.10300  3.56700
C -10.70100 33.88650  5.35050
C -8.91750 32.10300  5.35050
C -8.91750 33.88650  3.56700
C -9.80925 32.99475  4.45875
C -9.80925 34.77825  6.24225
C -8.02575 32.99475  6.24225
C -8.02575 34.77825  4.45875
C -10.70100 32.10300  7.13400
C -10.70100 33.88650  8.91750
C -8.91750 32.10300  8.91750
C -8.91750 33.88650  7.13400
C -9.80925 32.99475  8.02575
C -9.80925 34.77825  9.80925
C -8.02575 32.99475  9.80925
C -8.02575 34.77825  8.02575
C -10.70100 32.10300 10.70100
C -10.70100 33.88650 12.48450
C -8.91750 32.10300 12.48450
C -8.91750 33.88650 10.70100
C -9.80925 32.99475 11.59275
C -9.80925 34.77825 13.37625
C -8.02575 32.99475 13.37625
C -8.02575 34.77825 11.59275
C -10.70100 32.10300 14.26800
C -10.70100 33.88650 16.05150
C -8.91750 32.10300 16.05150
C -8.91750 33.88650 14.26800
C -9.80925 32.99475 15.15975
C -9.80925 34.77825 16.94325
C -8.02575 32.99475 16.94325
C -8.02575 34.77825 15.15975
C -7.13400 17.83500  0.00000
C -7.13400 19.61850  1.78350
C -5.35050 17.83500  1.78350
C -5.35050 19.61850  0.00000
C -6.24225 18.72675  0.89175
C -6.24225 20.51025  2.67525
C -4.45875 18.72675  2.67525
C -4.45875 20.51025  0.89175
C -7.13400 17.83500  3.56700
C -7.13400 19.61850  5.35050
C -5.35050 17.83500  5.35050
C -5.35050 19.61850  3.56700
C -6.24225 18.72675  4.45875
C -6.24225 20.51025  6.24225
C -4.45875 18.72675  6.24225
C -4.45875 20.51025  4.45875
C -7.13400 17.83500  7.13400
C -7.13400 19.61850  8.91750
C -5.35050 17.83500  8.91750
C -5.35050 19.61850  7.13400
C -6.24225 18.72675  8.02575
C -6.24225 20.51025  9.80925
C -4.45875 18.72675  9.80925
C -4.45875 20.51025  8.02575
C -7.13400 17.83500 10.70100
C -7.13400 19.61850 12.48450
C -5.35050 17.83500 12.48450
C -5.35050 19.61850 10.70100
C -6.24225 18.72675 11.59275
C -6.24225 20.51025 13.37625
C -4.45875 18.72675 13.37625
C -4.45875 20.51025 11.59275
C -7.13400 17.83500 14.26800
C -7.13400 19.61850 16.05150
C -5.35050 17.83500 16.05150
C -5.35050 19.61850 14.26800
C -6.24225 18.72675 15.15975
C -6.24225 20.51025 16.94325
C -4.45875 18.72675 16.94325
C -4.45875 20.51025 15.15975
C -7.13400 21.40200  0.00000
C -7.13400 23.18550  1.78350
C -5.35050 21.40200  1.78350
C -5.35050 23.18550  0.00000
C -6.24225 22.29375  0.89175
C -6.24225 24.07725  2.67525
C -4.45875 22.29375  2.67525
C -4.45875 24.07725  0.89175
C -7.13400 21.40200  3.56700
C -7.13400 23.18550  5.35050
C -5.35050 21.40200  5.35050
C -5.35050 23.18550  3.56700
C -6.24225 22.29375  4.45875
C -6.24225 24.07725  6.24225
C -4.45875 22.29375  6.24225
C -4.45875 24.07725  4.45875
C -7.13400 21.40200  7.13400
C -7.13400 23.18550  8.91750
C -5.35050 21.40200  8.91750
C -5.35050 23.18550  7.13400
C -6.24225 22.29375  8.02575
C -6.24225 24.07725  9.80925
C -4.45875 22.29375  9.80925
C -4.45875 24.07725  8.02575
C -7.13400 21.40200 10.70100
C -7.13400 23.18550 12.48450
C -5.35050 21.40200 12.48450
C -5.35050 23.18550 10.70100
C -6.24225 22.29375 11.59275
C -6.24225 24.07725 13.37625
C -4.45875 22.29375 13.37625
C -4.45875 24.07725 11.59275
C -7.13400 21.40200 14.26800
C -7.13400 23.18550 16.05150
C -5.35050 21.40200 16.05150
C -5.35050 23.18550 14.26800
C -6.24225 22.29375 15.15975
C -6.24225 24.07725 16.94325
C -4.45875 22.29375 16.94325
C -4.45875 24.07725 15.15975
C -7.13400 24.96900  0.00000
C -7.13400 26.75250  1.78350
C -5.35050 24.96900  1.78350
C -5.35050 26.75250  0.00000
C -6.24225 25.86075  0.89175
C -6.24225 27.64425  2.67525
C -4.45875 25.86075  2.67525
C -4.45875 27.64425  0.89175
C -7.13400 24.96900  3.56700
C -7.13400 26.75250  5.35050
C -5.35050 24.96900  5.35050
C -5.35050 26.75250  3.56700
C -6.24225 25.86075  4.45875
C -6.24225 27.64425  6.24225
C -4.45875 25.86075  6.24225
C -4.45875 27.64425  4.45875
C -7.13400 24.96900  7.13400
C -7.13400 26.75250  8.91750
C -5.35050 24.96900  8.91750
C -5.35050 26.75250  7.13400
C -6.24225 25.86075  8.02575
C -6.24225 27.64425  9.80925
C -4.45875 25.86075  9.80925
C -4.45875 27.64425  8.02575
C -7.13400 24.96900 10.70100
C -7.13400 26.75250 12.48450
C -5.35050 24.96900 12.48450
C -5.35050 26.75250 10.70100
C -6.24225 25.86075 11.59275
C -6.24225 27.64425 13.37625
C -4.45875 25.86075 13.37625
C -4.45875 27.64425 11.59275
C -7.13400 24.96900 14.26800
C -7.13400 26.75250 16.05150
C -5.35050 24.96900 16.05150
C -5.35050 26.75250 14.26800
C -6.24225 25.86075 15.15975
C -6.24225 27.64425 16.94325
C -4.45875 25.86075 16.94325
C -4.45875 27.64425 15.15975
C -7.13400 28.53600  0.00000
C -7.13400 30.31950  1.78350
C -5.35050 28.53600  1.78350
C -5.35050 30.31950  0.00000
C -6.24225 29.42775  0.89175
C -6.24225 31.21125  2.67525
C -4.45875 29.42775  2.67525
C -4.45875 31.21125  0.89175
C -7.13400 28.53600  3.56700
C -7.13400 30.31950  5.35050
C -5.35050 28.53600  5.35050
C -5.35050 30.31950  3.56700
C -6.24225 29.42775  4.45875
C -6.24225 31.21125  6.24225
C -4.45875 29.42775  6.24225
C -4.45875 31.21125  4.45875
C -7.13400 28.53600  7.13400
C -7.13400 30.31950  8.91750
C -5.35050 28.53600  8.91750
C -5.35050 30.31950  7.13400
C -6.24225 29.42775  8.02575
C -6.24225 31.21125  9.80925
C -4.45875 29.42775  9.80925
C -4.45875 31.21125  8.02575
C -7.13400 28.53600 10.70100
C -7.13400 30.31950 12.48450
C -5.35050 28.53600 12.48450
C -5.35050 30.31950 10.70100
C -6.24225 29.42775 11.59275
C -6.24225 31.21125 13.37625
C -4.45875 29.42775 13.37625
C -4.45875 31.21125 11.59275
C -7.13400 28.53600 14.26800
C -7.13400 30.31950 16.05150
C -5.35050 28.53600 16.05150
C -5.35050 30.31950 14.26800
C -6.24225 29.42775 15.15975
C -6.24225 31.21125 16.94325
C -4.45875 29.42775 16.94325
C -4.45875 31.21125 15.15975
C -7.13400 32.10300  0.00000
C -7.13400 33.88650  1.78350
C -5.35050 32.10300  1.78350
C -5.35050 33.88650  0.00000
C -6.24225 32.99475  0.89175
C -6.24225 34.77825  2.67525
C -4.45875 32.99475  2.67525
C -4.45875 34.77825  0.89175
C -7.13400 32.10300  3.56700
C -7.13400 33.88650  5.35050
C -5.35050 32.10300  5.35050
C -5.35050 33.88650  3.56700
C -6.24225 32.99475  4.45875
C -6.24225 34.77825  6.24225
C -4.45875 32.99475  6.24225
C -4.45875 34.77825  4.45875
C -7.13400 32.10300  7.13400
C -7.13400 33.88650  8.91750
C -5.35050 32.10300  8.91750
C -5.35050 33.88650  7.13400
C -6.24225 32.99475  8.02575
C -6.24225 34.77825  9.80925
C -4.45875 32.99475  9.80925
C -4.45875 34.77825  8.02575
C -7.13400 32.10300 10.70100
C -7.13400 33.88650 12.48450
C -5.35050 32.10300 12.48450
C -5.35050 33.88650 10.70100
C -6.24225 32.99475 11.59275
C -6.24225 34.77825 13.37625
C -4.45875 32.99475 13.37625
C -4.45875 34.77825 11.59275
C -7.13400 32.10300 14.26800
C -7.13400 33.88650 16.05150
C -5.35050 32.10300 16.05150
C -5.35050 33.88650 14.26800
C -6.24225 32.99475 15.15975
C -6.24225 34.77825 16.94325
C -4.45875 32.99475 16.94325
C -4.45875 34.77825 15.15975
C -3.56700 17.83500  0.00000
C -3.56700 19.61850  1.78350
C -1.78350 17.83500  1.78350
C -1.78350 19.61850  0.00000
C -2.67525 18.72675  0.89175
C -2.67525 20.51025  2.67525
C -0.89175 18.72675  2.67525
C -0.89175 20.51025  0.89175
C -3.56700 17.83500  3.56700
C -3.56700 19.61850  5.35050
C -1.78350 17.83500  5.35050
C -1.78350 19.61850  3.56700
C -2.67525 18.72675  4.45875
C -2.67525 20.51025  6.24225
C -0.89175 18.72675  6.24225
C -0.89175 20.51025  4.45875
C -3.56700 17.83500  7.13400
C -3.56700 19.61850  8.91750
C -1.78350 17.83500  8.91750
C -1.78350 19.61850  7.13400
C -2.67525 18.72675  8.02575
C -2.67525 20.51025  9.80925
C -0.89175 18.72675  9.80925
C -0.89175 20.51025  8.02575
C -3.56700 17.83500 10.70100
C -3.56700 19.61850 12.48450
C -1.78350 17.83500 12.48450
C -1.78350 19.61850 10.70100
C -2.67525 18.72675 11.59275
C -2.67525 20.51025 13.37625
C -0.89175 18.72675 13.37625
C -0.89175 20.51025 11.59275
C -3.56700 17.83500 14.26800
C -3.56700 19.61850 16.05150
C -1.78350 17.83500 16.05150
C -1.78350 19.61850 14.26800
C -2.67525 18.72675 15.15975
C -2.67525 20.51025 16.94325
C -0.89175 18.72675 16.94325
C -0.89175 20.51025 15.15975
C -3.56700 21.40200  0.00000
C -3.56700 23.18550  1.78350
C -1.78350 21.40200  1.78350
C -1.78350 23.18550  0.00000
C -2.67525 22.29375  0.89175
C -2.67525 24.07725  2.67525
C -0.89175 22.29375  2.67525
C -0.89175 24.07725  0.89175
C -3.56700 21.40200  3.56700
C -3.56700 23.18550  5.35050
C -1.78350 21.40200  5.35050
C -1.78350 23.18550  3.56700
C -2.67525 22.29375  4.45875
C -2.67525 24.07725  6.24225
C -0.89175 22.29375  6.24225
C -0.89175 24.07725  4.45875
C -3.56700 21.40200  7.13400
C -3.56700 23.18550  8.91750
C -1.78350 21.40200  8.91750
C -1.78350 23.18550  7.13400
C -2.67525 22.29375  8.02575
C -2.67525 24.07725  9.80925
C -0.89175 22.29375  9.80925
C -0.89175 24.07725  8.02575
C -3.56700 21.40200 10.70100
C -3.56700 23.18550 12.48450
C -1.78350 21.40200 12.48450
C -1.78350 23.18550 10.70100
C -2.67525 22.29375 11.59275
C -2.67525 24.07725 13.37625
C -0.89175 22.29375 13.37625
C -0.89175 24.07725 11.59275
C -3.56700 21.40200 14.26800
C -3.56700 23.18550 16.05150
C -1.78350 21.40200 16.05150
C -1.78350 23.18550 14.26800
C -2.67525 22.29375 15.15975
C -2.67525 24.07725 16.94325
C -0.89175 22.29375 16.94325
C -0.89175 24.07725 15.15975
C -3.56700 24.96900  0.00000
C -3.56700 26.75250  1.78350
C -1.78350 24.96900  1.78350
C -1.78350 26.75250  0.00000
C -2.67525 25.86075  0.89175
C -2.67525 27.64425  2.67525
C -0.89175 25.86075  2.67525
C -0.89175 27.64425  0.89175
C -3.56700 24.96900  3.56700
C -3.56700 26.75250  5.35050
C -1.78350 24.96900  5.35050
C -1.78350 26.75250  3.56700
C -2.67525 25.86075  4.45875
C -2.67525 27.64425  6.24225
C -0.89175 25.86075  6.24225
C -0.89175 27.64425  4.45875
C -3.56700 24.96900  7.13400
C -3.56700 26.75250  8.91750
C -1.78350 24.96900  8.91750
C -1.78350 26.75250  7.13400
C -2.67525 25.86075  8.02575
C -2.67525 27.64425  9.80925
C -0.89175 25.86075  9.80925
C -0.89175 27.64425  8.02575
C -3.56700 24.96900 10.70100
C -3.56700 26.75250 12.48450
C -1.78350 24.96900 12.48450
C -1.78350 26.75250 10.70100
C -2.67525 25.86075 11.59275
C -2.67525 27.64425 13.37625
C -0.89175 25.86075 13.37625
C -0.89175 27.64425 11.59275
C -3.56700 24.96900 14.26800
C -3.56700 26.75250 16.05150
C -1.78350 24.96900 16.05150
C -1.78350 26.75250 14.26800
C -2.67525 25.86075 15.15975
C -2.67525 27.64425 16.94325
C -0.89175 25.86075 16.94325
C -0.89175 27.64425 15.15975
C -3.56700 28.53600  0.00000
C -3.56700 30.31950  1.78350
C -1.78350 28.53600  1.78350
C -1.78350 30.31950  0.00000
C -2.67525 29.42775  0.89175
C -2.67525 31.21125  2.67525
C -0.89175 29.42775  2.67525
C -0.89175 31.21125  0.89175
C -3.56700 28.53600  3.56700
C -3.56700 30.31950  5.35050
C -1.78350 28.53600  5.35050
C -1.78350 30.31950  3.56700
C -2.67525 29.42775  4.45875
C -2.67525 31.21125  6.24225
C -0.89175 29.42775  6.24225
C -0.89175 31.21125  4.45875
C -3.56700 28.53600  7.13400
C -3.56700 30.31950  8.91750
C -1.78350 28.53600  8.91750
C -1.78350 30.31950  7.13400
C -2.67525 29.42775  8.02575
C -2.67525 31.21125  9.80925
C -0.89175 29.42775  9.80925
C -0.89175 31.21125  8.02575
C -3.56700 28.53600 10.70100
C -3.56700 30.31950 12.48450
C -1.78350 28.53600 12.48450
C -1.78350 30.31950 10.70100
C -2.67525 29.42775 11.59275
C -2.67525 31.21125 13.37625
C -0.89175 29.42775 13.37625
C -0.89175 31.21125 11.59275
C -3.56700 28.53600 14.26800
C -3.56700 30.31950 16.05150
C -1.78350 28.53600 16.05150
C -1.78350 30.31950 14.26800
C -2.67525 29.42775 15.15975
C -2.67525 31.21125 16.94325
C -0.89175 29.42775 16.94325
C -0.89175 31.21125 15.15975
C -3.56700 32.10300  0.00000
C -3.56700 33.88650  1.78350
C -1.78350 32.10300  1.78350
C -1.78350 33.88650  0.00000
C -2.67525 32.99475  0.89175
C -2.67525 34.77825  2.67525
C -0.89175 32.99475  2.67525
C -0.89175 34.77825  0.89175
C -3.56700 32.10300  3.56700
C -3.56700 33.88650  5.35050
C -1.78350 32.10300  5.35050
C -1.78350 33.88650  3.56700
C -2.67525 32.99475  4.45875
C -2.67525 34.77825  6.24225
C -0.89175 32.99475  6.24225
C -0.89175 34.77825  4.45875
C -3.56700 32.10300  7.13400
C -3.56700 33.88650  8.91750
C -1.78350 32.10300  8.91750
C -1.78350 33.88650  7.13400
C -2.67525 32.99475  8.02575
C -2.67525 34.77825  9.80925
C -0.89175 32.99475  9.80925
C -0.89175 34.77825  8.02575
C -3.56700 32.10300 10.70100
C -3.56700 33.88650 12.48450
C -1.78350 32.10300 12.48450
C -1.78350 33.88650 10.70100
C -2.67525 32.99475 11.59275
C -2.67525 34.77825 13.37625
C -0.89175 32.99475 13.37625
C -0.89175 34.77825 11.59275
C -3.56700 32.10300 14.26800
C -3.56700 33.88650 16.05150
C -1.78350 32.10300 16.05150
C -1.78350 33.88650 14.26800
C -2.67525 32.99475 15.15975
C -2.67525 34.77825 16.94325
C -0.89175 32.99475 16.94325
C -0.89175 34.77825 15.15975
N -17.83500 17.83500 17.83500
C -17.83500 19.61850 19.61850
C -16.05150 17.83500 19.61850
C -16.05150 19.61850 17.83500
C -16.94325 18.72675 18.72675
C -16.94325 20.51025 20.51025
C -15.15975 18.72675 20.51025
C -15.15975 20.51025 18.72675
C -17.83500 17.83500 21.40200
C -17.83500 19.61850 23.18550
C -16.05150 17.83500 23.18550
C -16.05150 19.61850 21.40200
C -16.94325 18.72675 22.29375
C -16.94325 20.51025 24.07725
C -15.15975 18.72675 24.07725
C -15.15975 20.51025 22.29375
C -17.83500 17.83500 24.96900
C -17.83500 19.61850 26.75250
C -16.05150 17.83500 26.75250
C -16.05150 19.61850 24.96900
C -16.94325 18.72675 25.86075
C -16.94325 20.51025 27.64425
C -15.15975 18.72675 27.64425
C -15.15975 20.51025 25.86075
C -17.83500 17.83500 28.53600
C -17.83500 19.61850 30.31950
C -16.05150 17.83500 30.31950
C -16.05150 19.61850 28.53600
C -16.94325 18.72675 29.42775
C -16.94325 20.51025 31.21125
C -15.15975 18.72675 31.21125
C -15.15975 20.51025 29.42775
C -17.83500 17.83500 32.10300
C -17.83500 19.61850 33.88650
C -16.05150 17.83500 33.88650
C -16.05150 19.61850 32.10300
C -16.94325 18.72675 32.99475
C -16.94325 20.51025 34.77825
C -15.15975 18.72675 34.77825
C -15.15975 20.51025 32.99475
C -17.83500 21.40200 17.83500
C -17.83500 23.18550 19.61850
C -16.05150 21.40200 19.61850
C -16.05150 23.18550 17.83500
C -16.94325 22.29375 18.72675
C -16.94325 24.07725 20.51025
C -15.15975 22.29375 20.51025
C -15.15975 24.07725 18.72675
C -17.83500 21.40200 21.40200
C -17.83500 23.18550 23.18550
C -16.05150 21.40200 23.18550
C -16.05150 23.18550 21.40200
C -16.94325 22.29375 22.29375
C -16.94325 24.07725 24.07725
C -15.15975 22.29375 24.07725
C -15.15975 24.07725 22.29375
C -17.83500 21.40200 24.96900
C -17.83500 23.18550 26.75250
C -16.05150 21.40200 26.75250
C -16.05150 23.18550 24.96900
C -16.94325 22.29375 25.86075
C -16.94325 24.07725 27.64425
C -15.15975 22.29375 27.64425
C -15.15975 24.07725 25.86075
C -17.83500 21.40200 28.53600
C -17.83500 23.18550 30.31950
C -16.05150 21.40200 30.31950
C -16.05150 23.18550 28.53600
C -16.94325 22.29375 29.42775
C -16.94325 24.07725 31.21125
C -15.15975 22.29375 31.21125
C -15.15975 24.07725 29.42775
C -17.83500 21.40200 32.10300
C -17.83500 23.18550 33.88650
C -16.05150 21.40200 33.88650
C -16.05150 23.18550 32.10300
C -16.94325 22.29375 32.99475
C -16.94325 24.07725 34.77825
C -15.15975 22.29375 34.77825
C -15.15975 24.07725 32.99475
C -17.83500 24.96900 17.83500
C -17.83500 26.75250 19.61850
C -16.05150 24.96900 19.61850
C -16.05150 26.75250 17.83500
C -16.94325 25.86075 18.72675
C -16.94325 27.64425 20.51025
C -15.15975 25.86075 20.51025
C -15.15975 27.64425 18.72675
C -17.83500 24.96900 21.40200
C -17.83500 26.75250 23.18550
C -16.05150 24.96900 23.18550
C -16.05150 26.75250 21.40200
C -16.94325 25.86075 22.29375
C -16.94325 27.64425 24.07725
C -15.15975 25.86075 24.07725
C -15.15975 27.64425 22.29375
C -17.83500 24.96900 24.96900
C -17.83500 26.75250 26.75250
C -16.05150 24.96900 26.75250
C -16.05150 26.75250 24.96900
C -16.94325 25.86075 25.86075
C -16.94325 27.64425 27.64425
C -15.15975 25.86075 27.64425
C -15.15975 27.64425 25.86075
C -17.83500 24.96900 28.53600
C -17.83500 26.75250 30.31950
C -16.05150 24.96900 30.31950
C -16.05150 26.75250 28.53600
C -16.94325 25.86075 29.42775
C -16.94325 27.64425 31.21125
C -15.15975 25.86075 31.21125
C -15.15975 27.64425 29.42775
C -17.83500 24.96900 32.10300
C -17.83500 26.75250 33.88650
C -16.05150 24.96900 33.88650
C -16.05150 26.75250 32.10300
C -16.94325 25.86075 32.99475
C -16.94325 27.64425 34.77825
C -15.15975 25.86075 34.77825
C -15.15975 27.64425 32.99475
C -17.83500 28.53600 17.83500
C -17.83500 30.31950 19.61850
C -16.05150 28.53600 19.61850
C -16.05150 30.31950 17.83500
C -16.94325 29.42775 18.72675
C -16.94325 31.21125 20.51025
C -15.15975 29.42775 20.51025
C -15.15975 31.21125 18.72675
C -17.83500 28.53600 21.40200
C -17.83500 30.31950 23.18550
C -16.05150 28.53600 23.18550
C -16.05150 30.31950 21.40200
C -16.94325 29.42775 22.29375
C -16.94325 31.21125 24.07725
C -15.15975 29.42775 24.07725
C -15.15975 31.21125 22.29375
C -17.83500 28.53600 24.96900
C -17.83500 30.31950 26.75250
C -16.05150 28.53600 26.75250
C -16.05150 30.31950 24.96900
C -16.94325 29.42775 25.86075
C -16.94325 31.21125 27.64425
C -15.15975 29.42775 27.64425
C -15.15975 31.21125 25.86075
C -17.83500 28.53600 28.53600
C -17.83500 30.31950 30.31950
C -16.05150 28.53600 30.31950
C -16.05150 30.31950 28.53600
C -16.94325 29.42775 29.42775
C -16.94325 31.21125 31.21125
C -15.15975 29.42775 31.21125
C -15.15975 31.21125 29.42775
C -17.83500 28.53600 32.10300
C -17.83500 30.31950 33.88650
C -16.05150 28.53600 33.88650
C -16.05150 30.31950 32.10300
C -16.94325 29.42775 32.99475
C -16.94325 31.21125 34.77825
C -15.15975 29.42775 34.77825
C -15.15975 31.21125 32.99475
C -17.83500 32.10300 17.83500
C -17.83500 33.88650 19.61850
C -16.05150 32.10300 19.61850
C -16.05150 33.88650 17.83500
C -16.94325 32.99475 18.72675
C -16.94325 34.77825 20.51025
C -15.15975 32.99475 20.51025
C -15.15975 34.77825 18.72675
C -17.83500 32.10300 21.40200
C -17.83500 33.88650 23.18550
C -16.05150 32.10300 23.18550
C -16.05150 33.88650 21.40200
C -16.94325 32.99475 22.29375
C -16.94325 34.77825 24.07725
C -15.15975 32.99475 24.07725
C -15.15975 34.77825 22.29375
C -17.83500 32.10300 24.96900
C -17.83500 33.88650 26.75250
C -16.05150 32.10300 26.75250
C -16.05150 33.88650 24.96900
C -16.94325 32.99475 25.86075
C -16.94325 34.77825 27.64425
C -15.15975 32.99475 27.64425
C -15.15975 34.77825 25.86075
C -17.83500 32.10300 28.53600
C -17.83500 33.88650 30.31950
C -16.05150 32.10300 30.31950
C -16.05150 33.88650 28.53600
C -16.94325 32.99475 29.42775
C -16.94325 34.77825 31.21125
C -15.15975 32.99475 31.21125
C -15.15975 34.77825 29.42775
C -17.83500 32.10300 32.10300
C -17.83500 33.88650 33.88650
C -16.05150 32.10300 33.88650
C -16.05150 33.88650 32.10300
C -16.94325 32.99475 32.99475
C -16.94325 34.77825 34.77825
C -15.15975 32.99475 34.77825
C -15.15975 34.77825 32.99475
C -14.26800 17.83500 17.83500
C -14.26800 19.61850 19.61850
C -12.48450 17.83500 19.61850
C -12.48450 19.61850 17.83500
C -13.37625 18.72675 18.72675
C -13.37625 20.51025 20.51025
C -11.59275 18.72675 20.51025
C -11.59275 20.51025 18.72675
C -14.26800 17.83500 21.40200
C -14.26800 19.61850 23.18550
C -12.48450 17.83500 23.18550
C -12.48450 19.61850 21.40200
C -13.37625 18.72675 22.29375
C -13.37625 20.51025 24.07725
C -11.59275 18.72675 24.07725
C -11.59275 20.51025 22.29375
C -14.26800 17.83500 24.96900
C -14.26800 19.61850 26.75250
C -12.48450 17.83500 26.75250
C -12.48450 19.61850 24.96900
C -13.37625 18.72675 25.86075
C -13.37625 20.51025 27.64425
C -11.59275 18.72675 27.64425
C -11.59275 20.51025 25.86075
C -14.26800 17.83500 28.53600
C -14.26800 19.61850 30.31950
C -12.48450 17.83500 30.31950
C -12.48450 19.61850 28.53600
C -13.37625 18.72675 29.42775
C -13.37625 20.51025 31.21125
C -11.59275 18.72675 31.21125
C -11.59275 20.51025 29.42775
C -14.26800 17.83500 32.10300
C -14.26800 19.61850 33.88650
C -12.48450 17.83500 33.88650
C -12.48450 19.61850 32.10300
C -13.37625 18.72675 32.99475
C -13.37625 20.51025 34.77825
C -11.59275 18.72675 34.77825
C -11.59275 20.51025 32.99475
C -14.26800 21.40200 17.83500
C -14.26800 23.18550 19.61850
C -12.48450 21.40200 19.61850
C -12.48450 23.18550 17.83500
C -13.37625 22.29375 18.72675
C -13.37625 24.07725 20.51025
C -11.59275 22.29375 20.51025
C -11.59275 24.07725 18.72675
C -14.26800 21.40200 21.40200
C -14.26800 23.18550 23.18550
C -12.48450 21.40200 23.18550
C -12.48450 23.18550 21.40200
C -13.37625 22.29375 22.29375
C -13.37625 24.07725 24.07725
C -11.59275 22.29375 24.07725
C -11.59275 24.07725 22.29375
C -14.26800 21.40200 24.96900
C -14.26800 23.18550 26.75250
C -12.48450 21.40200 26.75250
C -12.48450 23.18550 24.96900
C -13.37625 22.29375 25.86075
C -13.37625 24.07725 27.64425
C -11.59275 22.29375 27.64425
C -11.59275 24.07725 25.86075
C -14.26800 21.40200 28.53600
C -14.26800 23.18550 30.31950
C -12.48450 21.40200 30.31950
C -12.48450 23.18550 28.53600
C -13.37625 22.29375 29.42775
C -13.37625 24.07725 31.21125
C -11.59275 22.29375 31.21125
C -11.59275 24.07725 29.42775
C -14.26800 21.40200 32.10300
C -14.26800 23.18550 33.88650
C -12.48450 21.40200 33.88650
C -12.48450 23.18550 32.10300
C -13.37625 22.29375 32.99475
C -13.37625 24.07725 34.77825
C -11.59275 22.29375 34.77825
C -11.59275 24.07725 32.99475
C -14.26800 24.96900 17.83500
C -14.26800 26.75250 19.61850
C -12.48450 24.96900 19.61850
C -12.48450 26.75250 17.83500
C -13.37625 25.86075 18.72675
C -13.37625 27.64425 20.51025
C -11.59275 25.86075 20.51025
C -11.59275 27.64425 18.72675
C -14.26800 24.96900 21.40200
C -14.26800 26.75250 23.18550
C -12.48450 24.96900 23.18550
C -12.48450 26.75250 21.40200
C -13.37625 25.86075 22.29375
C -13.37625 27.64425 24.07725
C -11.59275 25.86075 24.07725
C -11.59275 27.64425 22.29375
C -14.26800 24.96900 24.96900
C -14.26800 26.75250 26.75250
C -12.48450 24.96900 26.75250
C -12.48450 26.75250 24.96900
C -13.37625 25.86075 25.86075
C -13.37625 27.64425 27.64425
C -11.59275 25.86075 27.64425
C -11.59275 27.64425 25.86075
C -14.26800 24.96900 28.53600
C -14.26800 26.75250 30.31950
C -12.48450 24.96900 30.31950
C -12.48450 26.75250 28.53600
C -13.37625 25.86075 29.42775
C -13.37625 27.64425 31.21125
C -11.59275 25.86075 31.21125
C -11.59275 27.64425 29.42775
C -14.26800 24.96900 32.10300
C -14.26800 26.75250 33.88650
C -12.48450 24.96900 33.88650
C -12.48450 26.75250 32.10300
C -13.37625 25.86075 32.99475
C -13.37625 27.64425 34.77825
C -11.59275 25.86075 34.77825
C -11.59275 27.64425 32.99475
C -14.26800 28.53600 17.83500
C -14.26800 30.31950 19.61850
C -12.48450 28.53600 19.61850
C -12.48450 30.31950 17.83500
C -13.37625 29.42775 18.72675
C -13.37625 31.21125 20.51025
C -11.59275 29.42775 20.51025
C -11.59275 31.21125 18.72675
C -14.26800 28.53600 21.40200
C -14.26800 30.31950 23.18550
C -12.48450 28.53600 23.18550
C -12.48450 30.31950 21.40200
C -13.37625 29.42775 22.29375
C -13.37625 31.21125 24.07725
C -11.59275 29.42775 24.07725
C -11.59275 31.21125 22.29375
C -14.26800 28.53600 24.96900
C -14.26800 30.31950 26.75250
C -12.48450 28.53600 26.75250
C -12.48450 30.31950 24.96900
C -13.37625 29.42775 25.86075
C -13.37625 31.21125 27.64425
C -11.59275 29.42775 27.64425
C -11.59275 31.21125 25.86075
C -14.26800 28.53600 28.53600
C -14.26800 30.31950 30.31950
C -12.48450 28.53600 30.31950
C -12.48450 30.31950 28.53600
C -13.37625 29.42775 29.42775
C -13.37625 31.21125 31.21125
C -11.59275 29.42775 31.21125
C -11.59275 31.21125 29.42775
C -14.26800 28.53600 32.10300
C -14.26800 30.31950 33.88650
C -12.48450 28.53600 33.88650
C -12.48450 30.31950 32.10300
C -13.37625 29.42775 32.99475
C -13.37625 31.21125 34.77825
C -11.59275 29.42775 34.77825
C -11.59275 31.21125 32.99475
C -14.26800 32.10300 17.83500
C -14.26800 33.88650 19.61850
C -12.48450 32.10300 19.61850
C -12.48450 33.88650 17.83500
C -13.37625 32.99475 18.72675
C -13.37625 34.77825 20.51025
C -11.59275 32.99475 20.51025
C -11.59275 34.77825 18.72675
C -14.26800 32.10300 21.40200
C -14.26800 33.88650 23.18550
C -12.48450 32.10300 23.18550
C -12.48450 33.88650 21.40200
C -13.37625 32.99475 22.29375
C -13.37625 34.77825 24.07725
C -11.59275 32.99475 24.07725
C -11.59275 34.77825 22.29375
C -14.26800 32.10300 24.96900
C -14.26800 33.88650 26.75250
C -12.48450 32.10300 26.75250
C -12.48450 33.88650 24.96900
C -13.37625 32.99475 25.86075
C -13.37625 34.77825 27.64425
C -11.59275 32.99475 27.64425
C -11.59275 34.77825 25.86075
C -14.26800 32.10300 28.53600
C -14.26800 33.88650 30.31950
C -12.48450 32.10300 30.31950
C -12.48450 33.88650 28.53600
C -13.37625 32.99475 29.42775
C -13.37625 34.77825 31.21125
C -11.59275 32.99475 31.21125
C -11.59275 34.77825 29.42775
C -14.26800 32.10300 32.10300
C -14.26800 33.88650 33.88650
C -12.48450 32.10300 33.88650
C -12.48450 33.88650 32.10300
C -13.37625 32.99475 32.99475
C -13.37625 34.77825 34.77825
C -11.59275 32.99475 34.77825
C -11.59275 34.77825 32.99475
C -10.70100 17.83500 17.83500
C -10.70100 19.61850 19.61850
C -8.91750 17.83500 19.61850
C -8.91750 19.61850 17.83500
C -9.80925 18.72675 18.72675
C -9.80925 20.51025 20.51025
C -8.02575 18.72675 20.51025
C -8.02575 20.51025 18.72675
C -10.70100 17.83500 21.40200
C -10.70100 19.61850 23.18550
C -8.91750 17.83500 23.18550
C -8.91750 19.61850 21.40200
C -9.80925 18.72675 22.29375
C -9.80925 20.51025 24.07725
C -8.02575 18.72675 24.07725
C -8.02575 20.51025 22.29375
C -10.70100 17.83500 24.96900
C -10.70100 19.61850 26.75250
C -8.91750 17.83500 26.75250
C -8.91750 19.61850 24.96900
C -9.80925 18.72675 25.86075
C -9.80925 20.51025 27.64425
C -8.02575 18.72675 27.64425
C -8.02575 20.51025 25.86075
C -10.70100 17.83500 28.53600
C -10.70100 19.61850 30.31950
C -8.91750 17.83500 30.31950
C -8.91750 19.61850 28.53600
C -9.80925 18.72675 29.42775
C -9.80925 20.51025 31.21125
C -8.02575 18.72675 31.21125
C -8.02575 20.51025 29.42775
C -10.70100 17.83500 32.10300
C -10.70100 19.61850 33.88650
C -8.91750 17.83500 33.88650
C -8.91750 19.61850 32.10300
C -9.80925 18.72675 32.99475
C -9.80925 20.51025 34.77825
C -8.02575 18.72675 34.77825
C -8.02575 20.51025 32.99475
C -10.70100 21.40200 17.83500
C -10.70100 23.18550 19.61850
C -8.91750 21.40200 19.61850
C -8.91750 23.18550 17.83500
C -9.80925 22.29375 18.72675
C -9.80925 24.07725 20.51025
C -8.02575 22.29375 20.51025
C -8.02575 24.07725 18.72675
C -10.70100 21.40200 21.40200
C -10.70100 23.18550 23.18550
C -8.91750 21.40200 23.18550
C -8.91750 23.18550 21.40200
C -9.80925 22.29375 22.29375
C -9.80925 24.07725 24.07725
C -8.02575 22.29375 24.07725
C -8.02575 24.07725 22.29375
C -10.70100 21.40200 24.96900
C -10.70100 23.18550 26.75250
C -8.91750 21.40200 26.75250
C -8.91750 23.18550 24.96900
C -9.80925 22.29375 25.86075
C -9.80925 24.07725 27.64425
C -8.02575 22.29375 27.64425
C -8.02575 24.07725 25.86075
C -10.70100 21.40200 28.53600
C -10.70100 23.18550 30.31950
C -8.91750 21.40200 30.31950
C -8.91750 23.18550 28.53600
C -9.80925 22.29375 29.42775
C -9.80925 24.07725 31.21125
C -8.02575 22.29375 31.21125
C -8.02575 24.07725 29.42775
C -10.70100 21.40200 32.10300
C -10.70100 23.18550 33.88650
C -8.91750 21.40200 33.88650
C -8.91750 23.18550 32.10300
C -9.80925 22.29375 32.99475
C -9.80925 24.07725 34.77825
C -8.02575 22.29375 34.77825
C -8.02575 24.07725 32.99475
C -10.70100 24.96900 17.83500
C -10.70100 26.75250 19.61850
C -8.91750 24.96900 19.61850
C -8.91750 26.75250 17.83500
C -9.80925 25.86075 18.72675
C -9.80925 27.64425 20.51025
C -8.02575 25.86075 20.51025
C -8.02575 27.64425 18.72675
C -10.70100 24.96900 21.40200
C -10.70100 26.75250 23.18550
C -8.91750 24.96900 23.18550
C -8.91750 26.75250 21.40200
C -9.80925 25.86075 22.29375
C -9.80925 27.64425 24.07725
C -8.02575 25.86075 24.07725
C -8.02575 27.64425 22.29375
C -10.70100 24.96900 24.96900
C -10.70100 26.75250 26.75250
C -8.91750 24.96900 26.75250
C -8.91750 26.75250 24.96900
C -9.80925 25.86075 25.86075
C -9.80925 27.64425 27.64425
C -8.02575 25.86075 27.64425
C -8.02575 27.64425 25.86075
C -10.70100 24.96900 28.53600
C -10.70100 26.75250 30.31950
C -8.91750 24.96900 30.31950
C -8.91750 26.75250 28.53600
C -9.80925 25.86075 29.42775
C -9.80925 27.64425 31.21125
C -8.02575 25.86075 31.21125
C -8.02575 27.64425 29.42775
C -10.70100 24.96900 32.10300
C -10.70100 26.75250 33.88650
C -8.91750 24.96900 33.88650
C -8.91750 26.75250 32.10300
C -9.80925 25.86075 32.99475
C -9.80925 27.64425 34.77825
C -8.02575 25.86075 34.77825
C -8.02575 27.64425 32.99475
C -10.70100 28.53600 17.83500
C -10.70100 30.31950 19.61850
C -8.91750 28.53600 19.61850
C -8.91750 30.31950 17.83500
C -9.80925 29.42775 18.72675
C -9.80925 31.21125 20.51025
C -8.02575 29.42775 20.51025
C -8.02575 31.21125 18.72675
C -10.70100 28.53600 21.40200
C -10.70100 30.31950 23.18550
C -8.91750 28.53600 23.18550
C -8.91750 30.31950 21.40200
C -9.80925 29.42775 22.29375
C -9.80925 31.21125 24.07725
C -8.02575 29.42775 24.07725
C -8.02575 31.21125 22.29375
C -10.70100 28.53600 24.96900
C -10.70100 30.31950 26.75250
C -8.91750 28.53600 26.75250
C -8.91750 30.31950 24.96900
C -9.80925 29.42775 25.86075
C -9.80925 31.21125 27.64425
C -8.02575 29.42775 27.64425
C -8.02575 31.21125 25.86075
C -10.70100 28.53600 28.53600
C -10.70100 30.31950 30.31950
C -8.91750 28.53600 30.31950
C -8.91750 30.31950 28.53600
C -9.80925 29.42775 29.42775
C -9.80925 31.21125 31.21125
C -8.02575 29.42775 31.21125
C -8.02575 31.21125 29.42775
C -10.70100 28.53600 32.10300
C -10.70100 30.31950 33.88650
C -8.91750 28.53600 33.88650
C -8.91750 30.31950 32.10300
C -9.80925 29.42775 32.99475
C -9.80925 31.21125 34.77825
C -8.02575 29.42775 34.77825
C -8.02575 31.21125 32.99475
C -10.70100 32.10300 17.83500
C -10.70100 33.88650 19.61850
C -8.91750 32.10300 19.61850
C -8.91750 33.88650 17.83500
C -9.80925 32.99475 18.72675
C -9.80925 34.77825 20.51025
C -8.02575 32.99475 20.51025
C -8.02575 34.77825 18.72675
C -10.70100 32.10300 21.40200
C -10.70100 33.88650 23.18550
C -8.91750 32.10300 23.18550
C -8.91750 33.88650 21.40200
C -9.80925 32.99475 22.29375
C -9.80925 34.77825 24.07725
C -8.02575 32.99475 24.07725
C -8.02575 34.77825 22.29375
C -10.70100 32.10300 24.96900
C -10.70100 33.88650 26.75250
C -8.91750 32.10300 26.75250
C -8.91750 33.88650 24.96900
C -9.80925 32.99475 25.86075
C -9.80925 34.77825 27.64425
C -8.02575 32.99475 27.64425
C -8.02575 34.77825 25.86075
C -10.70100 32.10300 28.53600
C -10.70100 33.88650 30.31950
C -8.91750 32.10300 30.31950
C -8.91750 33.88650 28.53600
C -9.80925 32.99475 29.42775
C -9.80925 34.77825 31.21125
C -8.02575 32.99475 31.21125
C -8.02575 34.77825 29.42775
C -10.70100 32.10300 32.10300
C -10.70100 33.88650 33.88650
C -8.91750 32.10300 33.88650
C -8.91750 33.88650 32.10300
C -9.80925 32.99475 32.99475
C -9.80925 34.77825 34.77825
C -8.02575 32.99475 34.77825
C -8.02575 34.77825 32.99475
C -7.13400 17.83500 17.83500
C -7.13400 19.61850 19.61850
C -5.35050 17.83500 19.61850
C -5.35050 19.61850 17.83500
C -6.24225 18.72675 18.72675
C -6.24225 20.51025 20.51025
C -4.45875 18.72675 20.51025
C -4.45875 20.51025 18.72675
C -7.13400 17.83500 21.40200
C -7.13400 19.61850 23.18550
C -5.35050 17.83500 23.18550
C -5.35050 19.61850 21.40200
C -6.24225 18.72675 22.29375
C -6.24225 20.51025 24.07725
C -4.45875 18.72675 24.07725
C -4.45875 20.51025 22.29375
C -7.13400 17.83500 24.96900
C -7.13400 19.61850 26.75250
C -5.35050 17.83500 26.75250
C -5.35050 19.61850 24.96900
C -6.24225 18.72675 25.86075
C -6.24225 20.51025 27.64425
C -4.45875 18.72675 27.64425
C -4.45875 20.51025 25.86075
C -7.13400 17.83500 28.53600
C -7.13400 19.61850 30.31950
C -5.35050 17.83500 30.31950
C -5.35050 19.61850 28.53600
C -6.24225 18.72675 29.42775
C -6.24225 20.51025 31.21125
C -4.45875 18.72675 31.21125
C -4.45875 20.51025 29.42775
C -7.13400 17.83500 32.10300
C -7.13400 19.61850 33.88650
C -5.35050 17.83500 33.88650
C -5.35050 19.61850 32.10300
C -6.24225 18.72675 32.99475
C -6.24225 20.51025 34.77825
C -4.45875 18.72675 34.77825
C -4.45875 20.51025 32.99475
C -7.13400 21.40200 17.83500
C -7.13400 23.18550 19.61850
C -5.35050 21.40200 19.61850
C -5.35050 23.18550 17.83500
C -6.24225 22.29375 18.72675
C -6.24225 24.07725 20.51025
C -4.45875 22.29375 20.51025
C -4.45875 24.07725 18.72675
C -7.13400 21.40200 21.40200
C -7.13400 23.18550 23.18550
C -5.35050 21.40200 23.18550
C -5.35050 23.18550 21.40200
C -6.24225 22.29375 22.29375
C -6.24225 24.07725 24.07725
C -4.45875 22.29375 24.07725
C -4.45875 24.07725 22.29375
C -7.13400 21.40200 24.96900
C -7.13400 23.18550 26.75250
C -5.35050 21.40200 26.75250
C -5.35050 23.18550 24.96900
C -6.24225 22.29375 25.86075
C -6.24225 24.07725 27.64425
C -4.45875 22.29375 27.64425
C -4.45875 24.07725 25.86075
C -7.13400 21.40200 28.53600
C -7.13400 23.18550 30.31950
C -5.35050 21.40200 30.31950
C -5.35050 23.18550 28.53600
C -6.24225 22.29375 29.42775
C -6.24225 24.07725 31.21125
C -4.45875 22.29375 31.21125
C -4.45875 24.07725 29.42775
C -7.13400 21.40200 32.10300
C -7.13400 23.18550 33.88650
C -5.35050 21.40200 33.88650
C -5.35050 23.18550 32.10300
C -6.24225 22.29375 32.99475
C -6.24225 24.07725 34.77825
C -4.45875 22.29375 34.77825
C -4.45875 24.07725 32.99475
C -7.13400 24.96900 17.83500
C -7.13400 26.75250 19.61850
C -5.35050 24.96900 19.61850
C -5.35050 26.75250 17.83500
C -6.24225 25.86075 18.72675
C -6.24225 27.64425 20.51025
C -4.45875 25.86075 20.51025
C -4.45875 27.64425 18.72675
C -7.13400 24.96900 21.40200
C -7.13400 26.75250 23.18550
C -5.35050 24.96900 23.18550
C -5.35050 26.75250 21.40200
C -6.24225 25.86075 22.29375
C -6.24225 27.64425 24.07725
C -4.45875 25.86075 24.07725
C -4.45875 27.64425 22.29375
C -7.13400 24.96900 24.96900
C -7.13400 26.75250 26.75250
C -5.35050 24.96900 26.75250
C -5.35050 26.75250 24.96900
C -6.24225 25.86075 25.86075
C -6.24225 27.64425 27.64425
C -4.45875 25.86075 27.64425
C -4.45875 27.64425 25.86075
C -7.13400 24.96900 28.53600
C -7.13400 26.75250 30.31950
C -5.35050 24.96900 30.31950
C -5.35050 26.75250 28.53600
C -6.24225 25.86075 29.42775
C -6.24225 27.64425 31.21125
C -4.45875 25.86075 31.21125
C -4.45875 27.64425 29.42775
C -7.13400 24.96900 32.10300
C -7.13400 26.75250 33.88650
C -5.35050 24.96900 33.88650
C -5.35050 26.75250 32.10300
C -6.24225 25.86075 32.99475
C -6.24225 27.64425 34.77825
C -4.45875 25.86075 34.77825
C -4.45875 27.64425 32.99475
C -7.13400 28.53600 17.83500
C -7.13400 30.31950 19.61850
C -5.35050 28.53600 19.61850
C -5.35050 30.31950 17.83500
C -6.24225 29.42775 18.72675
C -6.24225 31.21125 20.51025
C -4.45875 29.42775 20.51025
C -4.45875 31.21125 18.72675
C -7.13400 28.53600 21.40200
C -7.13400 30.31950 23.18550
C -5.35050 28.53600 23.18550
C -5.35050 30.31950 21.40200
C -6.24225 29.42775 22.29375
C -6.24225 31.21125 24.07725
C -4.45875 29.42775 24.07725
C -4.45875 31.21125 22.29375
C -7.13400 28.53600 24.96900
C -7.13400 30.31950 26.75250
C -5.35050 28.53600 26.75250
C -5.35050 30.31950 24.96900
C -6.24225 29.42775 25.86075
C -6.24225 31.21125 27.64425
C -4.45875 29.42775 27.64425
C -4.45875 31.21125 25.86075
C -7.13400 28.53600 28.53600
C -7.13400 30.31950 30.31950
C -5.35050 28.53600 30.31950
C -5.35050 30.31950 28.53600
C -6.24225 29.42775 29.42775
C -6.24225 31.21125 31.21125
C -4.45875 29.42775 31.21125
C -4.45875 31.21125 29.42775
C -7.13400 28.53600 32.10300
C -7.13400 30.31950 33.88650
C -5.35050 28.53600 33.88650
C -5.35050 30.31950 32.10300
C -6.24225 29.42775 32.99475
C -6.24225 31.21125 34.77825
C -4.45875 29.42775 34.77825
C -4.45875 31.21125 32.99475
C -7.13400 32.10300 17.83500
C -7.13400 33.88650 19.61850
C -5.35050 32.10300 19.61850
C -5.35050 33.88650 17.83500
C -6.24225 32.99475 18.72675
C -6.24225 34.77825 20.51025
C -4.45875 32.99475 20.51025
C -4.45875 34.77825 18.72675
C -7.13400 32.10300 21.40200
C -7.13400 33.88650 23.18550
C -5.35050 32.10300 23.18550
C -5.35050 33.88650 21.40200
C -6.24225 32.99475 22.29375
C -6.24225 34.77825 24.07725
C -4.45875 32.99475 24.07725
C -4.45875 34.77825 22.29375
C -7.13400 32.10300 24.96900
C -7.13400 33.88650 26.75250
C -5.35050 32.10300 26.75250
C -5.35050 33.88650 24.96900
C -6.24225 32.99475 25.86075
C -6.24225 34.77825 27.64425
C -4.45875 32.99475 27.64425
C -4.45875 34.77825 25.86075
C -7.13400 32.10300 28.53600
C -7.13400 33.88650 30.31950
C -5.35050 32.10300 30.31950
C -5.35050 33.88650 28.53600
C -6.24225 32.99475 29.42775
C -6.24225 34.77825 31.21125
C -4.45875 32.99475 31.21125
C -4.45875 34.77825 29.42775
C -7.13400 32.10300 32.10300
C -7.13400 33.88650 33.88650
C -5.35050 32.10300 33.88650
C -5.35050 33.88650 32.10300
C -6.24225 32.99475 32.99475
C -6.24225 34.77825 34.77825
C -4.45875 32.99475 34.77825
C -4.45875 34.77825 32.99475
C -3.56700 17.83500 17.83500
C -3.56700 19.61850 19.61850
C -1.78350 17.83500 19.61850
C -1.78350 19.61850 17.83500
C -2.67525 18.72675 18.72675
C -2.67525 20.51025 20.51025
C -0.89175 18.72675 20.51025
C -0.89175 20.51025 18.72675
C -3.56700 17.83500 21.40200
C -3.56700 19.61850 23.18550
C -1.78350 17.83500 23.18550
C -1.78350 19.61850 21.40200
C -2.67525 18.72675 22.29375
C -2.67525 20.51025 24.07725
C -0.89175 18.72675 24.07725
C -0.89175 20.51025 22.29375
C -3.56700 17.83500 24.96900
C -3.56700 19.61850 26.75250
C -1.78350 17.83500 26.75250
C -1.78350 19.61850 24.96900
C -2.67525 18.72675 25.86075
C -2.67525 20.51025 27.64425
C -0.89175 18.72675 27.64425
C -0.89175 20.51025 25.86075
C -3.56700 17.83500 28.53600
C -3.56700 19.61850 30.31950
C -1.78350 17.83500 30.31950
C -1.78350 19.61850 28.53600
C -2.67525 18.72675 29.42775
C -2.67525 20.51025 31.21125
C -0.89175 18.72675 31.21125
C -0.89175 20.51025 29.42775
C -3.56700 17.83500 32.10300
C -3.56700 19.61850 33.88650
C -1.78350 17.83500 33.88650
C -1.78350 19.61850 32.10300
C -2.67525 18.72675 32.99475
C -2.67525 20.51025 34.77825
C -0.89175 18.72675 34.77825
C -0.89175 20.51025 32.99475
C -3.56700 21.40200 17.83500
C -3.56700 23.18550 19.61850
C -1.78350 21.40200 19.61850
C -1.78350 23.18550 17.83500
C -2.67525 22.29375 18.72675
C -2.67525 24.07725 20.51025
C -0.89175 22.29375 20.51025
C -0.89175 24.07725 18.72675
C -3.56700 21.40200 21.40200
C -3.56700 23.18550 23.18550
C -1.78350 21.40200 23.18550
C -1.78350 23.18550 21.40200
C -2.67525 22.29375 22.29375
C -2.67525 24.07725 24.07725
C -0.89175 22.29375 24.07725
C -0.89175 24.07725 22.29375
C -3.56700 21.40200 24.96900
C -3.56700 23.18550 26.75250
C -1.78350 21.40200 26.75250
C -1.78350 23.18550 24.96900
C -2.67525 22.29375 25.86075
C -2.67525 24.07725 27.64425
C -0.89175 22.29375 27.64425
C -0.89175 24.07725 25.86075
C -3.56700 21.40200 28.53600
C -3.56700 23.18550 30.31950
C -1.78350 21.40200 30.31950
C -1.78350 23.18550 28.53600
C -2.67525 22.29375 29.42775
C -2.67525 24.07725 31.21125
C -0.89175 22.29375 31.21125
C -0.89175 24.07725 29.42775
C -3.56700 21.40200 32.10300
C -3.56700 23.18550 33.88650
C -1.78350 21.40200 33.88650
C -1.78350 23.18550 32.10300
C -2.67525 22.29375 32.99475
C -2.67525 24.07725 34.77825
C -0.89175 22.29375 34.77825
C -0.89175 24.07725 32.99475
C -3.56700 24.96900 17.83500
C -3.56700 26.75250 19.61850
C -1.78350 24.96900 19.61850
C -1.78350 26.75250 17.83500
C -2.67525 25.86075 18.72675
C -2.67525 27.64425 20.51025
C -0.89175 25.86075 20.51025
C -0.89175 27.64425 18.72675
C -3.56700 24.96900 21.40200
C -3.56700 26.75250 23.18550
C -1.78350 24.96900 23.18550
C -1.78350 26.75250 21.40200
C -2.67525 25.86075 22.29375
C -2.67525 27.64425 24.07725
C -0.89175 25.86075 24.07725
C -0.89175 27.64425 22.29375
C -3.56700 24.96900 24.96900
C -3.56700 26.75250 26.75250
C -1.78350 24.96900 26.75250
C -1.78350 26.75250 24.96900
C -2.67525 25.86075 25.86075
C -2.67525 27.64425 27.64425
C -0.89175 25.86075 27.64425
C -0.89175 27.64425 25.86075
C -3.56700 24.96900 28.53600
C -3.56700 26.75250 30.31950
C -1.78350 24.96900 30.31950
C -1.78350 26.75250 28.53600
C -2.67525 25.86075 29.42775
C -2.67525 27.64425 31.21125
C -0.89175 25.86075 31.21125
C -0.89175 27.64425 29.42775
C -3.56700 24.96900 32.10300
C -3.56700 26.75250 33.88650
C -1.78350 24.96900 33.88650
C -1.78350 26.75250 32.10300
C -2.67525 25.86075 32.99475
C -2.67525 27.64425 34.77825
C -0.89175 25.86075 34.77825
C -0.89175 27.64425 32.99475
C -3.56700 28.53600 17.83500
C -3.56700 30.31950 19.61850
C -1.78350 28.53600 19.61850
C -1.78350 30.31950 17.83500
C -2.67525 29.42775 18.72675
C -2.67525 31.21125 20.51025
C -0.89175 29.42775 20.51025
C -0.89175 31.21125 18.72675
C -3.56700 28.53600 21.40200
C -3.56700 30.31950 23.18550
C -1.78350 28.53600 23.18550
C -1.78350 30.31950 21.40200
C -2.67525 29.42775 22.29375
C -2.67525 31.21125 24.07725
C -0.89175 29.42775 24.07725
C -0.89175 31.21125 22.29375
C -3.56700 28.53600 24.96900
C -3.56700 30.31950 26.75250
C -1.78350 28.53600 26.75250
C -1.78350 30.31950 24.96900
C -2.67525 29.42775 25.86075
C -2.67525 31.21125 27.64425
C -0.89175 29.42775 27.64425
C -0.89175 31.21125 25.86075
C -3.56700 28.53600 28.53600
C -3.56700 30.31950 30.31950
C -1.78350 28.53600 30.31950
C -1.78350 30.31950 28.53600
C -2.67525 29.42775 29.42775
C -2.67525 31.21125 31.21125
C -0.89175 29.42775 31.21125
C -0.89175 31.21125 29.42775
C -3.56700 28.53600 32.10300
C -3.56700 30.31950 33.88650
C -1.78350 28.53600 33.88650
C -1.78350 30.31950 32.10300
C -2.67525 29.42775 32.99475
C -2.67525 31.21125 34.77825
C -0.89175 29.42775 34.77825
C -0.89175 31.21125 32.99475
C -3.56700 32.10300 17.83500
C -3.56700 33.88650 19.61850
C -1.78350 32.10300 19.61850
C -1.78350 33.88650 17.83500
C -2.67525 32.99475 18.72675
C -2.67525 34.77825 20.51025
C -0.89175 32.99475 20.51025
C -0.89175 34.77825 18.72675
C -3.56700 32.10300 21.40200
C -3.56700 33.88650 23.18550
C -1.78350 32.10300 23.18550
C -1.78350 33.88650 21.40200
C -2.67525 32.99475 22.29375
C -2.67525 34.77825 24.07725
C -0.89175 32.99475 24.07725
C -0.89175 34.77825 22.29375
C -3.56700 32.10300 24.96900
C -3.56700 33.88650 26.75250
C -1.78350 32.10300 26.75250
C -1.78350 33.88650 24.96900
C -2.67525 32.99475 25.86075
C -2.67525 34.77825 27.64425
C -0.89175 32.99475 27.64425
C -0.89175 34.77825 25.86075
C -3.56700 32.10300 28.53600
C -3.56700 33.88650 30.31950
C -1.78350 32.10300 30.31950
C -1.78350 33.88650 28.53600
C -2.67525 32.99475 29.42775
C -2.67525 34.77825 31.21125
C -0.89175 32.99475 31.21125
C -0.89175 34.77825 29.42775
C -3.56700 32.10300 32.10300
C -3.56700 33.88650 33.88650
C -1.78350 32.10300 33.88650
C -1.78350 33.88650 32.10300
C -2.67525 32.99475 32.99475
C -2.67525 34.77825 34.77825
C -0.89175 32.99475 34.77825
C -0.89175 34.77825 32.99475
N  0.00000 -17.83500 -17.83500
C  0.00000 -16.05150 -16.05150
C  1.78350 -17.83500 -16.05150
C  1.78350 -16.05150 -17.83500
C  0.89175 -16.94325 -16.94325
C  0.89175 -15.15975 -15.15975
C  2.67525 -16.94325 -15.15975
C  2.67525 -15.15975 -16.94325
C  0.00000 -17.83500 -14.26800
C  0.00000 -16.05150 -12.48450
C  1.78350 -17.83500 -12.48450
C  1.78350 -16.05150 -14.26800
C  0.89175 -16.94325 -13.37625
C  0.89175 -15.15975 -11.59275
C  2.67525 -16.94325 -11.59275
C  2.67525 -15.15975 -13.37625
C  0.00000 -17.83500 -10.70100
C  0.00000 -16.05150 -8.91750
C  1.78350 -17.83500 -8.91750
C  1.78350 -16.05150 -10.70100
C  0.89175 -16.94325 -9.80925
C  0.89175 -15.15975 -8.02575
C  2.67525 -16.94325 -8.02575
C  2.67525 -15.15975 -9.80925
C  0.00000 -17.83500 -7.13400
C  0.00000 -16.05150 -5.35050
C  1.78350 -17.83500 -5.35050
C  1.78350 -16.05150 -7.13400
C  0.89175 -16.94325 -6.24225
C  0.89175 -15.15975 -4.45875
C  2.67525 -16.94325 -4.45875
C  2.67525 -15.15975 -6.24225
C  0.00000 -17.83500 -3.56700
C  0.00000 -16.05150 -1.78350
C  1.78350 -17.83500 -1.78350
C  1.78350 -16.05150 -3.56700
C  0.89175 -16.94325 -2.67525
C  0.89175 -15.15975 -0.89175
C  2.67525 -16.94325 -0.89175
C  2.67525 -15.15975 -2.67525
C  0.00000 -14.26800 -17.83500
C  0.00000 -12.48450 -16.05150
C  1.78350 -14.26800 -16.05150
C  1.78350 -12.48450 -17.83500
C  0.89175 -13.37625 -16.94325
C  0.89175 -11.59275 -15.15975
C  2.67525 -13.37625 -15.15975
C  2.67525 -11.59275 -16.94325
C  0.00000 -14.26800 -14.26800
C  0.00000 -12.48450 -12.48450
C  1.78350 -14.26800 -12.48450
C  1.78350 -12.48450 -14.26800
C  0.89175 -13.37625 -13.37625
C  0.89175 -11.59275 -11.59275
C  2.67525 -13.37625 -11.59275
C  2.67525 -11.59275 -13.37625
C  0.00000 -14.26800 -10.70100
C  0.00000 -12.48450 -8.91750
C  1.78350 -14.26800 -8.91750
C  1.78350 -12.48450 -10.70100
C  0.89175 -13.37625 -9.80925
C  0.89175 -11.59275 -8.02575
C  2.67525 -13.37625 -8.02575
C  2.67525 -11.59275 -9.80925
C  0.00000 -14.26800 -7.13400
C  0.00000 -12.48450 -5.35050
C  1.78350 -14.26800 -5.35050
C  1.78350 -12.48450 -7.13400
C  0.89175 -13.37625 -6.24225
C  0.89175 -11.59275 -4.45875
C  2.67525 -13.37625 -4.45875
C  2.67525 -11.59275 -6.24225
C  0.00000 -14.26800 -3.56700
C  0.00000 -12.48450 -1.78350
C  1.78350 -14.26800 -1.78350
C  1.78350 -12.48450 -3.56700
C  0.89175 -13.37625 -2.67525
C  0.89175 -11.59275 -0.89175
C  2.67525 -13.37625 -0.89175
C  2.67525 -11.59275 -2.67525
C  0.00000 -10.70100 -17.83500
C  0.00000 -8.91750 -16.05150
C  1.78350 -10.70100 -16.05150
C  1.78350 -8.91750 -17.83500
C  0.89175 -9.80925 -16.94325
C  0.89175 -8.02575 -15.15975
C  2.67525 -9.80925 -15.15975
C  2.67525 -8.02575 -16.94325
C  0.00000 -10.70100 -14.26800
C  0.00000 -8.91750 -12.48450
C  1.78350 -10.70100 -12.48450
C  1.78350 -8.91750 -14.26800
C  0.89175 -9.80925 -13.37625
C  0.89175 -8.02575 -11.59275
C  2.67525 -9.80925 -11.59275
C  2.67525 -8.02575 -13.37625
C  0.00000 -10.70100 -10.70100
C  0.00000 -8.91750 -8.91750
C  1.78350 -10.70100 -8.91750
C  1.78350 -8.91750 -10.70100
C  0.89175 -9.80925 -9.80925
C  0.89175 -8.02575 -8.02575
C  2.67525 -9.80925 -8.02575
C  2.67525 -8.02575 -9.80925
C  0.00000 -10.70100 -7.13400
C  0.00000 -8.91750 -5.35050
C  1.78350 -10.70100 -5.35050
C  1.78350 -8.91750 -7.13400
C  0.89175 -9.80925 -6.24225
C  0.89175 -8.02575 -4.45875
C  2.67525 -9.80925 -4.45875
C  2.67525 -8.02575 -6.24225
C  0.00000 -10.70100 -3.56700
C  0.00000 -8.91750 -1.78350
C  1.78350 -10.70100 -1.78350
C  1.78350 -8.91750 -3.56700
C  0.89175 -9.80925 -2.67525
C  0.89175 -8.02575 -0.89175
C  2.67525 -9.80925 -0.89175
C  2.67525 -8.02575 -2.67525
C  0.00000 -7.13400 -17.83500
C  0.00000 -5.35050 -16.05150
C  1.78350 -7.13400 -16.05150
C  1.78350 -5.35050 -17.83500
C  0.89175 -6.24225 -16.94325
C  0.89175 -4.45875 -15.15975
C  2.67525 -6.24225 -15.15975
C  2.67525 -4.45875 -16.94325
C  0.00000 -7.13400 -14.26800
C  0.00000 -5.35050 -12.48450
C  1.78350 -7.13400 -12.48450
C  1.78350 -5.35050 -14.26800
C  0.89175 -6.24225 -13.37625
C  0.89175 -4.45875 -11.59275
C  2.67525 -6.24225 -11.59275
C  2.67525 -4.45875 -13.37625
C  0.00000 -7.13400 -10.70100
C  0.00000 -5.35050 -8.91750
C  1.78350 -7.13400 -8.91750
C  1.78350 -5.35050 -10.70100
C  0.89175 -6.24225 -9.80925
C  0.89175 -4.45875 -8.02575
C  2.67525 -6.24225 -8.02575
C  2.67525 -4.45875 -9.80925
C  0.00000 -7.13400 -7.13400
C  0.00000 -5.35050 -5.35050
C  1.78350 -7.13400 -5.35050
C  1.78350 -5.35050 -7.13400
C  0.89175 -6.24225 -6.24225
C  0.89175 -4.45875 -4.45875
C  2.67525 -6.24225 -4.45875
C  2.67525 -4.45875 -6.24225
C  0.00000 -7.13400 -3.56700
C  0.00000 -5.35050 -1.78350
C  1.78350 -7.13400 -1.78350
C  1.78350 -5.35050 -3.56700
C  0.89175 -6.24225 -2.67525
C  0.89175 -4.45875 -0.89175
C  2.67525 -6.24225 -0.89175
C  2.67525 -4.45875 -2.67525
C  0.00000 -3.56700 -17.83500
C  0.00000 -1.78350 -16.05150
C  1.78350 -3.56700 -16.05150
C  1.78350 -1.78350 -17.83500
C  0.89175 -2.67525 -16.94325
C  0.89175 -0.89175 -15.15975
C  2.67525 -2.67525 -15.15975
C  2.67525 -0.89175 -16.94325
C  0.00000 -3.56700 -14.26800
C  0.00000 -1.78350 -12.48450
C  1.78350 -3.56700 -12.48450
C  1.78350 -1.78350 -14.26800
C  0.89175 -2.67525 -13.37625
C  0.89175 -0.89175 -11.59275
C  2.67525 -2.67525 -11.59275
C  2.67525 -0.89175 -13.37625
C  0.00000 -3.56700 -10.70100
C  0.00000 -1.78350 -8.91750
C  1.78350 -3.56700 -8.91750
C  1.78350 -1.78350 -10.70100
C  0.89175 -2.67525 -9.80925
C  0.89175 -0.89175 -8.02575
C  2.67525 -2.67525 -8.02575
C  2.67525 -0.89175 -9.80925
C  0.00000 -3.56700 -7.13400
C  0.00000 -1.78350 -5.35050
C  1.78350 -3.56700 -5.35050
C  1.78350 -1.78350 -7.13400
C  0.89175 -2.67525 -6.24225
C  0.89175 -0.89175 -4.45875
C  2.67525 -2.67525 -4.45875
C  2.67525 -0.89175 -6.24225
C  0.00000 -3.56700 -3.56700
C  0.00000 -1.78350 -1.78350
C  1.78350 -3.56700 -1.78350
C  1.78350 -1.78350 -3.56700
C  0.89175 -2.67525 -2.67525
C  0.89175 -0.89175 -0.89175
C  2.67525 -2.67525 -0.89175
C  2.67525 -0.89175 -2.67525
C  3.56700 -17.83500 -17.83500
C  3.56700 -16.05150 -16.05150
C  5.35050 -17.83500 -16.05150
C  5.35050 -16.05150 -17.83500
C  4.45875 -16.94325 -16.94325
C  4.45875 -15.15975 -15.15975
C  6.24225 -16.94325 -15.15975
C  6.24225 -15.15975 -16.94325
C  3.56700 -17.83500 -14.26800
C  3.56700 -16.05150 -12.48450
C  5.35050 -17.83500 -12.48450
C  5.35050 -16.05150 -14.26800
C  4.45875 -16.94325 -13.37625
C  4.45875 -15.15975 -11.59275
C  6.24225 -16.94325 -11.59275
C  6.24225 -15.15975 -13.37625
C  3.56700 -17.83500 -10.70100
C  3.56700 -16.05150 -8.91750
C  5.35050 -17.83500 -8.91750
C  5.35050 -16.05150 -10.70100
C  4.45875 -16.94325 -9.80925
C  4.45875 -15.15975 -8.02575
C  6.24225 -16.94325 -8.02575
C  6.24225 -15.15975 -9.80925
C  3.56700 -17.83500 -7.13400
C  3.56700 -16.05150 -5.35050
C  5.35050 -17.83500 -5.35050
C  5.35050 -16.05150 -7.13400
C  4.45875 -16.94325 -6.24225
C  4.45875 -15.15975 -4.45875
C  6.24225 -16.94325 -4.45875
C  6.24225 -15.15975 -6.24225
C  3.56700 -17.83500 -3.56700
C  3.56700 -16.05150 -1.78350
C  5.35050 -17.83500 -1.78350
C  5.35050 -16.05150 -3.56700
C  4.45875 -16.94325 -2.67525
C  4.45875 -15.15975 -0.89175
C  6.24225 -16.94325 -0.89175
C  6.24225 -15.15975 -2.67525
C  3.56700 -14.26800 -17.83500
C  3.56700 -12.48450 -16.05150
C  5.35050 -14.26800 -16.05150
C  5.35050 -12.48450 -17.83500
C  4.45875 -13.37625 -16.94325
C  4.45875 -11.59275 -15.15975
C  6.24225 -13.37625 -15.15975
C  6.24225 -11.59275 -16.94325
C  3.56700 -14.26800 -14.26800
C  3.56700 -12.48450 -12.48450
C  5.35050 -14.26800 -12.48450
C  5.35050 -12.48450 -14.26800
C  4.45875 -13.37625 -13.37625
C  4.45875 -11.59275 -11.59275
C  6.24225 -13.37625 -11.59275
C  6.24225 -11.59275 -13.37625
C  3.56700 -14.26800 -10.70100
C  3.56700 -12.48450 -8.91750
C  5.35050 -14.26800 -8.91750
C  5.35050 -12.48450 -10.70100
C  4.45875 -13.37625 -9.80925
C  4.45875 -11.59275 -8.02575
C  6.24225 -13.37625 -8.02575
C  6.24225 -11.59275 -9.80925
C  3.56700 -14.26800 -7.13400
C  3.56700 -12.48450 -5.35050
C  5.35050 -14.26800 -5.35050
C  5.35050 -12.48450 -7.13400
C  4.45875 -13.37625 -6.24225
C  4.45875 -11.59275 -4.45875
C  6.24225 -13.37625 -4.45875
C  6.24225 -11.59275 -6.24225
C  3.56700 -14.26800 -3.56700
C  3.56700 -12.48450 -1.78350
C  5.35050 -14.26800 -1.78350
C  5.35050 -12.48450 -3.56700
C  4.45875 -13.37625 -2.67525
C  4.45875 -11.59275 -0.89175
C  6.24225 -13.37625 -0.89175
C  6.24225 -11.59275 -2.67525
C  3.56700 -10.70100 -17.83500
C  3.56700 -8.91750 -16.05150
C  5.35050 -10.70100 -16.05150
C  5.35050 -8.91750 -17.83500
C  4.45875 -9.80925 -16.94325
C  4.45875 -8.02575 -15.15975
C  6.24225 -9.80925 -15.15975
C  6.24225 -8.02575 -16.94325
C  3.56700 -10.70100 -14.26800
C  3.56700 -8.91750 -12.48450
C  5.35050 -10.70100 -12.48450
C  5.35050 -8.91750 -14.26800
C  4.45875 -9.80925 -13.37625
C  4.45875 -8.02575 -11.59275
C  6.24225 -9.80925 -11.59275
C  6.24225 -8.02575 -13.37625
C  3.56700 -10.70100 -10.70100
C  3.56700 -8.91750 -8.91750
C  5.35050 -10.70100 -8.91750
C  5.35050 -8.91750 -10.70100
C  4.45875 -9.80925 -9.80925
C  4.45875 -8.02575 -8.02575
C  6.24225 -9.80925 -8.02575
C  6.24225 -8.02575 -9.80925
C  3.56700 -10.70100 -7.13400
C  3.56700 -8.91750 -5.35050
C  5.35050 -10.70100 -5.35050
C  5.35050 -8.91750 -7.13400
C  4.45875 -9.80925 -6.24225
C  4.45875 -8.02575 -4.45875
C  6.24225 -9.80925 -4.45875
C  6.24225 -8.02575 -6.24225
C  3.56700 -10.70100 -3.56700
C  3.56700 -8.91750 -1.78350
C  5.35050 -10.70100 -1.78350
C  5.35050 -8.91750 -3.56700
C  4.45875 -9.80925 -2.67525
C  4.45875 -8.02575 -0.89175
C  6.24225 -9.80925 -0.89175
C  6.24225 -8.02575 -2.67525
C  3.56700 -7.13400 -17.83500
C  3.56700 -5.35050 -16.05150
C  5.35050 -7.13400 -16.05150
C  5.35050 -5.35050 -17.83500
C  4.45875 -6.24225 -16.94325
C  4.45875 -4.45875 -15.15975
C  6.24225 -6.24225 -15.15975
C  6.24225 -4.45875 -16.94325
C  3.56700 -7.13400 -14.26800
C  3.56700 -5.35050 -12.48450
C  5.35050 -7.13400 -12.48450
C  5.35050 -5.35050 -14.26800
C  4.45875 -6.24225 -13.37625
C  4.45875 -4.45875 -11.59275
C  6.24225 -6.24225 -11.59275
C  6.24225 -4.45875 -13.37625
C  3.56700 -7.13400 -10.70100
C  3.56700 -5.35050 -8.91750
C  5.35050 -7.13400 -8.91750
C  5.35050 -5.35050 -10.70100
C  4.45875 -6.24225 -9.80925
C  4.45875 -4.45875 -8.02575
C  6.24225 -6.24225 -8.02575
C  6.24225 -4.45875 -9.80925
C  3.56700 -7.13400 -7.13400
C  3.56700 -5.35050 -5.35050
C  5.35050 -7.13400 -5.35050
C  5.35050 -5.35050 -7.13400
C  4.45875 -6.24225 -6.24225
C  4.45875 -4.45875 -4.45875
C  6.24225 -6.24225 -4.45875
C  6.24225 -4.45875 -6.24225
C  3.56700 -7.13400 -3.56700
C  3.56700 -5.35050 -1.78350
C  5.35050 -7.13400 -1.78350
C  5.35050 -5.35050 -3.56700
C  4.45875 -6.24225 -2.67525
C  4.45875 -4.45875 -0.89175
C  6.24225 -6.24225 -0.89175
C  6.24225 -4.45875 -2.67525
C  3.56700 -3.56700 -17.83500
C  3.56700 -1.78350 -16.05150
C  5.35050 -3.56700 -16.05150
C  5.35050 -1.78350 -17.83500
C  4.45875 -2.67525 -16.94325
C  4.45875 -0.89175 -15.15975
C  6.24225 -2.67525 -15.15975
C  6.24225 -0.89175 -16.94325
C  3.56700 -3.56700 -14.26800
C  3.56700 -1.78350 -12.48450
C  5.35050 -3.56700 -12.48450
C  5.35050 -1.78350 -14.26800
C  4.45875 -2.67525 -13.37625
C  4.45875 -0.89175 -11.59275
C  6.24225 -2.67525 -11.59275
C  6.24225 -0.89175 -13.37625
C  3.56700 -3.56700 -10.70100
C  3.56700 -1.78350 -8.91750
C  5.35050 -3.56700 -8.91750
C  5.35050 -1.78350 -10.70100
C  4.45875 -2.67525 -9.80925
C  4.45875 -0.89175 -8.02575
C  6.24225 -2.67525 -8.02575
C  6.24225 -0.89175 -9.80925
C  3.56700 -3.56700 -7.13400
C  3.56700 -1.78350 -5.35050
C  5.35050 -3.56700 -5.35050
C  5.35050 -1.78350 -7.13400
C  4.45875 -2.67525 -6.24225
C  4.45875 -0.89175 -4.45875
C  6.24225 -2.67525 -4.45875
C  6.24225 -0.89175 -6.24225
C  3.56700 -3.56700 -3.56700
C  3.56700 -1.78350 -1.78350
C  5.35050 -3.56700 -1.78350
C  5.35050 -1.78350 -3.56700
C  4.45875 -2.67525 -2.67525
C  4.45875 -0.89175 -0.89175
C  6.24225 -2.67525 -0.89175
C  6.24225 -0.89175 -2.67525
C  7.13400 -17.83500 -17.83500
C  7.13400 -16.05150 -16.05150
C  8.91750 -17.83500 -16.05150
C  8.91750 -16.05150 -17.83500
C  8.02575 -16.94325 -16.94325
C  8.02575 -15.15975 -15.15975
C  9.80925 -16.94325 -15.15975
C  9.80925 -15.15975 -16.94325
C  7.13400 -17.83500 -14.26800
C  7.13400 -16.05150 -12.48450
C  8.91750 -17.83500 -12.48450
C  8.91750 -16.05150 -14.26800
C  8.02575 -16.94325 -13.37625
C  8.02575 -15.15975 -11.59275
C  9.80925 -16.94325 -11.59275
C  9.80925 -15.15975 -13.37625
C  7.13400 -17.83500 -10.70100
C  7.13400 -16.05150 -8.91750
C  8.91750 -17.83500 -8.91750
C  8.91750 -16.05150 -10.70100
C  8.02575 -16.94325 -9.80925
C  8.02575 -15.15975 -8.02575
C  9.80925 -16.94325 -8.02575
C  9.80925 -15.15975 -9.80925
C  7.13400 -17.83500 -7.13400
C  7.13400 -16.05150 -5.35050
C  8.91750 -17.83500 -5.35050
C  8.91750 -16.05150 -7.13400
C  8.02575 -16.94325 -6.24225
C  8.02575 -15.15975 -4.45875
C  9.80925 -16.94325 -4.45875
C  9.80925 -15.15975 -6.24225
C  7.13400 -17.83500 -3.56700
C  7.13400 -16.05150 -1.78350
C  8.91750 -17.83500 -1.78350
C  8.91750 -16.05150 -3.56700
C  8.02575 -16.94325 -2.67525
C  8.02575 -15.15975 -0.89175
C  9.80925 -16.94325 -0.89175
C  9.80925 -15.15975 -2.67525
C  7.13400 -14.26800 -17.83500
C  7.13400 -12.48450 -16.05150
C  8.91750 -14.26800 -16.05150
C  8.91750 -12.48450 -17.83500
C  8.02575 -13.37625 -16.94325
C  8.02575 -11.59275 -15.15975
C  9.80925 -13.37625 -15.15975
C  9.80925 -11.59275 -16.94325
C  7.13400 -14.26800 -14.26800
C  7.13400 -12.48450 -12.48450
C  8.91750 -14.26800 -12.48450
C  8.91750 -12.48450 -14.26800
C  8.02575 -13.37625 -13.37625
C  8.02575 -11.59275 -11.59275
C  9.80925 -13.37625 -11.59275
C  9.80925 -11.59275 -13.37625
C  7.13400 -14.26800 -10.70100
C  7.13400 -12.48450 -8.91750
C  8.91750 -14.26800 -8.91750
C  8.91750 -12.48450 -10.70100
C  8.02575 -13.37625 -9.80925
C  8.02575 -11.59275 -8.02575
C  9.80925 -13.37625 -8.02575
C  9.80925 -11.59275 -9.80925
C  7.13400 -14.26800 -7.13400
C  7.13400 -12.48450 -5.35050
C  8.91750 -14.26800 -5.35050
C  8.91750 -12.48450 -7.13400
C  8.02575 -13.37625 -6.24225
C  8.02575 -11.59275 -4.45875
C  9.80925 -13.37625 -4.45875
C  9.80925 -11.59275 -6.24225
C  7.13400 -14.26800 -3.56700
C  7.13400 -12.48450 -1.78350
C  8.91750 -14.26800 -1.78350
C  8.91750 -12.48450 -3.56700
C  8.02575 -13.37625 -2.67525
C  8.02575 -11.59275 -0.89175
C  9.80925 -13.37625 -0.89175
C  9.80925 -11.59275 -2.67525
C  7.13400 -10.70100 -17.83500
C  7.13400 -8.91750 -16.05150
C  8.91750 -10.70100 -16.05150
C  8.91750 -8.91750 -17.83500
C  8.02575 -9.80925 -16.94325
C  8.02575 -8.02575 -15.15975
C  9.80925 -9.80925 -15.15975
C  9.80925 -8.02575 -16.94325
C  7.13400 -10.70100 -14.26800
C  7.13400 -8.91750 -12.48450
C  8.91750 -10.70100 -12.48450
C  8.91750 -8.91750 -14.26800
C  8.02575 -9.80925 -13.37625
C  8.02575 -8.02575 -11.59275
C  9.80925 -9.80925 -11.59275
C  9.80925 -8.02575 -13.37625
C  7.13400 -10.70100 -10.70100
C  7.13400 -8.91750 -8.91750
C  8.91750 -10.70100 -8.91750
C  8.91750 -8.91750 -10.70100
C  8.02575 -9.80925 -9.80925
C  8.02575 -8.02575 -8.02575
C  9.80925 -9.80925 -8.02575
C  9.80925 -8.02575 -9.80925
C  7.13400 -10.70100 -7.13400
C  7.13400 -8.91750 -5.35050
C  8.91750 -10.70100 -5.35050
C  8.91750 -8.91750 -7.13400
C  8.02575 -9.80925 -6.24225
C  8.02575 -8.02575 -4.45875
C  9.80925 -9.80925 -4.45875
C  9.80925 -8.02575 -6.24225
C  7.13400 -10.70100 -3.56700
C  7.13400 -8.91750 -1.78350
C  8.91750 -10.70100 -1.78350
C  8.91750 -8.91750 -3.56700
C  8.02575 -9.80925 -2.67525
C  8.02575 -8.02575 -0.89175
C  9.80925 -9.80925 -0.89175
C  9.80925 -8.02575 -2.67525
C  7.13400 -7.13400 -17.83500
C  7.13400 -5.35050 -16.05150
C  8.91750 -7.13400 -16.05150
C  8.91750 -5.35050 -17.83500
C  8.02575 -6.24225 -16.94325
C  8.02575 -4.45875 -15.15975
C  9.80925 -6.24225 -15.15975
C  9.80925 -4.45875 -16.94325
C  7.13400 -7.13400 -14.26800
C  7.13400 -5.35050 -12.48450
C  8.91750 -7.13400 -12.48450
C  8.91750 -5.35050 -14.26800
C  8.02575 -6.24225 -13.37625
C  8.02575 -4.45875 -11.59275
C  9.80925 -6.24225 -11.59275
C  9.80925 -4.45875 -13.37625
C  7.13400 -7.13400 -10.70100
C  7.13400 -5.35050 -8.91750
C  8.91750 -7.13400 -8.91750
C  8.91750 -5.35050 -10.70100
C  8.02575 -6.24225 -9.80925
C  8.02575 -4.45875 -8.02575
C  9.80925 -6.24225 -8.02575
C  9.80925 -4.45875 -9.80925
C  7.13400 -7.13400 -7.13400
C  7.13400 -5.35050 -5.35050
C  8.91750 -7.13400 -5.35050
C  8.91750 -5.35050 -7.13400
C  8.02575 -6.24225 -6.24225
C  8.02575 -4.45875 -4.45875
C  9.80925 -6.24225 -4.45875
C  9.80925 -4.45875 -6.24225
C  7.13400 -7.13400 -3.56700
C  7.13400 -5.35050 -1.78350
C  8.91750 -7.13400 -1.78350
C  8.91750 -5.35050 -3.56700
C  8.02575 -6.24225 -2.67525
C  8.02575 -4.45875 -0.89175
C  9.80925 -6.24225 -0.89175
C  9.80925 -4.45875 -2.67525
C  7.13400 -3.56700 -17.83500
C  7.13400 -1.78350 -16.05150
C  8.91750 -3.56700 -16.05150
C  8.91750 -1.78350 -17.83500
C  8.02575 -2.67525 -16.94325
C  8.02575 -0.89175 -15.15975
C  9.80925 -2.67525 -15.15975
C  9.80925 -0.89175 -16.94325
C  7.13400 -3.56700 -14.26800
C  7.13400 -1.78350 -12.48450
C  8.91750 -3.56700 -12.48450
C  8.91750 -1.78350 -14.26800
C  8.02575 -2.67525 -13.37625
C  8.02575 -0.89175 -11.59275
C  9.80925 -2.67525 -11.59275
C  9.80925 -0.89175 -13.37625
C  7.13400 -3.56700 -10.70100
C  7.13400 -1.78350 -8.91750
C  8.91750 -3.56700 -8.91750
C  8.91750 -1.78350 -10.70100
C  8.02575 -2.67525 -9.80925
C  8.02575 -0.89175 -8.02575
C  9.80925 -2.67525 -8.02575
C  9.80925 -0.89175 -9.80925
C  7.13400 -3.56700 -7.13400
C  7.13400 -1.78350 -5.35050
C  8.91750 -3.56700 -5.35050
C  8.91750 -1.78350 -7.13400
C  8.02575 -2.67525 -6.24225
C  8.02575 -0.89175 -4.45875
C  9.80925 -2.67525 -4.45875
C  9.80925 -0.89175 -6.24225
C  7.13400 -3.56700 -3.56700
C  7.13400 -1.78350 -1.78350
C  8.91750 -3.56700 -1.78350
C  8.91750 -1.78350 -3.56700
C  8.02575 -2.67525 -2.67525
C  8.02575 -0.89175 -0.89175
C  9.80925 -2.67525 -0.89175
C  9.80925 -0.89175 -2.67525
C 10.70100 -17.83500 -17.83500
C 10.70100 -16.05150 -16.05150
C 12.48450 -17.83500 -16.05150
C 12.48450 -16.05150 -17.83500
C 11.59275 -16.94325 -16.94325
C 11.59275 -15.15975 -15.15975
C 13.37625 -16.94325 -15.15975
C 13.37625 -15.15975 -16.94325
C 10.70100 -17.83500 -14.26800
C 10.70100 -16.05150 -12.48450
C 12.48450 -17.83500 -12.48450
C 12.48450 -16.05150 -14.26800
C 11.59275 -16.94325 -13.37625
C 11.59275 -15.15975 -11.59275
C 13.37625 -16.94325 -11.59275
C 13.37625 -15.15975 -13.37625
C 10.70100 -17.83500 -10.70100
C 10.70100 -16.05150 -8.91750
C 12.48450 -17.83500 -8.91750
C 12.48450 -16.05150 -10.70100
C 11.59275 -16.94325 -9.80925
C 11.59275 -15.15975 -8.02575
C 13.37625 -16.94325 -8.02575
C 13.37625 -15.15975 -9.80925
C 10.70100 -17.83500 -7.13400
C 10.70100 -16.05150 -5.35050
C 12.48450 -17.83500 -5.35050
C 12.48450 -16.05150 -7.13400
C 11.59275 -16.94325 -6.24225
C 11.59275 -15.15975 -4.45875
C 13.37625 -16.94325 -4.45875
C 13.37625 -15.15975 -6.24225
C 10.70100 -17.83500 -3.56700
C 10.70100 -16.05150 -1.78350
C 12.48450 -17.83500 -1.78350
C 12.48450 -16.05150 -3.56700
C 11.59275 -16.94325 -2.67525
C 11.59275 -15.15975 -0.89175
C 13.37625 -16.94325 -0.89175
C 13.37625 -15.15975 -2.67525
C 10.70100 -14.26800 -17.83500
C 10.70100 -12.48450 -16.05150
C 12.48450 -14.26800 -16.05150
C 12.48450 -12.48450 -17.83500
C 11.59275 -13.37625 -16.94325
C 11.59275 -11.59275 -15.15975
C 13.37625 -13.37625 -15.15975
C 13.37625 -11.59275 -16.94325
C 10.70100 -14.26800 -14.26800
C 10.70100 -12.48450 -12.48450
C 12.48450 -14.26800 -12.48450
C 12.48450 -12.48450 -14.26800
C 11.59275 -13.37625 -13.37625
C 11.59275 -11.59275 -11.59275
C 13.37625 -13.37625 -11.59275
C 13.37625 -11.59275 -13.37625
C 10.70100 -14.26800 -10.70100
C 10.70100 -12.48450 -8.91750
C 12.48450 -14.26800 -8.91750
C 12.48450 -12.48450 -10.70100
C 11.59275 -13.37625 -9.80925
C 11.59275 -11.59275 -8.02575
C 13.37625 -13.37625 -8.02575
C 13.37625 -11.59275 -9.80925
C 10.70100 -14.26800 -7.13400
C 10.70100 -12.48450 -5.35050
C 12.48450 -14.26800 -5.35050
C 12.48450 -12.48450 -7.13400
C 11.59275 -13.37625 -6.24225
C 11.59275 -11.59275 -4.45875
C 13.37625 -13.37625 -4.45875
C 13.37625 -11.59275 -6.24225
C 10.70100 -14.26800 -3.56700
C 10.70100 -12.48450 -1.78350
C 12.48450 -14.26800 -1.78350
C 12.48450 -12.48450 -3.56700
C 11.59275 -13.37625 -2.67525
C 11.59275 -11.59275 -0.89175
C 13.37625 -13.37625 -0.89175
C 13.37625 -11.59275 -2.67525
C 10.70100 -10.70100 -17.83500
C 10.70100 -8.91750 -16.05150
C 12.48450 -10.70100 -16.05150
C 12.48450 -8.91750 -17.83500
C 11.59275 -9.80925 -16.94325
C 11.59275 -8.02575 -15.15975
C 13.37625 -9.80925 -15.15975
C 13.37625 -8.02575 -16.94325
C 10.70100 -10.70100 -14.26800
C 10.70100 -8.91750 -12.48450
C 12.48450 -10.70100 -12.48450
C 12.48450 -8.91750 -14.26800
C 11.59275 -9.80925 -13.37625
C 11.59275 -8.02575 -11.59275
C 13.37625 -9.80925 -11.59275
C 13.37625 -8.02575 -13.37625
C 10.70100 -10.70100 -10.70100
C 10.70100 -8.91750 -8.91750
C 12.48450 -10.70100 -8.91750
C 12.48450 -8.91750 -10.70100
C 11.59275 -9.80925 -9.80925
C 11.59275 -8.02575 -8.02575
C 13.37625 -9.80925 -8.02575
C 13.37625 -8.02575 -9.80925
C 10.70100 -10.70100 -7.13400
C 10.70100 -8.91750 -5.35050
C 12.48450 -10.70100 -5.35050
C 12.48450 -8.91750 -7.13400
C 11.59275 -9.80925 -6.24225
C 11.59275 -8.02575 -4.45875
C 13.37625 -9.80925 -4.45875
C 13.37625 -8.02575 -6.24225
C 10.70100 -10.70100 -3.56700
C 10.70100 -8.91750 -1.78350
C 12.48450 -10.70100 -1.78350
C 12.48450 -8.91750 -3.56700
C 11.59275 -9.80925 -2.67525
C 11.59275 -8.02575 -0.89175
C 13.37625 -9.80925 -0.89175
C 13.37625 -8.02575 -2.67525
C 10.70100 -7.13400 -17.83500
C 10.70100 -5.35050 -16.05150
C 12.48450 -7.13400 -16.05150
C 12.48450 -5.35050 -17.83500
C 11.59275 -6.24225 -16.94325
C 11.59275 -4.45875 -15.15975
C 13.37625 -6.24225 -15.15975
C 13.37625 -4.45875 -16.94325
C 10.70100 -7.13400 -14.26800
C 10.70100 -5.35050 -12.48450
C 12.48450 -7.13400 -12.48450
C 12.48450 -5.35050 -14.26800
C 11.59275 -6.24225 -13.37625
C 11.59275 -4.45875 -11.59275
C 13.37625 -6.24225 -11.59275
C 13.37625 -4.45875 -13.37625
C 10.70100 -7.13400 -10.70100
C 10.70100 -5.35050 -8.91750
C 12.48450 -7.13400 -8.91750
C 12.48450 -5.35050 -10.70100
C 11.59275 -6.24225 -9.80925
C 11.59275 -4.45875 -8.02575
C 13.37625 -6.24225 -8.02575
C 13.37625 -4.45875 -9.80925
C 10.70100 -7.13400 -7.13400
C 10.70100 -5.35050 -5.35050
C 12.48450 -7.13400 -5.35050
C 12.48450 -5.35050 -7.13400
C 11.59275 -6.24225 -6.24225
C 11.59275 -4.45875 -4.45875
C 13.37625 -6.24225 -4.45875
C 13.37625 -4.45875 -6.24225
C 10.70100 -7.13400 -3.56700
C 10.70100 -5.35050 -1.78350
C 12.48450 -7.13400 -1.78350
C 12.48450 -5.35050 -3.56700
C 11.59275 -6.24225 -2.67525
C 11.59275 -4.45875 -0.89175
C 13.37625 -6.24225 -0.89175
C 13.37625 -4.45875 -2.67525
C 10.70100 -3.56700 -17.83500
C 10.70100 -1.78350 -16.05150
C 12.48450 -3.56700 -16.05150
C 12.48450 -1.78350 -17.83500
C 11.59275 -2.67525 -16.94325
C 11.59275 -0.89175 -15.15975
C 13.37625 -2.67525 -15.15975
C 13.37625 -0.89175 -16.94325
C 10.70100 -3.56700 -14.26800
C 10.70100 -1.78350 -12.48450
C 12.48450 -3.56700 -12.48450
C 12.48450 -1.78350 -14.26800
C 11.59275 -2.67525 -13.37625
C 11.59275 -0.89175 -11.59275
C 13.37625 -2.67525 -11.59275
C 13.37625 -0.89175 -13.37625
C 10.70100 -3.56700 -10.70100
C 10.70100 -1.78350 -8.91750
C 12.48450 -3.56700 -8.91750
C 12.48450 -1.78350 -10.70100
C 11.59275 -2.67525 -9.80925
C 11.59275 -0.89175 -8.02575
C 13.37625 -2.67525 -8.02575
C 13.37625 -0.89175 -9.80925
C 10.70100 -3.56700 -7.13400
C 10.70100 -1.78350 -5.35050
C 12.48450 -3.56700 -5.35050
C 12.48450 -1.78350 -7.13400
C 11.59275 -2.67525 -6.24225
C 11.59275 -0.89175 -4.45875
C 13.37625 -2.67525 -4.45875
C 13.37625 -0.89175 -6.24225
C 10.70100 -3.56700 -3.56700
C 10.70100 -1.78350 -1.78350
C 12.48450 -3.56700 -1.78350
C 12.48450 -1.78350 -3.56700
C 11.59275 -2.67525 -2.67525
C 11.59275 -0.89175 -0.89175
C 13.37625 -2.67525 -0.89175
C 13.37625 -0.89175 -2.67525
C 14.26800 -17.83500 -17.83500
C 14.26800 -16.05150 -16.05150
C 16.05150 -17.83500 -16.05150
C 16.05150 -16.05150 -17.83500
C 15.15975 -16.94325 -16.94325
C 15.15975 -15.15975 -15.15975
C 16.94325 -16.94325 -15.15975
C 16.94325 -15.15975 -16.94325
C 14.26800 -17.83500 -14.26800
C 14.26800 -16.05150 -12.48450
C 16.05150 -17.83500 -12.48450
C 16.05150 -16.05150 -14.26800
C 15.15975 -16.94325 -13.37625
C 15.15975 -15.15975 -11.59275
C 16.94325 -16.94325 -11.59275
C 16.94325 -15.15975 -13.37625
C 14.26800 -17.83500 -10.70100
C 14.26800 -16.05150 -8.91750
C 16.05150 -17.83500 -8.91750
C 16.05150 -16.05150 -10.70100
C 15.15975 -16.94325 -9.80925
C 15.15975 -15.15975 -8.02575
C 16.94325 -16.94325 -8.02575
C 16.94325 -15.15975 -9.80925
C 14.26800 -17.83500 -7.13400
C 14.26800 -16.05150 -5.35050
C 16.05150 -17.83500 -5.35050
C 16.05150 -16.05150 -7.13400
C 15.15975 -16.94325 -6.24225
C 15.15975 -15.15975 -4.45875
C 16.94325 -16.94325 -4.45875
C 16.94325 -15.15975 -6.24225
C 14.26800 -17.83500 -3.56700
C 14.26800 -16.05150 -1.78350
C 16.05150 -17.83500 -1.78350
C 16.05150 -16.05150 -3.56700
C 15.15975 -16.94325 -2.67525
C 15.15975 -15.15975 -0.89175
C 16.94325 -16.94325 -0.89175
C 16.94325 -15.15975 -2.67525
C 14.26800 -14.26800 -17.83500
C 14.26800 -12.48450 -16.05150
C 16.05150 -14.26800 -16.05150
C 16.05150 -12.48450 -17.83500
C 15.15975 -13.37625 -16.94325
C 15.15975 -11.59275 -15.15975
C 16.94325 -13.37625 -15.15975
C 16.94325 -11.59275 -16.94325
C 14.26800 -14.26800 -14.26800
C 14.26800 -12.48450 -12.48450
C 16.05150 -14.26800 -12.48450
C 16.05150 -12.48450 -14.26800
C 15.15975 -13.37625 -13.37625
C 15.15975 -11.59275 -11.59275
C 16.94325 -13.37625 -11.59275
C 16.94325 -11.59275 -13.37625
C 14.26800 -14.26800 -10.70100
C 14.26800 -12.48450 -8.91750
C 16.05150 -14.26800 -8.91750
C 16.05150 -12.48450 -10.70100
C 15.15975 -13.37625 -9.80925
C 15.15975 -11.59275 -8.02575
C 16.94325 -13.37625 -8.02575
C 16.94325 -11.59275 -9.80925
C 14.26800 -14.26800 -7.13400
C 14.26800 -12.48450 -5.35050
C 16.05150 -14.26800 -5.35050
C 16.05150 -12.48450 -7.13400
C 15.15975 -13.37625 -6.24225
C 15.15975 -11.59275 -4.45875
C 16.94325 -13.37625 -4.45875
C 16.94325 -11.59275 -6.24225
C 14.26800 -14.26800 -3.56700
C 14.26800 -12.48450 -1.78350
C 16.05150 -14.26800 -1.78350
C 16.05150 -12.48450 -3.56700
C 15.15975 -13.37625 -2.67525
C 15.15975 -11.59275 -0.89175
C 16.94325 -13.37625 -0.89175
C 16.94325 -11.59275 -2.67525
C 14.26800 -10.70100 -17.83500
C 14.26800 -8.91750 -16.05150
C 16.05150 -10.70100 -16.05150
C 16.05150 -8.91750 -17.83500
C 15.15975 -9.80925 -16.94325
C 15.15975 -8.02575 -15.15975
C 16.94325 -9.80925 -15.15975
C 16.94325 -8.02575 -16.94325
C 14.26800 -10.70100 -14.26800
C 14.26800 -8.91750 -12.48450
C 16.05150 -10.70100 -12.48450
C 16.05150 -8.91750 -14.26800
C 15.15975 -9.80925 -13.37625
C 15.15975 -8.02575 -11.59275
C 16.94325 -9.80925 -11.59275
C 16.94325 -8.02575 -13.37625
C 14.26800 -10.70100 -10.70100
C 14.26800 -8.91750 -8.91750
C 16.05150 -10.70100 -8.91750
C 16.05150 -8.91750 -10.70100
C 15.15975 -9.80925 -9.80925
C 15.15975 -8.02575 -8.02575
C 16.94325 -9.80925 -8.02575
C 16.94325 -8.02575 -9.80925
C 14.26800 -10.70100 -7.13400
C 14.26800 -8.91750 -5.35050
C 16.05150 -10.70100 -5.35050
C 16.05150 -8.91750 -7.13400
C 15.15975 -9.80925 -6.24225
C 15.15975 -8.02575 -4.45875
C 16.94325 -9.80925 -4.45875
C 16.94325 -8.02575 -6.24225
C 14.26800 -10.70100 -3.56700
C 14.26800 -8.91750 -1.78350
C 16.05150 -10.70100 -1.78350
C 16.05150 -8.91750 -3.56700
C 15.15975 -9.80925 -2.67525
C 15.15975 -8.02575 -0.89175
C 16.94325 -9.80925 -0.89175
C 16.94325 -8.02575 -2.67525
C 14.26800 -7.13400 -17.83500
C 14.26800 -5.35050 -16.05150
C 16.05150 -7.13400 -16.05150
C 16.05150 -5.35050 -17.83500
C 15.15975 -6.24225 -16.94325
C 15.15975 -4.45875 -15.15975
C 16.94325 -6.24225 -15.15975
C 16.94325 -4.45875 -16.94325
C 14.26800 -7.13400 -14.26800
C 14.26800 -5.35050 -12.48450
C 16.05150 -7.13400 -12.48450
C 16.05150 -5.35050 -14.26800
C 15.15975 -6.24225 -13.37625
C 15.15975 -4.45875 -11.59275
C 16.94325 -6.24225 -11.59275
C 16.94325 -4.45875 -13.37625
C 14.26800 -7.13400 -10.70100
C 14.26800 -5.35050 -8.91750
C 16.05150 -7.13400 -8.91750
C 16.05150 -5.35050 -10.70100
C 15.15975 -6.24225 -9.80925
C 15.15975 -4.45875 -8.02575
C 16.94325 -6.24225 -8.02575
C 16.94325 -4.45875 -9.80925
C 14.26800 -7.13400 -7.13400
C 14.26800 -5.35050 -5.35050
C 16.05150 -7.13400 -5.35050
C 16.05150 -5.35050 -7.13400
C 15.15975 -6.24225 -6.24225
C 15.15975 -4.45875 -4.45875
C 16.94325 -6.24225 -4.45875
C 16.94325 -4.45875 -6.24225
C 14.26800 -7.13400 -3.56700
C 14.26800 -5.35050 -1.78350
C 16.05150 -7.13400 -1.78350
C 16.05150 -5.35050 -3.56700
C 15.15975 -6.24225 -2.67525
C 15.15975 -4.45875 -0.89175
C 16.94325 -6.24225 -0.89175
C 16.94325 -4.45875 -2.67525
C 14.26800 -3.56700 -17.83500
C 14.26800 -1.78350 -16.05150
C 16.05150 -3.56700 -16.05150
C 16.05150 -1.78350 -17.83500
C 15.15975 -2.67525 -16.94325
C 15.15975 -0.89175 -15.15975
C 16.94325 -2.67525 -15.15975
C 16.94325 -0.89175 -16.94325
C 14.26800 -3.56700 -14.26800
C 14.26800 -1.78350 -12.48450
C 16.05150 -3.56700 -12.48450
C 16.05150 -1.78350 -14.26800
C 15.15975 -2.67525 -13.37625
C 15.15975 -0.89175 -11.59275
C 16.94325 -2.67525 -11.59275
C 16.94325 -0.89175 -13.37625
C 14.26800 -3.56700 -10.70100
C 14.26800 -1.78350 -8.91750
C 16.05150 -3.56700 -8.91750
C 16.05150 -1.78350 -10.70100
C 15.15975 -2.67525 -9.80925
C 15.15975 -0.89175 -8.02575
C 16.94325 -2.67525 -8.02575
C 16.94325 -0.89175 -9.80925
C 14.26800 -3.56700 -7.13400
C 14.26800 -1.78350 -5.35050
C 16.05150 -3.56700 -5.35050
C 16.05150 -1.78350 -7.13400
C 15.15975 -2.67525 -6.24225
C 15.15975 -0.89175 -4.45875
C 16.94325 -2.67525 -4.45875
C 16.94325 -0.89175 -6.24225
C 14.26800 -3.56700 -3.56700
C 14.26800 -1.78350 -1.78350
C 16.05150 -3.56700 -1.78350
C 16.05150 -1.78350 -3.56700
C 15.15975 -2.67525 -2.67525
C 15.15975 -0.89175 -0.89175
C 16.94325 -2.67525 -0.89175
C 16.94325 -0.89175 -2.67525
N  0.00000 -17.83500  0.00000
C  0.00000 -16.05150  1.78350
C  1.78350 -17.83500  1.78350
C  1.78350 -16.05150  0.00000
C  0.89175 -16.94325  0.89175
C  0.89175 -15.15975  2.67525
C  2.67525 -16.94325  2.67525
C  2.67525 -15.15975  0.89175
C  0.00000 -17.83500  3.56700
C  0.00000 -16.05150  5.35050
C  1.78350 -17.83500  5.35050
C  1.78350 -16.05150  3.56700
C  0.89175 -16.94325  4.45875
C  0.89175 -15.15975  6.24225
C  2.67525 -16.94325  6.24225
C  2.67525 -15.15975  4.45875
C  0.00000 -17.83500  7.13400
C  0.00000 -16.05150  8.91750
C  1.78350 -17.83500  8.91750
C  1.78350 -16.05150  7.13400
C  0.89175 -16.94325  8.02575
C  0.89175 -15.15975  9.80925
C  2.67525 -16.94325  9.80925
C  2.67525 -15.15975  8.02575
C  0.00000 -17.83500 10.70100
C  0.00000 -16.05150 12.48450
C  1.78350 -17.83500 12.48450
C  1.78350 -16.05150 10.70100
C  0.89175 -16.94325 11.59275
C  0.89175 -15.15975 13.37625
C  2.67525 -16.94325 13.37625
C  2.67525 -15.15975 11.59275
C  0.00000 -17.83500 14.26800
C  0.00000 -16.05150 16.05150
C  1.78350 -17.83500 16.05150
C  1.78350 -16.05150 14.26800
C  0.89175 -16.94325 15.15975
C  0.89175 -15.15975 16.94325
C  2.67525 -16.94325 16.94325
C  2.67525 -15.15975 15.15975
C  0.00000 -14.26800  0.00000
C  0.00000 -12.48450  1.78350
C  1.78350 -14.26800  1.78350
C  1.78350 -12.48450  0.00000
C  0.89175 -13.37625  0.89175
C  0.89175 -11.59275  2.67525
C  2.67525 -13.37625  2.67525
C  2.67525 -11.59275  0.89175
C  0.00000 -14.26800  3.56700
C  0.00000 -12.48450  5.35050
C  1.78350 -14.26800  5.35050
C  1.78350 -12.48450  3.56700
C  0.89175 -13.37625  4.45875
C  0.89175 -11.59275  6.24225
C  2.67525 -13.37625  6.24225
C  2.67525 -11.59275  4.45875
C  0.00000 -14.26800  7.13400
C  0.00000 -12.48450  8.91750
C  1.78350 -14.26800  8.91750
C  1.78350 -12.48450  7.13400
C  0.89175 -13.37625  8.02575
C  0.89175 -11.59275  9.80925
C  2.67525 -13.37625  9.80925
C  2.67525 -11.59275  8.02575
C  0.00000 -14.26800 10.70100
C  0.00000 -12.48450 12.48450
C  1.78350 -14.26800 12.48450
C  1.78350 -12.48450 10.70100
C  0.89175 -13.37625 11.59275
C  0.89175 -11.59275 13.37625
C  2.67525 -13.37625 13.37625
C  2.67525 -11.59275 11.59275
C  0.00000 -14.26800 14.26800
C  0.00000 -12.48450 16.05150
C  1.78350 -14.26800 16.05150
C  1.78350 -12.48450 14.26800
C  0.89175 -13.37625 15.15975
C  0.89175 -11.59275 16.94325
C  2.67525 -13.37625 16.94325
C  2.67525 -11.59275 15.15975
C  0.00000 -10.70100  0.00000
C  0.00000 -8.91750  1.78350
C  1.78350 -10.70100  1.78350
C  1.78350 -8.91750  0.00000
C  0.89175 -9.80925  0.89175
C  0.89175 -8.02575  2.67525
C  2.67525 -9.80925  2.67525
C  2.67525 -8.02575  0.89175
C  0.00000 -10.70100  3.56700
C  0.00000 -8.91750  5.35050
C  1.78350 -10.70100  5.35050
C  1.78350 -8.91750  3.56700
C  0.89175 -9.80925  4.45875
C  0.89175 -8.02575  6.24225
C  2.67525 -9.80925  6.24225
C  2.67525 -8.02575  4.45875
C  0.00000 -10.70100  7.13400
C  0.00000 -8.91750  8.91750
C  1.78350 -10.70100  8.91750
C  1.78350 -8.91750  7.13400
C  0.89175 -9.80925  8.02575
C  0.89175 -8.02575  9.80925
C  2.67525 -9.80925  9.80925
C  2.67525 -8.02575  8.02575
C  0.00000 -10.70100 10.70100
C  0.00000 -8.91750 12.48450
C  1.78350 -10.70100 12.48450
C  1.78350 -8.91750 10.70100
C  0.89175 -9.80925 11.59275
C  0.89175 -8.02575 13.37625
C  2.67525 -9.80925 13.37625
C  2.67525 -8.02575 11.59275
C  0.00000 -10.70100 14.26800
C  0.00000 -8.91750 16.05150
C  1.78350 -10.70100 16.05150
C  1.78350 -8.91750 14.26800
C  0.89175 -9.80925 15.15975
C  0.89175 -8.02575 16.94325
C  2.67525 -9.80925 16.94325
C  2.67525 -8.02575 15.15975
C  0.00000 -7.13400  0.00000
C  0.00000 -5.35050  1.78350
C  1.78350 -7.13400  1.78350
C  1.78350 -5.35050  0.00000
C  0.89175 -6.24225  0.89175
C  0.89175 -4.45875  2.67525
C  2.67525 -6.24225  2.67525
C  2.67525 -4.45875  0.89175
C  0.00000 -7.13400  3.56700
C  0.00000 -5.35050  5.35050
C  1.78350 -7.13400  5.35050
C  1.78350 -5.35050  3.56700
C  0.89175 -6.24225  4.45875
C  0.89175 -4.45875  6.24225
C  2.67525 -6.24225  6.24225
C  2.67525 -4.45875  4.45875
C  0.00000 -7.13400  7.13400
C  0.00000 -5.35050  8.91750
C  1.78350 -7.13400  8.91750
C  1.78350 -5.35050  7.13400
C  0.89175 -6.24225  8.02575
C  0.89175 -4.45875  9.80925
C  2.67525 -6.24225  9.80925
C  2.67525 -4.45875  8.02575
C  0.00000 -7.13400 10.70100
C  0.00000 -5.35050 12.48450
C  1.78350 -7.13400 12.48450
C  1.78350 -5.35050 10.70100
C  0.89175 -6.24225 11.59275
C  0.89175 -4.45875 13.37625
C  2.67525 -6.24225 13.37625
C  2.67525 -4.45875 11.59275
C  0.00000 -7.13400 14.26800
C  0.00000 -5.35050 16.05150
C  1.78350 -7.13400 16.05150
C  1.78350 -5.35050 14.26800
C  0.89175 -6.24225 15.15975
C  0.89175 -4.45875 16.94325
C  2.67525 -6.24225 16.94325
C  2.67525 -4.45875 15.15975
C  0.00000 -3.56700  0.00000
C  0.00000 -1.78350  1.78350
C  1.78350 -3.56700  1.78350
C  1.78350 -1.78350  0.00000
C  0.89175 -2.67525  0.89175
C  0.89175 -0.89175  2.67525
C  2.67525 -2.67525  2.67525
C  2.67525 -0.89175  0.89175
C  0.00000 -3.56700  3.56700
C  0.00000 -1.78350  5.35050
C  1.78350 -3.56700  5.35050
C  1.78350 -1.78350  3.56700
C  0.89175 -2.67525  4.45875
C  0.89175 -0.89175  6.24225
C  2.67525 -2.67525  6.24225
C  2.67525 -0.89175  4.45875
C  0.00000 -3.56700  7.13400
C  0.00000 -1.78350  8.91750
C  1.78350 -3.56700  8.91750
C  1.78350 -1.78350  7.13400
C  0.89175 -2.67525  8.02575
C  0.89175 -0.89175  9.80925
C  2.67525 -2.67525  9.80925
C  2.67525 -0.89175  8.02575
C  0.00000 -3.56700 10.70100
C  0.00000 -1.78350 12.48450
C  1.78350 -3.56700 12.48450
C  1.78350 -1.78350 10.70100
C  0.89175 -2.67525 11.59275
C  0.89175 -0.89175 13.37625
C  2.67525 -2.67525 13.37625
C  2.67525 -0.89175 11.59275
C  0.00000 -3.56700 14.26800
C  0.00000 -1.78350 16.05150
C  1.78350 -3.56700 16.05150
C  1.78350 -1.78350 14.26800
C  0.89175 -2.67525 15.15975
C  0.89175 -0.89175 16.94325
C  2.67525 -2.67525 16.94325
C  2.67525 -0.89175 15.15975
C  3.56700 -17.83500  0.00000
C  3.56700 -16.05150  1.78350
C  5.35050 -17.83500  1.78350
C  5.35050 -16.05150  0.00000
C  4.45875 -16.94325  0.89175
C  4.45875 -15.15975  2.67525
C  6.24225 -16.94325  2.67525
C  6.24225 -15.15975  0.89175
C  3.56700 -17.83500  3.56700
C  3.56700 -16.05150  5.35050
C  5.35050 -17.83500  5.35050
C  5.35050 -16.05150  3.56700
C  4.45875 -16.94325  4.45875
C  4.45875 -15.15975  6.24225
C  6.24225 -16.94325  6.24225
C  6.24225 -15.15975  4.45875
C  3.56700 -17.83500  7.13400
C  3.56700 -16.05150  8.91750
C  5.35050 -17.83500  8.91750
C  5.35050 -16.05150  7.13400
C  4.45875 -16.94325  8.02575
C  4.45875 -15.15975  9.80925
C  6.24225 -16.94325  9.80925
C  6.24225 -15.15975  8.02575
C  3.56700 -17.83500 10.70100
C  3.56700 -16.05150 12.48450
C  5.35050 -17.83500 12.48450
C  5.35050 -16.05150 10.70100
C  4.45875 -16.94325 11.59275
C  4.45875 -15.15975 13.37625
C  6.24225 -16.94325 13.37625
C  6.24225 -15.15975 11.59275
C  3.56700 -17.83500 14.26800
C  3.56700 -16.05150 16.05150
C  5.35050 -17.83500 16.05150
C  5.35050 -16.05150 14.26800
C  4.45875 -16.94325 15.15975
C  4.45875 -15.15975 16.94325
C  6.24225 -16.94325 16.94325
C  6.24225 -15.15975 15.15975
C  3.56700 -14.26800  0.00000
C  3.56700 -12.48450  1.78350
C  5.35050 -14.26800  1.78350
C  5.35050 -12.48450  0.00000
C  4.45875 -13.37625  0.89175
C  4.45875 -11.59275  2.67525
C  6.24225 -13.37625  2.67525
C  6.24225 -11.59275  0.89175
C  3.56700 -14.26800  3.56700
C  3.56700 -12.48450  5.35050
C  5.35050 -14.26800  5.35050
C  5.35050 -12.48450  3.56700
C  4.45875 -13.37625  4.45875
C  4.45875 -11.59275  6.24225
C  6.24225 -13.37625  6.24225
C  6.24225 -11.59275  4.45875
C  3.56700 -14.26800  7.13400
C  3.56700 -12.48450  8.91750
C  5.35050 -14.26800  8.91750
C  5.35050 -12.48450  7.13400
C  4.45875 -13.37625  8.02575
C  4.45875 -11.59275  9.80925
C  6.24225 -13.37625  9.80925
C  6.24225 -11.59275  8.02575
C  3.56700 -14.26800 10.70100
C  3.56700 -12.48450 12.48450
C  5.35050 -14.26800 12.48450
C  5.35050 -12.48450 10.70100
C  4.45875 -13.37625 11.59275
C  4.45875 -11.59275 13.37625
C  6.24225 -13.37625 13.37625
C  6.24225 -11.59275 11.59275
C  3.56700 -14.26800 14.26800
C  3.56700 -12.48450 16.05150
C  5.35050 -14.26800 16.05150
C  5.35050 -12.48450 14.26800
C  4.45875 -13.37625 15.15975
C  4.45875 -11.59275 16.94325
C  6.24225 -13.37625 16.94325
C  6.24225 -11.59275 15.15975
C  3.56700 -10.70100  0.00000
C  3.56700 -8.91750  1.78350
C  5.35050 -10.70100  1.78350
C  5.35050 -8.91750  0.00000
C  4.45875 -9.80925  0.89175
C  4.45875 -8.02575  2.67525
C  6.24225 -9.80925  2.67525
C  6.24225 -8.02575  0.89175
C  3.56700 -10.70100  3.56700
C  3.56700 -8.91750  5.35050
C  5.35050 -10.70100  5.35050
C  5.35050 -8.91750  3.56700
C  4.45875 -9.80925  4.45875
C  4.45875 -8.02575  6.24225
C  6.24225 -9.80925  6.24225
C  6.24225 -8.02575  4.45875
C  3.56700 -10.70100  7.13400
C  3.56700 -8.91750  8.91750
C  5.35050 -10.70100  8.91750
C  5.35050 -8.91750  7.13400
C  4.45875 -9.80925  8.02575
C  4.45875 -8.02575  9.80925
C  6.24225 -9.80925  9.80925
C  6.24225 -8.02575  8.02575
C  3.56700 -10.70100 10.70100
C  3.56700 -8.91750 12.48450
C  5.35050 -10.70100 12.48450
C  5.35050 -8.91750 10.70100
C  4.45875 -9.80925 11.59275
C  4.45875 -8.02575 13.37625
C  6.24225 -9.80925 13.37625
C  6.24225 -8.02575 11.59275
C  3.56700 -10.70100 14.26800
C  3.56700 -8.91750 16.05150
C  5.35050 -10.70100 16.05150
C  5.35050 -8.91750 14.26800
C  4.45875 -9.80925 15.15975
C  4.45875 -8.02575 16.94325
C  6.24225 -9.80925 16.94325
C  6.24225 -8.02575 15.15975
C  3.56700 -7.13400  0.00000
C  3.56700 -5.35050  1.78350
C  5.35050 -7.13400  1.78350
C  5.35050 -5.35050  0.00000
C  4.45875 -6.24225  0.89175
C  4.45875 -4.45875  2.67525
C  6.24225 -6.24225  2.67525
C  6.24225 -4.45875  0.89175
C  3.56700 -7.13400  3.56700
C  3.56700 -5.35050  5.35050
C  5.35050 -7.13400  5.35050
C  5.35050 -5.35050  3.56700
C  4.45875 -6.24225  4.45875
C  4.45875 -4.45875  6.24225
C  6.24225 -6.24225  6.24225
C  6.24225 -4.45875  4.45875
C  3.56700 -7.13400  7.13400
C  3.56700 -5.35050  8.91750
C  5.35050 -7.13400  8.91750
C  5.35050 -5.35050  7.13400
C  4.45875 -6.24225  8.02575
C  4.45875 -4.45875  9.80925
C  6.24225 -6.24225  9.80925
C  6.24225 -4.45875  8.02575
C  3.56700 -7.13400 10.70100
C  3.56700 -5.35050 12.48450
C  5.35050 -7.13400 12.48450
C  5.35050 -5.35050 10.70100
C  4.45875 -6.24225 11.59275
C  4.45875 -4.45875 13.37625
C  6.24225 -6.24225 13.37625
C  6.24225 -4.45875 11.59275
C  3.56700 -7.13400 14.26800
C  3.56700 -5.35050 16.05150
C  5.35050 -7.13400 16.05150
C  5.35050 -5.35050 14.26800
C  4.45875 -6.24225 15.15975
C  4.45875 -4.45875 16.94325
C  6.24225 -6.24225 16.94325
C  6.24225 -4.45875 15.15975
C  3.56700 -3.56700  0.00000
C  3.56700 -1.78350  1.78350
C  5.35050 -3.56700  1.78350
C  5.35050 -1.78350  0.00000
C  4.45875 -2.67525  0.89175
C  4.45875 -0.89175  2.67525
C  6.24225 -2.67525  2.67525
C  6.24225 -0.89175  0.89175
C  3.56700 -3.56700  3.56700
C  3.56700 -1.78350  5.35050
C  5.35050 -3.56700  5.35050
C  5.35050 -1.78350  3.56700
C  4.45875 -2.67525  4.45875
C  4.45875 -0.89175  6.24225
C  6.24225 -2.67525  6.24225
C  6.24225 -0.89175  4.45875
C  3.56700 -3.56700  7.13400
C  3.56700 -1.78350  8.91750
C  5.35050 -3.56700  8.91750
C  5.35050 -1.78350  7.13400
C  4.45875 -2.67525  8.02575
C  4.45875 -0.89175  9.80925
C  6.24225 -2.67525  9.80925
C  6.24225 -0.89175  8.02575
C  3.56700 -3.56700 10.70100
C  3.56700 -1.78350 12.48450
C  5.35050 -3.56700 12.48450
C  5.35050 -1.78350 10.70100
C  4.45875 -2.67525 11.59275
C  4.45875 -0.89175 13.37625
C  6.24225 -2.67525 13.37625
C  6.24225 -0.89175 11.59275
C  3.56700 -3.56700 14.26800
C  3.56700 -1.78350 16.05150
C  5.35050 -3.56700 16.05150
C  5.35050 -1.78350 14.26800
C  4.45875 -2.67525 15.15975
C  4.45875 -0.89175 16.94325
C  6.24225 -2.67525 16.94325
C  6.24225 -0.89175 15.15975
C  7.13400 -17.83500  0.00000
C  7.13400 -16.05150  1.78350
C  8.91750 -17.83500  1.78350
C  8.91750 -16.05150  0.00000
C  8.02575 -16.94325  0.89175
C  8.02575 -15.15975  2.67525
C  9.80925 -16.94325  2.67525
C  9.80925 -15.15975  0.89175
C  7.13400 -17.83500  3.56700
C  7.13400 -16.05150  5.35050
C  8.91750 -17.83500  5.35050
C  8.91750 -16.05150  3.56700
C  8.02575 -16.94325  4.45875
C  8.02575 -15.15975  6.24225
C  9.80925 -16.94325  6.24225
C  9.80925 -15.15975  4.45875
C  7.13400 -17.83500  7.13400
C  7.13400 -16.05150  8.91750
C  8.91750 -17.83500  8.91750
C  8.91750 -16.05150  7.13400
C  8.02575 -16.94325  8.02575
C  8.02575 -15.15975  9.80925
C  9.80925 -16.94325  9.80925
C  9.80925 -15.15975  8.02575
C  7.13400 -17.83500 10.70100
C  7.13400 -16.05150 12.48450
C  8.91750 -17.83500 12.48450
C  8.91750 -16.05150 10.70100
C  8.02575 -16.94325 11.59275
C  8.02575 -15.15975 13.37625
C  9.80925 -16.94325 13.37625
C  9.80925 -15.15975 11.59275
C  7.13400 -17.83500 14.26800
C  7.13400 -16.05150 16.05150
C  8.91750 -17.83500 16.05150
C  8.91750 -16.05150 14.26800
C  8.02575 -16.94325 15.15975
C  8.02575 -15.15975 16.94325
C  9.80925 -16.94325 16.94325
C  9.80925 -15.15975 15.15975
C  7.13400 -14.26800  0.00000
C  7.13400 -12.48450  1.78350
C  8.91750 -14.26800  1.78350
C  8.91750 -12.48450  0.00000
C  8.02575 -13.37625  0.89175
C  8.02575 -11.59275  2.67525
C  9.80925 -13.37625  2.67525
C  9.80925 -11.59275  0.89175
C  7.13400 -14.26800  3.56700
C  7.13400 -12.48450  5.35050
C  8.91750 -14.26800  5.35050
C  8.91750 -12.48450  3.56700
C  8.02575 -13.37625  4.45875
C  8.02575 -11.59275  6.24225
C  9.80925 -13.37625  6.24225
C  9.80925 -11.59275  4.45875
C  7.13400 -14.26800  7.13400
C  7.13400 -12.48450  8.91750
C  8.91750 -14.26800  8.91750
C  8.91750 -12.48450  7.13400
C  8.02575 -13.37625  8.02575
C  8.02575 -11.59275  9.80925
C  9.80925 -13.37625  9.80925
C  9.80925 -11.59275  8.02575
C  7.13400 -14.26800 10.70100
C  7.13400 -12.48450 12.48450
C  8.91750 -14.26800 12.48450
C  8.91750 -12.48450 10.70100
C  8.02575 -13.37625 11.59275
C  8.02575 -11.59275 13.37625
C  9.80925 -13.37625 13.37625
C  9.80925 -11.59275 11.59275
C  7.13400 -14.26800 14.26800
C  7.13400 -12.48450 16.05150
C  8.91750 -14.26800 16.05150
C  8.91750 -12.48450 14.26800
C  8.02575 -13.37625 15.15975
C  8.02575 -11.59275 16.94325
C  9.80925 -13.37625 16.94325
C  9.80925 -11.59275 15.15975
C  7.13400 -10.70100  0.00000
C  7.13400 -8.91750  1.78350
C  8.91750 -10.70100  1.78350
C  8.91750 -8.91750  0.00000
C  8.02575 -9.80925  0.89175
C  8.02575 -8.02575  2.67525
C  9.80925 -9.80925  2.67525
C  9.80925 -8.02575  0.89175
C  7.13400 -10.70100  3.56700
C  7.13400 -8.91750  5.35050
C  8.91750 -10.70100  5.35050
C  8.91750 -8.91750  3.56700
C  8.02575 -9.80925  4.45875
C  8.02575 -8.02575  6.24225
C  9.80925 -9.80925  6.24225
C  9.80925 -8.02575  4.45875
C  7.13400 -10.70100  7.13400
C  7.13400 -8.91750  8.91750
C  8.91750 -10.70100  8.91750
C  8.91750 -8.91750  7.13400
C  8.02575 -9.80925  8.02575
C  8.02575 -8.02575  9.80925
C  9.80925 -9.80925  9.80925
C  9.80925 -8.02575  8.02575
C  7.13400 -10.70100 10.70100
C  7.13400 -8.91750 12.48450
C  8.91750 -10.70100 12.48450
C  8.91750 -8.91750 10.70100
C  8.02575 -9.80925 11.59275
C  8.02575 -8.02575 13.37625
C  9.80925 -9.80925 13.37625
C  9.80925 -8.02575 11.59275
C  7.13400 -10.70100 14.26800
C  7.13400 -8.91750 16.05150
C  8.91750 -10.70100 16.05150
C  8.91750 -8.91750 14.26800
C  8.02575 -9.80925 15.15975
C  8.02575 -8.02575 16.94325
C  9.80925 -9.80925 16.94325
C  9.80925 -8.02575 15.15975
C  7.13400 -7.13400  0.00000
C  7.13400 -5.35050  1.78350
C  8.91750 -7.13400  1.78350
C  8.91750 -5.35050  0.00000
C  8.02575 -6.24225  0.89175
C  8.02575 -4.45875  2.67525
C  9.80925 -6.24225  2.67525
C  9.80925 -4.45875  0.89175
C  7.13400 -7.13400  3.56700
C  7.13400 -5.35050  5.35050
C  8.91750 -7.13400  5.35050
C  8.91750 -5.35050  3.56700
C  8.02575 -6.24225  4.45875
C  8.02575 -4.45875  6.24225
C  9.80925 -6.24225  6.24225
C  9.80925 -4.45875  4.45875
C  7.13400 -7.13400  7.13400
C  7.13400 -5.35050  8.91750
C  8.91750 -7.13400  8.91750
C  8.91750 -5.35050  7.13400
C  8.02575 -6.24225  8.02575
C  8.02575 -4.45875  9.80925
C  9.80925 -6.24225  9.80925
C  9.80925 -4.45875  8.02575
C  7.13400 -7.13400 10.70100
C  7.13400 -5.35050 12.48450
C  8.91750 -7.13400 12.48450
C  8.91750 -5.35050 10.70100
C  8.02575 -6.24225 11.59275
C  8.02575 -4.45875 13.37625
C  9.80925 -6.24225 13.37625
C  9.80925 -4.45875 11.59275
C  7.13400 -7.13400 14.26800
C  7.13400 -5.35050 16.05150
C  8.91750 -7.13400 16.05150
C  8.91750 -5.35050 14.26800
C  8.02575 -6.24225 15.15975
C  8.02575 -4.45875 16.94325
C  9.80925 -6.24225 16.94325
C  9.80925 -4.45875 15.15975
C  7.13400 -3.56700  0.00000
C  7.13400 -1.78350  1.78350
C  8.91750 -3.56700  1.78350
C  8.91750 -1.78350  0.00000
C  8.02575 -2.67525  0.89175
C  8.02575 -0.89175  2.67525
C  9.80925 -2.67525  2.67525
C  9.80925 -0.89175  0.89175
C  7.13400 -3.56700  3.56700
C  7.13400 -1.78350  5.35050
C  8.91750 -3.56700  5.35050
C  8.91750 -1.78350  3.56700
C  8.02575 -2.67525  4.45875
C  8.02575 -0.89175  6.24225
C  9.80925 -2.67525  6.24225
C  9.80925 -0.89175  4.45875
C  7.13400 -3.56700  7.13400
C  7.13400 -1.78350  8.91750
C  8.91750 -3.56700  8.91750
C  8.91750 -1.78350  7.13400
C  8.02575 -2.67525  8.02575
C  8.02575 -0.89175  9.80925
C  9.80925 -2.67525  9.80925
C  9.80925 -0.89175  8.02575
C  7.13400 -3.56700 10.70100
C  7.13400 -1.78350 12.48450
C  8.91750 -3.56700 12.48450
C  8.91750 -1.78350 10.70100
C  8.02575 -2.67525 11.59275
C  8.02575 -0.89175 13.37625
C  9.80925 -2.67525 13.37625
C  9.80925 -0.89175 11.59275
C  7.13400 -3.56700 14.26800
C  7.13400 -1.78350 16.05150
C  8.91750 -3.56700 16.05150
C  8.91750 -1.78350 14.26800
C  8.02575 -2.67525 15.15975
C  8.02575 -0.89175 16.94325
C  9.80925 -2.67525 16.94325
C  9.80925 -0.89175 15.15975
C 10.70100 -17.83500  0.00000
C 10.70100 -16.05150  1.78350
C 12.48450 -17.83500  1.78350
C 12.48450 -16.05150  0.00000
C 11.59275 -16.94325  0.89175
C 11.59275 -15.15975  2.67525
C 13.37625 -16.94325  2.67525
C 13.37625 -15.15975  0.89175
C 10.70100 -17.83500  3.56700
C 10.70100 -16.05150  5.35050
C 12.48450 -17.83500  5.35050
C 12.48450 -16.05150  3.56700
C 11.59275 -16.94325  4.45875
C 11.59275 -15.15975  6.24225
C 13.37625 -16.94325  6.24225
C 13.37625 -15.15975  4.45875
C 10.70100 -17.83500  7.13400
C 10.70100 -16.05150  8.91750
C 12.48450 -17.83500  8.91750
C 12.48450 -16.05150  7.13400
C 11.59275 -16.94325  8.02575
C 11.59275 -15.15975  9.80925
C 13.37625 -16.94325  9.80925
C 13.37625 -15.15975  8.02575
C 10.70100 -17.83500 10.70100
C 10.70100 -16.05150 12.48450
C 12.48450 -17.83500 12.48450
C 12.48450 -16.05150 10.70100
C 11.59275 -16.94325 11.59275
C 11.59275 -15.15975 13.37625
C 13.37625 -16.94325 13.37625
C 13.37625 -15.15975 11.59275
C 10.70100 -17.83500 14.26800
C 10.70100 -16.05150 16.05150
C 12.48450 -17.83500 16.05150
C 12.48450 -16.05150 14.26800
C 11.59275 -16.94325 15.15975
C 11.59275 -15.15975 16.94325
C 13.37625 -16.94325 16.94325
C 13.37625 -15.15975 15.15975
C 10.70100 -14.26800  0.00000
C 10.70100 -12.48450  1.78350
C 12.48450 -14.26800  1.78350
C 12.48450 -12.48450  0.00000
C 11.59275 -13.37625  0.89175
C 11.59275 -11.59275  2.67525
C 13.37625 -13.37625  2.67525
C 13.37625 -11.59275  0.89175
C 10.70100 -14.26800  3.56700
C 10.70100 -12.48450  5.35050
C 12.48450 -14.26800  5.35050
C 12.48450 -12.48450  3.56700
C 11.59275 -13.37625  4.45875
C 11.59275 -11.59275  6.24225
C 13.37625 -13.37625  6.24225
C 13.37625 -11.59275  4.45875
C 10.70100 -14.26800  7.13400
C 10.70100 -12.48450  8.91750
C 12.48450 -14.26800  8.91750
C 12.48450 -12.48450  7.13400
C 11.59275 -13.37625  8.02575
C 11.59275 -11.59275  9.80925
C 13.37625 -13.37625  9.80925
C 13.37625 -11.59275  8.02575
C 10.70100 -14.26800 10.70100
C 10.70100 -12.48450 12.48450
C 12.48450 -14.26800 12.48450
C 12.48450 -12.48450 10.70100
C 11.59275 -13.37625 11.59275
C 11.59275 -11.59275 13.37625
C 13.37625 -13.37625 13.37625
C 13.37625 -11.59275 11.59275
C 10.70100 -14.26800 14.26800
C 10.70100 -12.48450 16.05150
C 12.48450 -14.26800 16.05150
C 12.48450 -12.48450 14.26800
C 11.59275 -13.37625 15.15975
C 11.59275 -11.59275 16.94325
C 13.37625 -13.37625 16.94325
C 13.37625 -11.59275 15.15975
C 10.70100 -10.70100  0.00000
C 10.70100 -8.91750  1.78350
C 12.48450 -10.70100  1.78350
C 12.48450 -8.91750  0.00000
C 11.59275 -9.80925  0.89175
C 11.59275 -8.02575  2.67525
C 13.37625 -9.80925  2.67525
C 13.37625 -8.02575  0.89175
C 10.70100 -10.70100  3.56700
C 10.70100 -8.91750  5.35050
C 12.48450 -10.70100  5.35050
C 12.48450 -8.91750  3.56700
C 11.59275 -9.80925  4.45875
C 11.59275 -8.02575  6.24225
C 13.37625 -9.80925  6.24225
C 13.37625 -8.02575  4.45875
C 10.70100 -10.70100  7.13400
C 10.70100 -8.91750  8.91750
C 12.48450 -10.70100  8.91750
C 12.48450 -8.91750  7.13400
C 11.59275 -9.80925  8.02575
C 11.59275 -8.02575  9.80925
C 13.37625 -9.80925  9.80925
C 13.37625 -8.02575  8.02575
C 10.70100 -10.70100 10.70100
C 10.70100 -8.91750 12.48450
C 12.48450 -10.70100 12.48450
C 12.48450 -8.91750 10.70100
C 11.59275 -9.80925 11.59275
C 11.59275 -8.02575 13.37625
C 13.37625 -9.80925 13.37625
C 13.37625 -8.02575 11.59275
C 10.70100 -10.70100 14.26800
C 10.70100 -8.91750 16.05150
C 12.48450 -10.70100 16.05150
C 12.48450 -8.91750 14.26800
C 11.59275 -9.80925 15.15975
C 11.59275 -8.02575 16.94325
C 13.37625 -9.80925 16.94325
C 13.37625 -8.02575 15.15975
C 10.70100 -7.13400  0.00000
C 10.70100 -5.35050  1.78350
C 12.48450 -7.13400  1.78350
C 12.48450 -5.35050  0.00000
C 11.59275 -6.24225  0.89175
C 11.59275 -4.45875  2.67525
C 13.37625 -6.24225  2.67525
C 13.37625 -4.45875  0.89175
C 10.70100 -7.13400  3.56700
C 10.70100 -5.35050  5.35050
C 12.48450 -7.13400  5.35050
C 12.48450 -5.35050  3.56700
C 11.59275 -6.24225  4.45875
C 11.59275 -4.45875  6.24225
C 13.37625 -6.24225  6.24225
C 13.37625 -4.45875  4.45875
C 10.70100 -7.13400  7.13400
C 10.70100 -5.35050  8.91750
C 12.48450 -7.13400  8.91750
C 12.48450 -5.35050  7.13400
C 11.59275 -6.24225  8.02575
C 11.59275 -4.45875  9.80925
C 13.37625 -6.24225  9.80925
C 13.37625 -4.45875  8.02575
C 10.70100 -7.13400 10.70100
C 10.70100 -5.35050 12.48450
C 12.48450 -7.13400 12.48450
C 12.48450 -5.35050 10.70100
C 11.59275 -6.24225 11.59275
C 11.59275 -4.45875 13.37625
C 13.37625 -6.24225 13.37625
C 13.37625 -4.45875 11.59275
C 10.70100 -7.13400 14.26800
C 10.70100 -5.35050 16.05150
C 12.48450 -7.13400 16.05150
C 12.48450 -5.35050 14.26800
C 11.59275 -6.24225 15.15975
C 11.59275 -4.45875 16.94325
C 13.37625 -6.24225 16.94325
C 13.37625 -4.45875 15.15975
C 10.70100 -3.56700  0.00000
C 10.70100 -1.78350  1.78350
C 12.48450 -3.56700  1.78350
C 12.48450 -1.78350  0.00000
C 11.59275 -2.67525  0.89175
C 11.59275 -0.89175  2.67525
C 13.37625 -2.67525  2.67525
C 13.37625 -0.89175  0.89175
C 10.70100 -3.56700  3.56700
C 10.70100 -1.78350  5.35050
C 12.48450 -3.56700  5.35050
C 12.48450 -1.78350  3.56700
C 11.59275 -2.67525  4.45875
C 11.59275 -0.89175  6.24225
C 13.37625 -2.67525  6.24225
C 13.37625 -0.89175  4.45875
C 10.70100 -3.56700  7.13400
C 10.70100 -1.78350  8.91750
C 12.48450 -3.56700  8.91750
C 12.48450 -1.78350  7.13400
C 11.59275 -2.67525  8.02575
C 11.59275 -0.89175  9.80925
C 13.37625 -2.67525  9.80925
C 13.37625 -0.89175  8.02575
C 10.70100 -3.56700 10.70100
C 10.70100 -1.78350 12.48450
C 12.48450 -3.56700 12.48450
C 12.48450 -1.78350 10.70100
C 11.59275 -2.67525 11.59275
C 11.59275 -0.89175 13.37625
C 13.37625 -2.67525 13.37625
C 13.37625 -0.89175 11.59275
C 10.70100 -3.56700 14.26800
C 10.70100 -1.78350 16.05150
C 12.48450 -3.56700 16.05150
C 12.48450 -1.78350 14.26800
C 11.59275 -2.67525 15.15975
C 11.59275 -0.89175 16.94325
C 13.37625 -2.67525 16.94325
C 13.37625 -0.89175 15.15975
C 14.26800 -17.83500  0.00000
C 14.26800 -16.05150  1.78350
C 16.05150 -17.83500  1.78350
C 16.05150 -16.05150  0.00000
C 15.15975 -16.94325  0.89175
C 15.15975 -15.15975  2.67525
C 16.94325 -16.94325  2.67525
C 16.94325 -15.15975  0.89175
C 14.26800 -17.83500  3.56700
C 14.26800 -16.05150  5.35050
C 16.05150 -17.83500  5.35050
C 16.05150 -16.05150  3.56700
C 15.15975 -16.94325  4.45875
C 15.15975 -15.15975  6.24225
C 16.94325 -16.94325  6.24225
C 16.94325 -15.15975  4.45875
C 14.26800 -17.83500  7.13400
C 14.26800 -16.05150  8.91750
C 16.05150 -17.83500  8.91750
C 16.05150 -16.05150  7.13400
C 15.15975 -16.94325  8.02575
C 15.15975 -15.15975  9.80925
C 16.94325 -16.94325  9.80925
C 16.94325 -15.15975  8.02575
C 14.26800 -17.83500 10.70100
C 14.26800 -16.05150 12.48450
C 16.05150 -17.83500 12.48450
C 16.05150 -16.05150 10.70100
C 15.15975 -16.94325 11.59275
C 15.15975 -15.15975 13.37625
C 16.94325 -16.94325 13.37625
C 16.94325 -15.15975 11.59275
C 14.26800 -17.83500 14.26800
C 14.26800 -16.05150 16.05150
C 16.05150 -17.83500 16.05150
C 16.05150 -16.05150 14.26800
C 15.15975 -16.94325 15.15975
C 15.15975 -15.15975 16.94325
C 16.94325 -16.94325 16.94325
C 16.94325 -15.15975 15.15975
C 14.26800 -14.26800  0.00000
C 14.26800 -12.48450  1.78350
C 16.05150 -14.26800  1.78350
C 16.05150 -12.48450  0.00000
C 15.15975 -13.37625  0.89175
C 15.15975 -11.59275  2.67525
C 16.94325 -13.37625  2.67525
C 16.94325 -11.59275  0.89175
C 14.26800 -14.26800  3.56700
C 14.26800 -12.48450  5.35050
C 16.05150 -14.26800  5.35050
C 16.05150 -12.48450  3.56700
C 15.15975 -13.37625  4.45875
C 15.15975 -11.59275  6.24225
C 16.94325 -13.37625  6.24225
C 16.94325 -11.59275  4.45875
C 14.26800 -14.26800  7.13400
C 14.26800 -12.48450  8.91750
C 16.05150 -14.26800  8.91750
C 16.05150 -12.48450  7.13400
C 15.15975 -13.37625  8.02575
C 15.15975 -11.59275  9.80925
C 16.94325 -13.37625  9.80925
C 16.94325 -11.59275  8.02575
C 14.26800 -14.26800 10.70100
C 14.26800 -12.48450 12.48450
C 16.05150 -14.26800 12.48450
C 16.05150 -12.48450 10.70100
C 15.15975 -13.37625 11.59275
C 15.15975 -11.59275 13.37625
C 16.94325 -13.37625 13.37625
C 16.94325 -11.59275 11.59275
C 14.26800 -14.26800 14.26800
C 14.26800 -12.48450 16.05150
C 16.05150 -14.26800 16.05150
C 16.05150 -12.48450 14.26800
C 15.15975 -13.37625 15.15975
C 15.15975 -11.59275 16.94325
C 16.94325 -13.37625 16.94325
C 16.94325 -11.59275 15.15975
C 14.26800 -10.70100  0.00000
C 14.26800 -8.91750  1.78350
C 16.05150 -10.70100  1.78350
C 16.05150 -8.91750  0.00000
C 15.15975 -9.80925  0.89175
C 15.15975 -8.02575  2.67525
C 16.94325 -9.80925  2.67525
C 16.94325 -8.02575  0.89175
C 14.26800 -10.70100  3.56700
C 14.26800 -8.91750  5.35050
C 16.05150 -10.70100  5.35050
C 16.05150 -8.91750  3.56700
C 15.15975 -9.80925  4.45875
C 15.15975 -8.02575  6.24225
C 16.94325 -9.80925  6.24225
C 16.94325 -8.02575  4.45875
C 14.26800 -10.70100  7.13400
C 14.26800 -8.91750  8.91750
C 16.05150 -10.70100  8.91750
C 16.05150 -8.91750  7.13400
C 15.15975 -9.80925  8.02575
C 15.15975 -8.02575  9.80925
C 16.94325 -9.80925  9.80925
C 16.94325 -8.02575  8.02575
C 14.26800 -10.70100 10.70100
C 14.26800 -8.91750 12.48450
C 16.05150 -10.70100 12.48450
C 16.05150 -8.91750 10.70100
C 15.15975 -9.80925 11.59275
C 15.15975 -8.02575 13.37625
C 16.94325 -9.80925 13.37625
C 16.94325 -8.02575 11.59275
C 14.26800 -10.70100 14.26800
C 14.26800 -8.91750 16.05150
C 16.05150 -10.70100 16.05150
C 16.05150 -8.91750 14.26800
C 15.15975 -9.80925 15.15975
C 15.15975 -8.02575 16.94325
C 16.94325 -9.80925 16.94325
C 16.94325 -8.02575 15.15975
C 14.26800 -7.13400  0.00000
C 14.26800 -5.35050  1.78350
C 16.05150 -7.13400  1.78350
C 16.05150 -5.35050  0.00000
C 15.15975 -6.24225  0.89175
C 15.15975 -4.45875  2.67525
C 16.94325 -6.24225  2.67525
C 16.94325 -4.45875  0.89175
C 14.26800 -7.13400  3.56700
C 14.26800 -5.35050  5.35050
C 16.05150 -7.13400  5.35050
C 16.05150 -5.35050  3.56700
C 15.15975 -6.24225  4.45875
C 15.15975 -4.45875  6.24225
C 16.94325 -6.24225  6.24225
C 16.94325 -4.45875  4.45875
C 14.26800 -7.13400  7.13400
C 14.26800 -5.35050  8.91750
C 16.05150 -7.13400  8.91750
C 16.05150 -5.35050  7.13400
C 15.15975 -6.24225  8.02575
C 15.15975 -4.45875  9.80925
C 16.94325 -6.24225  9.80925
C 16.94325 -4.45875  8.02575
C 14.26800 -7.13400 10.70100
C 14.26800 -5.35050 12.48450
C 16.05150 -7.13400 12.48450
C 16.05150 -5.35050 10.70100
C 15.15975 -6.24225 11.59275
C 15.15975 -4.45875 13.37625
C 16.94325 -6.24225 13.37625
C 16.94325 -4.45875 11.59275
C 14.26800 -7.13400 14.26800
C 14.26800 -5.35050 16.05150
C 16.05150 -7.13400 16.05150
C 16.05150 -5.35050 14.26800
C 15.15975 -6.24225 15.15975
C 15.15975 -4.45875 16.94325
C 16.94325 -6.24225 16.94325
C 16.94325 -4.45875 15.15975
C 14.26800 -3.56700  0.00000
C 14.26800 -1.78350  1.78350
C 16.05150 -3.56700  1.78350
C 16.05150 -1.78350  0.00000
C 15.15975 -2.67525  0.89175
C 15.15975 -0.89175  2.67525
C 16.94325 -2.67525  2.67525
C 16.94325 -0.89175  0.89175
C 14.26800 -3.56700  3.56700
C 14.26800 -1.78350  5.35050
C 16.05150 -3.56700  5.35050
C 16.05150 -1.78350  3.56700
C 15.15975 -2.67525  4.45875
C 15.15975 -0.89175  6.24225
C 16.94325 -2.67525  6.24225
C 16.94325 -0.89175  4.45875
C 14.26800 -3.56700  7.13400
C 14.26800 -1.78350  8.91750
C 16.05150 -3.56700  8.91750
C 16.05150 -1.78350  7.13400
C 15.15975 -2.67525  8.02575
C 15.15975 -0.89175  9.80925
C 16.94325 -2.67525  9.80925
C 16.94325 -0.89175  8.02575
C 14.26800 -3.56700 10.70100
C 14.26800 -1.78350 12.48450
C 16.05150 -3.56700 12.48450
C 16.05150 -1.78350 10.70100
C 15.15975 -2.67525 11.59275
C 15.15975 -0.89175 13.37625
C 16.94325 -2.67525 13.37625
C 16.94325 -0.89175 11.59275
C 14.26800 -3.56700 14.26800
C 14.26800 -1.78350 16.05150
C 16.05150 -3.56700 16.05150
C 16.05150 -1.78350 14.26800
C 15.15975 -2.67525 15.15975
C 15.15975 -0.89175 16.94325
C 16.94325 -2.67525 16.94325
C 16.94325 -0.89175 15.15975
N  0.00000 -17.83500 17.83500
C  0.00000 -16.05150 19.61850
C  1.78350 -17.83500 19.61850
C  1.78350 -16.05150 17.83500
C  0.89175 -16.94325 18.72675
C  0.89175 -15.15975 20.51025
C  2.67525 -16.94325 20.51025
C  2.67525 -15.15975 18.72675
C  0.00000 -17.83500 21.40200
C  0.00000 -16.05150 23.18550
C  1.78350 -17.83500 23.18550
C  1.78350 -16.05150 21.40200
C  0.89175 -16.94325 22.29375
C  0.89175 -15.15975 24.07725
C  2.67525 -16.94325 24.07725
C  2.67525 -15.15975 22.29375
C  0.00000 -17.83500 24.96900
C  0.00000 -16.05150 26.75250
C  1.78350 -17.83500 26.75250
C  1.78350 -16.05150 24.96900
C  0.89175 -16.94325 25.86075
C  0.89175 -15.15975 27.64425
C  2.67525 -16.94325 27.64425
C  2.67525 -15.15975 25.86075
C  0.00000 -17.83500 28.53600
C  0.00000 -16.05150 30.31950
C  1.78350 -17.83500 30.31950
C  1.78350 -16.05150 28.53600
C  0.89175 -16.94325 29.42775
C  0.89175 -15.15975 31.21125
C  2.67525 -16.94325 31.21125
C  2.67525 -15.15975 29.42775
C  0.00000 -17.83500 32.10300
C  0.00000 -16.05150 33.88650
C  1.78350 -17.83500 33.88650
C  1.78350 -16.05150 32.10300
C  0.89175 -16.94325 32.99475
C  0.89175 -15.15975 34.77825
C  2.67525 -16.94325 34.77825
C  2.67525 -15.15975 32.99475
C  0.00000 -14.26800 17.83500
C  0.00000 -12.48450 19.61850
C  1.78350 -14.26800 19.61850
C  1.78350 -12.48450 17.83500
C  0.89175 -13.37625 18.72675
C  0.89175 -11.59275 20.51025
C  2.67525 -13.37625 20.51025
C  2.67525 -11.59275 18.72675
C  0.00000 -14.26800 21.40200
C  0.00000 -12.48450 23.18550
C  1.78350 -14.26800 23.18550
C  1.78350 -12.48450 21.40200
C  0.89175 -13.37625 22.29375
C  0.89175 -11.59275 24.07725
C  2.67525 -13.37625 24.07725
C  2.67525 -11.59275 22.29375
C  0.00000 -14.26800 24.96900
C  0.00000 -12.48450 26.75250
C  1.78350 -14.26800 26.75250
C  1.78350 -12.48450 24.96900
C  0.89175 -13.37625 25.86075
C  0.89175 -11.59275 27.64425
C  2.67525 -13.37625 27.64425
C  2.67525 -11.59275 25.86075
C  0.00000 -14.26800 28.53600
C  0.00000 -12.48450 30.31950
C  1.78350 -14.26800 30.31950
C  1.78350 -12.48450 28.53600
C  0.89175 -13.37625 29.42775
C  0.89175 -11.59275 31.21125
C  2.67525 -13.37625 31.21125
C  2.67525 -11.59275 29.42775
C  0.00000 -14.26800 32.10300
C  0.00000 -12.48450 33.88650
C  1.78350 -14.26800 33.88650
C  1.78350 -12.48450 32.10300
C  0.89175 -13.37625 32.99475
C  0.89175 -11.59275 34.77825
C  2.67525 -13.37625 34.77825
C  2.67525 -11.59275 32.99475
C  0.00000 -10.70100 17.83500
C  0.00000 -8.91750 19.61850
C  1.78350 -10.70100 19.61850
C  1.78350 -8.91750 17.83500
C  0.89175 -9.80925 18.72675
C  0.89175 -8.02575 20.51025
C  2.67525 -9.80925 20.51025
C  2.67525 -8.02575 18.72675
C  0.00000 -10.70100 21.40200
C  0.00000 -8.91750 23.18550
C  1.78350 -10.70100 23.18550
C  1.78350 -8.91750 21.40200
C  0.89175 -9.80925 22.29375
C  0.89175 -8.02575 24.07725
C  2.67525 -9.80925 24.07725
C  2.67525 -8.02575 22.29375
C  0.00000 -10.70100 24.96900
C  0.00000 -8.91750 26.75250
C  1.78350 -10.70100 26.75250
C  1.78350 -8.91750 24.96900
C  0.89175 -9.80925 25.86075
C  0.89175 -8.02575 27.64425
C  2.67525 -9.80925 27.64425
C  2.67525 -8.02575 25.86075
C  0.00000 -10.70100 28.53600
C  0.00000 -8.91750 30.31950
C  1.78350 -10.70100 30.31950
C  1.78350 -8.91750 28.53600
C  0.89175 -9.80925 29.42775
C  0.89175 -8.02575 31.21125
C  2.67525 -9.80925 31.21125
C  2.67525 -8.02575 29.42775
C  0.00000 -10.70100 32.10300
C  0.00000 -8.91750 33.88650
C  1.78350 -10.70100 33.88650
C  1.78350 -8.91750 32.10300
C  0.89175 -9.80925 32.99475
C  0.89175 -8.02575 34.77825
C  2.67525 -9.80925 34.77825
C  2.67525 -8.02575 32.99475
C  0.00000 -7.13400 17.83500
C  0.00000 -5.35050 19.61850
C  1.78350 -7.13400 19.61850
C  1.78350 -5.35050 17.83500
C  0.89175 -6.24225 18.72675
C  0.89175 -4.45875 20.51025
C  2.67525 -6.24225 20.51025
C  2.67525 -4.45875 18.72675
C  0.00000 -7.13400 21.40200
C  0.00000 -5.35050 23.18550
C  1.78350 -7.13400 23.18550
C  1.78350 -5.35050 21.40200
C  0.89175 -6.24225 22.29375
C  0.89175 -4.45875 24.07725
C  2.67525 -6.24225 24.07725
C  2.67525 -4.45875 22.29375
C  0.00000 -7.13400 24.96900
C  0.00000 -5.35050 26.75250
C  1.78350 -7.13400 26.75250
C  1.78350 -5.35050 24.96900
C  0.89175 -6.24225 25.86075
C  0.89175 -4.45875 27.64425
C  2.67525 -6.24225 27.64425
C  2.67525 -4.45875 25.86075
C  0.00000 -7.13400 28.53600
C  0.00000 -5.35050 30.31950
C  1.78350 -7.13400 30.31950
C  1.78350 -5.35050 28.53600
C  0.89175 -6.24225 29.42775
C  0.89175 -4.45875 31.21125
C  2.67525 -6.24225 31.21125
C  2.67525 -4.45875 29.42775
C  0.00000 -7.13400 32.10300
C  0.00000 -5.35050 33.88650
C  1.78350 -7.13400 33.88650
C  1.78350 -5.35050 32.10300
C  0.89175 -6.24225 32.99475
C  0.89175 -4.45875 34.77825
C  2.67525 -6.24225 34.77825
C  2.67525 -4.45875 32.99475
C  0.00000 -3.56700 17.83500
C  0.00000 -1.78350 19.61850
C  1.78350 -3.56700 19.61850
C  1.78350 -1.78350 17.83500
C  0.89175 -2.67525 18.72675
C  0.89175 -0.89175 20.51025
C  2.67525 -2.67525 20.51025
C  2.67525 -0.89175 18.72675
C  0.00000 -3.56700 21.40200
C  0.00000 -1.78350 23.18550
C  1.78350 -3.56700 23.18550
C  1.78350 -1.78350 21.40200
C  0.89175 -2.67525 22.29375
C  0.89175 -0.89175 24.07725
C  2.67525 -2.67525 24.07725
C  2.67525 -0.89175 22.29375
C  0.00000 -3.56700 24.96900
C  0.00000 -1.78350 26.75250
C  1.78350 -3.56700 26.75250
C  1.78350 -1.78350 24.96900
C  0.89175 -2.67525 25.86075
C  0.89175 -0.89175 27.64425
C  2.67525 -2.67525 27.64425
C  2.67525 -0.89175 25.86075
C  0.00000 -3.56700 28.53600
C  0.00000 -1.78350 30.31950
C  1.78350 -3.56700 30.31950
C  1.78350 -1.78350 28.53600
C  0.89175 -2.67525 29.42775
C  0.89175 -0.89175 31.21125
C  2.67525 -2.67525 31.21125
C  2.67525 -0.89175 29.42775
C  0.00000 -3.56700 32.10300
C  0.00000 -1.78350 33.88650
C  1.78350 -3.56700 33.88650
C  1.78350 -1.78350 32.10300
C  0.89175 -2.67525 32.99475
C  0.89175 -0.89175 34.77825
C  2.67525 -2.67525 34.77825
C  2.67525 -0.89175 32.99475
C  3.56700 -17.83500 17.83500
C  3.56700 -16.05150 19.61850
C  5.35050 -17.83500 19.61850
C  5.35050 -16.05150 17.83500
C  4.45875 -16.94325 18.72675
C  4.45875 -15.15975 20.51025
C  6.24225 -16.94325 20.51025
C  6.24225 -15.15975 18.72675
C  3.56700 -17.83500 21.40200
C  3.56700 -16.05150 23.18550
C  5.35050 -17.83500 23.18550
C  5.35050 -16.05150 21.40200
C  4.45875 -16.94325 22.29375
C  4.45875 -15.15975 24.07725
C  6.24225 -16.94325 24.07725
C  6.24225 -15.15975 22.29375
C  3.56700 -17.83500 24.96900
C  3.56700 -16.05150 26.75250
C  5.35050 -17.83500 26.75250
C  5.35050 -16.05150 24.96900
C  4.45875 -16.94325 25.86075
C  4.45875 -15.15975 27.64425
C  6.24225 -16.94325 27.64425
C  6.24225 -15.15975 25.86075
C  3.56700 -17.83500 28.53600
C  3.56700 -16.05150 30.31950
C  5.35050 -17.83500 30.31950
C  5.35050 -16.05150 28.53600
C  4.45875 -16.94325 29.42775
C  4.45875 -15.15975 31.21125
C  6.24225 -16.94325 31.21125
C  6.24225 -15.15975 29.42775
C  3.56700 -17.83500 32.10300
C  3.56700 -16.05150 33.88650
C  5.35050 -17.83500 33.88650
C  5.35050 -16.05150 32.10300
C  4.45875 -16.94325 32.99475
C  4.45875 -15.15975 34.77825
C  6.24225 -16.94325 34.77825
C  6.24225 -15.15975 32.99475
C  3.56700 -14.26800 17.83500
C  3.56700 -12.48450 19.61850
C  5.35050 -14.26800 19.61850
C  5.35050 -12.48450 17.83500
C  4.45875 -13.37625 18.72675
C  4.45875 -11.59275 20.51025
C  6.24225 -13.37625 20.51025
C  6.24225 -11.59275 18.72675
C  3.56700 -14.26800 21.40200
C  3.56700 -12.48450 23.18550
C  5.35050 -14.26800 23.18550
C  5.35050 -12.48450 21.40200
C  4.45875 -13.37625 22.29375
C  4.45875 -11.59275 24.07725
C  6.24225 -13.37625 24.07725
C  6.24225 -11.59275 22.29375
C  3.56700 -14.26800 24.96900
C  3.56700 -12.48450 26.75250
C  5.35050 -14.26800 26.75250
C  5.35050 -12.48450 24.96900
C  4.45875 -13.37625 25.86075
C  4.45875 -11.59275 27.64425
C  6.24225 -13.37625 27.64425
C  6.24225 -11.59275 25.86075
C  3.56700 -14.26800 28.53600
C  3.56700 -12.48450 30.31950
C  5.35050 -14.26800 30.31950
C  5.35050 -12.48450 28.53600
C  4.45875 -13.37625 29.42775
C  4.45875 -11.59275 31.21125
C  6.24225 -13.37625 31.21125
C  6.24225 -11.59275 29.42775
C  3.56700 -14.26800 32.10300
C  3.56700 -12.48450 33.88650
C  5.35050 -14.26800 33.88650
C  5.35050 -12.48450 32.10300
C  4.45875 -13.37625 32.99475
C  4.45875 -11.59275 34.77825
C  6.24225 -13.37625 34.77825
C  6.24225 -11.59275 32.99475
C  3.56700 -10.70100 17.83500
C  3.56700 -8.91750 19.61850
C  5.35050 -10.70100 19.61850
C  5.35050 -8.91750 17.83500
C  4.45875 -9.80925 18.72675
C  4.45875 -8.02575 20.51025
C  6.24225 -9.80925 20.51025
C  6.24225 -8.02575 18.72675
C  3.56700 -10.70100 21.40200
C  3.56700 -8.91750 23.18550
C  5.35050 -10.70100 23.18550
C  5.35050 -8.91750 21.40200
C  4.45875 -9.80925 22.29375
C  4.45875 -8.02575 24.07725
C  6.24225 -9.80925 24.07725
C  6.24225 -8.02575 22.29375
C  3.56700 -10.70100 24.96900
C  3.56700 -8.91750 26.75250
C  5.35050 -10.70100 26.75250
C  5.35050 -8.91750 24.96900
C  4.45875 -9.80925 25.86075
C  4.45875 -8.02575 27.64425
C  6.24225 -9.80925 27.64425
C  6.24225 -8.02575 25.86075
C  3.56700 -10.70100 28.53600
C  3.56700 -8.91750 30.31950
C  5.35050 -10.70100 30.31950
C  5.35050 -8.91750 28.53600
C  4.45875 -9.80925 29.42775
C  4.45875 -8.02575 31.21125
C  6.24225 -9.80925 31.21125
C  6.24225 -8.02575 29.42775
C  3.56700 -10.70100 32.10300
C  3.56700 -8.91750 33.88650
C  5.35050 -10.70100 33.88650
C  5.35050 -8.91750 32.10300
C  4.45875 -9.80925 32.99475
C  4.45875 -8.02575 34.77825
C  6.24225 -9.80925 34.77825
C  6.24225 -8.02575 32.99475
C  3.56700 -7.13400 17.83500
C  3.56700 -5.35050 19.61850
C  5.35050 -7.13400 19.61850
C  5.35050 -5.35050 17.83500
C  4.45875 -6.24225 18.72675
C  4.45875 -4.45875 20.51025
C  6.24225 -6.24225 20.51025
C  6.24225 -4.45875 18.72675
C  3.56700 -7.13400 21.40200
C  3.56700 -5.35050 23.18550
C  5.35050 -7.13400 23.18550
C  5.35050 -5.35050 21.40200
C  4.45875 -6.24225 22.29375
C  4.45875 -4.45875 24.07725
C  6.24225 -6.24225 24.07725
C  6.24225 -4.45875 22.29375
C  3.56700 -7.13400 24.96900
C  3.56700 -5.35050 26.75250
C  5.35050 -7.13400 26.75250
C  5.35050 -5.35050 24.96900
C  4.45875 -6.24225 25.86075
C  4.45875 -4.45875 27.64425
C  6.24225 -6.24225 27.64425
C  6.24225 -4.45875 25.86075
C  3.56700 -7.13400 28.53600
C  3.56700 -5.35050 30.31950
C  5.35050 -7.13400 30.31950
C  5.35050 -5.35050 28.53600
C  4.45875 -6.24225 29.42775
C  4.45875 -4.45875 31.21125
C  6.24225 -6.24225 31.21125
C  6.24225 -4.45875 29.42775
C  3.56700 -7.13400 32.10300
C  3.56700 -5.35050 33.88650
C  5.35050 -7.13400 33.88650
C  5.35050 -5.35050 32.10300
C  4.45875 -6.24225 32.99475
C  4.45875 -4.45875 34.77825
C  6.24225 -6.24225 34.77825
C  6.24225 -4.45875 32.99475
C  3.56700 -3.56700 17.83500
C  3.56700 -1.78350 19.61850
C  5.35050 -3.56700 19.61850
C  5.35050 -1.78350 17.83500
C  4.45875 -2.67525 18.72675
C  4.45875 -0.89175 20.51025
C  6.24225 -2.67525 20.51025
C  6.24225 -0.89175 18.72675
C  3.56700 -3.56700 21.40200
C  3.56700 -1.78350 23.18550
C  5.35050 -3.56700 23.18550
C  5.35050 -1.78350 21.40200
C  4.45875 -2.67525 22.29375
C  4.45875 -0.89175 24.07725
C  6.24225 -2.67525 24.07725
C  6.24225 -0.89175 22.29375
C  3.56700 -3.56700 24.96900
C  3.56700 -1.78350 26.75250
C  5.35050 -3.56700 26.75250
C  5.35050 -1.78350 24.96900
C  4.45875 -2.67525 25.86075
C  4.45875 -0.89175 27.64425
C  6.24225 -2.67525 27.64425
C  6.24225 -0.89175 25.86075
C  3.56700 -3.56700 28.53600
C  3.56700 -1.78350 30.31950
C  5.35050 -3.56700 30.31950
C  5.35050 -1.78350 28.53600
C  4.45875 -2.67525 29.42775
C  4.45875 -0.89175 31.21125
C  6.24225 -2.67525 31.21125
C  6.24225 -0.89175 29.42775
C  3.56700 -3.56700 32.10300
C  3.56700 -1.78350 33.88650
C  5.35050 -3.56700 33.88650
C  5.35050 -1.78350 32.10300
C  4.45875 -2.67525 32.99475
C  4.45875 -0.89175 34.77825
C  6.24225 -2.67525 34.77825
C  6.24225 -0.89175 32.99475
C  7.13400 -17.83500 17.83500
C  7.13400 -16.05150 19.61850
C  8.91750 -17.83500 19.61850
C  8.91750 -16.05150 17.83500
C  8.02575 -16.94325 18.72675
C  8.02575 -15.15975 20.51025
C  9.80925 -16.94325 20.51025
C  9.80925 -15.15975 18.72675
C  7.13400 -17.83500 21.40200
C  7.13400 -16.05150 23.18550
C  8.91750 -17.83500 23.18550
C  8.91750 -16.05150 21.40200
C  8.02575 -16.94325 22.29375
C  8.02575 -15.15975 24.07725
C  9.80925 -16.94325 24.07725
C  9.80925 -15.15975 22.29375
C  7.13400 -17.83500 24.96900
C  7.13400 -16.05150 26.75250
C  8.91750 -17.83500 26.75250
C  8.91750 -16.05150 24.96900
C  8.02575 -16.94325 25.86075
C  8.02575 -15.15975 27.64425
C  9.80925 -16.94325 27.64425
C  9.80925 -15.15975 25.86075
C  7.13400 -17.83500 28.53600
C  7.13400 -16.05150 30.31950
C  8.91750 -17.83500 30.31950
C  8.91750 -16.05150 28.53600
C  8.02575 -16.94325 29.42775
C  8.02575 -15.15975 31.21125
C  9.80925 -16.94325 31.21125
C  9.80925 -15.15975 29.42775
C  7.13400 -17.83500 32.10300
C  7.13400 -16.05150 33.88650
C  8.91750 -17.83500 33.88650
C  8.91750 -16.05150 32.10300
C  8.02575 -16.94325 32.99475
C  8.02575 -15.15975 34.77825
C  9.80925 -16.94325 34.77825
C  9.80925 -15.15975 32.99475
C  7.13400 -14.26800 17.83500
C  7.13400 -12.48450 19.61850
C  8.91750 -14.26800 19.61850
C  8.91750 -12.48450 17.83500
C  8.02575 -13.37625 18.72675
C  8.02575 -11.59275 20.51025
C  9.80925 -13.37625 20.51025
C  9.80925 -11.59275 18.72675
C  7.13400 -14.26800 21.40200
C  7.13400 -12.48450 23.18550
C  8.91750 -14.26800 23.18550
C  8.91750 -12.48450 21.40200
C  8.02575 -13.37625 22.29375
C  8.02575 -11.59275 24.07725
C  9.80925 -13.37625 24.07725
C  9.80925 -11.59275 22.29375
C  7.13400 -14.26800 24.96900
C  7.13400 -12.48450 26.75250
C  8.91750 -14.26800 26.75250
C  8.91750 -12.48450 24.96900
C  8.02575 -13.37625 25.86075
C  8.02575 -11.59275 27.64425
C  9.80925 -13.37625 27.64425
C  9.80925 -11.59275 25.86075
C  7.13400 -14.26800 28.53600
C  7.13400 -12.48450 30.31950
C  8.91750 -14.26800 30.31950
C  8.91750 -12.48450 28.53600
C  8.02575 -13.37625 29.42775
C  8.02575 -11.59275 31.21125
C  9.80925 -13.37625 31.21125
C  9.80925 -11.59275 29.42775
C  7.13400 -14.26800 32.10300
C  7.13400 -12.48450 33.88650
C  8.91750 -14.26800 33.88650
C  8.91750 -12.48450 32.10300
C  8.02575 -13.37625 32.99475
C  8.02575 -11.59275 34.77825
C  9.80925 -13.37625 34.77825
C  9.80925 -11.59275 32.99475
C  7.13400 -10.70100 17.83500
C  7.13400 -8.91750 19.61850
C  8.91750 -10.70100 19.61850
C  8.91750 -8.91750 17.83500
C  8.02575 -9.80925 18.72675
C  8.02575 -8.02575 20.51025
C  9.80925 -9.80925 20.51025
C  9.80925 -8.02575 18.72675
C  7.13400 -10.70100 21.40200
C  7.13400 -8.91750 23.18550
C  8.91750 -10.70100 23.18550
C  8.91750 -8.91750 21.40200
C  8.02575 -9.80925 22.29375
C  8.02575 -8.02575 24.07725
C  9.80925 -9.80925 24.07725
C  9.80925 -8.02575 22.29375
C  7.13400 -10.70100 24.96900
C  7.13400 -8.91750 26.75250
C  8.91750 -10.70100 26.75250
C  8.91750 -8.91750 24.96900
C  8.02575 -9.80925 25.86075
C  8.02575 -8.02575 27.64425
C  9.80925 -9.80925 27.64425
C  9.80925 -8.02575 25.86075
C  7.13400 -10.70100 28.53600
C  7.13400 -8.91750 30.31950
C  8.91750 -10.70100 30.31950
C  8.91750 -8.91750 28.53600
C  8.02575 -9.80925 29.42775
C  8.02575 -8.02575 31.21125
C  9.80925 -9.80925 31.21125
C  9.80925 -8.02575 29.42775
C  7.13400 -10.70100 32.10300
C  7.13400 -8.91750 33.88650
C  8.91750 -10.70100 33.88650
C  8.91750 -8.91750 32.10300
C  8.02575 -9.80925 32.99475
C  8.02575 -8.02575 34.77825
C  9.80925 -9.80925 34.77825
C  9.80925 -8.02575 32.99475
C  7.13400 -7.13400 17.83500
C  7.13400 -5.35050 19.61850
C  8.91750 -7.13400 19.61850
C  8.91750 -5.35050 17.83500
C  8.02575 -6.24225 18.72675
C  8.02575 -4.45875 20.51025
C  9.80925 -6.24225 20.51025
C  9.80925 -4.45875 18.72675
C  7.13400 -7.13400 21.40200
C  7.13400 -5.35050 23.18550
C  8.91750 -7.13400 23.18550
C  8.91750 -5.35050 21.40200
C  8.02575 -6.24225 22.29375
C  8.02575 -4.45875 24.07725
C  9.80925 -6.24225 24.07725
C  9.80925 -4.45875 22.29375
C  7.13400 -7.13400 24.96900
C  7.13400 -5.35050 26.75250
C  8.91750 -7.13400 26.75250
C  8.91750 -5.35050 24.96900
C  8.02575 -6.24225 25.86075
C  8.02575 -4.45875 27.64425
C  9.80925 -6.24225 27.64425
C  9.80925 -4.45875 25.86075
C  7.13400 -7.13400 28.53600
C  7.13400 -5.35050 30.31950
C  8.91750 -7.13400 30.31950
C  8.91750 -5.35050 28.53600
C  8.02575 -6.24225 29.42775
C  8.02575 -4.45875 31.21125
C  9.80925 -6.24225 31.21125
C  9.80925 -4.45875 29.42775
C  7.13400 -7.13400 32.10300
C  7.13400 -5.35050 33.88650
C  8.91750 -7.13400 33.88650
C  8.91750 -5.35050 32.10300
C  8.02575 -6.24225 32.99475
C  8.02575 -4.45875 34.77825
C  9.80925 -6.24225 34.77825
C  9.80925 -4.45875 32.99475
C  7.13400 -3.56700 17.83500
C  7.13400 -1.78350 19.61850
C  8.91750 -3.56700 19.61850
C  8.91750 -1.78350 17.83500
C  8.02575 -2.67525 18.72675
C  8.02575 -0.89175 20.51025
C  9.80925 -2.67525 20.51025
C  9.80925 -0.89175 18.72675
C  7.13400 -3.56700 21.40200
C  7.13400 -1.78350 23.18550
C  8.91750 -3.56700 23.18550
C  8.91750 -1.78350 21.40200
C  8.02575 -2.67525 22.29375
C  8.02575 -0.89175 24.07725
C  9.80925 -2.67525 24.07725
C  9.80925 -0.89175 22.29375
C  7.13400 -3.56700 24.96900
C  7.13400 -1.78350 26.75250
C  8.91750 -3.56700 26.75250
C  8.91750 -1.78350 24.96900
C  8.02575 -2.67525 25.86075
C  8.02575 -0.89175 27.64425
C  9.80925 -2.67525 27.64425
C  9.80925 -0.89175 25.86075
C  7.13400 -3.56700 28.53600
C  7.13400 -1.78350 30.31950
C  8.91750 -3.56700 30.31950
C  8.91750 -1.78350 28.53600
C  8.02575 -2.67525 29.42775
C  8.02575 -0.89175 31.21125
C  9.80925 -2.67525 31.21125
C  9.80925 -0.89175 29.42775
C  7.13400 -3.56700 32.10300
C  7.13400 -1.78350 33.88650
C  8.91750 -3.56700 33.88650
C  8.91750 -1.78350 32.10300
C  8.02575 -2.67525 32.99475
C  8.02575 -0.89175 34.77825
C  9.80925 -2.67525 34.77825
C  9.80925 -0.89175 32.99475
C 10.70100 -17.83500 17.83500
C 10.70100 -16.05150 19.61850
C 12.48450 -17.83500 19.61850
C 12.48450 -16.05150 17.83500
C 11.59275 -16.94325 18.72675
C 11.59275 -15.15975 20.51025
C 13.37625 -16.94325 20.51025
C 13.37625 -15.15975 18.72675
C 10.70100 -17.83500 21.40200
C 10.70100 -16.05150 23.18550
C 12.48450 -17.83500 23.18550
C 12.48450 -16.05150 21.40200
C 11.59275 -16.94325 22.29375
C 11.59275 -15.15975 24.07725
C 13.37625 -16.94325 24.07725
C 13.37625 -15.15975 22.29375
C 10.70100 -17.83500 24.96900
C 10.70100 -16.05150 26.75250
C 12.48450 -17.83500 26.75250
C 12.48450 -16.05150 24.96900
C 11.59275 -16.94325 25.86075
C 11.59275 -15.15975 27.64425
C 13.37625 -16.94325 27.64425
C 13.37625 -15.15975 25.86075
C 10.70100 -17.83500 28.53600
C 10.70100 -16.05150 30.31950
C 12.48450 -17.83500 30.31950
C 12.48450 -16.05150 28.53600
C 11.59275 -16.94325 29.42775
C 11.59275 -15.15975 31.21125
C 13.37625 -16.94325 31.21125
C 13.37625 -15.15975 29.42775
C 10.70100 -17.83500 32.10300
C 10.70100 -16.05150 33.88650
C 12.48450 -17.83500 33.88650
C 12.48450 -16.05150 32.10300
C 11.59275 -16.94325 32.99475
C 11.59275 -15.15975 34.77825
C 13.37625 -16.94325 34.77825
C 13.37625 -15.15975 32.99475
C 10.70100 -14.26800 17.83500
C 10.70100 -12.48450 19.61850
C 12.48450 -14.26800 19.61850
C 12.48450 -12.48450 17.83500
C 11.59275 -13.37625 18.72675
C 11.59275 -11.59275 20.51025
C 13.37625 -13.37625 20.51025
C 13.37625 -11.59275 18.72675
C 10.70100 -14.26800 21.40200
C 10.70100 -12.48450 23.18550
C 12.48450 -14.26800 23.18550
C 12.48450 -12.48450 21.40200
C 11.59275 -13.37625 22.29375
C 11.59275 -11.59275 24.07725
C 13.37625 -13.37625 24.07725
C 13.37625 -11.59275 22.29375
C 10.70100 -14.26800 24.96900
C 10.70100 -12.48450 26.75250
C 12.48450 -14.26800 26.75250
C 12.48450 -12.48450 24.96900
C 11.59275 -13.37625 25.86075
C 11.59275 -11.59275 27.64425
C 13.37625 -13.37625 27.64425
C 13.37625 -11.59275 25.86075
C 10.70100 -14.26800 28.53600
C 10.70100 -12.48450 30.31950
C 12.48450 -14.26800 30.31950
C 12.48450 -12.48450 28.53600
C 11.59275 -13.37625 29.42775
C 11.59275 -11.59275 31.21125
C 13.37625 -13.37625 31.21125
C 13.37625 -11.59275 29.42775
C 10.70100 -14.26800 32.10300
C 10.70100 -12.48450 33.88650
C 12.48450 -14.26800 33.88650
C 12.48450 -12.48450 32.10300
C 11.59275 -13.37625 32.99475
C 11.59275 -11.59275 34.77825
C 13.37625 -13.37625 34.77825
C 13.37625 -11.59275 32.99475
C 10.70100 -10.70100 17.83500
C 10.70100 -8.91750 19.61850
C 12.48450 -10.70100 19.61850
C 12.48450 -8.91750 17.83500
C 11.59275 -9.80925 18.72675
C 11.59275 -8.02575 20.51025
C 13.37625 -9.80925 20.51025
C 13.37625 -8.02575 18.72675
C 10.70100 -10.70100 21.40200
C 10.70100 -8.91750 23.18550
C 12.48450 -10.70100 23.18550
C 12.48450 -8.91750 21.40200
C 11.59275 -9.80925 22.29375
C 11.59275 -8.02575 24.07725
C 13.37625 -9.80925 24.07725
C 13.37625 -8.02575 22.29375
C 10.70100 -10.70100 24.96900
C 10.70100 -8.91750 26.75250
C 12.48450 -10.70100 26.75250
C 12.48450 -8.91750 24.96900
C 11.59275 -9.80925 25.86075
C 11.59275 -8.02575 27.64425
C 13.37625 -9.80925 27.64425
C 13.37625 -8.02575 25.86075
C 10.70100 -10.70100 28.53600
C 10.70100 -8.91750 30.31950
C 12.48450 -10.70100 30.31950
C 12.48450 -8.91750 28.53600
C 11.59275 -9.80925 29.42775
C 11.59275 -8.02575 31.21125
C 13.37625 -9.80925 31.21125
C 13.37625 -8.02575 29.42775
C 10.70100 -10.70100 32.10300
C 10.70100 -8.91750 33.88650
C 12.48450 -10.70100 33.88650
C 12.48450 -8.91750 32.10300
C 11.59275 -9.80925 32.99475
C 11.59275 -8.02575 34.77825
C 13.37625 -9.80925 34.77825
C 13.37625 -8.02575 32.99475
C 10.70100 -7.13400 17.83500
C 10.70100 -5.35050 19.61850
C 12.48450 -7.13400 19.61850
C 12.48450 -5.35050 17.83500
C 11.59275 -6.24225 18.72675
C 11.59275 -4.45875 20.51025
C 13.37625 -6.24225 20.51025
C 13.37625 -4.45875 18.72675
C 10.70100 -7.13400 21.40200
C 10.70100 -5.35050 23.18550
C 12.48450 -7.13400 23.18550
C 12.48450 -5.35050 21.40200
C 11.59275 -6.24225 22.29375
C 11.59275 -4.45875 24.07725
C 13.37625 -6.24225 24.07725
C 13.37625 -4.45875 22.29375
C 10.70100 -7.13400 24.96900
C 10.70100 -5.35050 26.75250
C 12.48450 -7.13400 26.75250
C 12.48450 -5.35050 24.96900
C 11.59275 -6.24225 25.86075
C 11.59275 -4.45875 27.64425
C 13.37625 -6.24225 27.64425
C 13.37625 -4.45875 25.86075
C 10.70100 -7.13400 28.53600
C 10.70100 -5.35050 30.31950
C 12.48450 -7.13400 30.31950
C 12.48450 -5.35050 28.53600
C 11.59275 -6.24225 29.42775
C 11.59275 -4.45875 31.21125
C 13.37625 -6.24225 31.21125
C 13.37625 -4.45875 29.42775
C 10.70100 -7.13400 32.10300
C 10.70100 -5.35050 33.88650
C 12.48450 -7.13400 33.88650
C 12.48450 -5.35050 32.10300
C 11.59275 -6.24225 32.99475
C 11.59275 -4.45875 34.77825
C 13.37625 -6.24225 34.77825
C 13.37625 -4.45875 32.99475
C 10.70100 -3.56700 17.83500
C 10.70100 -1.78350 19.61850
C 12.48450 -3.56700 19.61850
C 12.48450 -1.78350 17.83500
C 11.59275 -2.67525 18.72675
C 11.59275 -0.89175 20.51025
C 13.37625 -2.67525 20.51025
C 13.37625 -0.89175 18.72675
C 10.70100 -3.56700 21.40200
C 10.70100 -1.78350 23.18550
C 12.48450 -3.56700 23.18550
C 12.48450 -1.78350 21.40200
C 11.59275 -2.67525 22.29375
C 11.59275 -0.89175 24.07725
C 13.37625 -2.67525 24.07725
C 13.37625 -0.89175 22.29375
C 10.70100 -3.56700 24.96900
C 10.70100 -1.78350 26.75250
C 12.48450 -3.56700 26.75250
C 12.48450 -1.78350 24.96900
C 11.59275 -2.67525 25.86075
C 11.59275 -0.89175 27.64425
C 13.37625 -2.67525 27.64425
C 13.37625 -0.89175 25.86075
C 10.70100 -3.56700 28.53600
C 10.70100 -1.78350 30.31950
C 12.48450 -3.56700 30.31950
C 12.48450 -1.78350 28.53600
C 11.59275 -2.67525 29.42775
C 11.59275 -0.89175 31.21125
C 13.37625 -2.67525 31.21125
C 13.37625 -0.89175 29.42775
C 10.70100 -3.56700 32.10300
C 10.70100 -1.78350 33.88650
C 12.48450 -3.56700 33.88650
C 12.48450 -1.78350 32.10300
C 11.59275 -2.67525 32.99475
C 11.59275 -0.89175 34.77825
C 13.37625 -2.67525 34.77825
C 13.37625 -0.89175 32.99475
C 14.26800 -17.83500 17.83500
C 14.26800 -16.05150 19.61850
C 16.05150 -17.83500 19.61850
C 16.05150 -16.05150 17.83500
C 15.15975 -16.94325 18.72675
C 15.15975 -15.15975 20.51025
C 16.94325 -16.94325 20.51025
C 16.94325 -15.15975 18.72675
C 14.26800 -17.83500 21.40200
C 14.26800 -16.05150 23.18550
C 16.05150 -17.83500 23.18550
C 16.05150 -16.05150 21.40200
C 15.15975 -16.94325 22.29375
C 15.15975 -15.15975 24.07725
C 16.94325 -16.94325 24.07725
C 16.94325 -15.15975 22.29375
C 14.26800 -17.83500 24.96900
C 14.26800 -16.05150 26.75250
C 16.05150 -17.83500 26.75250
C 16.05150 -16.05150 24.96900
C 15.15975 -16.94325 25.86075
C 15.15975 -15.15975 27.64425
C 16.94325 -16.94325 27.64425
C 16.94325 -15.15975 25.86075
C 14.26800 -17.83500 28.53600
C 14.26800 -16.05150 30.31950
C 16.05150 -17.83500 30.31950
C 16.05150 -16.05150 28.53600
C 15.15975 -16.94325 29.42775
C 15.15975 -15.15975 31.21125
C 16.94325 -16.94325 31.21125
C 16.94325 -15.15975 29.42775
C 14.26800 -17.83500 32.10300
C 14.26800 -16.05150 33.88650
C 16.05150 -17.83500 33.88650
C 16.05150 -16.05150 32.10300
C 15.15975 -16.94325 32.99475
C 15.15975 -15.15975 34.77825
C 16.94325 -16.94325 34.77825
C 16.94325 -15.15975 32.99475
C 14.26800 -14.26800 17.83500
C 14.26800 -12.48450 19.61850
C 16.05150 -14.26800 19.61850
C 16.05150 -12.48450 17.83500
C 15.15975 -13.37625 18.72675
C 15.15975 -11.59275 20.51025
C 16.94325 -13.37625 20.51025
C 16.94325 -11.59275 18.72675
C 14.26800 -14.26800 21.40200
C 14.26800 -12.48450 23.18550
C 16.05150 -14.26800 23.18550
C 16.05150 -12.48450 21.40200
C 15.15975 -13.37625 22.29375
C 15.15975 -11.59275 24.07725
C 16.94325 -13.37625 24.07725
C 16.94325 -11.59275 22.29375
C 14.26800 -14.26800 24.96900
C 14.26800 -12.48450 26.75250
C 16.05150 -14.26800 26.75250
C 16.05150 -12.48450 24.96900
C 15.15975 -13.37625 25.86075
C 15.15975 -11.59275 27.64425
C 16.94325 -13.37625 27.64425
C 16.94325 -11.59275 25.86075
C 14.26800 -14.26800 28.53600
C 14.26800 -12.48450 30.31950
C 16.05150 -14.26800 30.31950
C 16.05150 -12.48450 28.53600
C 15.15975 -13.37625 29.42775
C 15.15975 -11.59275 31.21125
C 16.94325 -13.37625 31.21125
C 16.94325 -11.59275 29.42775
C 14.26800 -14.26800 32.10300
C 14.26800 -12.48450 33.88650
C 16.05150 -14.26800 33.88650
C 16.05150 -12.48450 32.10300
C 15.15975 -13.37625 32.99475
C 15.15975 -11.59275 34.77825
C 16.94325 -13.37625 34.77825
C 16.94325 -11.59275 32.99475
C 14.26800 -10.70100 17.83500
C 14.26800 -8.91750 19.61850
C 16.05150 -10.70100 19.61850
C 16.05150 -8.91750 17.83500
C 15.15975 -9.80925 18.72675
C 15.15975 -8.02575 20.51025
C 16.94325 -9.80925 20.51025
C 16.94325 -8.02575 18.72675
C 14.26800 -10.70100 21.40200
C 14.26800 -8.91750 23.18550
C 16.05150 -10.70100 23.18550
C 16.05150 -8.91750 21.40200
C 15.15975 -9.80925 22.29375
C 15.15975 -8.02575 24.07725
C 16.94325 -9.80925 24.07725
C 16.94325 -8.02575 22.29375
C 14.26800 -10.70100 24.96900
C 14.26800 -8.91750 26.75250
C 16.05150 -10.70100 26.75250
C 16.05150 -8.91750 24.96900
C 15.15975 -9.80925 25.86075
C 15.15975 -8.02575 27.64425
C 16.94325 -9.80925 27.64425
C 16.94325 -8.02575 25.86075
C 14.26800 -10.70100 28.53600
C 14.26800 -8.91750 30.31950
C 16.05150 -10.70100 30.31950
C 16.05150 -8.91750 28.53600
C 15.15975 -9.80925 29.42775
C 15.15975 -8.02575 31.21125
C 16.94325 -9.80925 31.21125
C 16.94325 -8.02575 29.42775
C 14.26800 -10.70100 32.10300
C 14.26800 -8.91750 33.88650
C 16.05150 -10.70100 33.88650
C 16.05150 -8.91750 32.10300
C 15.15975 -9.80925 32.99475
C 15.15975 -8.02575 34.77825
C 16.94325 -9.80925 34.77825
C 16.94325 -8.02575 32.99475
C 14.26800 -7.13400 17.83500
C 14.26800 -5.35050 19.61850
C 16.05150 -7.13400 19.61850
C 16.05150 -5.35050 17.83500
C 15.15975 -6.24225 18.72675
C 15.15975 -4.45875 20.51025
C 16.94325 -6.24225 20.51025
C 16.94325 -4.45875 18.72675
C 14.26800 -7.13400 21.40200
C 14.26800 -5.35050 23.18550
C 16.05150 -7.13400 23.18550
C 16.05150 -5.35050 21.40200
C 15.15975 -6.24225 22.29375
C 15.15975 -4.45875 24.07725
C 16.94325 -6.24225 24.07725
C 16.94325 -4.45875 22.29375
C 14.26800 -7.13400 24.96900
C 14.26800 -5.35050 26.75250
C 16.05150 -7.13400 26.75250
C 16.05150 -5.35050 24.96900
C 15.15975 -6.24225 25.86075
C 15.15975 -4.45875 27.64425
C 16.94325 -6.24225 27.64425
C 16.94325 -4.45875 25.86075
C 14.26800 -7.13400 28.53600
C 14.26800 -5.35050 30.31950
C 16.05150 -7.13400 30.31950
C 16.05150 -5.35050 28.53600
C 15.15975 -6.24225 29.42775
C 15.15975 -4.45875 31.21125
C 16.94325 -6.24225 31.21125
C 16.94325 -4.45875 29.42775
C 14.26800 -7.13400 32.10300
C 14.26800 -5.35050 33.88650
C 16.05150 -7.13400 33.88650
C 16.05150 -5.35050 32.10300
C 15.15975 -6.24225 32.99475
C 15.15975 -4.45875 34.77825
C 16.94325 -6.24225 34.77825
C 16.94325 -4.45875 32.99475
C 14.26800 -3.56700 17.83500
C 14.26800 -1.78350 19.61850
C 16.05150 -3.56700 19.61850
C 16.05150 -1.78350 17.83500
C 15.15975 -2.67525 18.72675
C 15.15975 -0.89175 20.51025
C 16.94325 -2.67525 20.51025
C 16.94325 -0.89175 18.72675
C 14.26800 -3.56700 21.40200
C 14.26800 -1.78350 23.18550
C 16.05150 -3.56700 23.18550
C 16.05150 -1.78350 21.40200
C 15.15975 -2.67525 22.29375
C 15.15975 -0.89175 24.07725
C 16.94325 -2.67525 24.07725
C 16.94325 -0.89175 22.29375
C 14.26800 -3.56700 24.96900
C 14.26800 -1.78350 26.75250
C 16.05150 -3.56700 26.75250
C 16.05150 -1.78350 24.96900
C 15.15975 -2.67525 25.86075
C 15.15975 -0.89175 27.64425
C 16.94325 -2.67525 27.64425
C 16.94325 -0.89175 25.86075
C 14.26800 -3.56700 28.53600
C 14.26800 -1.78350 30.31950
C 16.05150 -3.56700 30.31950
C 16.05150 -1.78350 28.53600
C 15.15975 -2.67525 29.42775
C 15.15975 -0.89175 31.21125
C 16.94325 -2.67525 31.21125
C 16.94325 -0.89175 29.42775
C 14.26800 -3.56700 32.10300
C 14.26800 -1.78350 33.88650
C 16.05150 -3.56700 33.88650
C 16.05150 -1.78350 32.10300
C 15.15975 -2.67525 32.99475
C 15.15975 -0.89175 34.77825
C 16.94325 -2.67525 34.77825
C 16.94325 -0.89175 32.99475
N  0.00000  0.00000 -17.83500
C  0.00000  1.78350 -16.05150
C  1.78350  0.00000 -16.05150
C  1.78350  1.78350 -17.83500
C  0.89175  0.89175 -16.94325
C  0.89175  2.67525 -15.15975
C  2.67525  0.89175 -15.15975
C  2.67525  2.67525 -16.94325
C  0.00000  0.00000 -14.26800
C  0.00000  1.78350 -12.48450
C  1.78350  0.00000 -12.48450
C  1.78350  1.78350 -14.26800
C  0.89175  0.89175 -13.37625
C  0.89175  2.67525 -11.59275
C  2.67525  0.89175 -11.59275
C  2.67525  2.67525 -13.37625
C  0.00000  0.00000 -10.70100
C  0.00000  1.78350 -8.91750
C  1.78350  0.00000 -8.91750
C  1.78350  1.78350 -10.70100
C  0.89175  0.89175 -9.80925
C  0.89175  2.67525 -8.02575
C  2.67525  0.89175 -8.02575
C  2.67525  2.67525 -9.80925
C  0.00000  0.00000 -7.13400
C  0.00000  1.78350 -5.35050
C  1.78350  0.00000 -5.35050
C  1.78350  1.78350 -7.13400
C  0.89175  0.89175 -6.24225
C  0.89175  2.67525 -4.45875
C  2.67525  0.89175 -4.45875
C  2.67525  2.67525 -6.24225
C  0.00000  0.00000 -3.56700
C  0.00000  1.78350 -1.78350
C  1.78350  0.00000 -1.78350
C  1.78350  1.78350 -3.56700
C  0.89175  0.89175 -2.67525
C  0.89175  2.67525 -0.89175
C  2.67525  0.89175 -0.89175
C  2.67525  2.67525 -2.67525
C  0.00000  3.56700 -17.83500
C  0.00000  5.35050 -16.05150
C  1.78350  3.56700 -16.05150
C  1.78350  5.35050 -17.83500
C  0.89175  4.45875 -16.94325
C  0.89175  6.24225 -15.15975
C  2.67525  4.45875 -15.15975
C  2.67525  6.24225 -16.94325
C  0.00000  3.56700 -14.26800
C  0.00000  5.35050 -12.48450
C  1.78350  3.56700 -12.48450
C  1.78350  5.35050 -14.26800
C  0.89175  4.45875 -13.37625
C  0.89175  6.24225 -11.59275
C  2.67525  4.45875 -11.59275
C  2.67525  6.24225 -13.37625
C  0.00000  3.56700 -10.70100
C  0.00000  5.35050 -8.91750
C  1.78350  3.56700 -8.91750
C  1.78350  5.35050 -10.70100
C  0.89175  4.45875 -9.80925
C  0.89175  6.24225 -8.02575
C  2.67525  4.45875 -8.02575
C  2.67525  6.24225 -9.80925
C  0.00000  3.56700 -7.13400
C  0.00000  5.35050 -5.35050
C  1.78350  3.56700 -5.35050
C  1.78350  5.35050 -7.13400
C  0.89175  4.45875 -6.24225
C  0.89175  6.24225 -4.45875
C  2.67525  4.45875 -4.45875
C  2.67525  6.24225 -6.24225
C  0.00000  3.56700 -3.56700
C  0.00000  5.35050 -1.78350
C  1.78350  3.56700 -1.78350
C  1.78350  5.35050 -3.56700
C  0.89175  4.45875 -2.67525
C  0.89175  6.24225 -0.89175
C  2.67525  4.45875 -0.89175
C  2.67525  6.24225 -2.67525
C  0.00000  7.13400 -17.83500
C  0.00000  8.91750 -16.05150
C  1.78350  7.13400 -16.05150
C  1.78350  8.91750 -17.83500
C  0.89175  8.02575 -16.94325
C  0.89175  9.80925 -15.15975
C  2.67525  8.02575 -15.15975
C  2.67525  9.80925 -16.94325
C  0.00000  7.13400 -14.26800
C  0.00000  8.91750 -12.48450
C  1.78350  7.13400 -12.48450
C  1.78350  8.91750 -14.26800
C  0.89175  8.02575 -13.37625
C  0.89175  9.80925 -11.59275
C  2.67525  8.02575 -11.59275
C  2.67525  9.80925 -13.37625
C  0.00000  7.13400 -10.70100
C  0.00000  8.91750 -8.91750
C  1.78350  7.13400 -8.91750
C  1.78350  8.91750 -10.70100
C  0.89175  8.02575 -9.80925
C  0.89175  9.80925 -8.02575
C  2.67525  8.02575 -8.02575
C  2.67525  9.80925 -9.80925
C  0.00000  7.13400 -7.13400
C  0.00000  8.91750 -5.35050
C  1.78350  7.13400 -5.35050
C  1.78350  8.91750 -7.13400
C  0.89175  8.02575 -6.24225
C  0.89175  9.80925 -4.45875
C  2.67525  8.02575 -4.45875
C  2.67525  9.80925 -6.24225
C  0.00000  7.13400 -3.56700
C  0.00000  8.91750 -1.78350
C  1.78350  7.13400 -1.78350
C  1.78350  8.91750 -3.56700
C  0.89175  8.02575 -2.67525
C  0.89175  9.80925 -0.89175
C  2.67525  8.02575 -0.89175
C  2.67525  9.80925 -2.67525
C  0.00000 10.70100 -17.83500
C  0.00000 12.48450 -16.05150
C  1.78350 10.70100 -16.05150
C  1.78350 12.48450 -17.83500
C  0.89175 11.59275 -16.94325
C  0.89175 13.37625 -15.15975
C  2.67525 11.59275 -15.15975
C  2.67525 13.37625 -16.94325
C  0.00000 10.70100 -14.26800
C  0.00000 12.48450 -12.48450
C  1.78350 10.70100 -12.48450
C  1.78350 12.48450 -14.26800
C  0.89175 11.59275 -13.37625
C  0.89175 13.37625 -11.59275
C  2.67525 11.59275 -11.59275
C  2.67525 13.37625 -13.37625
C  0.00000 10.70100 -10.70100
C  0.00000 12.48450 -8.91750
C  1.78350 10.70100 -8.91750
C  1.78350 12.48450 -10.70100
C  0.89175 11.59275 -9.80925
C  0.89175 13.37625 -8.02575
C  2.67525 11.59275 -8.02575
C  2.67525 13.37625 -9.80925
C  0.00000 10.70100 -7.13400
C  0.00000 12.48450 -5.35050
C  1.78350 10.70100 -5.35050
C  1.78350 12.48450 -7.13400
C  0.89175 11.59275 -6.24225
C  0.89175 13.37625 -4.45875
C  2.67525 11.59275 -4.45875
C  2.67525 13.37625 -6.24225
C  0.00000 10.70100 -3.56700
C  0.00000 12.48450 -1.78350
C  1.78350 10.70100 -1.78350
C  1.78350 12.48450 -3.56700
C  0.89175 11.59275 -2.67525
C  0.89175 13.37625 -0.89175
C  2.67525 11.59275 -0.89175
C  2.67525 13.37625 -2.67525
C  0.00000 14.26800 -17.83500
C  0.00000 16.05150 -16.05150
C  1.78350 14.26800 -16.05150
C  1.78350 16.05150 -17.83500
C  0.89175 15.15975 -16.94325
C  0.89175 16.94325 -15.15975
C  2.67525 15.15975 -15.15975
C  2.67525 16.94325 -16.94325
C  0.00000 14.26800 -14.26800
C  0.00000 16.05150 -12.48450
C  1.78350 14.26800 -12.48450
C  1.78350 16.05150 -14.26800
C  0.89175 15.15975 -13.37625
C  0.89175 16.94325 -11.59275
C  2.67525 15.15975 -11.59275
C  2.67525 16.94325 -13.37625
C  0.00000 14.26800 -10.70100
C  0.00000 16.05150 -8.91750
C  1.78350 14.26800 -8.91750
C  1.78350 16.05150 -10.70100
C  0.89175 15.15975 -9.80925
C  0.89175 16.94325 -8.02575
C  2.67525 15.15975 -8.02575
C  2.67525 16.94325 -9.80925
C  0.00000 14.26800 -7.13400
C  0.00000 16.05150 -5.35050
C  1.78350 14.26800 -5.35050
C  1.78350 16.05150 -7.13400
C  0.89175 15.15975 -6.24225
C  0.89175 16.94325 -4.45875
C  2.67525 15.15975 -4.45875
C  2.67525 16.94325 -6.24225
C  0.00000 14.26800 -3.56700
C  0.00000 16.05150 -1.78350
C  1.78350 14.26800 -1.78350
C  1.78350 16.05150 -3.56700
C  0.89175 15.15975 -2.67525
C  0.89175 16.94325 -0.89175
C  2.67525 15.15975 -0.89175
C  2.67525 16.94325 -2.67525
C  3.56700  0.00000 -17.83500
C  3.56700  1.78350 -16.05150
C  5.35050  0.00000 -16.05150
C  5.35050  1.78350 -17.83500
C  4.45875  0.89175 -16.94325
C  4.45875  2.67525 -15.15975
C  6.24225  0.89175 -15.15975
C  6.24225  2.67525 -16.94325
C  3.56700  0.00000 -14.26800
C  3.56700  1.78350 -12.48450
C  5.35050  0.00000 -12.48450
C  5.35050  1.78350 -14.26800
C  4.45875  0.89175 -13.37625
C  4.45875  2.67525 -11.59275
C  6.24225  0.89175 -11.59275
C  6.24225  2.67525 -13.37625
C  3.56700  0.00000 -10.70100
C  3.56700  1.78350 -8.91750
C  5.35050  0.00000 -8.91750
C  5.35050  1.78350 -10.70100
C  4.45875  0.89175 -9.80925
C  4.45875  2.67525 -8.02575
C  6.24225  0.89175 -8.02575
C  6.24225  2.67525 -9.80925
C  3.56700  0.00000 -7.13400
C  3.56700  1.78350 -5.35050
C  5.35050  0.00000 -5.35050
C  5.35050  1.78350 -7.13400
C  4.45875  0.89175 -6.24225
C  4.45875  2.67525 -4.45875
C  6.24225  0.89175 -4.45875
C  6.24225  2.67525 -6.24225
C  3.56700  0.00000 -3.56700
C  3.56700  1.78350 -1.78350
C  5.35050  0.00000 -1.78350
C  5.35050  1.78350 -3.56700
C  4.45875  0.89175 -2.67525
C  4.45875  2.67525 -0.89175
C  6.24225  0.89175 -0.89175
C  6.24225  2.67525 -2.67525
C  3.56700  3.56700 -17.83500
C  3.56700  5.35050 -16.05150
C  5.35050  3.56700 -16.05150
C  5.35050  5.35050 -17.83500
C  4.45875  4.45875 -16.94325
C  4.45875  6.24225 -15.15975
C  6.24225  4.45875 -15.15975
C  6.24225  6.24225 -16.94325
C  3.56700  3.56700 -14.26800
C  3.56700  5.35050 -12.48450
C  5.35050  3.56700 -12.48450
C  5.35050  5.35050 -14.26800
C  4.45875  4.45875 -13.37625
C  4.45875  6.24225 -11.59275
C  6.24225  4.45875 -11.59275
C  6.24225  6.24225 -13.37625
C  3.56700  3.56700 -10.70100
C  3.56700  5.35050 -8.91750
C  5.35050  3.56700 -8.91750
C  5.35050  5.35050 -10.70100
C  4.45875  4.45875 -9.80925
C  4.45875  6.24225 -8.02575
C  6.24225  4.45875 -8.02575
C  6.24225  6.24225 -9.80925
C  3.56700  3.56700 -7.13400
C  3.56700  5.35050 -5.35050
C  5.35050  3.56700 -5.35050
C  5.35050  5.35050 -7.13400
C  4.45875  4.45875 -6.24225
C  4.45875  6.24225 -4.45875
C  6.24225  4.45875 -4.45875
C  6.24225  6.24225 -6.24225
C  3.56700  3.56700 -3.56700
C  3.56700  5.35050 -1.78350
C  5.35050  3.56700 -1.78350
C  5.35050  5.35050 -3.56700
C  4.45875  4.45875 -2.67525
C  4.45875  6.24225 -0.89175
C  6.24225  4.45875 -0.89175
C  6.24225  6.24225 -2.67525
C  3.56700  7.13400 -17.83500
C  3.56700  8.91750 -16.05150
C  5.35050  7.13400 -16.05150
C  5.35050  8.91750 -17.83500
C  4.45875  8.02575 -16.94325
C  4.45875  9.80925 -15.15975
C  6.24225  8.02575 -15.15975
C  6.24225  9.80925 -16.94325
C  3.56700  7.13400 -14.26800
C  3.56700  8.91750 -12.48450
C  5.35050  7.13400 -12.48450
C  5.35050  8.91750 -14.26800
C  4.45875  8.02575 -13.37625
C  4.45875  9.80925 -11.59275
C  6.24225  8.02575 -11.59275
C  6.24225  9.80925 -13.37625
C  3.56700  7.13400 -10.70100
C  3.56700  8.91750 -8.91750
C  5.35050  7.13400 -8.91750
C  5.35050  8.91750 -10.70100
C  4.45875  8.02575 -9.80925
C  4.45875  9.80925 -8.02575
C  6.24225  8.02575 -8.02575
C  6.24225  9.80925 -9.80925
C  3.56700  7.13400 -7.13400
C  3.56700  8.91750 -5.35050
C  5.35050  7.13400 -5.35050
C  5.35050  8.91750 -7.13400
C  4.45875  8.02575 -6.24225
C  4.45875  9.80925 -4.45875
C  6.24225  8.02575 -4.45875
C  6.24225  9.80925 -6.24225
C  3.56700  7.13400 -3.56700
C  3.56700  8.91750 -1.78350
C  5.35050  7.13400 -1.78350
C  5.35050  8.91750 -3.56700
C  4.45875  8.02575 -2.67525
C  4.45875  9.80925 -0.89175
C  6.24225  8.02575 -0.89175
C  6.24225  9.80925 -2.67525
C  3.56700 10.70100 -17.83500
C  3.56700 12.48450 -16.05150
C  5.35050 10.70100 -16.05150
C  5.35050 12.48450 -17.83500
C  4.45875 11.59275 -16.94325
C  4.45875 13.37625 -15.15975
C  6.24225 11.59275 -15.15975
C  6.24225 13.37625 -16.94325
C  3.56700 10.70100 -14.26800
C  3.56700 12.48450 -12.48450
C  5.35050 10.70100 -12.48450
C  5.35050 12.48450 -14.26800
C  4.45875 11.59275 -13.37625
C  4.45875 13.37625 -11.59275
C  6.24225 11.59275 -11.59275
C  6.24225 13.37625 -13.37625
C  3.56700 10.70100 -10.70100
C  3.56700 12.48450 -8.91750
C  5.35050 10.70100 -8.91750
C  5.35050 12.48450 -10.70100
C  4.45875 11.59275 -9.80925
C  4.45875 13.37625 -8.02575
C  6.24225 11.59275 -8.02575
C  6.24225 13.37625 -9.80925
C  3.56700 10.70100 -7.13400
C  3.56700 12.48450 -5.35050
C  5.35050 10.70100 -5.35050
C  5.35050 12.48450 -7.13400
C  4.45875 11.59275 -6.24225
C  4.45875 13.37625 -4.45875
C  6.24225 11.59275 -4.45875
C  6.24225 13.37625 -6.24225
C  3.56700 10.70100 -3.56700
C  3.56700 12.48450 -1.78350
C  5.35050 10.70100 -1.78350
C  5.35050 12.48450 -3.56700
C  4.45875 11.59275 -2.67525
C  4.45875 13.37625 -0.89175
C  6.24225 11.59275 -0.89175
C  6.24225 13.37625 -2.67525
C  3.56700 14.26800 -17.83500
C  3.56700 16.05150 -16.05150
C  5.35050 14.26800 -16.05150
C  5.35050 16.05150 -17.83500
C  4.45875 15.15975 -16.94325
C  4.45875 16.94325 -15.15975
C  6.24225 15.15975 -15.15975
C  6.24225 16.94325 -16.94325
C  3.56700 14.26800 -14.26800
C  3.56700 16.05150 -12.48450
C  5.35050 14.26800 -12.48450
C  5.35050 16.05150 -14.26800
C  4.45875 15.15975 -13.37625
C  4.45875 16.94325 -11.59275
C  6.24225 15.15975 -11.59275
C  6.24225 16.94325 -13.37625
C  3.56700 14.26800 -10.70100
C  3.56700 16.05150 -8.91750
C  5.35050 14.26800 -8.91750
C  5.35050 16.05150 -10.70100
C  4.45875 15.15975 -9.80925
C  4.45875 16.94325 -8.02575
C  6.24225 15.15975 -8.02575
C  6.24225 16.94325 -9.80925
C  3.56700 14.26800 -7.13400
C  3.56700 16.05150 -5.35050
C  5.35050 14.26800 -5.35050
C  5.35050 16.05150 -7.13400
C  4.45875 15.15975 -6.24225
C  4.45875 16.94325 -4.45875
C  6.24225 15.15975 -4.45875
C  6.24225 16.94325 -6.24225
C  3.56700 14.26800 -3.56700
C  3.56700 16.05150 -1.78350
C  5.35050 14.26800 -1.78350
C  5.35050 16.05150 -3.56700
C  4.45875 15.15975 -2.67525
C  4.45875 16.94325 -0.89175
C  6.24225 15.15975 -0.89175
C  6.24225 16.94325 -2.67525
C  7.13400  0.00000 -17.83500
C  7.13400  1.78350 -16.05150
C  8.91750  0.00000 -16.05150
C  8.91750  1.78350 -17.83500
C  8.02575  0.89175 -16.94325
C  8.02575  2.67525 -15.15975
C  9.80925  0.89175 -15.15975
C  9.80925  2.67525 -16.94325
C  7.13400  0.00000 -14.26800
C  7.13400  1.78350 -12.48450
C  8.91750  0.00000 -12.48450
C  8.91750  1.78350 -14.26800
C  8.02575  0.89175 -13.37625
C  8.02575  2.67525 -11.59275
C  9.80925  0.89175 -11.59275
C  9.80925  2.67525 -13.37625
C  7.13400  0.00000 -10.70100
C  7.13400  1.78350 -8.91750
C  8.91750  0.00000 -8.91750
C  8.91750  1.78350 -10.70100
C  8.02575  0.89175 -9.80925
C  8.02575  2.67525 -8.02575
C  9.80925  0.89175 -8.02575
C  9.80925  2.67525 -9.80925
C  7.13400  0.00000 -7.13400
C  7.13400  1.78350 -5.35050
C  8.91750  0.00000 -5.35050
C  8.91750  1.78350 -7.13400
C  8.02575  0.89175 -6.24225
C  8.02575  2.67525 -4.45875
C  9.80925  0.89175 -4.45875
C  9.80925  2.67525 -6.24225
C  7.13400  0.00000 -3.56700
C  7.13400  1.78350 -1.78350
C  8.91750  0.00000 -1.78350
C  8.91750  1.78350 -3.56700
C  8.02575  0.89175 -2.67525
C  8.02575  2.67525 -0.89175
C  9.80925  0.89175 -0.89175
C  9.80925  2.67525 -2.67525
C  7.13400  3.56700 -17.83500
C  7.13400  5.35050 -16.05150
C  8.91750  3.56700 -16.05150
C  8.91750  5.35050 -17.83500
C  8.02575  4.45875 -16.94325
C  8.02575  6.24225 -15.15975
C  9.80925  4.45875 -15.15975
C  9.80925  6.24225 -16.94325
C  7.13400  3.56700 -14.26800
C  7.13400  5.35050 -12.48450
C  8.91750  3.56700 -12.48450
C  8.91750  5.35050 -14.26800
C  8.02575  4.45875 -13.37625
C  8.02575  6.24225 -11.59275
C  9.80925  4.45875 -11.59275
C  9.80925  6.24225 -13.37625
C  7.13400  3.56700 -10.70100
C  7.13400  5.35050 -8.91750
C  8.91750  3.56700 -8.91750
C  8.91750  5.35050 -10.70100
C  8.02575  4.45875 -9.80925
C  8.02575  6.24225 -8.02575
C  9.80925  4.45875 -8.02575
C  9.80925  6.24225 -9.80925
C  7.13400  3.56700 -7.13400
C  7.13400  5.35050 -5.35050
C  8.91750  3.56700 -5.35050
C  8.91750  5.35050 -7.13400
C  8.02575  4.45875 -6.24225
C  8.02575  6.24225 -4.45875
C  9.80925  4.45875 -4.45875
C  9.80925  6.24225 -6.24225
C  7.13400  3.56700 -3.56700
C  7.13400  5.35050 -1.78350
C  8.91750  3.56700 -1.78350
C  8.91750  5.35050 -3.56700
C  8.02575  4.45875 -2.67525
C  8.02575  6.24225 -0.89175
C  9.80925  4.45875 -0.89175
C  9.80925  6.24225 -2.67525
C  7.13400  7.13400 -17.83500
C  7.13400  8.91750 -16.05150
C  8.91750  7.13400 -16.05150
C  8.91750  8.91750 -17.83500
C  8.02575  8.02575 -16.94325
C  8.02575  9.80925 -15.15975
C  9.80925  8.02575 -15.15975
C  9.80925  9.80925 -16.94325
C  7.13400  7.13400 -14.26800
C  7.13400  8.91750 -12.48450
C  8.91750  7.13400 -12.48450
C  8.91750  8.91750 -14.26800
C  8.02575  8.02575 -13.37625
C  8.02575  9.80925 -11.59275
C  9.80925  8.02575 -11.59275
C  9.80925  9.80925 -13.37625
C  7.13400  7.13400 -10.70100
C  7.13400  8.91750 -8.91750
C  8.91750  7.13400 -8.91750
C  8.91750  8.91750 -10.70100
C  8.02575  8.02575 -9.80925
C  8.02575  9.80925 -8.02575
C  9.80925  8.02575 -8.02575
C  9.80925  9.80925 -9.80925
C  7.13400  7.13400 -7.13400
C  7.13400  8.91750 -5.35050
C  8.91750  7.13400 -5.35050
C  8.91750  8.91750 -7.13400
C  8.02575  8.02575 -6.24225
C  8.02575  9.80925 -4.45875
C  9.80925  8.02575 -4.45875
C  9.80925  9.80925 -6.24225
C  7.13400  7.13400 -3.56700
C  7.13400  8.91750 -1.78350
C  8.91750  7.13400 -1.78350
C  8.91750  8.91750 -3.56700
C  8.02575  8.02575 -2.67525
C  8.02575  9.80925 -0.89175
C  9.80925  8.02575 -0.89175
C  9.80925  9.80925 -2.67525
C  7.13400 10.70100 -17.83500
C  7.13400 12.48450 -16.05150
C  8.91750 10.70100 -16.05150
C  8.91750 12.48450 -17.83500
C  8.02575 11.59275 -16.94325
C  8.02575 13.37625 -15.15975
C  9.80925 11.59275 -15.15975
C  9.80925 13.37625 -16.94325
C  7.13400 10.70100 -14.26800
C  7.13400 12.48450 -12.48450
C  8.91750 10.70100 -12.48450
C  8.91750 12.48450 -14.26800
C  8.02575 11.59275 -13.37625
C  8.02575 13.37625 -11.59275
C  9.80925 11.59275 -11.59275
C  9.80925 13.37625 -13.37625
C  7.13400 10.70100 -10.70100
C  7.13400 12.48450 -8.91750
C  8.91750 10.70100 -8.91750
C  8.91750 12.48450 -10.70100
C  8.02575 11.59275 -9.80925
C  8.02575 13.37625 -8.02575
C  9.80925 11.59275 -8.02575
C  9.80925 13.37625 -9.80925
C  7.13400 10.70100 -7.13400
C  7.13400 12.48450 -5.35050
C  8.91750 10.70100 -5.35050
C  8.91750 12.48450 -7.13400
C  8.02575 11.59275 -6.24225
C  8.02575 13.37625 -4.45875
C  9.80925 11.59275 -4.45875
C  9.80925 13.37625 -6.24225
C  7.13400 10.70100 -3.56700
C  7.13400 12.48450 -1.78350
C  8.91750 10.70100 -1.78350
C  8.91750 12.48450 -3.56700
C  8.02575 11.59275 -2.67525
C  8.02575 13.37625 -0.89175
C  9.80925 11.59275 -0.89175
C  9.80925 13.37625 -2.67525
C  7.13400 14.26800 -17.83500
C  7.13400 16.05150 -16.05150
C  8.91750 14.26800 -16.05150
C  8.91750 16.05150 -17.83500
C  8.02575 15.15975 -16.94325
C  8.02575 16.94325 -15.15975
C  9.80925 15.15975 -15.15975
C  9.80925 16.94325 -16.94325
C  7.13400 14.26800 -14.26800
C  7.13400 16.05150 -12.48450
C  8.91750 14.26800 -12.48450
C  8.91750 16.05150 -14.26800
C  8.02575 15.15975 -13.37625
C  8.02575 16.94325 -11.59275
C  9.80925 15.15975 -11.59275
C  9.80925 16.94325 -13.37625
C  7.13400 14.26800 -10.70100
C  7.13400 16.05150 -8.91750
C  8.91750 14.26800 -8.91750
C  8.91750 16.05150 -10.70100
C  8.02575 15.15975 -9.80925
C  8.02575 16.94325 -8.02575
C  9.80925 15.15975 -8.02575
C  9.80925 16.94325 -9.80925
C  7.13400 14.26800 -7.13400
C  7.13400 16.05150 -5.35050
C  8.91750 14.26800 -5.35050
C  8.91750 16.05150 -7.13400
C  8.02575 15.15975 -6.24225
C  8.02575 16.94325 -4.45875
C  9.80925 15.15975 -4.45875
C  9.80925 16.94325 -6.24225
C  7.13400 14.26800 -3.56700
C  7.13400 16.05150 -1.78350
C  8.91750 14.26800 -1.78350
C  8.91750 16.05150 -3.56700
C  8.02575 15.15975 -2.67525
C  8.02575 16.94325 -0.89175
C  9.80925 15.15975 -0.89175
C  9.80925 16.94325 -2.67525
C 10.70100  0.00000 -17.83500
C 10.70100  1.78350 -16.05150
C 12.48450  0.00000 -16.05150
C 12.48450  1.78350 -17.83500
C 11.59275  0.89175 -16.94325
C 11.59275  2.67525 -15.15975
C 13.37625  0.89175 -15.15975
C 13.37625  2.67525 -16.94325
C 10.70100  0.00000 -14.26800
C 10.70100  1.78350 -12.48450
C 12.48450  0.00000 -12.48450
C 12.48450  1.78350 -14.26800
C 11.59275  0.89175 -13.37625
C 11.59275  2.67525 -11.59275
C 13.37625  0.89175 -11.59275
C 13.37625  2.67525 -13.37625
C 10.70100  0.00000 -10.70100
C 10.70100  1.78350 -8.91750
C 12.48450  0.00000 -8.91750
C 12.48450  1.78350 -10.70100
C 11.59275  0.89175 -9.80925
C 11.59275  2.67525 -8.02575
C 13.37625  0.89175 -8.02575
C 13.37625  2.67525 -9.80925
C 10.70100  0.00000 -7.13400
C 10.70100  1.78350 -5.35050
C 12.48450  0.00000 -5.35050
C 12.48450  1.78350 -7.13400
C 11.59275  0.89175 -6.24225
C 11.59275  2.67525 -4.45875
C 13.37625  0.89175 -4.45875
C 13.37625  2.67525 -6.24225
C 10.70100  0.00000 -3.56700
C 10.70100  1.78350 -1.78350
C 12.48450  0.00000 -1.78350
C 12.48450  1.78350 -3.56700
C 11.59275  0.89175 -2.67525
C 11.59275  2.67525 -0.89175
C 13.37625  0.89175 -0.89175
C 13.37625  2.67525 -2.67525
C 10.70100  3.56700 -17.83500
C 10.70100  5.35050 -16.05150
C 12.48450  3.56700 -16.05150
C 12.48450  5.35050 -17.83500
C 11.59275  4.45875 -16.94325
C 11.59275  6.24225 -15.15975
C 13.37625  4.45875 -15.15975
C 13.37625  6.24225 -16.94325
C 10.70100  3.56700 -14.26800
C 10.70100  5.35050 -12.48450
C 12.48450  3.56700 -12.48450
C 12.48450  5.35050 -14.26800
C 11.59275  4.45875 -13.37625
C 11.59275  6.24225 -11.59275
C 13.37625  4.45875 -11.59275
C 13.37625  6.24225 -13.37625
C 10.70100  3.56700 -10.70100
C 10.70100  5.35050 -8.91750
C 12.48450  3.56700 -8.91750
C 12.48450  5.35050 -10.70100
C 11.59275  4.45875 -9.80925
C 11.59275  6.24225 -8.02575
C 13.37625  4.45875 -8.02575
C 13.37625  6.24225 -9.80925
C 10.70100  3.56700 -7.13400
C 10.70100  5.35050 -5.35050
C 12.48450  3.56700 -5.35050
C 12.48450  5.35050 -7.13400
C 11.59275  4.45875 -6.24225
C 11.59275  6.24225 -4.45875
C 13.37625  4.45875 -4.45875
C 13.37625  6.24225 -6.24225
C 10.70100  3.56700 -3.56700
C 10.70100  5.35050 -1.78350
C 12.48450  3.56700 -1.78350
C 12.48450  5.35050 -3.56700
C 11.59275  4.45875 -2.67525
C 11.59275  6.24225 -0.89175
C 13.37625  4.45875 -0.89175
C 13.37625  6.24225 -2.67525
C 10.70100  7.13400 -17.83500
C 10.70100  8.91750 -16.05150
C 12.48450  7.13400 -16.05150
C 12.48450  8.91750 -17.83500
C 11.59275  8.02575 -16.94325
C 11.59275  9.80925 -15.15975
C 13.37625  8.02575 -15.15975
C 13.37625  9.80925 -16.94325
C 10.70100  7.13400 -14.26800
C 10.70100  8.91750 -12.48450
C 12.48450  7.13400 -12.48450
C 12.48450  8.91750 -14.26800
C 11.59275  8.02575 -13.37625
C 11.59275  9.80925 -11.59275
C 13.37625  8.02575 -11.59275
C 13.37625  9.80925 -13.37625
C 10.70100  7.13400 -10.70100
C 10.70100  8.91750 -8.91750
C 12.48450  7.13400 -8.91750
C 12.48450  8.91750 -10.70100
C 11.59275  8.02575 -9.80925
C 11.59275  9.80925 -8.02575
C 13.37625  8.02575 -8.02575
C 13.37625  9.80925 -9.80925
C 10.70100  7.13400 -7.13400
C 10.70100  8.91750 -5.35050
C 12.48450  7.13400 -5.35050
C 12.48450  8.91750 -7.13400
C 11.59275  8.02575 -6.24225
C 11.59275  9.80925 -4.45875
C 13.37625  8.02575 -4.45875
C 13.37625  9.80925 -6.24225
C 10.70100  7.13400 -3.56700
C 10.70100  8.91750 -1.78350
C 12.48450  7.13400 -1.78350
C 12.48450  8.91750 -3.56700
C 11.59275  8.02575 -2.67525
C 11.59275  9.80925 -0.89175
C 13.37625  8.02575 -0.89175
C 13.37625  9.80925 -2.67525
C 10.70100 10.70100 -17.83500
C 10.70100 12.48450 -16.05150
C 12.48450 10.70100 -16.05150
C 12.48450 12.48450 -17.83500
C 11.59275 11.59275 -16.94325
C 11.59275 13.37625 -15.15975
C 13.37625 11.59275 -15.15975
C 13.37625 13.37625 -16.94325
C 10.70100 10.70100 -14.26800
C 10.70100 12.48450 -12.48450
C 12.48450 10.70100 -12.48450
C 12.48450 12.48450 -14.26800
C 11.59275 11.59275 -13.37625
C 11.59275 13.37625 -11.59275
C 13.37625 11.59275 -11.59275
C 13.37625 13.37625 -13.37625
C 10.70100 10.70100 -10.70100
C 10.70100 12.48450 -8.91750
C 12.48450 10.70100 -8.91750
C 12.48450 12.48450 -10.70100
C 11.59275 11.59275 -9.80925
C 11.59275 13.37625 -8.02575
C 13.37625 11.59275 -8.02575
C 13.37625 13.37625 -9.80925
C 10.70100 10.70100 -7.13400
C 10.70100 12.48450 -5.35050
C 12.48450 10.70100 -5.35050
C 12.48450 12.48450 -7.13400
C 11.59275 11.59275 -6.24225
C 11.59275 13.37625 -4.45875
C 13.37625 11.59275 -4.45875
C 13.37625 13.37625 -6.24225
C 10.70100 10.70100 -3.56700
C 10.70100 12.48450 -1.78350
C 12.48450 10.70100 -1.78350
C 12.48450 12.48450 -3.56700
C 11.59275 11.59275 -2.67525
C 11.59275 13.37625 -0.89175
C 13.37625 11.59275 -0.89175
C 13.37625 13.37625 -2.67525
C 10.70100 14.26800 -17.83500
C 10.70100 16.05150 -16.05150
C 12.48450 14.26800 -16.05150
C 12.48450 16.05150 -17.83500
C 11.59275 15.15975 -16.94325
C 11.59275 16.94325 -15.15975
C 13.37625 15.15975 -15.15975
C 13.37625 16.94325 -16.94325
C 10.70100 14.26800 -14.26800
C 10.70100 16.05150 -12.48450
C 12.48450 14.26800 -12.48450
C 12.48450 16.05150 -14.26800
C 11.59275 15.15975 -13.37625
C 11.59275 16.94325 -11.59275
C 13.37625 15.15975 -11.59275
C 13.37625 16.94325 -13.37625
C 10.70100 14.26800 -10.70100
C 10.70100 16.05150 -8.91750
C 12.48450 14.26800 -8.91750
C 12.48450 16.05150 -10.70100
C 11.59275 15.15975 -9.80925
C 11.59275 16.94325 -8.02575
C 13.37625 15.15975 -8.02575
C 13.37625 16.94325 -9.80925
C 10.70100 14.26800 -7.13400
C 10.70100 16.05150 -5.35050
C 12.48450 14.26800 -5.35050
C 12.48450 16.05150 -7.13400
C 11.59275 15.15975 -6.24225
C 11.59275 16.94325 -4.45875
C 13.37625 15.15975 -4.45875
C 13.37625 16.94325 -6.24225
C 10.70100 14.26800 -3.56700
C 10.70100 16.05150 -1.78350
C 12.48450 14.26800 -1.78350
C 12.48450 16.05150 -3.56700
C 11.59275 15.15975 -2.67525
C 11.59275 16.94325 -0.89175
C 13.37625 15.15975 -0.89175
C 13.37625 16.94325 -2.67525
C 14.26800  0.00000 -17.83500
C 14.26800  1.78350 -16.05150
C 16.05150  0.00000 -16.05150
C 16.05150  1.78350 -17.83500
C 15.15975  0.89175 -16.94325
C 15.15975  2.67525 -15.15975
C 16.94325  0.89175 -15.15975
C 16.94325  2.67525 -16.94325
C 14.26800  0.00000 -14.26800
C 14.26800  1.78350 -12.48450
C 16.05150  0.00000 -12.48450
C 16.05150  1.78350 -14.26800
C 15.15975  0.89175 -13.37625
C 15.15975  2.67525 -11.59275
C 16.94325  0.89175 -11.59275
C 16.94325  2.67525 -13.37625
C 14.26800  0.00000 -10.70100
C 14.26800  1.78350 -8.91750
C 16.05150  0.00000 -8.91750
C 16.05150  1.78350 -10.70100
C 15.15975  0.89175 -9.80925
C 15.15975  2.67525 -8.02575
C 16.94325  0.89175 -8.02575
C 16.94325  2.67525 -9.80925
C 14.26800  0.00000 -7.13400
C 14.26800  1.78350 -5.35050
C 16.05150  0.00000 -5.35050
C 16.05150  1.78350 -7.13400
C 15.15975  0.89175 -6.24225
C 15.15975  2.67525 -4.45875
C 16.94325  0.89175 -4.45875
C 16.94325  2.67525 -6.24225
C 14.26800  0.00000 -3.56700
C 14.26800  1.78350 -1.78350
C 16.05150  0.00000 -1.78350
C 16.05150  1.78350 -3.56700
C 15.15975  0.89175 -2.67525
C 15.15975  2.67525 -0.89175
C 16.94325  0.89175 -0.89175
C 16.94325  2.67525 -2.67525
C 14.26800  3.56700 -17.83500
C 14.26800  5.35050 -16.05150
C 16.05150  3.56700 -16.05150
C 16.05150  5.35050 -17.83500
C 15.15975  4.45875 -16.94325
C 15.15975  6.24225 -15.15975
C 16.94325  4.45875 -15.15975
C 16.94325  6.24225 -16.94325
C 14.26800  3.56700 -14.26800
C 14.26800  5.35050 -12.48450
C 16.05150  3.56700 -12.48450
C 16.05150  5.35050 -14.26800
C 15.15975  4.45875 -13.37625
C 15.15975  6.24225 -11.59275
C 16.94325  4.45875 -11.59275
C 16.94325  6.24225 -13.37625
C 14.26800  3.56700 -10.70100
C 14.26800  5.35050 -8.91750
C 16.05150  3.56700 -8.91750
C 16.05150  5.35050 -10.70100
C 15.15975  4.45875 -9.80925
C 15.15975  6.24225 -8.02575
C 16.94325  4.45875 -8.02575
C 16.94325  6.24225 -9.80925
C 14.26800  3.56700 -7.13400
C 14.26800  5.35050 -5.35050
C 16.05150  3.56700 -5.35050
C 16.05150  5.35050 -7.13400
C 15.15975  4.45875 -6.24225
C 15.15975  6.24225 -4.45875
C 16.94325  4.45875 -4.45875
C 16.94325  6.24225 -6.24225
C 14.26800  3.56700 -3.56700
C 14.26800  5.35050 -1.78350
C 16.05150  3.56700 -1.78350
C 16.05150  5.35050 -3.56700
C 15.15975  4.45875 -2.67525
C 15.15975  6.24225 -0.89175
C 16.94325  4.45875 -0.89175
C 16.94325  6.24225 -2.67525
C 14.26800  7.13400 -17.83500
C 14.26800  8.91750 -16.05150
C 16.05150  7.13400 -16.05150
C 16.05150  8.91750 -17.83500
C 15.15975  8.02575 -16.94325
C 15.15975  9.80925 -15.15975
C 16.94325  8.02575 -15.15975
C 16.94325  9.80925 -16.94325
C 14.26800  7.13400 -14.26800
C 14.26800  8.91750 -12.48450
C 16.05150  7.13400 -12.48450
C 16.05150  8.91750 -14.26800
C 15.15975  8.02575 -13.37625
C 15.15975  9.80925 -11.59275
C 16.94325  8.02575 -11.59275
C 16.94325  9.80925 -13.37625
C 14.26800  7.13400 -10.70100
C 14.26800  8.91750 -8.91750
C 16.05150  7.13400 -8.91750
C 16.05150  8.91750 -10.70100
C 15.15975  8.02575 -9.80925
C 15.15975  9.80925 -8.02575
C 16.94325  8.02575 -8.02575
C 16.94325  9.80925 -9.80925
C 14.26800  7.13400 -7.13400
C 14.26800  8.91750 -5.35050
C 16.05150  7.13400 -5.35050
C 16.05150  8.91750 -7.13400
C 15.15975  8.02575 -6.24225
C 15.15975  9.80925 -4.45875
C 16.94325  8.02575 -4.45875
C 16.94325  9.80925 -6.24225
C 14.26800  7.13400 -3.56700
C 14.26800  8.91750 -1.78350
C 16.05150  7.13400 -1.78350
C 16.05150  8.91750 -3.56700
C 15.15975  8.02575 -2.67525
C 15.15975  9.80925 -0.89175
C 16.94325  8.02575 -0.89175
C 16.94325  9.80925 -2.67525
C 14.26800 10.70100 -17.83500
C 14.26800 12.48450 -16.05150
C 16.05150 10.70100 -16.05150
C 16.05150 12.48450 -17.83500
C 15.15975 11.59275 -16.94325
C 15.15975 13.37625 -15.15975
C 16.94325 11.59275 -15.15975
C 16.94325 13.37625 -16.94325
C 14.26800 10.70100 -14.26800
C 14.26800 12.48450 -12.48450
C 16.05150 10.70100 -12.48450
C 16.05150 12.48450 -14.26800
C 15.15975 11.59275 -13.37625
C 15.15975 13.37625 -11.59275
C 16.94325 11.59275 -11.59275
C 16.94325 13.37625 -13.37625
C 14.26800 10.70100 -10.70100
C 14.26800 12.48450 -8.91750
C 16.05150 10.70100 -8.91750
C 16.05150 12.48450 -10.70100
C 15.15975 11.59275 -9.80925
C 15.15975 13.37625 -8.02575
C 16.94325 11.59275 -8.02575
C 16.94325 13.37625 -9.80925
C 14.26800 10.70100 -7.13400
C 14.26800 12.48450 -5.35050
C 16.05150 10.70100 -5.35050
C 16.05150 12.48450 -7.13400
C 15.15975 11.59275 -6.24225
C 15.15975 13.37625 -4.45875
C 16.94325 11.59275 -4.45875
C 16.94325 13.37625 -6.24225
C 14.26800 10.70100 -3.56700
C 14.26800 12.48450 -1.78350
C 16.05150 10.70100 -1.78350
C 16.05150 12.48450 -3.56700
C 15.15975 11.59275 -2.67525
C 15.15975 13.37625 -0.89175
C 16.94325 11.59275 -0.89175
C 16.94325 13.37625 -2.67525
C 14.26800 14.26800 -17.83500
C 14.26800 16.05150 -16.05150
C 16.05150 14.26800 -16.05150
C 16.05150 16.05150 -17.83500
C 15.15975 15.15975 -16.94325
C 15.15975 16.94325 -15.15975
C 16.94325 15.15975 -15.15975
C 16.94325 16.94325 -16.94325
C 14.26800 14.26800 -14.26800
C 14.26800 16.05150 -12.48450
C 16.05150 14.26800 -12.48450
C 16.05150 16.05150 -14.26800
C 15.15975 15.15975 -13.37625
C 15.15975 16.94325 -11.59275
C 16.94325 15.15975 -11.59275
C 16.94325 16.94325 -13.37625
C 14.26800 14.26800 -10.70100
C 14.26800 16.05150 -8.91750
C 16.05150 14.26800 -8.91750
C 16.05150 16.05150 -10.70100
C 15.15975 15.15975 -9.80925
C 15.15975 16.94325 -8.02575
C 16.94325 15.15975 -8.02575
C 16.94325 16.94325 -9.80925
C 14.26800 14.26800 -7.13400
C 14.26800 16.05150 -5.35050
C 16.05150 14.26800 -5.35050
C 16.05150 16.05150 -7.13400
C 15.15975 15.15975 -6.24225
C 15.15975 16.94325 -4.45875
C 16.94325 15.15975 -4.45875
C 16.94325 16.94325 -6.24225
C 14.26800 14.26800 -3.56700
C 14.26800 16.05150 -1.78350
C 16.05150 14.26800 -1.78350
C 16.05150 16.05150 -3.56700
C 15.15975 15.15975 -2.67525
C 15.15975 16.94325 -0.89175
C 16.94325 15.15975 -0.89175
C 16.94325 16.94325 -2.67525
N  0.00000  0.00000  0.00000
C  0.00000  1.78350  1.78350
C  1.78350  0.00000  1.78350
C  1.78350  1.78350  0.00000
C  0.89175  0.89175  0.89175
C  0.89175  2.67525  2.67525
C  2.67525  0.89175  2.67525
C  2.67525  2.67525  0.89175
C  0.00000  0.00000  3.56700
C  0.00000  1.78350  5.35050
C  1.78350  0.00000  5.35050
C  1.78350  1.78350  3.56700
C  0.89175  0.89175  4.45875
C  0.89175  2.67525  6.24225
C  2.67525  0.89175  6.24225
C  2.67525  2.67525  4.45875
C  0.00000  0.00000  7.13400
C  0.00000  1.78350  8.91750
C  1.78350  0.00000  8.91750
C  1.78350  1.78350  7.13400
C  0.89175  0.89175  8.02575
C  0.89175  2.67525  9.80925
C  2.67525  0.89175  9.80925
C  2.67525  2.67525  8.02575
C  0.00000  0.00000 10.70100
C  0.00000  1.78350 12.48450
C  1.78350  0.00000 12.48450
C  1.78350  1.78350 10.70100
C  0.89175  0.89175 11.59275
C  0.89175  2.67525 13.37625
C  2.67525  0.89175 13.37625
C  2.67525  2.67525 11.59275
C  0.00000  0.00000 14.26800
C  0.00000  1.78350 16.05150
C  1.78350  0.00000 16.05150
C  1.78350  1.78350 14.26800
C  0.89175  0.89175 15.15975
C  0.89175  2.67525 16.94325
C  2.67525  0.89175 16.94325
C  2.67525  2.67525 15.15975
C  0.00000  3.56700  0.00000
C  0.00000  5.35050  1.78350
C  1.78350  3.56700  1.78350
C  1.78350  5.35050  0.00000
C  0.89175  4.45875  0.89175
C  0.89175  6.24225  2.67525
C  2.67525  4.45875  2.67525
C  2.67525  6.24225  0.89175
C  0.00000  3.56700  3.56700
C  0.00000  5.35050  5.35050
C  1.78350  3.56700  5.35050
C  1.78350  5.35050  3.56700
C  0.89175  4.45875  4.45875
C  0.89175  6.24225  6.24225
C  2.67525  4.45875  6.24225
C  2.67525  6.24225  4.45875
C  0.00000  3.56700  7.13400
C  0.00000  5.35050  8.91750
C  1.78350  3.56700  8.91750
C  1.78350  5.35050  7.13400
C  0.89175  4.45875  8.02575
C  0.89175  6.24225  9.80925
C  2.67525  4.45875  9.80925
C  2.67525  6.24225  8.02575
C  0.00000  3.56700 10.70100
C  0.00000  5.35050 12.48450
C  1.78350  3.56700 12.48450
C  1.78350  5.35050 10.70100
C  0.89175  4.45875 11.59275
C  0.89175  6.24225 13.37625
C  2.67525  4.45875 13.37625
C  2.67525  6.24225 11.59275
C  0.00000  3.56700 14.26800
C  0.00000  5.35050 16.05150
C  1.78350  3.56700 16.05150
C  1.78350  5.35050 14.26800
C  0.89175  4.45875 15.15975
C  0.89175  6.24225 16.94325
C  2.67525  4.45875 16.94325
C  2.67525  6.24225 15.15975
C  0.00000  7.13400  0.00000
C  0.00000  8.91750  1.78350
C  1.78350  7.13400  1.78350
C  1.78350  8.91750  0.00000
C  0.89175  8.02575  0.89175
C  0.89175  9.80925  2.67525
C  2.67525  8.02575  2.67525
C  2.67525  9.80925  0.89175
C  0.00000  7.13400  3.56700
C  0.00000  8.91750  5.35050
C  1.78350  7.13400  5.35050
C  1.78350  8.91750  3.56700
C  0.89175  8.02575  4.45875
C  0.89175  9.80925  6.24225
C  2.67525  8.02575  6.24225
C  2.67525  9.80925  4.45875
C  0.00000  7.13400  7.13400
C  0.00000  8.91750  8.91750
C  1.78350  7.13400  8.91750
C  1.78350  8.91750  7.13400
C  0.89175  8.02575  8.02575
C  0.89175  9.80925  9.80925
C  2.67525  8.02575  9.80925
C  2.67525  9.80925  8.02575
C  0.00000  7.13400 10.70100
C  0.00000  8.91750 12.48450
C  1.78350  7.13400 12.48450
C  1.78350  8.91750 10.70100
C  0.89175  8.02575 11.59275
C  0.89175  9.80925 13.37625
C  2.67525  8.02575 13.37625
C  2.67525  9.80925 11.59275
C  0.00000  7.13400 14.26800
C  0.00000  8.91750 16.05150
C  1.78350  7.13400 16.05150
C  1.78350  8.91750 14.26800
C  0.89175  8.02575 15.15975
C  0.89175  9.80925 16.94325
C  2.67525  8.02575 16.94325
C  2.67525  9.80925 15.15975
C  0.00000 10.70100  0.00000
C  0.00000 12.48450  1.78350
C  1.78350 10.70100  1.78350
C  1.78350 12.48450  0.00000
C  0.89175 11.59275  0.89175
C  0.89175 13.37625  2.67525
C  2.67525 11.59275  2.67525
C  2.67525 13.37625  0.89175
C  0.00000 10.70100  3.56700
C  0.00000 12.48450  5.35050
C  1.78350 10.70100  5.35050
C  1.78350 12.48450  3.56700
C  0.89175 11.59275  4.45875
C  0.89175 13.37625  6.24225
C  2.67525 11.59275  6.24225
C  2.67525 13.37625  4.45875
C  0.00000 10.70100  7.13400
C  0.00000 12.48450  8.91750
C  1.78350 10.70100  8.91750
C  1.78350 12.48450  7.13400
C  0.89175 11.59275  8.02575
C  0.89175 13.37625  9.80925
C  2.67525 11.59275  9.80925
C  2.67525 13.37625  8.02575
C  0.00000 10.70100 10.70100
C  0.00000 12.48450 12.48450
C  1.78350 10.70100 12.48450
C  1.78350 12.48450 10.70100
C  0.89175 11.59275 11.59275
C  0.89175 13.37625 13.37625
C  2.67525 11.59275 13.37625
C  2.67525 13.37625 11.59275
C  0.00000 10.70100 14.26800
C  0.00000 12.48450 16.05150
C  1.78350 10.70100 16.05150
C  1.78350 12.48450 14.26800
C  0.89175 11.59275 15.15975
C  0.89175 13.37625 16.94325
C  2.67525 11.59275 16.94325
C  2.67525 13.37625 15.15975
C  0.00000 14.26800  0.00000
C  0.00000 16.05150  1.78350
C  1.78350 14.26800  1.78350
C  1.78350 16.05150  0.00000
C  0.89175 15.15975  0.89175
C  0.89175 16.94325  2.67525
C  2.67525 15.15975  2.67525
C  2.67525 16.94325  0.89175
C  0.00000 14.26800  3.56700
C  0.00000 16.05150  5.35050
C  1.78350 14.26800  5.35050
C  1.78350 16.05150  3.56700
C  0.89175 15.15975  4.45875
C  0.89175 16.94325  6.24225
C  2.67525 15.15975  6.24225
C  2.67525 16.94325  4.45875
C  0.00000 14.26800  7.13400
C  0.00000 16.05150  8.91750
C  1.78350 14.26800  8.91750
C  1.78350 16.05150  7.13400
C  0.89175 15.15975  8.02575
C  0.89175 16.94325  9.80925
C  2.67525 15.15975  9.80925
C  2.67525 16.94325  8.02575
C  0.00000 14.26800 10.70100
C  0.00000 16.05150 12.48450
C  1.78350 14.26800 12.48450
C  1.78350 16.05150 10.70100
C  0.89175 15.15975 11.59275
C  0.89175 16.94325 13.37625
C  2.67525 15.15975 13.37625
C  2.67525 16.94325 11.59275
C  0.00000 14.26800 14.26800
C  0.00000 16.05150 16.05150
C  1.78350 14.26800 16.05150
C  1.78350 16.05150 14.26800
C  0.89175 15.15975 15.15975
C  0.89175 16.94325 16.94325
C  2.67525 15.15975 16.94325
C  2.67525 16.94325 15.15975
C  3.56700  0.00000  0.00000
C  3.56700  1.78350  1.78350
C  5.35050  0.00000  1.78350
C  5.35050  1.78350  0.00000
C  4.45875  0.89175  0.89175
C  4.45875  2.67525  2.67525
C  6.24225  0.89175  2.67525
C  6.24225  2.67525  0.89175
C  3.56700  0.00000  3.56700
C  3.56700  1.78350  5.35050
C  5.35050  0.00000  5.35050
C  5.35050  1.78350  3.56700
C  4.45875  0.89175  4.45875
C  4.45875  2.67525  6.24225
C  6.24225  0.89175  6.24225
C  6.24225  2.67525  4.45875
C  3.56700  0.00000  7.13400
C  3.56700  1.78350  8.91750
C  5.35050  0.00000  8.91750
C  5.35050  1.78350  7.13400
C  4.45875  0.89175  8.02575
C  4.45875  2.67525  9.80925
C  6.24225  0.89175  9.80925
C  6.24225  2.67525  8.02575
C  3.56700  0.00000 10.70100
C  3.56700  1.78350 12.48450
C  5.35050  0.00000 12.48450
C  5.35050  1.78350 10.70100
C  4.45875  0.89175 11.59275
C  4.45875  2.67525 13.37625
C  6.24225  0.89175 13.37625
C  6.24225  2.67525 11.59275
C  3.56700  0.00000 14.26800
C  3.56700  1.78350 16.05150
C  5.35050  0.00000 16.05150
C  5.35050  1.78350 14.26800
C  4.45875  0.89175 15.15975
C  4.45875  2.67525 16.94325
C  6.24225  0.89175 16.94325
C  6.24225  2.67525 15.15975
C  3.56700  3.56700  0.00000
C  3.56700  5.35050  1.78350
C  5.35050  3.56700  1.78350
C  5.35050  5.35050  0.00000
C  4.45875  4.45875  0.89175
C  4.45875  6.24225  2.67525
C  6.24225  4.45875  2.67525
C  6.24225  6.24225  0.89175
C  3.56700  3.56700  3.56700
C  3.56700  5.35050  5.35050
C  5.35050  3.56700  5.35050
C  5.35050  5.35050  3.56700
C  4.45875  4.45875  4.45875
C  4.45875  6.24225  6.24225
C  6.24225  4.45875  6.24225
C  6.24225  6.24225  4.45875
C  3.56700  3.56700  7.13400
C  3.56700  5.35050  8.91750
C  5.35050  3.56700  8.91750
C  5.35050  5.35050  7.13400
C  4.45875  4.45875  8.02575
C  4.45875  6.24225  9.80925
C  6.24225  4.45875  9.80925
C  6.24225  6.24225  8.02575
C  3.56700  3.56700 10.70100
C  3.56700  5.35050 12.48450
C  5.35050  3.56700 12.48450
C  5.35050  5.35050 10.70100
C  4.45875  4.45875 11.59275
C  4.45875  6.24225 13.37625
C  6.24225  4.45875 13.37625
C  6.24225  6.24225 11.59275
C  3.56700  3.56700 14.26800
C  3.56700  5.35050 16.05150
C  5.35050  3.56700 16.05150
C  5.35050  5.35050 14.26800
C  4.45875  4.45875 15.15975
C  4.45875  6.24225 16.94325
C  6.24225  4.45875 16.94325
C  6.24225  6.24225 15.15975
C  3.56700  7.13400  0.00000
C  3.56700  8.91750  1.78350
C  5.35050  7.13400  1.78350
C  5.35050  8.91750  0.00000
C  4.45875  8.02575  0.89175
C  4.45875  9.80925  2.67525
C  6.24225  8.02575  2.67525
C  6.24225  9.80925  0.89175
C  3.56700  7.13400  3.56700
C  3.56700  8.91750  5.35050
C  5.35050  7.13400  5.35050
C  5.35050  8.91750  3.56700
C  4.45875  8.02575  4.45875
C  4.45875  9.80925  6.24225
C  6.24225  8.02575  6.24225
C  6.24225  9.80925  4.45875
C  3.56700  7.13400  7.13400
C  3.56700  8.91750  8.91750
C  5.35050  7.13400  8.91750
C  5.35050  8.91750  7.13400
C  4.45875  8.02575  8.02575
C  4.45875  9.80925  9.80925
C  6.24225  8.02575  9.80925
C  6.24225  9.80925  8.02575
C  3.56700  7.13400 10.70100
C  3.56700  8.91750 12.48450
C  5.35050  7.13400 12.48450
C  5.35050  8.91750 10.70100
C  4.45875  8.02575 11.59275
C  4.45875  9.80925 13.37625
C  6.24225  8.02575 13.37625
C  6.24225  9.80925 11.59275
C  3.56700  7.13400 14.26800
C  3.56700  8.91750 16.05150
C  5.35050  7.13400 16.05150
C  5.35050  8.91750 14.26800
C  4.45875  8.02575 15.15975
C  4.45875  9.80925 16.94325
C  6.24225  8.02575 16.94325
C  6.24225  9.80925 15.15975
C  3.56700 10.70100  0.00000
C  3.56700 12.48450  1.78350
C  5.35050 10.70100  1.78350
C  5.35050 12.48450  0.00000
C  4.45875 11.59275  0.89175
C  4.45875 13.37625  2.67525
C  6.24225 11.59275  2.67525
C  6.24225 13.37625  0.89175
C  3.56700 10.70100  3.56700
C  3.56700 12.48450  5.35050
C  5.35050 10.70100  5.35050
C  5.35050 12.48450  3.56700
C  4.45875 11.59275  4.45875
C  4.45875 13.37625  6.24225
C  6.24225 11.59275  6.24225
C  6.24225 13.37625  4.45875
C  3.56700 10.70100  7.13400
C  3.56700 12.48450  8.91750
C  5.35050 10.70100  8.91750
C  5.35050 12.48450  7.13400
C  4.45875 11.59275  8.02575
C  4.45875 13.37625  9.80925
C  6.24225 11.59275  9.80925
C  6.24225 13.37625  8.02575
C  3.56700 10.70100 10.70100
C  3.56700 12.48450 12.48450
C  5.35050 10.70100 12.48450
C  5.35050 12.48450 10.70100
C  4.45875 11.59275 11.59275
C  4.45875 13.37625 13.37625
C  6.24225 11.59275 13.37625
C  6.24225 13.37625 11.59275
C  3.56700 10.70100 14.26800
C  3.56700 12.48450 16.05150
C  5.35050 10.70100 16.05150
C  5.35050 12.48450 14.26800
C  4.45875 11.59275 15.15975
C  4.45875 13.37625 16.94325
C  6.24225 11.59275 16.94325
C  6.24225 13.37625 15.15975
C  3.56700 14.26800  0.00000
C  3.56700 16.05150  1.78350
C  5.35050 14.26800  1.78350
C  5.35050 16.05150  0.00000
C  4.45875 15.15975  0.89175
C  4.45875 16.94325  2.67525
C  6.24225 15.15975  2.67525
C  6.24225 16.94325  0.89175
C  3.56700 14.26800  3.56700
C  3.56700 16.05150  5.35050
C  5.35050 14.26800  5.35050
C  5.35050 16.05150  3.56700
C  4.45875 15.15975  4.45875
C  4.45875 16.94325  6.24225
C  6.24225 15.15975  6.24225
C  6.24225 16.94325  4.45875
C  3.56700 14.26800  7.13400
C  3.56700 16.05150  8.91750
C  5.35050 14.26800  8.91750
C  5.35050 16.05150  7.13400
C  4.45875 15.15975  8.02575
C  4.45875 16.94325  9.80925
C  6.24225 15.15975  9.80925
C  6.24225 16.94325  8.02575
C  3.56700 14.26800 10.70100
C  3.56700 16.05150 12.48450
C  5.35050 14.26800 12.48450
C  5.35050 16.05150 10.70100
C  4.45875 15.15975 11.59275
C  4.45875 16.94325 13.37625
C  6.24225 15.15975 13.37625
C  6.24225 16.94325 11.59275
C  3.56700 14.26800 14.26800
C  3.56700 16.05150 16.05150
C  5.35050 14.26800 16.05150
C  5.35050 16.05150 14.26800
C  4.45875 15.15975 15.15975
C  4.45875 16.94325 16.94325
C  6.24225 15.15975 16.94325
C  6.24225 16.94325 15.15975
C  7.13400  0.00000  0.00000
C  7.13400  1.78350  1.78350
C  8.91750  0.00000  1.78350
C  8.91750  1.78350  0.00000
C  8.02575  0.89175  0.89175
C  8.02575  2.67525  2.67525
C  9.80925  0.89175  2.67525
C  9.80925  2.67525  0.89175
C  7.13400  0.00000  3.56700
C  7.13400  1.78350  5.35050
C  8.91750  0.00000  5.35050
C  8.91750  1.78350  3.56700
C  8.02575  0.89175  4.45875
C  8.02575  2.67525  6.24225
C  9.80925  0.89175  6.24225
C  9.80925  2.67525  4.45875
C  7.13400  0.00000  7.13400
C  7.13400  1.78350  8.91750
C  8.91750  0.00000  8.91750
C  8.91750  1.78350  7.13400
C  8.02575  0.89175  8.02575
C  8.02575  2.67525  9.80925
C  9.80925  0.89175  9.80925
C  9.80925  2.67525  8.02575
C  7.13400  0.00000 10.70100
C  7.13400  1.78350 12.48450
C  8.91750  0.00000 12.48450
C  8.91750  1.78350 10.70100
C  8.02575  0.89175 11.59275
C  8.02575  2.67525 13.37625
C  9.80925  0.89175 13.37625
C  9.80925  2.67525 11.59275
C  7.13400  0.00000 14.26800
C  7.13400  1.78350 16.05150
C  8.91750  0.00000 16.05150
C  8.91750  1.78350 14.26800
C  8.02575  0.89175 15.15975
C  8.02575  2.67525 16.94325
C  9.80925  0.89175 16.94325
C  9.80925  2.67525 15.15975
C  7.13400  3.56700  0.00000
C  7.13400  5.35050  1.78350
C  8.91750  3.56700  1.78350
C  8.91750  5.35050  0.00000
C  8.02575  4.45875  0.89175
C  8.02575  6.24225  2.67525
C  9.80925  4.45875  2.67525
C  9.80925  6.24225  0.89175
C  7.13400  3.56700  3.56700
C  7.13400  5.35050  5.35050
C  8.91750  3.56700  5.35050
C  8.91750  5.35050  3.56700
C  8.02575  4.45875  4.45875
C  8.02575  6.24225  6.24225
C  9.80925  4.45875  6.24225
C  9.80925  6.24225  4.45875
C  7.13400  3.56700  7.13400
C  7.13400  5.35050  8.91750
C  8.91750  3.56700  8.91750
C  8.91750  5.35050  7.13400
C  8.02575  4.45875  8.02575
C  8.02575  6.24225  9.80925
C  9.80925  4.45875  9.80925
C  9.80925  6.24225  8.02575
C  7.13400  3.56700 10.70100
C  7.13400  5.35050 12.48450
C  8.91750  3.56700 12.48450
C  8.91750  5.35050 10.70100
C  8.02575  4.45875 11.59275
C  8.02575  6.24225 13.37625
C  9.80925  4.45875 13.37625
C  9.80925  6.24225 11.59275
C  7.13400  3.56700 14.26800
C  7.13400  5.35050 16.05150
C  8.91750  3.56700 16.05150
C  8.91750  5.35050 14.26800
C  8.02575  4.45875 15.15975
C  8.02575  6.24225 16.94325
C  9.80925  4.45875 16.94325
C  9.80925  6.24225 15.15975
C  7.13400  7.13400  0.00000
C  7.13400  8.91750  1.78350
C  8.91750  7.13400  1.78350
C  8.91750  8.91750  0.00000
C  8.02575  8.02575  0.89175
C  8.02575  9.80925  2.67525
C  9.80925  8.02575  2.67525
C  9.80925  9.80925  0.89175
C  7.13400  7.13400  3.56700
C  7.13400  8.91750  5.35050
C  8.91750  7.13400  5.35050
C  8.91750  8.91750  3.56700
C  8.02575  8.02575  4.45875
C  8.02575  9.80925  6.24225
C  9.80925  8.02575  6.24225
C  9.80925  9.80925  4.45875
C  7.13400  7.13400  7.13400
C  7.13400  8.91750  8.91750
C  8.91750  7.13400  8.91750
C  8.91750  8.91750  7.13400
C  8.02575  8.02575  8.02575
C  8.02575  9.80925  9.80925
C  9.80925  8.02575  9.80925
C  9.80925  9.80925  8.02575
C  7.13400  7.13400 10.70100
C  7.13400  8.91750 12.48450
C  8.91750  7.13400 12.48450
C  8.91750  8.91750 10.70100
C  8.02575  8.02575 11.59275
C  8.02575  9.80925 13.37625
C  9.80925  8.02575 13.37625
C  9.80925  9.80925 11.59275
C  7.13400  7.13400 14.26800
C  7.13400  8.91750 16.05150
C  8.91750  7.13400 16.05150
C  8.91750  8.91750 14.26800
C  8.02575  8.02575 15.15975
C  8.02575  9.80925 16.94325
C  9.80925  8.02575 16.94325
C  9.80925  9.80925 15.15975
C  7.13400 10.70100  0.00000
C  7.13400 12.48450  1.78350
C  8.91750 10.70100  1.78350
C  8.91750 12.48450  0.00000
C  8.02575 11.59275  0.89175
C  8.02575 13.37625  2.67525
C  9.80925 11.59275  2.67525
C  9.80925 13.37625  0.89175
C  7.13400 10.70100  3.56700
C  7.13400 12.48450  5.35050
C  8.91750 10.70100  5.35050
C  8.91750 12.48450  3.56700
C  8.02575 11.59275  4.45875
C  8.02575 13.37625  6.24225
C  9.80925 11.59275  6.24225
C  9.80925 13.37625  4.45875
C  7.13400 10.70100  7.13400
C  7.13400 12.48450  8.91750
C  8.91750 10.70100  8.91750
C  8.91750 12.48450  7.13400
C  8.02575 11.59275  8.02575
C  8.02575 13.37625  9.80925
C  9.80925 11.59275  9.80925
C  9.80925 13.37625  8.02575
C  7.13400 10.70100 10.70100
C  7.13400 12.48450 12.48450
C  8.91750 10.70100 12.48450
C  8.91750 12.48450 10.70100
C  8.02575 11.59275 11.59275
C  8.02575 13.37625 13.37625
C  9.80925 11.59275 13.37625
C  9.80925 13.37625 11.59275
C  7.13400 10.70100 14.26800
C  7.13400 12.48450 16.05150
C  8.91750 10.70100 16.05150
C  8.91750 12.48450 14.26800
C  8.02575 11.59275 15.15975
C  8.02575 13.37625 16.94325
C  9.80925 11.59275 16.94325
C  9.80925 13.37625 15.15975
C  7.13400 14.26800  0.00000
C  7.13400 16.05150  1.78350
C  8.91750 14.26800  1.78350
C  8.91750 16.05150  0.00000
C  8.02575 15.15975  0.89175
C  8.02575 16.94325  2.67525
C  9.80925 15.15975  2.67525
C  9.80925 16.94325  0.89175
C  7.13400 14.26800  3.56700
C  7.13400 16.05150  5.35050
C  8.91750 14.26800  5.35050
C  8.91750 16.05150  3.56700
C  8.02575 15.15975  4.45875
C  8.02575 16.94325  6.24225
C  9.80925 15.15975  6.24225
C  9.80925 16.94325  4.45875
C  7.13400 14.26800  7.13400
C  7.13400 16.05150  8.91750
C  8.91750 14.26800  8.91750
C  8.91750 16.05150  7.13400
C  8.02575 15.15975  8.02575
C  8.02575 16.94325  9.80925
C  9.80925 15.15975  9.80925
C  9.80925 16.94325  8.02575
C  7.13400 14.26800 10.70100
C  7.13400 16.05150 12.48450
C  8.91750 14.26800 12.48450
C  8.91750 16.05150 10.70100
C  8.02575 15.15975 11.59275
C  8.02575 16.94325 13.37625
C  9.80925 15.15975 13.37625
C  9.80925 16.94325 11.59275
C  7.13400 14.26800 14.26800
C  7.13400 16.05150 16.05150
C  8.91750 14.26800 16.05150
C  8.91750 16.05150 14.26800
C  8.02575 15.15975 15.15975
C  8.02575 16.94325 16.94325
C  9.80925 15.15975 16.94325
C  9.80925 16.94325 15.15975
C 10.70100  0.00000  0.00000
C 10.70100  1.78350  1.78350
C 12.48450  0.00000  1.78350
C 12.48450  1.78350  0.00000
C 11.59275  0.89175  0.89175
C 11.59275  2.67525  2.67525
C 13.37625  0.89175  2.67525
C 13.37625  2.67525  0.89175
C 10.70100  0.00000  3.56700
C 10.70100  1.78350  5.35050
C 12.48450  0.00000  5.35050
C 12.48450  1.78350  3.56700
C 11.59275  0.89175  4.45875
C 11.59275  2.67525  6.24225
C 13.37625  0.89175  6.24225
C 13.37625  2.67525  4.45875
C 10.70100  0.00000  7.13400
C 10.70100  1.78350  8.91750
C 12.48450  0.00000  8.91750
C 12.48450  1.78350  7.13400
C 11.59275  0.89175  8.02575
C 11.59275  2.67525  9.80925
C 13.37625  0.89175  9.80925
C 13.37625  2.67525  8.02575
C 10.70100  0.00000 10.70100
C 10.70100  1.78350 12.48450
C 12.48450  0.00000 12.48450
C 12.48450  1.78350 10.70100
C 11.59275  0.89175 11.59275
C 11.59275  2.67525 13.37625
C 13.37625  0.89175 13.37625
C 13.37625  2.67525 11.59275
C 10.70100  0.00000 14.26800
C 10.70100  1.78350 16.05150
C 12.48450  0.00000 16.05150
C 12.48450  1.78350 14.26800
C 11.59275  0.89175 15.15975
C 11.59275  2.67525 16.94325
C 13.37625  0.89175 16.94325
C 13.37625  2.67525 15.15975
C 10.70100  3.56700  0.00000
C 10.70100  5.35050  1.78350
C 12.48450  3.56700  1.78350
C 12.48450  5.35050  0.00000
C 11.59275  4.45875  0.89175
C 11.59275  6.24225  2.67525
C 13.37625  4.45875  2.67525
C 13.37625  6.24225  0.89175
C 10.70100  3.56700  3.56700
C 10.70100  5.35050  5.35050
C 12.48450  3.56700  5.35050
C 12.48450  5.35050  3.56700
C 11.59275  4.45875  4.45875
C 11.59275  6.24225  6.24225
C 13.37625  4.45875  6.24225
C 13.37625  6.24225  4.45875
C 10.70100  3.56700  7.13400
C 10.70100  5.35050  8.91750
C 12.48450  3.56700  8.91750
C 12.48450  5.35050  7.13400
C 11.59275  4.45875  8.02575
C 11.59275  6.24225  9.80925
C 13.37625  4.45875  9.80925
C 13.37625  6.24225  8.02575
C 10.70100  3.56700 10.70100
C 10.70100  5.35050 12.48450
C 12.48450  3.56700 12.48450
C 12.48450  5.35050 10.70100
C 11.59275  4.45875 11.59275
C 11.59275  6.24225 13.37625
C 13.37625  4.45875 13.37625
C 13.37625  6.24225 11.59275
C 10.70100  3.56700 14.26800
C 10.70100  5.35050 16.05150
C 12.48450  3.56700 16.05150
C 12.48450  5.35050 14.26800
C 11.59275  4.45875 15.15975
C 11.59275  6.24225 16.94325
C 13.37625  4.45875 16.94325
C 13.37625  6.24225 15.15975
C 10.70100  7.13400  0.00000
C 10.70100  8.91750  1.78350
C 12.48450  7.13400  1.78350
C 12.48450  8.91750  0.00000
C 11.59275  8.02575  0.89175
C 11.59275  9.80925  2.67525
C 13.37625  8.02575  2.67525
C 13.37625  9.80925  0.89175
C 10.70100  7.13400  3.56700
C 10.70100  8.91750  5.35050
C 12.48450  7.13400  5.35050
C 12.48450  8.91750  3.56700
C 11.59275  8.02575  4.45875
C 11.59275  9.80925  6.24225
C 13.37625  8.02575  6.24225
C 13.37625  9.80925  4.45875
C 10.70100  7.13400  7.13400
C 10.70100  8.91750  8.91750
C 12.48450  7.13400  8.91750
C 12.48450  8.91750  7.13400
C 11.59275  8.02575  8.02575
C 11.59275  9.80925  9.80925
C 13.37625  8.02575  9.80925
C 13.37625  9.80925  8.02575
C 10.70100  7.13400 10.70100
C 10.70100  8.91750 12.48450
C 12.48450  7.13400 12.48450
C 12.48450  8.91750 10.70100
C 11.59275  8.02575 11.59275
C 11.59275  9.80925 13.37625
C 13.37625  8.02575 13.37625
C 13.37625  9.80925 11.59275
C 10.70100  7.13400 14.26800
C 10.70100  8.91750 16.05150
C 12.48450  7.13400 16.05150
C 12.48450  8.91750 14.26800
C 11.59275  8.02575 15.15975
C 11.59275  9.80925 16.94325
C 13.37625  8.02575 16.94325
C 13.37625  9.80925 15.15975
C 10.70100 10.70100  0.00000
C 10.70100 12.48450  1.78350
C 12.48450 10.70100  1.78350
C 12.48450 12.48450  0.00000
C 11.59275 11.59275  0.89175
C 11.59275 13.37625  2.67525
C 13.37625 11.59275  2.67525
C 13.37625 13.37625  0.89175
C 10.70100 10.70100  3.56700
C 10.70100 12.48450  5.35050
C 12.48450 10.70100  5.35050
C 12.48450 12.48450  3.56700
C 11.59275 11.59275  4.45875
C 11.59275 13.37625  6.24225
C 13.37625 11.59275  6.24225
C 13.37625 13.37625  4.45875
C 10.70100 10.70100  7.13400
C 10.70100 12.48450  8.91750
C 12.48450 10.70100  8.91750
C 12.48450 12.48450  7.13400
C 11.59275 11.59275  8.02575
C 11.59275 13.37625  9.80925
C 13.37625 11.59275  9.80925
C 13.37625 13.37625  8.02575
C 10.70100 10.70100 10.70100
C 10.70100 12.48450 12.48450
C 12.48450 10.70100 12.48450
C 12.48450 12.48450 10.70100
C 11.59275 11.59275 11.59275
C 11.59275 13.37625 13.37625
C 13.37625 11.59275 13.37625
C 13.37625 13.37625 11.59275
C 10.70100 10.70100 14.26800
C 10.70100 12.48450 16.05150
C 12.48450 10.70100 16.05150
C 12.48450 12.48450 14.26800
C 11.59275 11.59275 15.15975
C 11.59275 13.37625 16.94325
C 13.37625 11.59275 16.94325
C 13.37625 13.37625 15.15975
C 10.70100 14.26800  0.00000
C 10.70100 16.05150  1.78350
C 12.48450 14.26800  1.78350
C 12.48450 16.05150  0.00000
C 11.59275 15.15975  0.89175
C 11.59275 16.94325  2.67525
C 13.37625 15.15975  2.67525
C 13.37625 16.94325  0.89175
C 10.70100 14.26800  3.56700
C 10.70100 16.05150  5.35050
C 12.48450 14.26800  5.35050
C 12.48450 16.05150  3.56700
C 11.59275 15.15975  4.45875
C 11.59275 16.94325  6.24225
C 13.37625 15.15975  6.24225
C 13.37625 16.94325  4.45875
C 10.70100 14.26800  7.13400
C 10.70100 16.05150  8.91750
C 12.48450 14.26800  8.91750
C 12.48450 16.05150  7.13400
C 11.59275 15.15975  8.02575
C 11.59275 16.94325  9.80925
C 13.37625 15.15975  9.80925
C 13.37625 16.94325  8.02575
C 10.70100 14.26800 10.70100
C 10.70100 16.05150 12.48450
C 12.48450 14.26800 12.48450
C 12.48450 16.05150 10.70100
C 11.59275 15.15975 11.59275
C 11.59275 16.94325 13.37625
C 13.37625 15.15975 13.37625
C 13.37625 16.94325 11.59275
C 10.70100 14.26800 14.26800
C 10.70100 16.05150 16.05150
C 12.48450 14.26800 16.05150
C 12.48450 16.05150 14.26800
C 11.59275 15.15975 15.15975
C 11.59275 16.94325 16.94325
C 13.37625 15.15975 16.94325
C 13.37625 16.94325 15.15975
C 14.26800  0.00000  0.00000
C 14.26800  1.78350  1.78350
C 16.05150  0.00000  1.78350
C 16.05150  1.78350  0.00000
C 15.15975  0.89175  0.89175
C 15.15975  2.67525  2.67525
C 16.94325  0.89175  2.67525
C 16.94325  2.67525  0.89175
C 14.26800  0.00000  3.56700
C 14.26800  1.78350  5.35050
C 16.05150  0.00000  5.35050
C 16.05150  1.78350  3.56700
C 15.15975  0.89175  4.45875
C 15.15975  2.67525  6.24225
C 16.94325  0.89175  6.24225
C 16.94325  2.67525  4.45875
C 14.26800  0.00000  7.13400
C 14.26800  1.78350  8.91750
C 16.05150  0.00000  8.91750
C 16.05150  1.78350  7.13400
C 15.15975  0.89175  8.02575
C 15.15975  2.67525  9.80925
C 16.94325  0.89175  9.80925
C 16.94325  2.67525  8.02575
C 14.26800  0.00000 10.70100
C 14.26800  1.78350 12.48450
C 16.05150  0.00000 12.48450
C 16.05150  1.78350 10.70100
C 15.15975  0.89175 11.59275
C 15.15975  2.67525 13.37625
C 16.94325  0.89175 13.37625
C 16.94325  2.67525 11.59275
C 14.26800  0.00000 14.26800
C 14.26800  1.78350 16.05150
C 16.05150  0.00000 16.05150
C 16.05150  1.78350 14.26800
C 15.15975  0.89175 15.15975
C 15.15975  2.67525 16.94325
C 16.94325  0.89175 16.94325
C 16.94325  2.67525 15.15975
C 14.26800  3.56700  0.00000
C 14.26800  5.35050  1.78350
C 16.05150  3.56700  1.78350
C 16.05150  5.35050  0.00000
C 15.15975  4.45875  0.89175
C 15.15975  6.24225  2.67525
C 16.94325  4.45875  2.67525
C 16.94325  6.24225  0.89175
C 14.26800  3.56700  3.56700
C 14.26800  5.35050  5.35050
C 16.05150  3.56700  5.35050
C 16.05150  5.35050  3.56700
C 15.15975  4.45875  4.45875
C 15.15975  6.24225  6.24225
C 16.94325  4.45875  6.24225
C 16.94325  6.24225  4.45875
C 14.26800  3.56700  7.13400
C 14.26800  5.35050  8.91750
C 16.05150  3.56700  8.91750
C 16.05150  5.35050  7.13400
C 15.15975  4.45875  8.02575
C 15.15975  6.24225  9.80925
C 16.94325  4.45875  9.80925
C 16.94325  6.24225  8.02575
C 14.26800  3.56700 10.70100
C 14.26800  5.35050 12.48450
C 16.05150  3.56700 12.48450
C 16.05150  5.35050 10.70100
C 15.15975  4.45875 11.59275
C 15.15975  6.24225 13.37625
C 16.94325  4.45875 13.37625
C 16.94325  6.24225 11.59275
C 14.26800  3.56700 14.26800
C 14.26800  5.35050 16.05150
C 16.05150  3.56700 16.05150
C 16.05150  5.35050 14.26800
C 15.15975  4.45875 15.15975
C 15.15975  6.24225 16.94325
C 16.94325  4.45875 16.94325
C 16.94325  6.24225 15.15975
C 14.26800  7.13400  0.00000
C 14.26800  8.91750  1.78350
C 16.05150  7.13400  1.78350
C 16.05150  8.91750  0.00000
C 15.15975  8.02575  0.89175
C 15.15975  9.80925  2.67525
C 16.94325  8.02575  2.67525
C 16.94325  9.80925  0.89175
C 14.26800  7.13400  3.56700
C 14.26800  8.91750  5.35050
C 16.05150  7.13400  5.35050
C 16.05150  8.91750  3.56700
C 15.15975  8.02575  4.45875
C 15.15975  9.80925  6.24225
C 16.94325  8.02575  6.24225
C 16.94325  9.80925  4.45875
C 14.26800  7.13400  7.13400
C 14.26800  8.91750  8.91750
C 16.05150  7.13400  8.91750
C 16.05150  8.91750  7.13400
C 15.15975  8.02575  8.02575
C 15.15975  9.80925  9.80925
C 16.94325  8.02575  9.80925
C 16.94325  9.80925  8.02575
C 14.26800  7.13400 10.70100
C 14.26800  8.91750 12.48450
C 16.05150  7.13400 12.48450
C 16.05150  8.91750 10.70100
C 15.15975  8.02575 11.59275
C 15.15975  9.80925 13.37625
C 16.94325  8.02575 13.37625
C 16.94325  9.80925 11.59275
C 14.26800  7.13400 14.26800
C 14.26800  8.91750 16.05150
C 16.05150  7.13400 16.05150
C 16.05150  8.91750 14.26800
C 15.15975  8.02575 15.15975
C 15.15975  9.80925 16.94325
C 16.94325  8.02575 16.94325
C 16.94325  9.80925 15.15975
C 14.26800 10.70100  0.00000
C 14.26800 12.48450  1.78350
C 16.05150 10.70100  1.78350
C 16.05150 12.48450  0.00000
C 15.15975 11.59275  0.89175
C 15.15975 13.37625  2.67525
C 16.94325 11.59275  2.67525
C 16.94325 13.37625  0.89175
C 14.26800 10.70100  3.56700
C 14.26800 12.48450  5.35050
C 16.05150 10.70100  5.35050
C 16.05150 12.48450  3.56700
C 15.15975 11.59275  4.45875
C 15.15975 13.37625  6.24225
C 16.94325 11.59275  6.24225
C 16.94325 13.37625  4.45875
C 14.26800 10.70100  7.13400
C 14.26800 12.48450  8.91750
C 16.05150 10.70100  8.91750
C 16.05150 12.48450  7.13400
C 15.15975 11.59275  8.02575
C 15.15975 13.37625  9.80925
C 16.94325 11.59275  9.80925
C 16.94325 13.37625  8.02575
C 14.26800 10.70100 10.70100
C 14.26800 12.48450 12.48450
C 16.05150 10.70100 12.48450
C 16.05150 12.48450 10.70100
C 15.15975 11.59275 11.59275
C 15.15975 13.37625 13.37625
C 16.94325 11.59275 13.37625
C 16.94325 13.37625 11.59275
C 14.26800 10.70100 14.26800
C 14.26800 12.48450 16.05150
C 16.05150 10.70100 16.05150
C 16.05150 12.48450 14.26800
C 15.15975 11.59275 15.15975
C 15.15975 13.37625 16.94325
C 16.94325 11.59275 16.94325
C 16.94325 13.37625 15.15975
C 14.26800 14.26800  0.00000
C 14.26800 16.05150  1.78350
C 16.05150 14.26800  1.78350
C 16.05150 16.05150  0.00000
C 15.15975 15.15975  0.89175
C 15.15975 16.94325  2.67525
C 16.94325 15.15975  2.67525
C 16.94325 16.94325  0.89175
C 14.26800 14.26800  3.56700
C 14.26800 16.05150  5.35050
C 16.05150 14.26800  5.35050
C 16.05150 16.05150  3.56700
C 15.15975 15.15975  4.45875
C 15.15975 16.94325  6.24225
C 16.94325 15.15975  6.24225
C 16.94325 16.94325  4.45875
C 14.26800 14.26800  7.13400
C 14.26800 16.05150  8.91750
C 16.05150 14.26800  8.91750
C 16.05150 16.05150  7.13400
C 15.15975 15.15975  8.02575
C 15.15975 16.94325  9.80925
C 16.94325 15.15975  9.80925
C 16.94325 16.94325  8.02575
C 14.26800 14.26800 10.70100
C 14.26800 16.05150 12.48450
C 16.05150 14.26800 12.48450
C 16.05150 16.05150 10.70100
C 15.15975 15.15975 11.59275
C 15.15975 16.94325 13.37625
C 16.94325 15.15975 13.37625
C 16.94325 16.94325 11.59275
C 14.26800 14.26800 14.26800
C 14.26800 16.05150 16.05150
C 16.05150 14.26800 16.05150
C 16.05150 16.05150 14.26800
C 15.15975 15.15975 15.15975
C 15.15975 16.94325 16.94325
C 16.94325 15.15975 16.94325
C 16.94325 16.94325 15.15975
N  0.00000  0.00000 17.83500
C  0.00000  1.78350 19.61850
C  1.78350  0.00000 19.61850
C  1.78350  1.78350 17.83500
C  0.89175  0.89175 18.72675
C  0.89175  2.67525 20.51025
C  2.67525  0.89175 20.51025
C  2.67525  2.67525 18.72675
C  0.00000  0.00000 21.40200
C  0.00000  1.78350 23.18550
C  1.78350  0.00000 23.18550
C  1.78350  1.78350 21.40200
C  0.89175  0.89175 22.29375
C  0.89175  2.67525 24.07725
C  2.67525  0.89175 24.07725
C  2.67525  2.67525 22.29375
C  0.00000  0.00000 24.96900
C  0.00000  1.78350 26.75250
C  1.78350  0.00000 26.75250
C  1.78350  1.78350 24.96900
C  0.89175  0.89175 25.86075
C  0.89175  2.67525 27.64425
C  2.67525  0.89175 27.64425
C  2.67525  2.67525 25.86075
C  0.00000  0.00000 28.53600
C  0.00000  1.78350 30.31950
C  1.78350  0.00000 30.31950
C  1.78350  1.78350 28.53600
C  0.89175  0.89175 29.42775
C  0.89175  2.67525 31.21125
C  2.67525  0.89175 31.21125
C  2.67525  2.67525 29.42775
C  0.00000  0.00000 32.10300
C  0.00000  1.78350 33.88650
C  1.78350  0.00000 33.88650
C  1.78350  1.78350 32.10300
C  0.89175  0.89175 32.99475
C  0.89175  2.67525 34.77825
C  2.67525  0.89175 34.77825
C  2.67525  2.67525 32.99475
C  0.00000  3.56700 17.83500
C  0.00000  5.35050 19.61850
C  1.78350  3.56700 19.61850
C  1.78350  5.35050 17.83500
C  0.89175  4.45875 18.72675
C  0.89175  6.24225 20.51025
C  2.67525  4.45875 20.51025
C  2.67525  6.24225 18.72675
C  0.00000  3.56700 21.40200
C  0.00000  5.35050 23.18550
C  1.78350  3.56700 23.18550
C  1.78350  5.35050 21.40200
C  0.89175  4.45875 22.29375
C  0.89175  6.24225 24.07725
C  2.67525  4.45875 24.07725
C  2.67525  6.24225 22.29375
C  0.00000  3.56700 24.96900
C  0.00000  5.35050 26.75250
C  1.78350  3.56700 26.75250
C  1.78350  5.35050 24.96900
C  0.89175  4.45875 25.86075
C  0.89175  6.24225 27.64425
C  2.67525  4.45875 27.64425
C  2.67525  6.24225 25.86075
C  0.00000  3.56700 28.53600
C  0.00000  5.35050 30.31950
C  1.78350  3.56700 30.31950
C  1.78350  5.35050 28.53600
C  0.89175  4.45875 29.42775
C  0.89175  6.24225 31.21125
C  2.67525  4.45875 31.21125
C  2.67525  6.24225 29.42775
C  0.00000  3.56700 32.10300
C  0.00000  5.35050 33.88650
C  1.78350  3.56700 33.88650
C  1.78350  5.35050 32.10300
C  0.89175  4.45875 32.99475
C  0.89175  6.24225 34.77825
C  2.67525  4.45875 34.77825
C  2.67525  6.24225 32.99475
C  0.00000  7.13400 17.83500
C  0.00000  8.91750 19.61850
C  1.78350  7.13400 19.61850
C  1.78350  8.91750 17.83500
C  0.89175  8.02575 18.72675
C  0.89175  9.80925 20.51025
C  2.67525  8.02575 20.51025
C  2.67525  9.80925 18.72675
C  0.00000  7.13400 21.40200
C  0.00000  8.91750 23.18550
C  1.78350  7.13400 23.18550
C  1.78350  8.91750 21.40200
C  0.89175  8.02575 22.29375
C  0.89175  9.80925 24.07725
C  2.67525  8.02575 24.07725
C  2.67525  9.80925 22.29375
C  0.00000  7.13400 24.96900
C  0.00000  8.91750 26.75250
C  1.78350  7.13400 26.75250
C  1.78350  8.91750 24.96900
C  0.89175  8.02575 25.86075
C  0.89175  9.80925 27.64425
C  2.67525  8.02575 27.64425
C  2.67525  9.80925 25.86075
C  0.00000  7.13400 28.53600
C  0.00000  8.91750 30.31950
C  1.78350  7.13400 30.31950
C  1.78350  8.91750 28.53600
C  0.89175  8.02575 29.42775
C  0.89175  9.80925 31.21125
C  2.67525  8.02575 31.21125
C  2.67525  9.80925 29.42775
C  0.00000  7.13400 32.10300
C  0.00000  8.91750 33.88650
C  1.78350  7.13400 33.88650
C  1.78350  8.91750 32.10300
C  0.89175  8.02575 32.99475
C  0.89175  9.80925 34.77825
C  2.67525  8.02575 34.77825
C  2.67525  9.80925 32.99475
C  0.00000 10.70100 17.83500
C  0.00000 12.48450 19.61850
C  1.78350 10.70100 19.61850
C  1.78350 12.48450 17.83500
C  0.89175 11.59275 18.72675
C  0.89175 13.37625 20.51025
C  2.67525 11.59275 20.51025
C  2.67525 13.37625 18.72675
C  0.00000 10.70100 21.40200
C  0.00000 12.48450 23.18550
C  1.78350 10.70100 23.18550
C  1.78350 12.48450 21.40200
C  0.89175 11.59275 22.29375
C  0.89175 13.37625 24.07725
C  2.67525 11.59275 24.07725
C  2.67525 13.37625 22.29375
C  0.00000 10.70100 24.96900
C  0.00000 12.48450 26.75250
C  1.78350 10.70100 26.75250
C  1.78350 12.48450 24.96900
C  0.89175 11.59275 25.86075
C  0.89175 13.37625 27.64425
C  2.67525 11.59275 27.64425
C  2.67525 13.37625 25.86075
C  0.00000 10.70100 28.53600
C  0.00000 12.48450 30.31950
C  1.78350 10.70100 30.31950
C  1.78350 12.48450 28.53600
C  0.89175 11.59275 29.42775
C  0.89175 13.37625 31.21125
C  2.67525 11.59275 31.21125
C  2.67525 13.37625 29.42775
C  0.00000 10.70100 32.10300
C  0.00000 12.48450 33.88650
C  1.78350 10.70100 33.88650
C  1.78350 12.48450 32.10300
C  0.89175 11.59275 32.99475
C  0.89175 13.37625 34.77825
C  2.67525 11.59275 34.77825
C  2.67525 13.37625 32.99475
C  0.00000 14.26800 17.83500
C  0.00000 16.05150 19.61850
C  1.78350 14.26800 19.61850
C  1.78350 16.05150 17.83500
C  0.89175 15.15975 18.72675
C  0.89175 16.94325 20.51025
C  2.67525 15.15975 20.51025
C  2.67525 16.94325 18.72675
C  0.00000 14.26800 21.40200
C  0.00000 16.05150 23.18550
C  1.78350 14.26800 23.18550
C  1.78350 16.05150 21.40200
C  0.89175 15.15975 22.29375
C  0.89175 16.94325 24.07725
C  2.67525 15.15975 24.07725
C  2.67525 16.94325 22.29375
C  0.00000 14.26800 24.96900
C  0.00000 16.05150 26.75250
C  1.78350 14.26800 26.75250
C  1.78350 16.05150 24.96900
C  0.89175 15.15975 25.86075
C  0.89175 16.94325 27.64425
C  2.67525 15.15975 27.64425
C  2.67525 16.94325 25.86075
C  0.00000 14.26800 28.53600
C  0.00000 16.05150 30.31950
C  1.78350 14.26800 30.31950
C  1.78350 16.05150 28.53600
C  0.89175 15.15975 29.42775
C  0.89175 16.94325 31.21125
C  2.67525 15.15975 31.21125
C  2.67525 16.94325 29.42775
C  0.00000 14.26800 32.10300
C  0.00000 16.05150 33.88650
C  1.78350 14.26800 33.88650
C  1.78350 16.05150 32.10300
C  0.89175 15.15975 32.99475
C  0.89175 16.94325 34.77825
C  2.67525 15.15975 34.77825
C  2.67525 16.94325 32.99475
C  3.56700  0.00000 17.83500
C  3.56700  1.78350 19.61850
C  5.35050  0.00000 19.61850
C  5.35050  1.78350 17.83500
C  4.45875  0.89175 18.72675
C  4.45875  2.67525 20.51025
C  6.24225  0.89175 20.51025
C  6.24225  2.67525 18.72675
C  3.56700  0.00000 21.40200
C  3.56700  1.78350 23.18550
C  5.35050  0.00000 23.18550
C  5.35050  1.78350 21.40200
C  4.45875  0.89175 22.29375
C  4.45875  2.67525 24.07725
C  6.24225  0.89175 24.07725
C  6.24225  2.67525 22.29375
C  3.56700  0.00000 24.96900
C  3.56700  1.78350 26.75250
C  5.35050  0.00000 26.75250
C  5.35050  1.78350 24.96900
C  4.45875  0.89175 25.86075
C  4.45875  2.67525 27.64425
C  6.24225  0.89175 27.64425
C  6.24225  2.67525 25.86075
C  3.56700  0.00000 28.53600
C  3.56700  1.78350 30.31950
C  5.35050  0.00000 30.31950
C  5.35050  1.78350 28.53600
C  4.45875  0.89175 29.42775
C  4.45875  2.67525 31.21125
C  6.24225  0.89175 31.21125
C  6.24225  2.67525 29.42775
C  3.56700  0.00000 32.10300
C  3.56700  1.78350 33.88650
C  5.35050  0.00000 33.88650
C  5.35050  1.78350 32.10300
C  4.45875  0.89175 32.99475
C  4.45875  2.67525 34.77825
C  6.24225  0.89175 34.77825
C  6.24225  2.67525 32.99475
C  3.56700  3.56700 17.83500
C  3.56700  5.35050 19.61850
C  5.35050  3.56700 19.61850
C  5.35050  5.35050 17.83500
C  4.45875  4.45875 18.72675
C  4.45875  6.24225 20.51025
C  6.24225  4.45875 20.51025
C  6.24225  6.24225 18.72675
C  3.56700  3.56700 21.40200
C  3.56700  5.35050 23.18550
C  5.35050  3.56700 23.18550
C  5.35050  5.35050 21.40200
C  4.45875  4.45875 22.29375
C  4.45875  6.24225 24.07725
C  6.24225  4.45875 24.07725
C  6.24225  6.24225 22.29375
C  3.56700  3.56700 24.96900
C  3.56700  5.35050 26.75250
C  5.35050  3.56700 26.75250
C  5.35050  5.35050 24.96900
C  4.45875  4.45875 25.86075
C  4.45875  6.24225 27.64425
C  6.24225  4.45875 27.64425
C  6.24225  6.24225 25.86075
C  3.56700  3.56700 28.53600
C  3.56700  5.35050 30.31950
C  5.35050  3.56700 30.31950
C  5.35050  5.35050 28.53600
C  4.45875  4.45875 29.42775
C  4.45875  6.24225 31.21125
C  6.24225  4.45875 31.21125
C  6.24225  6.24225 29.42775
C  3.56700  3.56700 32.10300
C  3.56700  5.35050 33.88650
C  5.35050  3.56700 33.88650
C  5.35050  5.35050 32.10300
C  4.45875  4.45875 32.99475
C  4.45875  6.24225 34.77825
C  6.24225  4.45875 34.77825
C  6.24225  6.24225 32.99475
C  3.56700  7.13400 17.83500
C  3.56700  8.91750 19.61850
C  5.35050  7.13400 19.61850
C  5.35050  8.91750 17.83500
C  4.45875  8.02575 18.72675
C  4.45875  9.80925 20.51025
C  6.24225  8.02575 20.51025
C  6.24225  9.80925 18.72675
C  3.56700  7.13400 21.40200
C  3.56700  8.91750 23.18550
C  5.35050  7.13400 23.18550
C  5.35050  8.91750 21.40200
C  4.45875  8.02575 22.29375
C  4.45875  9.80925 24.07725
C  6.24225  8.02575 24.07725
C  6.24225  9.80925 22.29375
C  3.56700  7.13400 24.96900
C  3.56700  8.91750 26.75250
C  5.35050  7.13400 26.75250
C  5.35050  8.91750 24.96900
C  4.45875  8.02575 25.86075
C  4.45875  9.80925 27.64425
C  6.24225  8.02575 27.64425
C  6.24225  9.80925 25.86075
C  3.56700  7.13400 28.53600
C  3.56700  8.91750 30.31950
C  5.35050  7.13400 30.31950
C  5.35050  8.91750 28.53600
C  4.45875  8.02575 29.42775
C  4.45875  9.80925 31.21125
C  6.24225  8.02575 31.21125
C  6.24225  9.80925 29.42775
C  3.56700  7.13400 32.10300
C  3.56700  8.91750 33.88650
C  5.35050  7.13400 33.88650
C  5.35050  8.91750 32.10300
C  4.45875  8.02575 32.99475
C  4.45875  9.80925 34.77825
C  6.24225  8.02575 34.77825
C  6.24225  9.80925 32.99475
C  3.56700 10.70100 17.83500
C  3.56700 12.48450 19.61850
C  5.35050 10.70100 19.61850
C  5.35050 12.48450 17.83500
C  4.45875 11.59275 18.72675
C  4.45875 13.37625 20.51025
C  6.24225 11.59275 20.51025
C  6.24225 13.37625 18.72675
C  3.56700 10.70100 21.40200
C  3.56700 12.48450 23.18550
C  5.35050 10.70100 23.18550
C  5.35050 12.48450 21.40200
C  4.45875 11.59275 22.29375
C  4.45875 13.37625 24.07725
C  6.24225 11.59275 24.07725
C  6.24225 13.37625 22.29375
C  3.56700 10.70100 24.96900
C  3.56700 12.48450 26.75250
C  5.35050 10.70100 26.75250
C  5.35050 12.48450 24.96900
C  4.45875 11.59275 25.86075
C  4.45875 13.37625 27.64425
C  6.24225 11.59275 27.64425
C  6.24225 13.37625 25.86075
C  3.56700 10.70100 28.53600
C  3.56700 12.48450 30.31950
C  5.35050 10.70100 30.31950
C  5.35050 12.48450 28.53600
C  4.45875 11.59275 29.42775
C  4.45875 13.37625 31.21125
C  6.24225 11.59275 31.21125
C  6.24225 13.37625 29.42775
C  3.56700 10.70100 32.10300
C  3.56700 12.48450 33.88650
C  5.35050 10.70100 33.88650
C  5.35050 12.48450 32.10300
C  4.45875 11.59275 32.99475
C  4.45875 13.37625 34.77825
C  6.24225 11.59275 34.77825
C  6.24225 13.37625 32.99475
C  3.56700 14.26800 17.83500
C  3.56700 16.05150 19.61850
C  5.35050 14.26800 19.61850
C  5.35050 16.05150 17.83500
C  4.45875 15.15975 18.72675
C  4.45875 16.94325 20.51025
C  6.24225 15.15975 20.51025
C  6.24225 16.94325 18.72675
C  3.56700 14.26800 21.40200
C  3.56700 16.05150 23.18550
C  5.35050 14.26800 23.18550
C  5.35050 16.05150 21.40200
C  4.45875 15.15975 22.29375
C  4.45875 16.94325 24.07725
C  6.24225 15.15975 24.07725
C  6.24225 16.94325 22.29375
C  3.56700 14.26800 24.96900
C  3.56700 16.05150 26.75250
C  5.35050 14.26800 26.75250
C  5.35050 16.05150 24.96900
C  4.45875 15.15975 25.86075
C  4.45875 16.94325 27.64425
C  6.24225 15.15975 27.64425
C  6.24225 16.94325 25.86075
C  3.56700 14.26800 28.53600
C  3.56700 16.05150 30.31950
C  5.35050 14.26800 30.31950
C  5.35050 16.05150 28.53600
C  4.45875 15.15975 29.42775
C  4.45875 16.94325 31.21125
C  6.24225 15.15975 31.21125
C  6.24225 16.94325 29.42775
C  3.56700 14.26800 32.10300
C  3.56700 16.05150 33.88650
C  5.35050 14.26800 33.88650
C  5.35050 16.05150 32.10300
C  4.45875 15.15975 32.99475
C  4.45875 16.94325 34.77825
C  6.24225 15.15975 34.77825
C  6.24225 16.94325 32.99475
C  7.13400  0.00000 17.83500
C  7.13400  1.78350 19.61850
C  8.91750  0.00000 19.61850
C  8.91750  1.78350 17.83500
C  8.02575  0.89175 18.72675
C  8.02575  2.67525 20.51025
C  9.80925  0.89175 20.51025
C  9.80925  2.67525 18.72675
C  7.13400  0.00000 21.40200
C  7.13400  1.78350 23.18550
C  8.91750  0.00000 23.18550
C  8.91750  1.78350 21.40200
C  8.02575  0.89175 22.29375
C  8.02575  2.67525 24.07725
C  9.80925  0.89175 24.07725
C  9.80925  2.67525 22.29375
C  7.13400  0.00000 24.96900
C  7.13400  1.78350 26.75250
C  8.91750  0.00000 26.75250
C  8.91750  1.78350 24.96900
C  8.02575  0.89175 25.86075
C  8.02575  2.67525 27.64425
C  9.80925  0.89175 27.64425
C  9.80925  2.67525 25.86075
C  7.13400  0.00000 28.53600
C  7.13400  1.78350 30.31950
C  8.91750  0.00000 30.31950
C  8.91750  1.78350 28.53600
C  8.02575  0.89175 29.42775
C  8.02575  2.67525 31.21125
C  9.80925  0.89175 31.21125
C  9.80925  2.67525 29.42775
C  7.13400  0.00000 32.10300
C  7.13400  1.78350 33.88650
C  8.91750  0.00000 33.88650
C  8.91750  1.78350 32.10300
C  8.02575  0.89175 32.99475
C  8.02575  2.67525 34.77825
C  9.80925  0.89175 34.77825
C  9.80925  2.67525 32.99475
C  7.13400  3.56700 17.83500
C  7.13400  5.35050 19.61850
C  8.91750  3.56700 19.61850
C  8.91750  5.35050 17.83500
C  8.02575  4.45875 18.72675
C  8.02575  6.24225 20.51025
C  9.80925  4.45875 20.51025
C  9.80925  6.24225 18.72675
C  7.13400  3.56700 21.40200
C  7.13400  5.35050 23.18550
C  8.91750  3.56700 23.18550
C  8.91750  5.35050 21.40200
C  8.02575  4.45875 22.29375
C  8.02575  6.24225 24.07725
C  9.80925  4.45875 24.07725
C  9.80925  6.24225 22.29375
C  7.13400  3.56700 24.96900
C  7.13400  5.35050 26.75250
C  8.91750  3.56700 26.75250
C  8.91750  5.35050 24.96900
C  8.02575  4.45875 25.86075
C  8.02575  6.24225 27.64425
C  9.80925  4.45875 27.64425
C  9.80925  6.24225 25.86075
C  7.13400  3.56700 28.53600
C  7.13400  5.35050 30.31950
C  8.91750  3.56700 30.31950
C  8.91750  5.35050 28.53600
C  8.02575  4.45875 29.42775
C  8.02575  6.24225 31.21125
C  9.80925  4.45875 31.21125
C  9.80925  6.24225 29.42775
C  7.13400  3.56700 32.10300
C  7.13400  5.35050 33.88650
C  8.91750  3.56700 33.88650
C  8.91750  5.35050 32.10300
C  8.02575  4.45875 32.99475
C  8.02575  6.24225 34.77825
C  9.80925  4.45875 34.77825
C  9.80925  6.24225 32.99475
C  7.13400  7.13400 17.83500
C  7.13400  8.91750 19.61850
C  8.91750  7.13400 19.61850
C  8.91750  8.91750 17.83500
C  8.02575  8.02575 18.72675
C  8.02575  9.80925 20.51025
C  9.80925  8.02575 20.51025
C  9.80925  9.80925 18.72675
C  7.13400  7.13400 21.40200
C  7.13400  8.91750 23.18550
C  8.91750  7.13400 23.18550
C  8.91750  8.91750 21.40200
C  8.02575  8.02575 22.29375
C  8.02575  9.80925 24.07725
C  9.80925  8.02575 24.07725
C  9.80925  9.80925 22.29375
C  7.13400  7.13400 24.96900
C  7.13400  8.91750 26.75250
C  8.91750  7.13400 26.75250
C  8.91750  8.91750 24.96900
C  8.02575  8.02575 25.86075
C  8.02575  9.80925 27.64425
C  9.80925  8.02575 27.64425
C  9.80925  9.80925 25.86075
C  7.13400  7.13400 28.53600
C  7.13400  8.91750 30.31950
C  8.91750  7.13400 30.31950
C  8.91750  8.91750 28.53600
C  8.02575  8.02575 29.42775
C  8.02575  9.80925 31.21125
C  9.80925  8.02575 31.21125
C  9.80925  9.80925 29.42775
C  7.13400  7.13400 32.10300
C  7.13400  8.91750 33.88650
C  8.91750  7.13400 33.88650
C  8.91750  8.91750 32.10300
C  8.02575  8.02575 32.99475
C  8.02575  9.80925 34.77825
C  9.80925  8.02575 34.77825
C  9.80925  9.80925 32.99475
C  7.13400 10.70100 17.83500
C  7.13400 12.48450 19.61850
C  8.91750 10.70100 19.61850
C  8.91750 12.48450 17.83500
C  8.02575 11.59275 18.72675
C  8.02575 13.37625 20.51025
C  9.80925 11.59275 20.51025
C  9.80925 13.37625 18.72675
C  7.13400 10.70100 21.40200
C  7.13400 12.48450 23.18550
C  8.91750 10.70100 23.18550
C  8.91750 12.48450 21.40200
C  8.02575 11.59275 22.29375
C  8.02575 13.37625 24.07725
C  9.80925 11.59275 24.07725
C  9.80925 13.37625 22.29375
C  7.13400 10.70100 24.96900
C  7.13400 12.48450 26.75250
C  8.91750 10.70100 26.75250
C  8.91750 12.48450 24.96900
C  8.02575 11.59275 25.86075
C  8.02575 13.37625 27.64425
C  9.80925 11.59275 27.64425
C  9.80925 13.37625 25.86075
C  7.13400 10.70100 28.53600
C  7.13400 12.48450 30.31950
C  8.91750 10.70100 30.31950
C  8.91750 12.48450 28.53600
C  8.02575 11.59275 29.42775
C  8.02575 13.37625 31.21125
C  9.80925 11.59275 31.21125
C  9.80925 13.37625 29.42775
C  7.13400 10.70100 32.10300
C  7.13400 12.48450 33.88650
C  8.91750 10.70100 33.88650
C  8.91750 12.48450 32.10300
C  8.02575 11.59275 32.99475
C  8.02575 13.37625 34.77825
C  9.80925 11.59275 34.77825
C  9.80925 13.37625 32.99475
C  7.13400 14.26800 17.83500
C  7.13400 16.05150 19.61850
C  8.91750 14.26800 19.61850
C  8.91750 16.05150 17.83500
C  8.02575 15.15975 18.72675
C  8.02575 16.94325 20.51025
C  9.80925 15.15975 20.51025
C  9.80925 16.94325 18.72675
C  7.13400 14.26800 21.40200
C  7.13400 16.05150 23.18550
C  8.91750 14.26800 23.18550
C  8.91750 16.05150 21.40200
C  8.02575 15.15975 22.29375
C  8.02575 16.94325 24.07725
C  9.80925 15.15975 24.07725
C  9.80925 16.94325 22.29375
C  7.13400 14.26800 24.96900
C  7.13400 16.05150 26.75250
C  8.91750 14.26800 26.75250
C  8.91750 16.05150 24.96900
C  8.02575 15.15975 25.86075
C  8.02575 16.94325 27.64425
C  9.80925 15.15975 27.64425
C  9.80925 16.94325 25.86075
C  7.13400 14.26800 28.53600
C  7.13400 16.05150 30.31950
C  8.91750 14.26800 30.31950
C  8.91750 16.05150 28.53600
C  8.02575 15.15975 29.42775
C  8.02575 16.94325 31.21125
C  9.80925 15.15975 31.21125
C  9.80925 16.94325 29.42775
C  7.13400 14.26800 32.10300
C  7.13400 16.05150 33.88650
C  8.91750 14.26800 33.88650
C  8.91750 16.05150 32.10300
C  8.02575 15.15975 32.99475
C  8.02575 16.94325 34.77825
C  9.80925 15.15975 34.77825
C  9.80925 16.94325 32.99475
C 10.70100  0.00000 17.83500
C 10.70100  1.78350 19.61850
C 12.48450  0.00000 19.61850
C 12.48450  1.78350 17.83500
C 11.59275  0.89175 18.72675
C 11.59275  2.67525 20.51025
C 13.37625  0.89175 20.51025
C 13.37625  2.67525 18.72675
C 10.70100  0.00000 21.40200
C 10.70100  1.78350 23.18550
C 12.48450  0.00000 23.18550
C 12.48450  1.78350 21.40200
C 11.59275  0.89175 22.29375
C 11.59275  2.67525 24.07725
C 13.37625  0.89175 24.07725
C 13.37625  2.67525 22.29375
C 10.70100  0.00000 24.96900
C 10.70100  1.78350 26.75250
C 12.48450  0.00000 26.75250
C 12.48450  1.78350 24.96900
C 11.59275  0.89175 25.86075
C 11.59275  2.67525 27.64425
C 13.37625  0.89175 27.64425
C 13.37625  2.67525 25.86075
C 10.70100  0.00000 28.53600
C 10.70100  1.78350 30.31950
C 12.48450  0.00000 30.31950
C 12.48450  1.78350 28.53600
C 11.59275  0.89175 29.42775
C 11.59275  2.67525 31.21125
C 13.37625  0.89175 31.21125
C 13.37625  2.67525 29.42775
C 10.70100  0.00000 32.10300
C 10.70100  1.78350 33.88650
C 12.48450  0.00000 33.88650
C 12.48450  1.78350 32.10300
C 11.59275  0.89175 32.99475
C 11.59275  2.67525 34.77825
C 13.37625  0.89175 34.77825
C 13.37625  2.67525 32.99475
C 10.70100  3.56700 17.83500
C 10.70100  5.35050 19.61850
C 12.48450  3.56700 19.61850
C 12.48450  5.35050 17.83500
C 11.59275  4.45875 18.72675
C 11.59275  6.24225 20.51025
C 13.37625  4.45875 20.51025
C 13.37625  6.24225 18.72675
C 10.70100  3.56700 21.40200
C 10.70100  5.35050 23.18550
C 12.48450  3.56700 23.18550
C 12.48450  5.35050 21.40200
C 11.59275  4.45875 22.29375
C 11.59275  6.24225 24.07725
C 13.37625  4.45875 24.07725
C 13.37625  6.24225 22.29375
C 10.70100  3.56700 24.96900
C 10.70100  5.35050 26.75250
C 12.48450  3.56700 26.75250
C 12.48450  5.35050 24.96900
C 11.59275  4.45875 25.86075
C 11.59275  6.24225 27.64425
C 13.37625  4.45875 27.64425
C 13.37625  6.24225 25.86075
C 10.70100  3.56700 28.53600
C 10.70100  5.35050 30.31950
C 12.48450  3.56700 30.31950
C 12.48450  5.35050 28.53600
C 11.59275  4.45875 29.42775
C 11.59275  6.24225 31.21125
C 13.37625  4.45875 31.21125
C 13.37625  6.24225 29.42775
C 10.70100  3.56700 32.10300
C 10.70100  5.35050 33.88650
C 12.48450  3.56700 33.88650
C 12.48450  5.35050 32.10300
C 11.59275  4.45875 32.99475
C 11.59275  6.24225 34.77825
C 13.37625  4.45875 34.77825
C 13.37625  6.24225 32.99475
C 10.70100  7.13400 17.83500
C 10.70100  8.91750 19.61850
C 12.48450  7.13400 19.61850
C 12.48450  8.91750 17.83500
C 11.59275  8.02575 18.72675
C 11.59275  9.80925 20.51025
C 13.37625  8.02575 20.51025
C 13.37625  9.80925 18.72675
C 10.70100  7.13400 21.40200
C 10.70100  8.91750 23.18550
C 12.48450  7.13400 23.18550
C 12.48450  8.91750 21.40200
C 11.59275  8.02575 22.29375
C 11.59275  9.80925 24.07725
C 13.37625  8.02575 24.07725
C 13.37625  9.80925 22.29375
C 10.70100  7.13400 24.96900
C 10.70100  8.91750 26.75250
C 12.48450  7.13400 26.75250
C 12.48450  8.91750 24.96900
C 11.59275  8.02575 25.86075
C 11.59275  9.80925 27.64425
C 13.37625  8.02575 27.64425
C 13.37625  9.80925 25.86075
C 10.70100  7.13400 28.53600
C 10.70100  8.91750 30.31950
C 12.48450  7.13400 30.31950
C 12.48450  8.91750 28.53600
C 11.59275  8.02575 29.42775
C 11.59275  9.80925 31.21125
C 13.37625  8.02575 31.21125
C 13.37625  9.80925 29.42775
C 10.70100  7.13400 32.10300
C 10.70100  8.91750 33.88650
C 12.48450  7.13400 33.88650
C 12.48450  8.91750 32.10300
C 11.59275  8.02575 32.99475
C 11.59275  9.80925 34.77825
C 13.37625  8.02575 34.77825
C 13.37625  9.80925 32.99475
C 10.70100 10.70100 17.83500
C 10.70100 12.48450 19.61850
C 12.48450 10.70100 19.61850
C 12.48450 12.48450 17.83500
C 11.59275 11.59275 18.72675
C 11.59275 13.37625 20.51025
C 13.37625 11.59275 20.51025
C 13.37625 13.37625 18.72675
C 10.70100 10.70100 21.40200
C 10.70100 12.48450 23.18550
C 12.48450 10.70100 23.18550
C 12.48450 12.48450 21.40200
C 11.59275 11.59275 22.29375
C 11.59275 13.37625 24.07725
C 13.37625 11.59275 24.07725
C 13.37625 13.37625 22.29375
C 10.70100 10.70100 24.96900
C 10.70100 12.48450 26.75250
C 12.48450 10.70100 26.75250
C 12.48450 12.48450 24.96900
C 11.59275 11.59275 25.86075
C 11.59275 13.37625 27.64425
C 13.37625 11.59275 27.64425
C 13.37625 13.37625 25.86075
C 10.70100 10.70100 28.53600
C 10.70100 12.48450 30.31950
C 12.48450 10.70100 30.31950
C 12.48450 12.48450 28.53600
C 11.59275 11.59275 29.42775
C 11.59275 13.37625 31.21125
C 13.37625 11.59275 31.21125
C 13.37625 13.37625 29.42775
C 10.70100 10.70100 32.10300
C 10.70100 12.48450 33.88650
C 12.48450 10.70100 33.88650
C 12.48450 12.48450 32.10300
C 11.59275 11.59275 32.99475
C 11.59275 13.37625 34.77825
C 13.37625 11.59275 34.77825
C 13.37625 13.37625 32.99475
C 10.70100 14.26800 17.83500
C 10.70100 16.05150 19.61850
C 12.48450 14.26800 19.61850
C 12.48450 16.05150 17.83500
C 11.59275 15.15975 18.72675
C 11.59275 16.94325 20.51025
C 13.37625 15.15975 20.51025
C 13.37625 16.94325 18.72675
C 10.70100 14.26800 21.40200
C 10.70100 16.05150 23.18550
C 12.48450 14.26800 23.18550
C 12.48450 16.05150 21.40200
C 11.59275 15.15975 22.29375
C 11.59275 16.94325 24.07725
C 13.37625 15.15975 24.07725
C 13.37625 16.94325 22.29375
C 10.70100 14.26800 24.96900
C 10.70100 16.05150 26.75250
C 12.48450 14.26800 26.75250
C 12.48450 16.05150 24.96900
C 11.59275 15.15975 25.86075
C 11.59275 16.94325 27.64425
C 13.37625 15.15975 27.64425
C 13.37625 16.94325 25.86075
C 10.70100 14.26800 28.53600
C 10.70100 16.05150 30.31950
C 12.48450 14.26800 30.31950
C 12.48450 16.05150 28.53600
C 11.59275 15.15975 29.42775
C 11.59275 16.94325 31.21125
C 13.37625 15.15975 31.21125
C 13.37625 16.94325 29.42775
C 10.70100 14.26800 32.10300
C 10.70100 16.05150 33.88650
C 12.48450 14.26800 33.88650
C 12.48450 16.05150 32.10300
C 11.59275 15.15975 32.99475
C 11.59275 16.94325 34.77825
C 13.37625 15.15975 34.77825
C 13.37625 16.94325 32.99475
C 14.26800  0.00000 17.83500
C 14.26800  1.78350 19.61850
C 16.05150  0.00000 19.61850
C 16.05150  1.78350 17.83500
C 15.15975  0.89175 18.72675
C 15.15975  2.67525 20.51025
C 16.94325  0.89175 20.51025
C 16.94325  2.67525 18.72675
C 14.26800  0.00000 21.40200
C 14.26800  1.78350 23.18550
C 16.05150  0.00000 23.18550
C 16.05150  1.78350 21.40200
C 15.15975  0.89175 22.29375
C 15.15975  2.67525 24.07725
C 16.94325  0.89175 24.07725
C 16.94325  2.67525 22.29375
C 14.26800  0.00000 24.96900
C 14.26800  1.78350 26.75250
C 16.05150  0.00000 26.75250
C 16.05150  1.78350 24.96900
C 15.15975  0.89175 25.86075
C 15.15975  2.67525 27.64425
C 16.94325  0.89175 27.64425
C 16.94325  2.67525 25.86075
C 14.26800  0.00000 28.53600
C 14.26800  1.78350 30.31950
C 16.05150  0.00000 30.31950
C 16.05150  1.78350 28.53600
C 15.15975  0.89175 29.42775
C 15.15975  2.67525 31.21125
C 16.94325  0.89175 31.21125
C 16.94325  2.67525 29.42775
C 14.26800  0.00000 32.10300
C 14.26800  1.78350 33.88650
C 16.05150  0.00000 33.88650
C 16.05150  1.78350 32.10300
C 15.15975  0.89175 32.99475
C 15.15975  2.67525 34.77825
C 16.94325  0.89175 34.77825
C 16.94325  2.67525 32.99475
C 14.26800  3.56700 17.83500
C 14.26800  5.35050 19.61850
C 16.05150  3.56700 19.61850
C 16.05150  5.35050 17.83500
C 15.15975  4.45875 18.72675
C 15.15975  6.24225 20.51025
C 16.94325  4.45875 20.51025
C 16.94325  6.24225 18.72675
C 14.26800  3.56700 21.40200
C 14.26800  5.35050 23.18550
C 16.05150  3.56700 23.18550
C 16.05150  5.35050 21.40200
C 15.15975  4.45875 22.29375
C 15.15975  6.24225 24.07725
C 16.94325  4.45875 24.07725
C 16.94325  6.24225 22.29375
C 14.26800  3.56700 24.96900
C 14.26800  5.35050 26.75250
C 16.05150  3.56700 26.75250
C 16.05150  5.35050 24.96900
C 15.15975  4.45875 25.86075
C 15.15975  6.24225 27.64425
C 16.94325  4.45875 27.64425
C 16.94325  6.24225 25.86075
C 14.26800  3.56700 28.53600
C 14.26800  5.35050 30.31950
C 16.05150  3.56700 30.31950
C 16.05150  5.35050 28.53600
C 15.15975  4.45875 29.42775
C 15.15975  6.24225 31.21125
C 16.94325  4.45875 31.21125
C 16.94325  6.24225 29.42775
C 14.26800  3.56700 32.10300
C 14.26800  5.35050 33.88650
C 16.05150  3.56700 33.88650
C 16.05150  5.35050 32.10300
C 15.15975  4.45875 32.99475
C 15.15975  6.24225 34.77825
C 16.94325  4.45875 34.77825
C 16.94325  6.24225 32.99475
C 14.26800  7.13400 17.83500
C 14.26800  8.91750 19.61850
C 16.05150  7.13400 19.61850
C 16.05150  8.91750 17.83500
C 15.15975  8.02575 18.72675
C 15.15975  9.80925 20.51025
C 16.94325  8.02575 20.51025
C 16.94325  9.80925 18.72675
C 14.26800  7.13400 21.40200
C 14.26800  8.91750 23.18550
C 16.05150  7.13400 23.18550
C 16.05150  8.91750 21.40200
C 15.15975  8.02575 22.29375
C 15.15975  9.80925 24.07725
C 16.94325  8.02575 24.07725
C 16.94325  9.80925 22.29375
C 14.26800  7.13400 24.96900
C 14.26800  8.91750 26.75250
C 16.05150  7.13400 26.75250
C 16.05150  8.91750 24.96900
C 15.15975  8.02575 25.86075
C 15.15975  9.80925 27.64425
C 16.94325  8.02575 27.64425
C 16.94325  9.80925 25.86075
C 14.26800  7.13400 28.53600
C 14.26800  8.91750 30.31950
C 16.05150  7.13400 30.31950
C 16.05150  8.91750 28.53600
C 15.15975  8.02575 29.42775
C 15.15975  9.80925 31.21125
C 16.94325  8.02575 31.21125
C 16.94325  9.80925 29.42775
C 14.26800  7.13400 32.10300
C 14.26800  8.91750 33.88650
C 16.05150  7.13400 33.88650
C 16.05150  8.91750 32.10300
C 15.15975  8.02575 32.99475
C 15.15975  9.80925 34.77825
C 16.94325  8.02575 34.77825
C 16.94325  9.80925 32.99475
C 14.26800 10.70100 17.83500
C 14.26800 12.48450 19.61850
C 16.05150 10.70100 19.61850
C 16.05150 12.48450 17.83500
C 15.15975 11.59275 18.72675
C 15.15975 13.37625 20.51025
C 16.94325 11.59275 20.51025
C 16.94325 13.37625 18.72675
C 14.26800 10.70100 21.40200
C 14.26800 12.48450 23.18550
C 16.05150 10.70100 23.18550
C 16.05150 12.48450 21.40200
C 15.15975 11.59275 22.29375
C 15.15975 13.37625 24.07725
C 16.94325 11.59275 24.07725
C 16.94325 13.37625 22.29375
C 14.26800 10.70100 24.96900
C 14.26800 12.48450 26.75250
C 16.05150 10.70100 26.75250
C 16.05150 12.48450 24.96900
C 15.15975 11.59275 25.86075
C 15.15975 13.37625 27.64425
C 16.94325 11.59275 27.64425
C 16.94325 13.37625 25.86075
C 14.26800 10.70100 28.53600
C 14.26800 12.48450 30.31950
C 16.05150 10.70100 30.31950
C 16.05150 12.48450 28.53600
C 15.15975 11.59275 29.42775
C 15.15975 13.37625 31.21125
C 16.94325 11.59275 31.21125
C 16.94325 13.37625 29.42775
C 14.26800 10.70100 32.10300
C 14.26800 12.48450 33.88650
C 16.05150 10.70100 33.88650
C 16.05150 12.48450 32.10300
C 15.15975 11.59275 32.99475
C 15.15975 13.37625 34.77825
C 16.94325 11.59275 34.77825
C 16.94325 13.37625 32.99475
C 14.26800 14.26800 17.83500
C 14.26800 16.05150 19.61850
C 16.05150 14.26800 19.61850
C 16.05150 16.05150 17.83500
C 15.15975 15.15975 18.72675
C 15.15975 16.94325 20.51025
C 16.94325 15.15975 20.51025
C 16.94325 16.94325 18.72675
C 14.26800 14.26800 21.40200
C 14.26800 16.05150 23.18550
C 16.05150 14.26800 23.18550
C 16.05150 16.05150 21.40200
C 15.15975 15.15975 22.29375
C 15.15975 16.94325 24.07725
C 16.94325 15.15975 24.07725
C 16.94325 16.94325 22.29375
C 14.26800 14.26800 24.96900
C 14.26800 16.05150 26.75250
C 16.05150 14.26800 26.75250
C 16.05150 16.05150 24.96900
C 15.15975 15.15975 25.86075
C 15.15975 16.94325 27.64425
C 16.94325 15.15975 27.64425
C 16.94325 16.94325 25.86075
C 14.26800 14.26800 28.53600
C 14.26800 16.05150 30.31950
C 16.05150 14.26800 30.31950
C 16.05150 16.05150 28.53600
C 15.15975 15.15975 29.42775
C 15.15975 16.94325 31.21125
C 16.94325 15.15975 31.21125
C 16.94325 16.94325 29.42775
C 14.26800 14.26800 32.10300
C 14.26800 16.05150 33.88650
C 16.05150 14.26800 33.88650
C 16.05150 16.05150 32.10300
C 15.15975 15.15975 32.99475
C 15.15975 16.94325 34.77825
C 16.94325 15.15975 34.77825
C 16.94325 16.94325 32.99475
N  0.00000 17.83500 -17.83500
C  0.00000 19.61850 -16.05150
C  1.78350 17.83500 -16.05150
C  1.78350 19.61850 -17.83500
C  0.89175 18.72675 -16.94325
C  0.89175 20.51025 -15.15975
C  2.67525 18.72675 -15.15975
C  2.67525 20.51025 -16.94325
C  0.00000 17.83500 -14.26800
C  0.00000 19.61850 -12.48450
C  1.78350 17.83500 -12.48450
C  1.78350 19.61850 -14.26800
C  0.89175 18.72675 -13.37625
C  0.89175 20.51025 -11.59275
C  2.67525 18.72675 -11.59275
C  2.67525 20.51025 -13.37625
C  0.00000 17.83500 -10.70100
C  0.00000 19.61850 -8.91750
C  1.78350 17.83500 -8.91750
C  1.78350 19.61850 -10.70100
C  0.89175 18.72675 -9.80925
C  0.89175 20.51025 -8.02575
C  2.67525 18.72675 -8.02575
C  2.67525 20.51025 -9.80925
C  0.00000 17.83500 -7.13400
C  0.00000 19.61850 -5.35050
C  1.78350 17.83500 -5.35050
C  1.78350 19.61850 -7.13400
C  0.89175 18.72675 -6.24225
C  0.89175 20.51025 -4.45875
C  2.67525 18.72675 -4.45875
C  2.67525 20.51025 -6.24225
C  0.00000 17.83500 -3.56700
C  0.00000 19.61850 -1.78350
C  1.78350 17.83500 -1.78350
C  1.78350 19.61850 -3.56700
C  0.89175 18.72675 -2.67525
C  0.89175 20.51025 -0.89175
C  2.67525 18.72675 -0.89175
C  2.67525 20.51025 -2.67525
C  0.00000 21.40200 -17.83500
C  0.00000 23.18550 -16.05150
C  1.78350 21.40200 -16.05150
C  1.78350 23.18550 -17.83500
C  0.89175 22.29375 -16.94325
C  0.89175 24.07725 -15.15975
C  2.67525 22.29375 -15.15975
C  2.67525 24.07725 -16.94325
C  0.00000 21.40200 -14.26800
C  0.00000 23.18550 -12.48450
C  1.78350 21.40200 -12.48450
C  1.78350 23.18550 -14.26800
C  0.89175 22.29375 -13.37625
C  0.89175 24.07725 -11.59275
C  2.67525 22.29375 -11.59275
C  2.67525 24.07725 -13.37625
C  0.00000 21.40200 -10.70100
C  0.00000 23.18550 -8.91750
C  1.78350 21.40200 -8.91750
C  1.78350 23.18550 -10.70100
C  0.89175 22.29375 -9.80925
C  0.89175 24.07725 -8.02575
C  2.67525 22.29375 -8.02575
C  2.67525 24.07725 -9.80925
C  0.00000 21.40200 -7.13400
C  0.00000 23.18550 -5.35050
C  1.78350 21.40200 -5.35050
C  1.78350 23.18550 -7.13400
C  0.89175 22.29375 -6.24225
C  0.89175 24.07725 -4.45875
C  2.67525 22.29375 -4.45875
C  2.67525 24.07725 -6.24225
C  0.00000 21.40200 -3.56700
C  0.00000 23.18550 -1.78350
C  1.78350 21.40200 -1.78350
C  1.78350 23.18550 -3.56700
C  0.89175 22.29375 -2.67525
C  0.89175 24.07725 -0.89175
C  2.67525 22.29375 -0.89175
C  2.67525 24.07725 -2.67525
C  0.00000 24.96900 -17.83500
C  0.00000 26.75250 -16.05150
C  1.78350 24.96900 -16.05150
C  1.78350 26.75250 -17.83500
C  0.89175 25.86075 -16.94325
C  0.89175 27.64425 -15.15975
C  2.67525 25.86075 -15.15975
C  2.67525 27.64425 -16.94325
C  0.00000 24.96900 -14.26800
C  0.00000 26.75250 -12.48450
C  1.78350 24.96900 -12.48450
C  1.78350 26.75250 -14.26800
C  0.89175 25.86075 -13.37625
C  0.89175 27.64425 -11.59275
C  2.67525 25.86075 -11.59275
C  2.67525 27.64425 -13.37625
C  0.00000 24.96900 -10.70100
C  0.00000 26.75250 -8.91750
C  1.78350 24.96900 -8.91750
C  1.78350 26.75250 -10.70100
C  0.89175 25.86075 -9.80925
C  0.89175 27.64425 -8.02575
C  2.67525 25.86075 -8.02575
C  2.67525 27.64425 -9.80925
C  0.00000 24.96900 -7.13400
C  0.00000 26.75250 -5.35050
C  1.78350 24.96900 -5.35050
C  1.78350 26.75250 -7.13400
C  0.89175 25.86075 -6.24225
C  0.89175 27.64425 -4.45875
C  2.67525 25.86075 -4.45875
C  2.67525 27.64425 -6.24225
C  0.00000 24.96900 -3.56700
C  0.00000 26.75250 -1.78350
C  1.78350 24.96900 -1.78350
C  1.78350 26.75250 -3.56700
C  0.89175 25.86075 -2.67525
C  0.89175 27.64425 -0.89175
C  2.67525 25.86075 -0.89175
C  2.67525 27.64425 -2.67525
C  0.00000 28.53600 -17.83500
C  0.00000 30.31950 -16.05150
C  1.78350 28.53600 -16.05150
C  1.78350 30.31950 -17.83500
C  0.89175 29.42775 -16.94325
C  0.89175 31.21125 -15.15975
C  2.67525 29.42775 -15.15975
C  2.67525 31.21125 -16.94325
C  0.00000 28.53600 -14.26800
C  0.00000 30.31950 -12.48450
C  1.78350 28.53600 -12.48450
C  1.78350 30.31950 -14.26800
C  0.89175 29.42775 -13.37625
C  0.89175 31.21125 -11.59275
C  2.67525 29.42775 -11.59275
C  2.67525 31.21125 -13.37625
C  0.00000 28.53600 -10.70100
C  0.00000 30.31950 -8.91750
C  1.78350 28.53600 -8.91750
C  1.78350 30.31950 -10.70100
C  0.89175 29.42775 -9.80925
C  0.89175 31.21125 -8.02575
C  2.67525 29.42775 -8.02575
C  2.67525 31.21125 -9.80925
C  0.00000 28.53600 -7.13400
C  0.00000 30.31950 -5.35050
C  1.78350 28.53600 -5.35050
C  1.78350 30.31950 -7.13400
C  0.89175 29.42775 -6.24225
C  0.89175 31.21125 -4.45875
C  2.67525 29.42775 -4.45875
C  2.67525 31.21125 -6.24225
C  0.00000 28.53600 -3.56700
C  0.00000 30.31950 -1.78350
C  1.78350 28.53600 -1.78350
C  1.78350 30.31950 -3.56700
C  0.89175 29.42775 -2.67525
C  0.89175 31.21125 -0.89175
C  2.67525 29.42775 -0.89175
C  2.67525 31.21125 -2.67525
C  0.00000 32.10300 -17.83500
C  0.00000 33.88650 -16.05150
C  1.78350 32.10300 -16.05150
C  1.78350 33.88650 -17.83500
C  0.89175 32.99475 -16.94325
C  0.89175 34.77825 -15.15975
C  2.67525 32.99475 -15.15975
C  2.67525 34.77825 -16.94325
C  0.00000 32.10300 -14.26800
C  0.00000 33.88650 -12.48450
C  1.78350 32.10300 -12.48450
C  1.78350 33.88650 -14.26800
C  0.89175 32.99475 -13.37625
C  0.89175 34.77825 -11.59275
C  2.67525 32.99475 -11.59275
C  2.67525 34.77825 -13.37625
C  0.00000 32.10300 -10.70100
C  0.00000 33.88650 -8.91750
C  1.78350 32.10300 -8.91750
C  1.78350 33.88650 -10.70100
C  0.89175 32.99475 -9.80925
C  0.89175 34.77825 -8.02575
C  2.67525 32.99475 -8.02575
C  2.67525 34.77825 -9.80925
C  0.00000 32.10300 -7.13400
C  0.00000 33.88650 -5.35050
C  1.78350 32.10300 -5.35050
C  1.78350 33.88650 -7.13400
C  0.89175 32.99475 -6.24225
C  0.89175 34.77825 -4.45875
C  2.67525 32.99475 -4.45875
C  2.67525 34.77825 -6.24225
C  0.00000 32.10300 -3.56700
C  0.00000 33.88650 -1.78350
C  1.78350 32.10300 -1.78350
C  1.78350 33.88650 -3.56700
C  0.89175 32.99475 -2.67525
C  0.89175 34.77825 -0.89175
C  2.67525 32.99475 -0.89175
C  2.67525 34.77825 -2.67525
C  3.56700 17.83500 -17.83500
C  3.56700 19.61850 -16.05150
C  5.35050 17.83500 -16.05150
C  5.35050 19.61850 -17.83500
C  4.45875 18.72675 -16.94325
C  4.45875 20.51025 -15.15975
C  6.24225 18.72675 -15.15975
C  6.24225 20.51025 -16.94325
C  3.56700 17.83500 -14.26800
C  3.56700 19.61850 -12.48450
C  5.35050 17.83500 -12.48450
C  5.35050 19.61850 -14.26800
C  4.45875 18.72675 -13.37625
C  4.45875 20.51025 -11.59275
C  6.24225 18.72675 -11.59275
C  6.24225 20.51025 -13.37625
C  3.56700 17.83500 -10.70100
C  3.56700 19.61850 -8.91750
C  5.35050 17.83500 -8.91750
C  5.35050 19.61850 -10.70100
C  4.45875 18.72675 -9.80925
C  4.45875 20.51025 -8.02575
C  6.24225 18.72675 -8.02575
C  6.24225 20.51025 -9.80925
C  3.56700 17.83500 -7.13400
C  3.56700 19.61850 -5.35050
C  5.35050 17.83500 -5.35050
C  5.35050 19.61850 -7.13400
C  4.45875 18.72675 -6.24225
C  4.45875 20.51025 -4.45875
C  6.24225 18.72675 -4.45875
C  6.24225 20.51025 -6.24225
C  3.56700 17.83500 -3.56700
C  3.56700 19.61850 -1.78350
C  5.35050 17.83500 -1.78350
C  5.35050 19.61850 -3.56700
C  4.45875 18.72675 -2.67525
C  4.45875 20.51025 -0.89175
C  6.24225 18.72675 -0.89175
C  6.24225 20.51025 -2.67525
C  3.56700 21.40200 -17.83500
C  3.56700 23.18550 -16.05150
C  5.35050 21.40200 -16.05150
C  5.35050 23.18550 -17.83500
C  4.45875 22.29375 -16.94325
C  4.45875 24.07725 -15.15975
C  6.24225 22.29375 -15.15975
C  6.24225 24.07725 -16.94325
C  3.56700 21.40200 -14.26800
C  3.56700 23.18550 -12.48450
C  5.35050 21.40200 -12.48450
C  5.35050 23.18550 -14.26800
C  4.45875 22.29375 -13.37625
C  4.45875 24.07725 -11.59275
C  6.24225 22.29375 -11.59275
C  6.24225 24.07725 -13.37625
C  3.56700 21.40200 -10.70100
C  3.56700 23.18550 -8.91750
C  5.35050 21.40200 -8.91750
C  5.35050 23.18550 -10.70100
C  4.45875 22.29375 -9.80925
C  4.45875 24.07725 -8.02575
C  6.24225 22.29375 -8.02575
C  6.24225 24.07725 -9.80925
C  3.56700 21.40200 -7.13400
C  3.56700 23.18550 -5.35050
C  5.35050 21.40200 -5.35050
C  5.35050 23.18550 -7.13400
C  4.45875 22.29375 -6.24225
C  4.45875 24.07725 -4.45875
C  6.24225 22.29375 -4.45875
C  6.24225 24.07725 -6.24225
C  3.56700 21.40200 -3.56700
C  3.56700 23.18550 -1.78350
C  5.35050 21.40200 -1.78350
C  5.35050 23.18550 -3.56700
C  4.45875 22.29375 -2.67525
C  4.45875 24.07725 -0.89175
C  6.24225 22.29375 -0.89175
C  6.24225 24.07725 -2.67525
C  3.56700 24.96900 -17.83500
C  3.56700 26.75250 -16.05150
C  5.35050 24.96900 -16.05150
C  5.35050 26.75250 -17.83500
C  4.45875 25.86075 -16.94325
C  4.45875 27.64425 -15.15975
C  6.24225 25.86075 -15.15975
C  6.24225 27.64425 -16.94325
C  3.56700 24.96900 -14.26800
C  3.56700 26.75250 -12.48450
C  5.35050 24.96900 -12.48450
C  5.35050 26.75250 -14.26800
C  4.45875 25.86075 -13.37625
C  4.45875 27.64425 -11.59275
C  6.24225 25.86075 -11.59275
C  6.24225 27.64425 -13.37625
C  3.56700 24.96900 -10.70100
C  3.56700 26.75250 -8.91750
C  5.35050 24.96900 -8.91750
C  5.35050 26.75250 -10.70100
C  4.45875 25.86075 -9.80925
C  4.45875 27.64425 -8.02575
C  6.24225 25.86075 -8.02575
C  6.24225 27.64425 -9.80925
C  3.56700 24.96900 -7.13400
C  3.56700 26.75250 -5.35050
C  5.35050 24.96900 -5.35050
C  5.35050 26.75250 -7.13400
C  4.45875 25.86075 -6.24225
C  4.45875 27.64425 -4.45875
C  6.24225 25.86075 -4.45875
C  6.24225 27.64425 -6.24225
C  3.56700 24.96900 -3.56700
C  3.56700 26.75250 -1.78350
C  5.35050 24.96900 -1.78350
C  5.35050 26.75250 -3.56700
C  4.45875 25.86075 -2.67525
C  4.45875 27.64425 -0.89175
C  6.24225 25.86075 -0.89175
C  6.24225 27.64425 -2.67525
C  3.56700 28.53600 -17.83500
C  3.56700 30.31950 -16.05150
C  5.35050 28.53600 -16.05150
C  5.35050 30.31950 -17.83500
C  4.45875 29.42775 -16.94325
C  4.45875 31.21125 -15.15975
C  6.24225 29.42775 -15.15975
C  6.24225 31.21125 -16.94325
C  3.56700 28.53600 -14.26800
C  3.56700 30.31950 -12.48450
C  5.35050 28.53600 -12.48450
C  5.35050 30.31950 -14.26800
C  4.45875 29.42775 -13.37625
C  4.45875 31.21125 -11.59275
C  6.24225 29.42775 -11.59275
C  6.24225 31.21125 -13.37625
C  3.56700 28.53600 -10.70100
C  3.56700 30.31950 -8.91750
C  5.35050 28.53600 -8.91750
C  5.35050 30.31950 -10.70100
C  4.45875 29.42775 -9.80925
C  4.45875 31.21125 -8.02575
C  6.24225 29.42775 -8.02575
C  6.24225 31.21125 -9.80925
C  3.56700 28.53600 -7.13400
C  3.56700 30.31950 -5.35050
C  5.35050 28.53600 -5.35050
C  5.35050 30.31950 -7.13400
C  4.45875 29.42775 -6.24225
C  4.45875 31.21125 -4.45875
C  6.24225 29.42775 -4.45875
C  6.24225 31.21125 -6.24225
C  3.56700 28.53600 -3.56700
C  3.56700 30.31950 -1.78350
C  5.35050 28.53600 -1.78350
C  5.35050 30.31950 -3.56700
C  4.45875 29.42775 -2.67525
C  4.45875 31.21125 -0.89175
C  6.24225 29.42775 -0.89175
C  6.24225 31.21125 -2.67525
C  3.56700 32.10300 -17.83500
C  3.56700 33.88650 -16.05150
C  5.35050 32.10300 -16.05150
C  5.35050 33.88650 -17.83500
C  4.45875 32.99475 -16.94325
C  4.45875 34.77825 -15.15975
C  6.24225 32.99475 -15.15975
C  6.24225 34.77825 -16.94325
C  3.56700 32.10300 -14.26800
C  3.56700 33.88650 -12.48450
C  5.35050 32.10300 -12.48450
C  5.35050 33.88650 -14.26800
C  4.45875 32.99475 -13.37625
C  4.45875 34.77825 -11.59275
C  6.24225 32.99475 -11.59275
C  6.24225 34.77825 -13.37625
C  3.56700 32.10300 -10.70100
C  3.56700 33.88650 -8.91750
C  5.35050 32.10300 -8.91750
C  5.35050 33.88650 -10.70100
C  4.45875 32.99475 -9.80925
C  4.45875 34.77825 -8.02575
C  6.24225 32.99475 -8.02575
C  6.24225 34.77825 -9.80925
C  3.56700 32.10300 -7.13400
C  3.56700 33.88650 -5.35050
C  5.35050 32.10300 -5.35050
C  5.35050 33.88650 -7.13400
C  4.45875 32.99475 -6.24225
C  4.45875 34.77825 -4.45875
C  6.24225 32.99475 -4.45875
C  6.24225 34.77825 -6.24225
C  3.56700 32.10300 -3.56700
C  3.56700 33.88650 -1.78350
C  5.35050 32.10300 -1.78350
C  5.35050 33.88650 -3.56700
C  4.45875 32.99475 -2.67525
C  4.45875 34.77825 -0.89175
C  6.24225 32.99475 -0.89175
C  6.24225 34.77825 -2.67525
C  7.13400 17.83500 -17.83500
C  7.13400 19.61850 -16.05150
C  8.91750 17.83500 -16.05150
C  8.91750 19.61850 -17.83500
C  8.02575 18.72675 -16.94325
C  8.02575 20.51025 -15.15975
C  9.80925 18.72675 -15.15975
C  9.80925 20.51025 -16.94325
C  7.13400 17.83500 -14.26800
C  7.13400 19.61850 -12.48450
C  8.91750 17.83500 -12.48450
C  8.91750 19.61850 -14.26800
C  8.02575 18.72675 -13.37625
C  8.02575 20.51025 -11.59275
C  9.80925 18.72675 -11.59275
C  9.80925 20.51025 -13.37625
C  7.13400 17.83500 -10.70100
C  7.13400 19.61850 -8.91750
C  8.91750 17.83500 -8.91750
C  8.91750 19.61850 -10.70100
C  8.02575 18.72675 -9.80925
C  8.02575 20.51025 -8.02575
C  9.80925 18.72675 -8.02575
C  9.80925 20.51025 -9.80925
C  7.13400 17.83500 -7.13400
C  7.13400 19.61850 -5.35050
C  8.91750 17.83500 -5.35050
C  8.91750 19.61850 -7.13400
C  8.02575 18.72675 -6.24225
C  8.02575 20.51025 -4.45875
C  9.80925 18.72675 -4.45875
C  9.80925 20.51025 -6.24225
C  7.13400 17.83500 -3.56700
C  7.13400 19.61850 -1.78350
C  8.91750 17.83500 -1.78350
C  8.91750 19.61850 -3.56700
C  8.02575 18.72675 -2.67525
C  8.02575 20.51025 -0.89175
C  9.80925 18.72675 -0.89175
C  9.80925 20.51025 -2.67525
C  7.13400 21.40200 -17.83500
C  7.13400 23.18550 -16.05150
C  8.91750 21.40200 -16.05150
C  8.91750 23.18550 -17.83500
C  8.02575 22.29375 -16.94325
C  8.02575 24.07725 -15.15975
C  9.80925 22.29375 -15.15975
C  9.80925 24.07725 -16.94325
C  7.13400 21.40200 -14.26800
C  7.13400 23.18550 -12.48450
C  8.91750 21.40200 -12.48450
C  8.91750 23.18550 -14.26800
C  8.02575 22.29375 -13.37625
C  8.02575 24.07725 -11.59275
C  9.80925 22.29375 -11.59275
C  9.80925 24.07725 -13.37625
C  7.13400 21.40200 -10.70100
C  7.13400 23.18550 -8.91750
C  8.91750 21.40200 -8.91750
C  8.91750 23.18550 -10.70100
C  8.02575 22.29375 -9.80925
C  8.02575 24.07725 -8.02575
C  9.80925 22.29375 -8.02575
C  9.80925 24.07725 -9.80925
C  7.13400 21.40200 -7.13400
C  7.13400 23.18550 -5.35050
C  8.91750 21.40200 -5.35050
C  8.91750 23.18550 -7.13400
C  8.02575 22.29375 -6.24225
C  8.02575 24.07725 -4.45875
C  9.80925 22.29375 -4.45875
C  9.80925 24.07725 -6.24225
C  7.13400 21.40200 -3.56700
C  7.13400 23.18550 -1.78350
C  8.91750 21.40200 -1.78350
C  8.91750 23.18550 -3.56700
C  8.02575 22.29375 -2.67525
C  8.02575 24.07725 -0.89175
C  9.80925 22.29375 -0.89175
C  9.80925 24.07725 -2.67525
C  7.13400 24.96900 -17.83500
C  7.13400 26.75250 -16.05150
C  8.91750 24.96900 -16.05150
C  8.91750 26.75250 -17.83500
C  8.02575 25.86075 -16.94325
C  8.02575 27.64425 -15.15975
C  9.80925 25.86075 -15.15975
C  9.80925 27.64425 -16.94325
C  7.13400 24.96900 -14.26800
C  7.13400 26.75250 -12.48450
C  8.91750 24.96900 -12.48450
C  8.91750 26.75250 -14.26800
C  8.02575 25.86075 -13.37625
C  8.02575 27.64425 -11.59275
C  9.80925 25.86075 -11.59275
C  9.80925 27.64425 -13.37625
C  7.13400 24.96900 -10.70100
C  7.13400 26.75250 -8.91750
C  8.91750 24.96900 -8.91750
C  8.91750 26.75250 -10.70100
C  8.02575 25.86075 -9.80925
C  8.02575 27.64425 -8.02575
C  9.80925 25.86075 -8.02575
C  9.80925 27.64425 -9.80925
C  7.13400 24.96900 -7.13400
C  7.13400 26.75250 -5.35050
C  8.91750 24.96900 -5.35050
C  8.91750 26.75250 -7.13400
C  8.02575 25.86075 -6.24225
C  8.02575 27.64425 -4.45875
C  9.80925 25.86075 -4.45875
C  9.80925 27.64425 -6.24225
C  7.13400 24.96900 -3.56700
C  7.13400 26.75250 -1.78350
C  8.91750 24.96900 -1.78350
C  8.91750 26.75250 -3.56700
C  8.02575 25.86075 -2.67525
C  8.02575 27.64425 -0.89175
C  9.80925 25.86075 -0.89175
C  9.80925 27.64425 -2.67525
C  7.13400 28.53600 -17.83500
C  7.13400 30.31950 -16.05150
C  8.91750 28.53600 -16.05150
C  8.91750 30.31950 -17.83500
C  8.02575 29.42775 -16.94325
C  8.02575 31.21125 -15.15975
C  9.80925 29.42775 -15.15975
C  9.80925 31.21125 -16.94325
C  7.13400 28.53600 -14.26800
C  7.13400 30.31950 -12.48450
C  8.91750 28.53600 -12.48450
C  8.91750 30.31950 -14.26800
C  8.02575 29.42775 -13.37625
C  8.02575 31.21125 -11.59275
C  9.80925 29.42775 -11.59275
C  9.80925 31.21125 -13.37625
C  7.13400 28.53600 -10.70100
C  7.13400 30.31950 -8.91750
C  8.91750 28.53600 -8.91750
C  8.91750 30.31950 -10.70100
C  8.02575 29.42775 -9.80925
C  8.02575 31.21125 -8.02575
C  9.80925 29.42775 -8.02575
C  9.80925 31.21125 -9.80925
C  7.13400 28.53600 -7.13400
C  7.13400 30.31950 -5.35050
C  8.91750 28.53600 -5.35050
C  8.91750 30.31950 -7.13400
C  8.02575 29.42775 -6.24225
C  8.02575 31.21125 -4.45875
C  9.80925 29.42775 -4.45875
C  9.80925 31.21125 -6.24225
C  7.13400 28.53600 -3.56700
C  7.13400 30.31950 -1.78350
C  8.91750 28.53600 -1.78350
C  8.91750 30.31950 -3.56700
C  8.02575 29.42775 -2.67525
C  8.02575 31.21125 -0.89175
C  9.80925 29.42775 -0.89175
C  9.80925 31.21125 -2.67525
C  7.13400 32.10300 -17.83500
C  7.13400 33.88650 -16.05150
C  8.91750 32.10300 -16.05150
C  8.91750 33.88650 -17.83500
C  8.02575 32.99475 -16.94325
C  8.02575 34.77825 -15.15975
C  9.80925 32.99475 -15.15975
C  9.80925 34.77825 -16.94325
C  7.13400 32.10300 -14.26800
C  7.13400 33.88650 -12.48450
C  8.91750 32.10300 -12.48450
C  8.91750 33.88650 -14.26800
C  8.02575 32.99475 -13.37625
C  8.02575 34.77825 -11.59275
C  9.80925 32.99475 -11.59275
C  9.80925 34.77825 -13.37625
C  7.13400 32.10300 -10.70100
C  7.13400 33.88650 -8.91750
C  8.91750 32.10300 -8.91750
C  8.91750 33.88650 -10.70100
C  8.02575 32.99475 -9.80925
C  8.02575 34.77825 -8.02575
C  9.80925 32.99475 -8.02575
C  9.80925 34.77825 -9.80925
C  7.13400 32.10300 -7.13400
C  7.13400 33.88650 -5.35050
C  8.91750 32.10300 -5.35050
C  8.91750 33.88650 -7.13400
C  8.02575 32.99475 -6.24225
C  8.02575 34.77825 -4.45875
C  9.80925 32.99475 -4.45875
C  9.80925 34.77825 -6.24225
C  7.13400 32.10300 -3.56700
C  7.13400 33.88650 -1.78350
C  8.91750 32.10300 -1.78350
C  8.91750 33.88650 -3.56700
C  8.02575 32.99475 -2.67525
C  8.02575 34.77825 -0.89175
C  9.80925 32.99475 -0.89175
C  9.80925 34.77825 -2.67525
C 10.70100 17.83500 -17.83500
C 10.70100 19.61850 -16.05150
C 12.48450 17.83500 -16.05150
C 12.48450 19.61850 -17.83500
C 11.59275 18.72675 -16.94325
C 11.59275 20.51025 -15.15975
C 13.37625 18.72675 -15.15975
C 13.37625 20.51025 -16.94325
C 10.70100 17.83500 -14.26800
C 10.70100 19.61850 -12.48450
C 12.48450 17.83500 -12.48450
C 12.48450 19.61850 -14.26800
C 11.59275 18.72675 -13.37625
C 11.59275 20.51025 -11.59275
C 13.37625 18.72675 -11.59275
C 13.37625 20.51025 -13.37625
C 10.70100 17.83500 -10.70100
C 10.70100 19.61850 -8.91750
C 12.48450 17.83500 -8.91750
C 12.48450 19.61850 -10.70100
C 11.59275 18.72675 -9.80925
C 11.59275 20.51025 -8.02575
C 13.37625 18.72675 -8.02575
C 13.37625 20.51025 -9.80925
C 10.70100 17.83500 -7.13400
C 10.70100 19.61850 -5.35050
C 12.48450 17.83500 -5.35050
C 12.48450 19.61850 -7.13400
C 11.59275 18.72675 -6.24225
C 11.59275 20.51025 -4.45875
C 13.37625 18.72675 -4.45875
C 13.37625 20.51025 -6.24225
C 10.70100 17.83500 -3.56700
C 10.70100 19.61850 -1.78350
C 12.48450 17.83500 -1.78350
C 12.48450 19.61850 -3.56700
C 11.59275 18.72675 -2.67525
C 11.59275 20.51025 -0.89175
C 13.37625 18.72675 -0.89175
C 13.37625 20.51025 -2.67525
C 10.70100 21.40200 -17.83500
C 10.70100 23.18550 -16.05150
C 12.48450 21.40200 -16.05150
C 12.48450 23.18550 -17.83500
C 11.59275 22.29375 -16.94325
C 11.59275 24.07725 -15.15975
C 13.37625 22.29375 -15.15975
C 13.37625 24.07725 -16.94325
C 10.70100 21.40200 -14.26800
C 10.70100 23.18550 -12.48450
C 12.48450 21.40200 -12.48450
C 12.48450 23.18550 -14.26800
C 11.59275 22.29375 -13.37625
C 11.59275 24.07725 -11.59275
C 13.37625 22.29375 -11.59275
C 13.37625 24.07725 -13.37625
C 10.70100 21.40200 -10.70100
C 10.70100 23.18550 -8.91750
C 12.48450 21.40200 -8.91750
C 12.48450 23.18550 -10.70100
C 11.59275 22.29375 -9.80925
C 11.59275 24.07725 -8.02575
C 13.37625 22.29375 -8.02575
C 13.37625 24.07725 -9.80925
C 10.70100 21.40200 -7.13400
C 10.70100 23.18550 -5.35050
C 12.48450 21.40200 -5.35050
C 12.48450 23.18550 -7.13400
C 11.59275 22.29375 -6.24225
C 11.59275 24.07725 -4.45875
C 13.37625 22.29375 -4.45875
C 13.37625 24.07725 -6.24225
C 10.70100 21.40200 -3.56700
C 10.70100 23.18550 -1.78350
C 12.48450 21.40200 -1.78350
C 12.48450 23.18550 -3.56700
C 11.59275 22.29375 -2.67525
C 11.59275 24.07725 -0.89175
C 13.37625 22.29375 -0.89175
C 13.37625 24.07725 -2.67525
C 10.70100 24.96900 -17.83500
C 10.70100 26.75250 -16.05150
C 12.48450 24.96900 -16.05150
C 12.48450 26.75250 -17.83500
C 11.59275 25.86075 -16.94325
C 11.59275 27.64425 -15.15975
C 13.37625 25.86075 -15.15975
C 13.37625 27.64425 -16.94325
C 10.70100 24.96900 -14.26800
C 10.70100 26.75250 -12.48450
C 12.48450 24.96900 -12.48450
C 12.48450 26.75250 -14.26800
C 11.59275 25.86075 -13.37625
C 11.59275 27.64425 -11.59275
C 13.37625 25.86075 -11.59275
C 13.37625 27.64425 -13.37625
C 10.70100 24.96900 -10.70100
C 10.70100 26.75250 -8.91750
C 12.48450 24.96900 -8.91750
C 12.48450 26.75250 -10.70100
C 11.59275 25.86075 -9.80925
C 11.59275 27.64425 -8.02575
C 13.37625 25.86075 -8.02575
C 13.37625 27.64425 -9.80925
C 10.70100 24.96900 -7.13400
C 10.70100 26.75250 -5.35050
C 12.48450 24.96900 -5.35050
C 12.48450 26.75250 -7.13400
C 11.59275 25.86075 -6.24225
C 11.59275 27.64425 -4.45875
C 13.37625 25.86075 -4.45875
C 13.37625 27.64425 -6.24225
C 10.70100 24.96900 -3.56700
C 10.70100 26.75250 -1.78350
C 12.48450 24.96900 -1.78350
C 12.48450 26.75250 -3.56700
C 11.59275 25.86075 -2.67525
C 11.59275 27.64425 -0.89175
C 13.37625 25.86075 -0.89175
C 13.37625 27.64425 -2.67525
C 10.70100 28.53600 -17.83500
C 10.70100 30.31950 -16.05150
C 12.48450 28.53600 -16.05150
C 12.48450 30.31950 -17.83500
C 11.59275 29.42775 -16.94325
C 11.59275 31.21125 -15.15975
C 13.37625 29.42775 -15.15975
C 13.37625 31.21125 -16.94325
C 10.70100 28.53600 -14.26800
C 10.70100 30.31950 -12.48450
C 12.48450 28.53600 -12.48450
C 12.48450 30.31950 -14.26800
C 11.59275 29.42775 -13.37625
C 11.59275 31.21125 -11.59275
C 13.37625 29.42775 -11.59275
C 13.37625 31.21125 -13.37625
C 10.70100 28.53600 -10.70100
C 10.70100 30.31950 -8.91750
C 12.48450 28.53600 -8.91750
C 12.48450 30.31950 -10.70100
C 11.59275 29.42775 -9.80925
C 11.59275 31.21125 -8.02575
C 13.37625 29.42775 -8.02575
C 13.37625 31.21125 -9.80925
C 10.70100 28.53600 -7.13400
C 10.70100 30.31950 -5.35050
C 12.48450 28.53600 -5.35050
C 12.48450 30.31950 -7.13400
C 11.59275 29.42775 -6.24225
C 11.59275 31.21125 -4.45875
C 13.37625 29.42775 -4.45875
C 13.37625 31.21125 -6.24225
C 10.70100 28.53600 -3.56700
C 10.70100 30.31950 -1.78350
C 12.48450 28.53600 -1.78350
C 12.48450 30.31950 -3.56700
C 11.59275 29.42775 -2.67525
C 11.59275 31.21125 -0.89175
C 13.37625 29.42775 -0.89175
C 13.37625 31.21125 -2.67525
C 10.70100 32.10300 -17.83500
C 10.70100 33.88650 -16.05150
C 12.48450 32.10300 -16.05150
C 12.48450 33.88650 -17.83500
C 11.59275 32.99475 -16.94325
C 11.59275 34.77825 -15.15975
C 13.37625 32.99475 -15.15975
C 13.37625 34.77825 -16.94325
C 10.70100 32.10300 -14.26800
C 10.70100 33.88650 -12.48450
C 12.48450 32.10300 -12.48450
C 12.48450 33.88650 -14.26800
C 11.59275 32.99475 -13.37625
C 11.59275 34.77825 -11.59275
C 13.37625 32.99475 -11.59275
C 13.37625 34.77825 -13.37625
C 10.70100 32.10300 -10.70100
C 10.70100 33.88650 -8.91750
C 12.48450 32.10300 -8.91750
C 12.48450 33.88650 -10.70100
C 11.59275 32.99475 -9.80925
C 11.59275 34.77825 -8.02575
C 13.37625 32.99475 -8.02575
C 13.37625 34.77825 -9.80925
C 10.70100 32.10300 -7.13400
C 10.70100 33.88650 -5.35050
C 12.48450 32.10300 -5.35050
C 12.48450 33.88650 -7.13400
C 11.59275 32.99475 -6.24225
C 11.59275 34.77825 -4.45875
C 13.37625 32.99475 -4.45875
C 13.37625 34.77825 -6.24225
C 10.70100 32.10300 -3.56700
C 10.70100 33.88650 -1.78350
C 12.48450 32.10300 -1.78350
C 12.48450 33.88650 -3.56700
C 11.59275 32.99475 -2.67525
C 11.59275 34.77825 -0.89175
C 13.37625 32.99475 -0.89175
C 13.37625 34.77825 -2.67525
C 14.26800 17.83500 -17.83500
C 14.26800 19.61850 -16.05150
C 16.05150 17.83500 -16.05150
C 16.05150 19.61850 -17.83500
C 15.15975 18.72675 -16.94325
C 15.15975 20.51025 -15.15975
C 16.94325 18.72675 -15.15975
C 16.94325 20.51025 -16.94325
C 14.26800 17.83500 -14.26800
C 14.26800 19.61850 -12.48450
C 16.05150 17.83500 -12.48450
C 16.05150 19.61850 -14.26800
C 15.15975 18.72675 -13.37625
C 15.15975 20.51025 -11.59275
C 16.94325 18.72675 -11.59275
C 16.94325 20.51025 -13.37625
C 14.26800 17.83500 -10.70100
C 14.26800 19.61850 -8.91750
C 16.05150 17.83500 -8.91750
C 16.05150 19.61850 -10.70100
C 15.15975 18.72675 -9.80925
C 15.15975 20.51025 -8.02575
C 16.94325 18.72675 -8.02575
C 16.94325 20.51025 -9.80925
C 14.26800 17.83500 -7.13400
C 14.26800 19.61850 -5.35050
C 16.05150 17.83500 -5.35050
C 16.05150 19.61850 -7.13400
C 15.15975 18.72675 -6.24225
C 15.15975 20.51025 -4.45875
C 16.94325 18.72675 -4.45875
C 16.94325 20.51025 -6.24225
C 14.26800 17.83500 -3.56700
C 14.26800 19.61850 -1.78350
C 16.05150 17.83500 -1.78350
C 16.05150 19.61850 -3.56700
C 15.15975 18.72675 -2.67525
C 15.15975 20.51025 -0.89175
C 16.94325 18.72675 -0.89175
C 16.94325 20.51025 -2.67525
C 14.26800 21.40200 -17.83500
C 14.26800 23.18550 -16.05150
C 16.05150 21.40200 -16.05150
C 16.05150 23.18550 -17.83500
C 15.15975 22.29375 -16.94325
C 15.15975 24.07725 -15.15975
C 16.94325 22.29375 -15.15975
C 16.94325 24.07725 -16.94325
C 14.26800 21.40200 -14.26800
C 14.26800 23.18550 -12.48450
C 16.05150 21.40200 -12.48450
C 16.05150 23.18550 -14.26800
C 15.15975 22.29375 -13.37625
C 15.15975 24.07725 -11.59275
C 16.94325 22.29375 -11.59275
C 16.94325 24.07725 -13.37625
C 14.26800 21.40200 -10.70100
C 14.26800 23.18550 -8.91750
C 16.05150 21.40200 -8.91750
C 16.05150 23.18550 -10.70100
C 15.15975 22.29375 -9.80925
C 15.15975 24.07725 -8.02575
C 16.94325 22.29375 -8.02575
C 16.94325 24.07725 -9.80925
C 14.26800 21.40200 -7.13400
C 14.26800 23.18550 -5.35050
C 16.05150 21.40200 -5.35050
C 16.05150 23.18550 -7.13400
C 15.15975 22.29375 -6.24225
C 15.15975 24.07725 -4.45875
C 16.94325 22.29375 -4.45875
C 16.94325 24.07725 -6.24225
C 14.26800 21.40200 -3.56700
C 14.26800 23.18550 -1.78350
C 16.05150 21.40200 -1.78350
C 16.05150 23.18550 -3.56700
C 15.15975 22.29375 -2.67525
C 15.15975 24.07725 -0.89175
C 16.94325 22.29375 -0.89175
C 16.94325 24.07725 -2.67525
C 14.26800 24.96900 -17.83500
C 14.26800 26.75250 -16.05150
C 16.05150 24.96900 -16.05150
C 16.05150 26.75250 -17.83500
C 15.15975 25.86075 -16.94325
C 15.15975 27.64425 -15.15975
C 16.94325 25.86075 -15.15975
C 16.94325 27.64425 -16.94325
C 14.26800 24.96900 -14.26800
C 14.26800 26.75250 -12.48450
C 16.05150 24.96900 -12.48450
C 16.05150 26.75250 -14.26800
C 15.15975 25.86075 -13.37625
C 15.15975 27.64425 -11.59275
C 16.94325 25.86075 -11.59275
C 16.94325 27.64425 -13.37625
C 14.26800 24.96900 -10.70100
C 14.26800 26.75250 -8.91750
C 16.05150 24.96900 -8.91750
C 16.05150 26.75250 -10.70100
C 15.15975 25.86075 -9.80925
C 15.15975 27.64425 -8.02575
C 16.94325 25.86075 -8.02575
C 16.94325 27.64425 -9.80925
C 14.26800 24.96900 -7.13400
C 14.26800 26.75250 -5.35050
C 16.05150 24.96900 -5.35050
C 16.05150 26.75250 -7.13400
C 15.15975 25.86075 -6.24225
C 15.15975 27.64425 -4.45875
C 16.94325 25.86075 -4.45875
C 16.94325 27.64425 -6.24225
C 14.26800 24.96900 -3.56700
C 14.26800 26.75250 -1.78350
C 16.05150 24.96900 -1.78350
C 16.05150 26.75250 -3.56700
C 15.15975 25.86075 -2.67525
C 15.15975 27.64425 -0.89175
C 16.94325 25.86075 -0.89175
C 16.94325 27.64425 -2.67525
C 14.26800 28.53600 -17.83500
C 14.26800 30.31950 -16.05150
C 16.05150 28.53600 -16.05150
C 16.05150 30.31950 -17.83500
C 15.15975 29.42775 -16.94325
C 15.15975 31.21125 -15.15975
C 16.94325 29.42775 -15.15975
C 16.94325 31.21125 -16.94325
C 14.26800 28.53600 -14.26800
C 14.26800 30.31950 -12.48450
C 16.05150 28.53600 -12.48450
C 16.05150 30.31950 -14.26800
C 15.15975 29.42775 -13.37625
C 15.15975 31.21125 -11.59275
C 16.94325 29.42775 -11.59275
C 16.94325 31.21125 -13.37625
C 14.26800 28.53600 -10.70100
C 14.26800 30.31950 -8.91750
C 16.05150 28.53600 -8.91750
C 16.05150 30.31950 -10.70100
C 15.15975 29.42775 -9.80925
C 15.15975 31.21125 -8.02575
C 16.94325 29.42775 -8.02575
C 16.94325 31.21125 -9.80925
C 14.26800 28.53600 -7.13400
C 14.26800 30.31950 -5.35050
C 16.05150 28.53600 -5.35050
C 16.05150 30.31950 -7.13400
C 15.15975 29.42775 -6.24225
C 15.15975 31.21125 -4.45875
C 16.94325 29.42775 -4.45875
C 16.94325 31.21125 -6.24225
C 14.26800 28.53600 -3.56700
C 14.26800 30.31950 -1.78350
C 16.05150 28.53600 -1.78350
C 16.05150 30.31950 -3.56700
C 15.15975 29.42775 -2.67525
C 15.15975 31.21125 -0.89175
C 16.94325 29.42775 -0.89175
C 16.94325 31.21125 -2.67525
C 14.26800 32.10300 -17.83500
C 14.26800 33.88650 -16.05150
C 16.05150 32.10300 -16.05150
C 16.05150 33.88650 -17.83500
C 15.15975 32.99475 -16.94325
C 15.15975 34.77825 -15.15975
C 16.94325 32.99475 -15.15975
C 16.94325 34.77825 -16.94325
C 14.26800 32.10300 -14.26800
C 14.26800 33.88650 -12.48450
C 16.05150 32.10300 -12.48450
C 16.05150 33.88650 -14.26800
C 15.15975 32.99475 -13.37625
C 15.15975 34.77825 -11.59275
C 16.94325 32.99475 -11.59275
C 16.94325 34.77825 -13.37625
C 14.26800 32.10300 -10.70100
C 14.26800 33.88650 -8.91750
C 16.05150 32.10300 -8.91750
C 16.05150 33.88650 -10.70100
C 15.15975 32.99475 -9.80925
C 15.15975 34.77825 -8.02575
C 16.94325 32.99475 -8.02575
C 16.94325 34.77825 -9.80925
C 14.26800 32.10300 -7.13400
C 14.26800 33.88650 -5.35050
C 16.05150 32.10300 -5.35050
C 16.05150 33.88650 -7.13400
C 15.15975 32.99475 -6.24225
C 15.15975 34.77825 -4.45875
C 16.94325 32.99475 -4.45875
C 16.94325 34.77825 -6.24225
C 14.26800 32.10300 -3.56700
C 14.26800 33.88650 -1.78350
C 16.05150 32.10300 -1.78350
C 16.05150 33.88650 -3.56700
C 15.15975 32.99475 -2.67525
C 15.15975 34.77825 -0.89175
C 16.94325 32.99475 -0.89175
C 16.94325 34.77825 -2.67525
N  0.00000 17.83500  0.00000
C  0.00000 19.61850  1.78350
C  1.78350 17.83500  1.78350
C  1.78350 19.61850  0.00000
C  0.89175 18.72675  0.89175
C  0.89175 20.51025  2.67525
C  2.67525 18.72675  2.67525
C  2.67525 20.51025  0.89175
C  0.00000 17.83500  3.56700
C  0.00000 19.61850  5.35050
C  1.78350 17.83500  5.35050
C  1.78350 19.61850  3.56700
C  0.89175 18.72675  4.45875
C  0.89175 20.51025  6.24225
C  2.67525 18.72675  6.24225
C  2.67525 20.51025  4.45875
C  0.00000 17.83500  7.13400
C  0.00000 19.61850  8.91750
C  1.78350 17.83500  8.91750
C  1.78350 19.61850  7.13400
C  0.89175 18.72675  8.02575
C  0.89175 20.51025  9.80925
C  2.67525 18.72675  9.80925
C  2.67525 20.51025  8.02575
C  0.00000 17.83500 10.70100
C  0.00000 19.61850 12.48450
C  1.78350 17.83500 12.48450
C  1.78350 19.61850 10.70100
C  0.89175 18.72675 11.59275
C  0.89175 20.51025 13.37625
C  2.67525 18.72675 13.37625
C  2.67525 20.51025 11.59275
C  0.00000 17.83500 14.26800
C  0.00000 19.61850 16.05150
C  1.78350 17.83500 16.05150
C  1.78350 19.61850 14.26800
C  0.89175 18.72675 15.15975
C  0.89175 20.51025 16.94325
C  2.67525 18.72675 16.94325
C  2.67525 20.51025 15.15975
C  0.00000 21.40200  0.00000
C  0.00000 23.18550  1.78350
C  1.78350 21.40200  1.78350
C  1.78350 23.18550  0.00000
C  0.89175 22.29375  0.89175
C  0.89175 24.07725  2.67525
C  2.67525 22.29375  2.67525
C  2.67525 24.07725  0.89175
C  0.00000 21.40200  3.56700
C  0.00000 23.18550  5.35050
C  1.78350 21.40200  5.35050
C  1.78350 23.18550  3.56700
C  0.89175 22.29375  4.45875
C  0.89175 24.07725  6.24225
C  2.67525 22.29375  6.24225
C  2.67525 24.07725  4.45875
C  0.00000 21.40200  7.13400
C  0.00000 23.18550  8.91750
C  1.78350 21.40200  8.91750
C  1.78350 23.18550  7.13400
C  0.89175 22.29375  8.02575
C  0.89175 24.07725  9.80925
C  2.67525 22.29375  9.80925
C  2.67525 24.07725  8.02575
C  0.00000 21.40200 10.70100
C  0.00000 23.18550 12.48450
C  1.78350 21.40200 12.48450
C  1.78350 23.18550 10.70100
C  0.89175 22.29375 11.59275
C  0.89175 24.07725 13.37625
C  2.67525 22.29375 13.37625
C  2.67525 24.07725 11.59275
C  0.00000 21.40200 14.26800
C  0.00000 23.18550 16.05150
C  1.78350 21.40200 16.05150
C  1.78350 23.18550 14.26800
C  0.89175 22.29375 15.15975
C  0.89175 24.07725 16.94325
C  2.67525 22.29375 16.94325
C  2.67525 24.07725 15.15975
C  0.00000 24.96900  0.00000
C  0.00000 26.75250  1.78350
C  1.78350 24.96900  1.78350
C  1.78350 26.75250  0.00000
C  0.89175 25.86075  0.89175
C  0.89175 27.64425  2.67525
C  2.67525 25.86075  2.67525
C  2.67525 27.64425  0.89175
C  0.00000 24.96900  3.56700
C  0.00000 26.75250  5.35050
C  1.78350 24.96900  5.35050
C  1.78350 26.75250  3.56700
C  0.89175 25.86075  4.45875
C  0.89175 27.64425  6.24225
C  2.67525 25.86075  6.24225
C  2.67525 27.64425  4.45875
C  0.00000 24.96900  7.13400
C  0.00000 26.75250  8.91750
C  1.78350 24.96900  8.91750
C  1.78350 26.75250  7.13400
C  0.89175 25.86075  8.02575
C  0.89175 27.64425  9.80925
C  2.67525 25.86075  9.80925
C  2.67525 27.64425  8.02575
C  0.00000 24.96900 10.70100
C  0.00000 26.75250 12.48450
C  1.78350 24.96900 12.48450
C  1.78350 26.75250 10.70100
C  0.89175 25.86075 11.59275
C  0.89175 27.64425 13.37625
C  2.67525 25.86075 13.37625
C  2.67525 27.64425 11.59275
C  0.00000 24.96900 14.26800
C  0.00000 26.75250 16.05150
C  1.78350 24.96900 16.05150
C  1.78350 26.75250 14.26800
C  0.89175 25.86075 15.15975
C  0.89175 27.64425 16.94325
C  2.67525 25.86075 16.94325
C  2.67525 27.64425 15.15975
C  0.00000 28.53600  0.00000
C  0.00000 30.31950  1.78350
C  1.78350 28.53600  1.78350
C  1.78350 30.31950  0.00000
C  0.89175 29.42775  0.89175
C  0.89175 31.21125  2.67525
C  2.67525 29.42775  2.67525
C  2.67525 31.21125  0.89175
C  0.00000 28.53600  3.56700
C  0.00000 30.31950  5.35050
C  1.78350 28.53600  5.35050
C  1.78350 30.31950  3.56700
C  0.89175 29.42775  4.45875
C  0.89175 31.21125  6.24225
C  2.67525 29.42775  6.24225
C  2.67525 31.21125  4.45875
C  0.00000 28.53600  7.13400
C  0.00000 30.31950  8.91750
C  1.78350 28.53600  8.91750
C  1.78350 30.31950  7.13400
C  0.89175 29.42775  8.02575
C  0.89175 31.21125  9.80925
C  2.67525 29.42775  9.80925
C  2.67525 31.21125  8.02575
C  0.00000 28.53600 10.70100
C  0.00000 30.31950 12.48450
C  1.78350 28.53600 12.48450
C  1.78350 30.31950 10.70100
C  0.89175 29.42775 11.59275
C  0.89175 31.21125 13.37625
C  2.67525 29.42775 13.37625
C  2.67525 31.21125 11.59275
C  0.00000 28.53600 14.26800
C  0.00000 30.31950 16.05150
C  1.78350 28.53600 16.05150
C  1.78350 30.31950 14.26800
C  0.89175 29.42775 15.15975
C  0.89175 31.21125 16.94325
C  2.67525 29.42775 16.94325
C  2.67525 31.21125 15.15975
C  0.00000 32.10300  0.00000
C  0.00000 33.88650  1.78350
C  1.78350 32.10300  1.78350
C  1.78350 33.88650  0.00000
C  0.89175 32.99475  0.89175
C  0.89175 34.77825  2.67525
C  2.67525 32.99475  2.67525
C  2.67525 34.77825  0.89175
C  0.00000 32.10300  3.56700
C  0.00000 33.88650  5.35050
C  1.78350 32.10300  5.35050
C  1.78350 33.88650  3.56700
C  0.89175 32.99475  4.45875
C  0.89175 34.77825  6.24225
C  2.67525 32.99475  6.24225
C  2.67525 34.77825  4.45875
C  0.00000 32.10300  7.13400
C  0.00000 33.88650  8.91750
C  1.78350 32.10300  8.91750
C  1.78350 33.88650  7.13400
C  0.89175 32.99475  8.02575
C  0.89175 34.77825  9.80925
C  2.67525 32.99475  9.80925
C  2.67525 34.77825  8.02575
C  0.00000 32.10300 10.70100
C  0.00000 33.88650 12.48450
C  1.78350 32.10300 12.48450
C  1.78350 33.88650 10.70100
C  0.89175 32.99475 11.59275
C  0.89175 34.77825 13.37625
C  2.67525 32.99475 13.37625
C  2.67525 34.77825 11.59275
C  0.00000 32.10300 14.26800
C  0.00000 33.88650 16.05150
C  1.78350 32.10300 16.05150
C  1.78350 33.88650 14.26800
C  0.89175 32.99475 15.15975
C  0.89175 34.77825 16.94325
C  2.67525 32.99475 16.94325
C  2.67525 34.77825 15.15975
C  3.56700 17.83500  0.00000
C  3.56700 19.61850  1.78350
C  5.35050 17.83500  1.78350
C  5.35050 19.61850  0.00000
C  4.45875 18.72675  0.89175
C  4.45875 20.51025  2.67525
C  6.24225 18.72675  2.67525
C  6.24225 20.51025  0.89175
C  3.56700 17.83500  3.56700
C  3.56700 19.61850  5.35050
C  5.35050 17.83500  5.35050
C  5.35050 19.61850  3.56700
C  4.45875 18.72675  4.45875
C  4.45875 20.51025  6.24225
C  6.24225 18.72675  6.24225
C  6.24225 20.51025  4.45875
C  3.56700 17.83500  7.13400
C  3.56700 19.61850  8.91750
C  5.35050 17.83500  8.91750
C  5.35050 19.61850  7.13400
C  4.45875 18.72675  8.02575
C  4.45875 20.51025  9.80925
C  6.24225 18.72675  9.80925
C  6.24225 20.51025  8.02575
C  3.56700 17.83500 10.70100
C  3.56700 19.61850 12.48450
C  5.35050 17.83500 12.48450
C  5.35050 19.61850 10.70100
C  4.45875 18.72675 11.59275
C  4.45875 20.51025 13.37625
C  6.24225 18.72675 13.37625
C  6.24225 20.51025 11.59275
C  3.56700 17.83500 14.26800
C  3.56700 19.61850 16.05150
C  5.35050 17.83500 16.05150
C  5.35050 19.61850 14.26800
C  4.45875 18.72675 15.15975
C  4.45875 20.51025 16.94325
C  6.24225 18.72675 16.94325
C  6.24225 20.51025 15.15975
C  3.56700 21.40200  0.00000
C  3.56700 23.18550  1.78350
C  5.35050 21.40200  1.78350
C  5.35050 23.18550  0.00000
C  4.45875 22.29375  0.89175
C  4.45875 24.07725  2.67525
C  6.24225 22.29375  2.67525
C  6.24225 24.07725  0.89175
C  3.56700 21.40200  3.56700
C  3.56700 23.18550  5.35050
C  5.35050 21.40200  5.35050
C  5.35050 23.18550  3.56700
C  4.45875 22.29375  4.45875
C  4.45875 24.07725  6.24225
C  6.24225 22.29375  6.24225
C  6.24225 24.07725  4.45875
C  3.56700 21.40200  7.13400
C  3.56700 23.18550  8.91750
C  5.35050 21.40200  8.91750
C  5.35050 23.18550  7.13400
C  4.45875 22.29375  8.02575
C  4.45875 24.07725  9.80925
C  6.24225 22.29375  9.80925
C  6.24225 24.07725  8.02575
C  3.56700 21.40200 10.70100
C  3.56700 23.18550 12.48450
C  5.35050 21.40200 12.48450
C  5.35050 23.18550 10.70100
C  4.45875 22.29375 11.59275
C  4.45875 24.07725 13.37625
C  6.24225 22.29375 13.37625
C  6.24225 24.07725 11.59275
C  3.56700 21.40200 14.26800
C  3.56700 23.18550 16.05150
C  5.35050 21.40200 16.05150
C  5.35050 23.18550 14.26800
C  4.45875 22.29375 15.15975
C  4.45875 24.07725 16.94325
C  6.24225 22.29375 16.94325
C  6.24225 24.07725 15.15975
C  3.56700 24.96900  0.00000
C  3.56700 26.75250  1.78350
C  5.35050 24.96900  1.78350
C  5.35050 26.75250  0.00000
C  4.45875 25.86075  0.89175
C  4.45875 27.64425  2.67525
C  6.24225 25.86075  2.67525
C  6.24225 27.64425  0.89175
C  3.56700 24.96900  3.56700
C  3.56700 26.75250  5.35050
C  5.35050 24.96900  5.35050
C  5.35050 26.75250  3.56700
C  4.45875 25.86075  4.45875
C  4.45875 27.64425  6.24225
C  6.24225 25.86075  6.24225
C  6.24225 27.64425  4.45875
C  3.56700 24.96900  7.13400
C  3.56700 26.75250  8.91750
C  5.35050 24.96900  8.91750
C  5.35050 26.75250  7.13400
C  4.45875 25.86075  8.02575
C  4.45875 27.64425  9.80925
C  6.24225 25.86075  9.80925
C  6.24225 27.64425  8.02575
C  3.56700 24.96900 10.70100
C  3.56700 26.75250 12.48450
C  5.35050 24.96900 12.48450
C  5.35050 26.75250 10.70100
C  4.45875 25.86075 11.59275
C  4.45875 27.64425 13.37625
C  6.24225 25.86075 13.37625
C  6.24225 27.64425 11.59275
C  3.56700 24.96900 14.26800
C  3.56700 26.75250 16.05150
C  5.35050 24.96900 16.05150
C  5.35050 26.75250 14.26800
C  4.45875 25.86075 15.15975
C  4.45875 27.64425 16.94325
C  6.24225 25.86075 16.94325
C  6.24225 27.64425 15.15975
C  3.56700 28.53600  0.00000
C  3.56700 30.31950  1.78350
C  5.35050 28.53600  1.78350
C  5.35050 30.31950  0.00000
C  4.45875 29.42775  0.89175
C  4.45875 31.21125  2.67525
C  6.24225 29.42775  2.67525
C  6.24225 31.21125  0.89175
C  3.56700 28.53600  3.56700
C  3.56700 30.31950  5.35050
C  5.35050 28.53600  5.35050
C  5.35050 30.31950  3.56700
C  4.45875 29.42775  4.45875
C  4.45875 31.21125  6.24225
C  6.24225 29.42775  6.24225
C  6.24225 31.21125  4.45875
C  3.56700 28.53600  7.13400
C  3.56700 30.31950  8.91750
C  5.35050 28.53600  8.91750
C  5.35050 30.31950  7.13400
C  4.45875 29.42775  8.02575
C  4.45875 31.21125  9.80925
C  6.24225 29.42775  9.80925
C  6.24225 31.21125  8.02575
C  3.56700 28.53600 10.70100
C  3.56700 30.31950 12.48450
C  5.35050 28.53600 12.48450
C  5.35050 30.31950 10.70100
C  4.45875 29.42775 11.59275
C  4.45875 31.21125 13.37625
C  6.24225 29.42775 13.37625
C  6.24225 31.21125 11.59275
C  3.56700 28.53600 14.26800
C  3.56700 30.31950 16.05150
C  5.35050 28.53600 16.05150
C  5.35050 30.31950 14.26800
C  4.45875 29.42775 15.15975
C  4.45875 31.21125 16.94325
C  6.24225 29.42775 16.94325
C  6.24225 31.21125 15.15975
C  3.56700 32.10300  0.00000
C  3.56700 33.88650  1.78350
C  5.35050 32.10300  1.78350
C  5.35050 33.88650  0.00000
C  4.45875 32.99475  0.89175
C  4.45875 34.77825  2.67525
C  6.24225 32.99475  2.67525
C  6.24225 34.77825  0.89175
C  3.56700 32.10300  3.56700
C  3.56700 33.88650  5.35050
C  5.35050 32.10300  5.35050
C  5.35050 33.88650  3.56700
C  4.45875 32.99475  4.45875
C  4.45875 34.77825  6.24225
C  6.24225 32.99475  6.24225
C  6.24225 34.77825  4.45875
C  3.56700 32.10300  7.13400
C  3.56700 33.88650  8.91750
C  5.35050 32.10300  8.91750
C  5.35050 33.88650  7.13400
C  4.45875 32.99475  8.02575
C  4.45875 34.77825  9.80925
C  6.24225 32.99475  9.80925
C  6.24225 34.77825  8.02575
C  3.56700 32.10300 10.70100
C  3.56700 33.88650 12.48450
C  5.35050 32.10300 12.48450
C  5.35050 33.88650 10.70100
C  4.45875 32.99475 11.59275
C  4.45875 34.77825 13.37625
C  6.24225 32.99475 13.37625
C  6.24225 34.77825 11.59275
C  3.56700 32.10300 14.26800
C  3.56700 33.88650 16.05150
C  5.35050 32.10300 16.05150
C  5.35050 33.88650 14.26800
C  4.45875 32.99475 15.15975
C  4.45875 34.77825 16.94325
C  6.24225 32.99475 16.94325
C  6.24225 34.77825 15.15975
C  7.13400 17.83500  0.00000
C  7.13400 19.61850  1.78350
C  8.91750 17.83500  1.78350
C  8.91750 19.61850  0.00000
C  8.02575 18.72675  0.89175
C  8.02575 20.51025  2.67525
C  9.80925 18.72675  2.67525
C  9.80925 20.51025  0.89175
C  7.13400 17.83500  3.56700
C  7.13400 19.61850  5.35050
C  8.91750 17.83500  5.35050
C  8.91750 19.61850  3.56700
C  8.02575 18.72675  4.45875
C  8.02575 20.51025  6.24225
C  9.80925 18.72675  6.24225
C  9.80925 20.51025  4.45875
C  7.13400 17.83500  7.13400
C  7.13400 19.61850  8.91750
C  8.91750 17.83500  8.91750
C  8.91750 19.61850  7.13400
C  8.02575 18.72675  8.02575
C  8.02575 20.51025  9.80925
C  9.80925 18.72675  9.80925
C  9.80925 20.51025  8.02575
C  7.13400 17.83500 10.70100
C  7.13400 19.61850 12.48450
C  8.91750 17.83500 12.48450
C  8.91750 19.61850 10.70100
C  8.02575 18.72675 11.59275
C  8.02575 20.51025 13.37625
C  9.80925 18.72675 13.37625
C  9.80925 20.51025 11.59275
C  7.13400 17.83500 14.26800
C  7.13400 19.61850 16.05150
C  8.91750 17.83500 16.05150
C  8.91750 19.61850 14.26800
C  8.02575 18.72675 15.15975
C  8.02575 20.51025 16.94325
C  9.80925 18.72675 16.94325
C  9.80925 20.51025 15.15975
C  7.13400 21.40200  0.00000
C  7.13400 23.18550  1.78350
C  8.91750 21.40200  1.78350
C  8.91750 23.18550  0.00000
C  8.02575 22.29375  0.89175
C  8.02575 24.07725  2.67525
C  9.80925 22.29375  2.67525
C  9.80925 24.07725  0.89175
C  7.13400 21.40200  3.56700
C  7.13400 23.18550  5.35050
C  8.91750 21.40200  5.35050
C  8.91750 23.18550  3.56700
C  8.02575 22.29375  4.45875
C  8.02575 24.07725  6.24225
C  9.80925 22.29375  6.24225
C  9.80925 24.07725  4.45875
C  7.13400 21.40200  7.13400
C  7.13400 23.18550  8.91750
C  8.91750 21.40200  8.91750
C  8.91750 23.18550  7.13400
C  8.02575 22.29375  8.02575
C  8.02575 24.07725  9.80925
C  9.80925 22.29375  9.80925
C  9.80925 24.07725  8.02575
C  7.13400 21.40200 10.70100
C  7.13400 23.18550 12.48450
C  8.91750 21.40200 12.48450
C  8.91750 23.18550 10.70100
C  8.02575 22.29375 11.59275
C  8.02575 24.07725 13.37625
C  9.80925 22.29375 13.37625
C  9.80925 24.07725 11.59275
C  7.13400 21.40200 14.26800
C  7.13400 23.18550 16.05150
C  8.91750 21.40200 16.05150
C  8.91750 23.18550 14.26800
C  8.02575 22.29375 15.15975
C  8.02575 24.07725 16.94325
C  9.80925 22.29375 16.94325
C  9.80925 24.07725 15.15975
C  7.13400 24.96900  0.00000
C  7.13400 26.75250  1.78350
C  8.91750 24.96900  1.78350
C  8.91750 26.75250  0.00000
C  8.02575 25.86075  0.89175
C  8.02575 27.64425  2.67525
C  9.80925 25.86075  2.67525
C  9.80925 27.64425  0.89175
C  7.13400 24.96900  3.56700
C  7.13400 26.75250  5.35050
C  8.91750 24.96900  5.35050
C  8.91750 26.75250  3.56700
C  8.02575 25.86075  4.45875
C  8.02575 27.64425  6.24225
C  9.80925 25.86075  6.24225
C  9.80925 27.64425  4.45875
C  7.13400 24.96900  7.13400
C  7.13400 26.75250  8.91750
C  8.91750 24.96900  8.91750
C  8.91750 26.75250  7.13400
C  8.02575 25.86075  8.02575
C  8.02575 27.64425  9.80925
C  9.80925 25.86075  9.80925
C  9.80925 27.64425  8.02575
C  7.13400 24.96900 10.70100
C  7.13400 26.75250 12.48450
C  8.91750 24.96900 12.48450
C  8.91750 26.75250 10.70100
C  8.02575 25.86075 11.59275
C  8.02575 27.64425 13.37625
C  9.80925 25.86075 13.37625
C  9.80925 27.64425 11.59275
C  7.13400 24.96900 14.26800
C  7.13400 26.75250 16.05150
C  8.91750 24.96900 16.05150
C  8.91750 26.75250 14.26800
C  8.02575 25.86075 15.15975
C  8.02575 27.64425 16.94325
C  9.80925 25.86075 16.94325
C  9.80925 27.64425 15.15975
C  7.13400 28.53600  0.00000
C  7.13400 30.31950  1.78350
C  8.91750 28.53600  1.78350
C  8.91750 30.31950  0.00000
C  8.02575 29.42775  0.89175
C  8.02575 31.21125  2.67525
C  9.80925 29.42775  2.67525
C  9.80925 31.21125  0.89175
C  7.13400 28.53600  3.56700
C  7.13400 30.31950  5.35050
C  8.91750 28.53600  5.35050
C  8.91750 30.31950  3.56700
C  8.02575 29.42775  4.45875
C  8.02575 31.21125  6.24225
C  9.80925 29.42775  6.24225
C  9.80925 31.21125  4.45875
C  7.13400 28.53600  7.13400
C  7.13400 30.31950  8.91750
C  8.91750 28.53600  8.91750
C  8.91750 30.31950  7.13400
C  8.02575 29.42775  8.02575
C  8.02575 31.21125  9.80925
C  9.80925 29.42775  9.80925
C  9.80925 31.21125  8.02575
C  7.13400 28.53600 10.70100
C  7.13400 30.31950 12.48450
C  8.91750 28.53600 12.48450
C  8.91750 30.31950 10.70100
C  8.02575 29.42775 11.59275
C  8.02575 31.21125 13.37625
C  9.80925 29.42775 13.37625
C  9.80925 31.21125 11.59275
C  7.13400 28.53600 14.26800
C  7.13400 30.31950 16.05150
C  8.91750 28.53600 16.05150
C  8.91750 30.31950 14.26800
C  8.02575 29.42775 15.15975
C  8.02575 31.21125 16.94325
C  9.80925 29.42775 16.94325
C  9.80925 31.21125 15.15975
C  7.13400 32.10300  0.00000
C  7.13400 33.88650  1.78350
C  8.91750 32.10300  1.78350
C  8.91750 33.88650  0.00000
C  8.02575 32.99475  0.89175
C  8.02575 34.77825  2.67525
C  9.80925 32.99475  2.67525
C  9.80925 34.77825  0.89175
C  7.13400 32.10300  3.56700
C  7.13400 33.88650  5.35050
C  8.91750 32.10300  5.35050
C  8.91750 33.88650  3.56700
C  8.02575 32.99475  4.45875
C  8.02575 34.77825  6.24225
C  9.80925 32.99475  6.24225
C  9.80925 34.77825  4.45875
C  7.13400 32.10300  7.13400
C  7.13400 33.88650  8.91750
C  8.91750 32.10300  8.91750
C  8.91750 33.88650  7.13400
C  8.02575 32.99475  8.02575
C  8.02575 34.77825  9.80925
C  9.80925 32.99475  9.80925
C  9.80925 34.77825  8.02575
C  7.13400 32.10300 10.70100
C  7.13400 33.88650 12.48450
C  8.91750 32.10300 12.48450
C  8.91750 33.88650 10.70100
C  8.02575 32.99475 11.59275
C  8.02575 34.77825 13.37625
C  9.80925 32.99475 13.37625
C  9.80925 34.77825 11.59275
C  7.13400 32.10300 14.26800
C  7.13400 33.88650 16.05150
C  8.91750 32.10300 16.05150
C  8.91750 33.88650 14.26800
C  8.02575 32.99475 15.15975
C  8.02575 34.77825 16.94325
C  9.80925 32.99475 16.94325
C  9.80925 34.77825 15.15975
C 10.70100 17.83500  0.00000
C 10.70100 19.61850  1.78350
C 12.48450 17.83500  1.78350
C 12.48450 19.61850  0.00000
C 11.59275 18.72675  0.89175
C 11.59275 20.51025  2.67525
C 13.37625 18.72675  2.67525
C 13.37625 20.51025  0.89175
C 10.70100 17.83500  3.56700
C 10.70100 19.61850  5.35050
C 12.48450 17.83500  5.35050
C 12.48450 19.61850  3.56700
C 11.59275 18.72675  4.45875
C 11.59275 20.51025  6.24225
C 13.37625 18.72675  6.24225
C 13.37625 20.51025  4.45875
C 10.70100 17.83500  7.13400
C 10.70100 19.61850  8.91750
C 12.48450 17.83500  8.91750
C 12.48450 19.61850  7.13400
C 11.59275 18.72675  8.02575
C 11.59275 20.51025  9.80925
C 13.37625 18.72675  9.80925
C 13.37625 20.51025  8.02575
C 10.70100 17.83500 10.70100
C 10.70100 19.61850 12.48450
C 12.48450 17.83500 12.48450
C 12.48450 19.61850 10.70100
C 11.59275 18.72675 11.59275
C 11.59275 20.51025 13.37625
C 13.37625 18.72675 13.37625
C 13.37625 20.51025 11.59275
C 10.70100 17.83500 14.26800
C 10.70100 19.61850 16.05150
C 12.48450 17.83500 16.05150
C 12.48450 19.61850 14.26800
C 11.59275 18.72675 15.15975
C 11.59275 20.51025 16.94325
C 13.37625 18.72675 16.94325
C 13.37625 20.51025 15.15975
C 10.70100 21.40200  0.00000
C 10.70100 23.18550  1.78350
C 12.48450 21.40200  1.78350
C 12.48450 23.18550  0.00000
C 11.59275 22.29375  0.89175
C 11.59275 24.07725  2.67525
C 13.37625 22.29375  2.67525
C 13.37625 24.07725  0.89175
C 10.70100 21.40200  3.56700
C 10.70100 23.18550  5.35050
C 12.48450 21.40200  5.35050
C 12.48450 23.18550  3.56700
C 11.59275 22.29375  4.45875
C 11.59275 24.07725  6.24225
C 13.37625 22.29375  6.24225
C 13.37625 24.07725  4.45875
C 10.70100 21.40200  7.13400
C 10.70100 23.18550  8.91750
C 12.48450 21.40200  8.91750
C 12.48450 23.18550  7.13400
C 11.59275 22.29375  8.02575
C 11.59275 24.07725  9.80925
C 13.37625 22.29375  9.80925
C 13.37625 24.07725  8.02575
C 10.70100 21.40200 10.70100
C 10.70100 23.18550 12.48450
C 12.48450 21.40200 12.48450
C 12.48450 23.18550 10.70100
C 11.59275 22.29375 11.59275
C 11.59275 24.07725 13.37625
C 13.37625 22.29375 13.37625
C 13.37625 24.07725 11.59275
C 10.70100 21.40200 14.26800
C 10.70100 23.18550 16.05150
C 12.48450 21.40200 16.05150
C 12.48450 23.18550 14.26800
C 11.59275 22.29375 15.15975
C 11.59275 24.07725 16.94325
C 13.37625 22.29375 16.94325
C 13.37625 24.07725 15.15975
C 10.70100 24.96900  0.00000
C 10.70100 26.75250  1.78350
C 12.48450 24.96900  1.78350
C 12.48450 26.75250  0.00000
C 11.59275 25.86075  0.89175
C 11.59275 27.64425  2.67525
C 13.37625 25.86075  2.67525
C 13.37625 27.64425  0.89175
C 10.70100 24.96900  3.56700
C 10.70100 26.75250  5.35050
C 12.48450 24.96900  5.35050
C 12.48450 26.75250  3.56700
C 11.59275 25.86075  4.45875
C 11.59275 27.64425  6.24225
C 13.37625 25.86075  6.24225
C 13.37625 27.64425  4.45875
C 10.70100 24.96900  7.13400
C 10.70100 26.75250  8.91750
C 12.48450 24.96900  8.91750
C 12.48450 26.75250  7.13400
C 11.59275 25.86075  8.02575
C 11.59275 27.64425  9.80925
C 13.37625 25.86075  9.80925
C 13.37625 27.64425  8.02575
C 10.70100 24.96900 10.70100
C 10.70100 26.75250 12.48450
C 12.48450 24.96900 12.48450
C 12.48450 26.75250 10.70100
C 11.59275 25.86075 11.59275
C 11.59275 27.64425 13.37625
C 13.37625 25.86075 13.37625
C 13.37625 27.64425 11.59275
C 10.70100 24.96900 14.26800
C 10.70100 26.75250 16.05150
C 12.48450 24.96900 16.05150
C 12.48450 26.75250 14.26800
C 11.59275 25.86075 15.15975
C 11.59275 27.64425 16.94325
C 13.37625 25.86075 16.94325
C 13.37625 27.64425 15.15975
C 10.70100 28.53600  0.00000
C 10.70100 30.31950  1.78350
C 12.48450 28.53600  1.78350
C 12.48450 30.31950  0.00000
C 11.59275 29.42775  0.89175
C 11.59275 31.21125  2.67525
C 13.37625 29.42775  2.67525
C 13.37625 31.21125  0.89175
C 10.70100 28.53600  3.56700
C 10.70100 30.31950  5.35050
C 12.48450 28.53600  5.35050
C 12.48450 30.31950  3.56700
C 11.59275 29.42775  4.45875
C 11.59275 31.21125  6.24225
C 13.37625 29.42775  6.24225
C 13.37625 31.21125  4.45875
C 10.70100 28.53600  7.13400
C 10.70100 30.31950  8.91750
C 12.48450 28.53600  8.91750
C 12.48450 30.31950  7.13400
C 11.59275 29.42775  8.02575
C 11.59275 31.21125  9.80925
C 13.37625 29.42775  9.80925
C 13.37625 31.21125  8.02575
C 10.70100 28.53600 10.70100
C 10.70100 30.31950 12.48450
C 12.48450 28.53600 12.48450
C 12.48450 30.31950 10.70100
C 11.59275 29.42775 11.59275
C 11.59275 31.21125 13.37625
C 13.37625 29.42775 13.37625
C 13.37625 31.21125 11.59275
C 10.70100 28.53600 14.26800
C 10.70100 30.31950 16.05150
C 12.48450 28.53600 16.05150
C 12.48450 30.31950 14.26800
C 11.59275 29.42775 15.15975
C 11.59275 31.21125 16.94325
C 13.37625 29.42775 16.94325
C 13.37625 31.21125 15.15975
C 10.70100 32.10300  0.00000
C 10.70100 33.88650  1.78350
C 12.48450 32.10300  1.78350
C 12.48450 33.88650  0.00000
C 11.59275 32.99475  0.89175
C 11.59275 34.77825  2.67525
C 13.37625 32.99475  2.67525
C 13.37625 34.77825  0.89175
C 10.70100 32.10300  3.56700
C 10.70100 33.88650  5.35050
C 12.48450 32.10300  5.35050
C 12.48450 33.88650  3.56700
C 11.59275 32.99475  4.45875
C 11.59275 34.77825  6.24225
C 13.37625 32.99475  6.24225
C 13.37625 34.77825  4.45875
C 10.70100 32.10300  7.13400
C 10.70100 33.88650  8.91750
C 12.48450 32.10300  8.91750
C 12.48450 33.88650  7.13400
C 11.59275 32.99475  8.02575
C 11.59275 34.77825  9.80925
C 13.37625 32.99475  9.80925
C 13.37625 34.77825  8.02575
C 10.70100 32.10300 10.70100
C 10.70100 33.88650 12.48450
C 12.48450 32.10300 12.48450
C 12.48450 33.88650 10.70100
C 11.59275 32.99475 11.59275
C 11.59275 34.77825 13.37625
C 13.37625 32.99475 13.37625
C 13.37625 34.77825 11.59275
C 10.70100 32.10300 14.26800
C 10.70100 33.88650 16.05150
C 12.48450 32.10300 16.05150
C 12.48450 33.88650 14.26800
C 11.59275 32.99475 15.15975
C 11.59275 34.77825 16.94325
C 13.37625 32.99475 16.94325
C 13.37625 34.77825 15.15975
C 14.26800 17.83500  0.00000
C 14.26800 19.61850  1.78350
C 16.05150 17.83500  1.78350
C 16.05150 19.61850  0.00000
C 15.15975 18.72675  0.89175
C 15.15975 20.51025  2.67525
C 16.94325 18.72675  2.67525
C 16.94325 20.51025  0.89175
C 14.26800 17.83500  3.56700
C 14.26800 19.61850  5.35050
C 16.05150 17.83500  5.35050
C 16.05150 19.61850  3.56700
C 15.15975 18.72675  4.45875
C 15.15975 20.51025  6.24225
C 16.94325 18.72675  6.24225
C 16.94325 20.51025  4.45875
C 14.26800 17.83500  7.13400
C 14.26800 19.61850  8.91750
C 16.05150 17.83500  8.91750
C 16.05150 19.61850  7.13400
C 15.15975 18.72675  8.02575
C 15.15975 20.51025  9.80925
C 16.94325 18.72675  9.80925
C 16.94325 20.51025  8.02575
C 14.26800 17.83500 10.70100
C 14.26800 19.61850 12.48450
C 16.05150 17.83500 12.48450
C 16.05150 19.61850 10.70100
C 15.15975 18.72675 11.59275
C 15.15975 20.51025 13.37625
C 16.94325 18.72675 13.37625
C 16.94325 20.51025 11.59275
C 14.26800 17.83500 14.26800
C 14.26800 19.61850 16.05150
C 16.05150 17.83500 16.05150
C 16.05150 19.61850 14.26800
C 15.15975 18.72675 15.15975
C 15.15975 20.51025 16.94325
C 16.94325 18.72675 16.94325
C 16.94325 20.51025 15.15975
C 14.26800 21.40200  0.00000
C 14.26800 23.18550  1.78350
C 16.05150 21.40200  1.78350
C 16.05150 23.18550  0.00000
C 15.15975 22.29375  0.89175
C 15.15975 24.07725  2.67525
C 16.94325 22.29375  2.67525
C 16.94325 24.07725  0.89175
C 14.26800 21.40200  3.56700
C 14.26800 23.18550  5.35050
C 16.05150 21.40200  5.35050
C 16.05150 23.18550  3.56700
C 15.15975 22.29375  4.45875
C 15.15975 24.07725  6.24225
C 16.94325 22.29375  6.24225
C 16.94325 24.07725  4.45875
C 14.26800 21.40200  7.13400
C 14.26800 23.18550  8.91750
C 16.05150 21.40200  8.91750
C 16.05150 23.18550  7.13400
C 15.15975 22.29375  8.02575
C 15.15975 24.07725  9.80925
C 16.94325 22.29375  9.80925
C 16.94325 24.07725  8.02575
C 14.26800 21.40200 10.70100
C 14.26800 23.18550 12.48450
C 16.05150 21.40200 12.48450
C 16.05150 23.18550 10.70100
C 15.15975 22.29375 11.59275
C 15.15975 24.07725 13.37625
C 16.94325 22.29375 13.37625
C 16.94325 24.07725 11.59275
C 14.26800 21.40200 14.26800
C 14.26800 23.18550 16.05150
C 16.05150 21.40200 16.05150
C 16.05150 23.18550 14.26800
C 15.15975 22.29375 15.15975
C 15.15975 24.07725 16.94325
C 16.94325 22.29375 16.94325
C 16.94325 24.07725 15.15975
C 14.26800 24.96900  0.00000
C 14.26800 26.75250  1.78350
C 16.05150 24.96900  1.78350
C 16.05150 26.75250  0.00000
C 15.15975 25.86075  0.89175
C 15.15975 27.64425  2.67525
C 16.94325 25.86075  2.67525
C 16.94325 27.64425  0.89175
C 14.26800 24.96900  3.56700
C 14.26800 26.75250  5.35050
C 16.05150 24.96900  5.35050
C 16.05150 26.75250  3.56700
C 15.15975 25.86075  4.45875
C 15.15975 27.64425  6.24225
C 16.94325 25.86075  6.24225
C 16.94325 27.64425  4.45875
C 14.26800 24.96900  7.13400
C 14.26800 26.75250  8.91750
C 16.05150 24.96900  8.91750
C 16.05150 26.75250  7.13400
C 15.15975 25.86075  8.02575
C 15.15975 27.64425  9.80925
C 16.94325 25.86075  9.80925
C 16.94325 27.64425  8.02575
C 14.26800 24.96900 10.70100
C 14.26800 26.75250 12.48450
C 16.05150 24.96900 12.48450
C 16.05150 26.75250 10.70100
C 15.15975 25.86075 11.59275
C 15.15975 27.64425 13.37625
C 16.94325 25.86075 13.37625
C 16.94325 27.64425 11.59275
C 14.26800 24.96900 14.26800
C 14.26800 26.75250 16.05150
C 16.05150 24.96900 16.05150
C 16.05150 26.75250 14.26800
C 15.15975 25.86075 15.15975
C 15.15975 27.64425 16.94325
C 16.94325 25.86075 16.94325
C 16.94325 27.64425 15.15975
C 14.26800 28.53600  0.00000
C 14.26800 30.31950  1.78350
C 16.05150 28.53600  1.78350
C 16.05150 30.31950  0.00000
C 15.15975 29.42775  0.89175
C 15.15975 31.21125  2.67525
C 16.94325 29.42775  2.67525
C 16.94325 31.21125  0.89175
C 14.26800 28.53600  3.56700
C 14.26800 30.31950  5.35050
C 16.05150 28.53600  5.35050
C 16.05150 30.31950  3.56700
C 15.15975 29.42775  4.45875
C 15.15975 31.21125  6.24225
C 16.94325 29.42775  6.24225
C 16.94325 31.21125  4.45875
C 14.26800 28.53600  7.13400
C 14.26800 30.31950  8.91750
C 16.05150 28.53600  8.91750
C 16.05150 30.31950  7.13400
C 15.15975 29.42775  8.02575
C 15.15975 31.21125  9.80925
C 16.94325 29.42775  9.80925
C 16.94325 31.21125  8.02575
C 14.26800 28.53600 10.70100
C 14.26800 30.31950 12.48450
C 16.05150 28.53600 12.48450
C 16.05150 30.31950 10.70100
C 15.15975 29.42775 11.59275
C 15.15975 31.21125 13.37625
C 16.94325 29.42775 13.37625
C 16.94325 31.21125 11.59275
C 14.26800 28.53600 14.26800
C 14.26800 30.31950 16.05150
C 16.05150 28.53600 16.05150
C 16.05150 30.31950 14.26800
C 15.15975 29.42775 15.15975
C 15.15975 31.21125 16.94325
C 16.94325 29.42775 16.94325
C 16.94325 31.21125 15.15975
C 14.26800 32.10300  0.00000
C 14.26800 33.88650  1.78350
C 16.05150 32.10300  1.78350
C 16.05150 33.88650  0.00000
C 15.15975 32.99475  0.89175
C 15.15975 34.77825  2.67525
C 16.94325 32.99475  2.67525
C 16.94325 34.77825  0.89175
C 14.26800 32.10300  3.56700
C 14.26800 33.88650  5.35050
C 16.05150 32.10300  5.35050
C 16.05150 33.88650  3.56700
C 15.15975 32.99475  4.45875
C 15.15975 34.77825  6.24225
C 16.94325 32.99475  6.24225
C 16.94325 34.77825  4.45875
C 14.26800 32.10300  7.13400
C 14.26800 33.88650  8.91750
C 16.05150 32.10300  8.91750
C 16.05150 33.88650  7.13400
C 15.15975 32.99475  8.02575
C 15.15975 34.77825  9.80925
C 16.94325 32.99475  9.80925
C 16.94325 34.77825  8.02575
C 14.26800 32.10300 10.70100
C 14.26800 33.88650 12.48450
C 16.05150 32.10300 12.48450
C 16.05150 33.88650 10.70100
C 15.15975 32.99475 11.59275
C 15.15975 34.77825 13.37625
C 16.94325 32.99475 13.37625
C 16.94325 34.77825 11.59275
C 14.26800 32.10300 14.26800
C 14.26800 33.88650 16.05150
C 16.05150 32.10300 16.05150
C 16.05150 33.88650 14.26800
C 15.15975 32.99475 15.15975
C 15.15975 34.77825 16.94325
C 16.94325 32.99475 16.94325
C 16.94325 34.77825 15.15975
N  0.00000 17.83500 17.83500
C  0.00000 19.61850 19.61850
C  1.78350 17.83500 19.61850
C  1.78350 19.61850 17.83500
C  0.89175 18.72675 18.72675
C  0.89175 20.51025 20.51025
C  2.67525 18.72675 20.51025
C  2.67525 20.51025 18.72675
C  0.00000 17.83500 21.40200
C  0.00000 19.61850 23.18550
C  1.78350 17.83500 23.18550
C  1.78350 19.61850 21.40200
C  0.89175 18.72675 22.29375
C  0.89175 20.51025 24.07725
C  2.67525 18.72675 24.07725
C  2.67525 20.51025 22.29375
C  0.00000 17.83500 24.96900
C  0.00000 19.61850 26.75250
C  1.78350 17.83500 26.75250
C  1.78350 19.61850 24.96900
C  0.89175 18.72675 25.86075
C  0.89175 20.51025 27.64425
C  2.67525 18.72675 27.64425
C  2.67525 20.51025 25.86075
C  0.00000 17.83500 28.53600
C  0.00000 19.61850 30.31950
C  1.78350 17.83500 30.31950
C  1.78350 19.61850 28.53600
C  0.89175 18.72675 29.42775
C  0.89175 20.51025 31.21125
C  2.67525 18.72675 31.21125
C  2.67525 20.51025 29.42775
C  0.00000 17.83500 32.10300
C  0.00000 19.61850 33.88650
C  1.78350 17.83500 33.88650
C  1.78350 19.61850 32.10300
C  0.89175 18.72675 32.99475
C  0.89175 20.51025 34.77825
C  2.67525 18.72675 34.77825
C  2.67525 20.51025 32.99475
C  0.00000 21.40200 17.83500
C  0.00000 23.18550 19.61850
C  1.78350 21.40200 19.61850
C  1.78350 23.18550 17.83500
C  0.89175 22.29375 18.72675
C  0.89175 24.07725 20.51025
C  2.67525 22.29375 20.51025
C  2.67525 24.07725 18.72675
C  0.00000 21.40200 21.40200
C  0.00000 23.18550 23.18550
C  1.78350 21.40200 23.18550
C  1.78350 23.18550 21.40200
C  0.89175 22.29375 22.29375
C  0.89175 24.07725 24.07725
C  2.67525 22.29375 24.07725
C  2.67525 24.07725 22.29375
C  0.00000 21.40200 24.96900
C  0.00000 23.18550 26.75250
C  1.78350 21.40200 26.75250
C  1.78350 23.18550 24.96900
C  0.89175 22.29375 25.86075
C  0.89175 24.07725 27.64425
C  2.67525 22.29375 27.64425
C  2.67525 24.07725 25.86075
C  0.00000 21.40200 28.53600
C  0.00000 23.18550 30.31950
C  1.78350 21.40200 30.31950
C  1.78350 23.18550 28.53600
C  0.89175 22.29375 29.42775
C  0.89175 24.07725 31.21125
C  2.67525 22.29375 31.21125
C  2.67525 24.07725 29.42775
C  0.00000 21.40200 32.10300
C  0.00000 23.18550 33.88650
C  1.78350 21.40200 33.88650
C  1.78350 23.18550 32.10300
C  0.89175 22.29375 32.99475
C  0.89175 24.07725 34.77825
C  2.67525 22.29375 34.77825
C  2.67525 24.07725 32.99475
C  0.00000 24.96900 17.83500
C  0.00000 26.75250 19.61850
C  1.78350 24.96900 19.61850
C  1.78350 26.75250 17.83500
C  0.89175 25.86075 18.72675
C  0.89175 27.64425 20.51025
C  2.67525 25.86075 20.51025
C  2.67525 27.64425 18.72675
C  0.00000 24.96900 21.40200
C  0.00000 26.75250 23.18550
C  1.78350 24.96900 23.18550
C  1.78350 26.75250 21.40200
C  0.89175 25.86075 22.29375
C  0.89175 27.64425 24.07725
C  2.67525 25.86075 24.07725
C  2.67525 27.64425 22.29375
C  0.00000 24.96900 24.96900
C  0.00000 26.75250 26.75250
C  1.78350 24.96900 26.75250
C  1.78350 26.75250 24.96900
C  0.89175 25.86075 25.86075
C  0.89175 27.64425 27.64425
C  2.67525 25.86075 27.64425
C  2.67525 27.64425 25.86075
C  0.00000 24.96900 28.53600
C  0.00000 26.75250 30.31950
C  1.78350 24.96900 30.31950
C  1.78350 26.75250 28.53600
C  0.89175 25.86075 29.42775
C  0.89175 27.64425 31.21125
C  2.67525 25.86075 31.21125
C  2.67525 27.64425 29.42775
C  0.00000 24.96900 32.10300
C  0.00000 26.75250 33.88650
C  1.78350 24.96900 33.88650
C  1.78350 26.75250 32.10300
C  0.89175 25.86075 32.99475
C  0.89175 27.64425 34.77825
C  2.67525 25.86075 34.77825
C  2.67525 27.64425 32.99475
C  0.00000 28.53600 17.83500
C  0.00000 30.31950 19.61850
C  1.78350 28.53600 19.61850
C  1.78350 30.31950 17.83500
C  0.89175 29.42775 18.72675
C  0.89175 31.21125 20.51025
C  2.67525 29.42775 20.51025
C  2.67525 31.21125 18.72675
C  0.00000 28.53600 21.40200
C  0.00000 30.31950 23.18550
C  1.78350 28.53600 23.18550
C  1.78350 30.31950 21.40200
C  0.89175 29.42775 22.29375
C  0.89175 31.21125 24.07725
C  2.67525 29.42775 24.07725
C  2.67525 31.21125 22.29375
C  0.00000 28.53600 24.96900
C  0.00000 30.31950 26.75250
C  1.78350 28.53600 26.75250
C  1.78350 30.31950 24.96900
C  0.89175 29.42775 25.86075
C  0.89175 31.21125 27.64425
C  2.67525 29.42775 27.64425
C  2.67525 31.21125 25.86075
C  0.00000 28.53600 28.53600
C  0.00000 30.31950 30.31950
C  1.78350 28.53600 30.31950
C  1.78350 30.31950 28.53600
C  0.89175 29.42775 29.42775
C  0.89175 31.21125 31.21125
C  2.67525 29.42775 31.21125
C  2.67525 31.21125 29.42775
C  0.00000 28.53600 32.10300
C  0.00000 30.31950 33.88650
C  1.78350 28.53600 33.88650
C  1.78350 30.31950 32.10300
C  0.89175 29.42775 32.99475
C  0.89175 31.21125 34.77825
C  2.67525 29.42775 34.77825
C  2.67525 31.21125 32.99475
C  0.00000 32.10300 17.83500
C  0.00000 33.88650 19.61850
C  1.78350 32.10300 19.61850
C  1.78350 33.88650 17.83500
C  0.89175 32.99475 18.72675
C  0.89175 34.77825 20.51025
C  2.67525 32.99475 20.51025
C  2.67525 34.77825 18.72675
C  0.00000 32.10300 21.40200
C  0.00000 33.88650 23.18550
C  1.78350 32.10300 23.18550
C  1.78350 33.88650 21.40200
C  0.89175 32.99475 22.29375
C  0.89175 34.77825 24.07725
C  2.67525 32.99475 24.07725
C  2.67525 34.77825 22.29375
C  0.00000 32.10300 24.96900
C  0.00000 33.88650 26.75250
C  1.78350 32.10300 26.75250
C  1.78350 33.88650 24.96900
C  0.89175 32.99475 25.86075
C  0.89175 34.77825 27.64425
C  2.67525 32.99475 27.64425
C  2.67525 34.77825 25.86075
C  0.00000 32.10300 28.53600
C  0.00000 33.88650 30.31950
C  1.78350 32.10300 30.31950
C  1.78350 33.88650 28.53600
C  0.89175 32.99475 29.42775
C  0.89175 34.77825 31.21125
C  2.67525 32.99475 31.21125
C  2.67525 34.77825 29.42775
C  0.00000 32.10300 32.10300
C  0.00000 33.88650 33.88650
C  1.78350 32.10300 33.88650
C  1.78350 33.88650 32.10300
C  0.89175 32.99475 32.99475
C  0.89175 34.77825 34.77825
C  2.67525 32.99475 34.77825
C  2.67525 34.77825 32.99475
C  3.56700 17.83500 17.83500
C  3.56700 19.61850 19.61850
C  5.35050 17.83500 19.61850
C  5.35050 19.61850 17.83500
C  4.45875 18.72675 18.72675
C  4.45875 20.51025 20.51025
C  6.24225 18.72675 20.51025
C  6.24225 20.51025 18.72675
C  3.56700 17.83500 21.40200
C  3.56700 19.61850 23.18550
C  5.35050 17.83500 23.18550
C  5.35050 19.61850 21.40200
C  4.45875 18.72675 22.29375
C  4.45875 20.51025 24.07725
C  6.24225 18.72675 24.07725
C  6.24225 20.51025 22.29375
C  3.56700 17.83500 24.96900
C  3.56700 19.61850 26.75250
C  5.35050 17.83500 26.75250
C  5.35050 19.61850 24.96900
C  4.45875 18.72675 25.86075
C  4.45875 20.51025 27.64425
C  6.24225 18.72675 27.64425
C  6.24225 20.51025 25.86075
C  3.56700 17.83500 28.53600
C  3.56700 19.61850 30.31950
C  5.35050 17.83500 30.31950
C  5.35050 19.61850 28.53600
C  4.45875 18.72675 29.42775
C  4.45875 20.51025 31.21125
C  6.24225 18.72675 31.21125
C  6.24225 20.51025 29.42775
C  3.56700 17.83500 32.10300
C  3.56700 19.61850 33.88650
C  5.35050 17.83500 33.88650
C  5.35050 19.61850 32.10300
C  4.45875 18.72675 32.99475
C  4.45875 20.51025 34.77825
C  6.24225 18.72675 34.77825
C  6.24225 20.51025 32.99475
C  3.56700 21.40200 17.83500
C  3.56700 23.18550 19.61850
C  5.35050 21.40200 19.61850
C  5.35050 23.18550 17.83500
C  4.45875 22.29375 18.72675
C  4.45875 24.07725 20.51025
C  6.24225 22.29375 20.51025
C  6.24225 24.07725 18.72675
C  3.56700 21.40200 21.40200
C  3.56700 23.18550 23.18550
C  5.35050 21.40200 23.18550
C  5.35050 23.18550 21.40200
C  4.45875 22.29375 22.29375
C  4.45875 24.07725 24.07725
C  6.24225 22.29375 24.07725
C  6.24225 24.07725 22.29375
C  3.56700 21.40200 24.96900
C  3.56700 23.18550 26.75250
C  5.35050 21.40200 26.75250
C  5.35050 23.18550 24.96900
C  4.45875 22.29375 25.86075
C  4.45875 24.07725 27.64425
C  6.24225 22.29375 27.64425
C  6.24225 24.07725 25.86075
C  3.56700 21.40200 28.53600
C  3.56700 23.18550 30.31950
C  5.35050 21.40200 30.31950
C  5.35050 23.18550 28.53600
C  4.45875 22.29375 29.42775
C  4.45875 24.07725 31.21125
C  6.24225 22.29375 31.21125
C  6.24225 24.07725 29.42775
C  3.56700 21.40200 32.10300
C  3.56700 23.18550 33.88650
C  5.35050 21.40200 33.88650
C  5.35050 23.18550 32.10300
C  4.45875 22.29375 32.99475
C  4.45875 24.07725 34.77825
C  6.24225 22.29375 34.77825
C  6.24225 24.07725 32.99475
C  3.56700 24.96900 17.83500
C  3.56700 26.75250 19.61850
C  5.35050 24.96900 19.61850
C  5.35050 26.75250 17.83500
C  4.45875 25.86075 18.72675
C  4.45875 27.64425 20.51025
C  6.24225 25.86075 20.51025
C  6.24225 27.64425 18.72675
C  3.56700 24.96900 21.40200
C  3.56700 26.75250 23.18550
C  5.35050 24.96900 23.18550
C  5.35050 26.75250 21.40200
C  4.45875 25.86075 22.29375
C  4.45875 27.64425 24.07725
C  6.24225 25.86075 24.07725
C  6.24225 27.64425 22.29375
C  3.56700 24.96900 24.96900
C  3.56700 26.75250 26.75250
C  5.35050 24.96900 26.75250
C  5.35050 26.75250 24.96900
C  4.45875 25.86075 25.86075
C  4.45875 27.64425 27.64425
C  6.24225 25.86075 27.64425
C  6.24225 27.64425 25.86075
C  3.56700 24.96900 28.53600
C  3.56700 26.75250 30.31950
C  5.35050 24.96900 30.31950
C  5.35050 26.75250 28.53600
C  4.45875 25.86075 29.42775
C  4.45875 27.64425 31.21125
C  6.24225 25.86075 31.21125
C  6.24225 27.64425 29.42775
C  3.56700 24.96900 32.10300
C  3.56700 26.75250 33.88650
C  5.35050 24.96900 33.88650
C  5.35050 26.75250 32.10300
C  4.45875 25.86075 32.99475
C  4.45875 27.64425 34.77825
C  6.24225 25.86075 34.77825
C  6.24225 27.64425 32.99475
C  3.56700 28.53600 17.83500
C  3.56700 30.31950 19.61850
C  5.35050 28.53600 19.61850
C  5.35050 30.31950 17.83500
C  4.45875 29.42775 18.72675
C  4.45875 31.21125 20.51025
C  6.24225 29.42775 20.51025
C  6.24225 31.21125 18.72675
C  3.56700 28.53600 21.40200
C  3.56700 30.31950 23.18550
C  5.35050 28.53600 23.18550
C  5.35050 30.31950 21.40200
C  4.45875 29.42775 22.29375
C  4.45875 31.21125 24.07725
C  6.24225 29.42775 24.07725
C  6.24225 31.21125 22.29375
C  3.56700 28.53600 24.96900
C  3.56700 30.31950 26.75250
C  5.35050 28.53600 26.75250
C  5.35050 30.31950 24.96900
C  4.45875 29.42775 25.86075
C  4.45875 31.21125 27.64425
C  6.24225 29.42775 27.64425
C  6.24225 31.21125 25.86075
C  3.56700 28.53600 28.53600
C  3.56700 30.31950 30.31950
C  5.35050 28.53600 30.31950
C  5.35050 30.31950 28.53600
C  4.45875 29.42775 29.42775
C  4.45875 31.21125 31.21125
C  6.24225 29.42775 31.21125
C  6.24225 31.21125 29.42775
C  3.56700 28.53600 32.10300
C  3.56700 30.31950 33.88650
C  5.35050 28.53600 33.88650
C  5.35050 30.31950 32.10300
C  4.45875 29.42775 32.99475
C  4.45875 31.21125 34.77825
C  6.24225 29.42775 34.77825
C  6.24225 31.21125 32.99475
C  3.56700 32.10300 17.83500
C  3.56700 33.88650 19.61850
C  5.35050 32.10300 19.61850
C  5.35050 33.88650 17.83500
C  4.45875 32.99475 18.72675
C  4.45875 34.77825 20.51025
C  6.24225 32.99475 20.51025
C  6.24225 34.77825 18.72675
C  3.56700 32.10300 21.40200
C  3.56700 33.88650 23.18550
C  5.35050 32.10300 23.18550
C  5.35050 33.88650 21.40200
C  4.45875 32.99475 22.29375
C  4.45875 34.77825 24.07725
C  6.24225 32.99475 24.07725
C  6.24225 34.77825 22.29375
C  3.56700 32.10300 24.96900
C  3.56700 33.88650 26.75250
C  5.35050 32.10300 26.75250
C  5.35050 33.88650 24.96900
C  4.45875 32.99475 25.86075
C  4.45875 34.77825 27.64425
C  6.24225 32.99475 27.64425
C  6.24225 34.77825 25.86075
C  3.56700 32.10300 28.53600
C  3.56700 33.88650 30.31950
C  5.35050 32.10300 30.31950
C  5.35050 33.88650 28.53600
C  4.45875 32.99475 29.42775
C  4.45875 34.77825 31.21125
C  6.24225 32.99475 31.21125
C  6.24225 34.77825 29.42775
C  3.56700 32.10300 32.10300
C  3.56700 33.88650 33.88650
C  5.35050 32.10300 33.88650
C  5.35050 33.88650 32.10300
C  4.45875 32.99475 32.99475
C  4.45875 34.77825 34.77825
C  6.24225 32.99475 34.77825
C  6.24225 34.77825 32.99475
C  7.13400 17.83500 17.83500
C  7.13400 19.61850 19.61850
C  8.91750 17.83500 19.61850
C  8.91750 19.61850 17.83500
C  8.02575 18.72675 18.72675
C  8.02575 20.51025 20.51025
C  9.80925 18.72675 20.51025
C  9.80925 20.51025 18.72675
C  7.13400 17.83500 21.40200
C  7.13400 19.61850 23.18550
C  8.91750 17.83500 23.18550
C  8.91750 19.61850 21.40200
C  8.02575 18.72675 22.29375
C  8.02575 20.51025 24.07725
C  9.80925 18.72675 24.07725
C  9.80925 20.51025 22.29375
C  7.13400 17.83500 24.96900
C  7.13400 19.61850 26.75250
C  8.91750 17.83500 26.75250
C  8.91750 19.61850 24.96900
C  8.02575 18.72675 25.86075
C  8.02575 20.51025 27.64425
C  9.80925 18.72675 27.64425
C  9.80925 20.51025 25.86075
C  7.13400 17.83500 28.53600
C  7.13400 19.61850 30.31950
C  8.91750 17.83500 30.31950
C  8.91750 19.61850 28.53600
C  8.02575 18.72675 29.42775
C  8.02575 20.51025 31.21125
C  9.80925 18.72675 31.21125
C  9.80925 20.51025 29.42775
C  7.13400 17.83500 32.10300
C  7.13400 19.61850 33.88650
C  8.91750 17.83500 33.88650
C  8.91750 19.61850 32.10300
C  8.02575 18.72675 32.99475
C  8.02575 20.51025 34.77825
C  9.80925 18.72675 34.77825
C  9.80925 20.51025 32.99475
C  7.13400 21.40200 17.83500
C  7.13400 23.18550 19.61850
C  8.91750 21.40200 19.61850
C  8.91750 23.18550 17.83500
C  8.02575 22.29375 18.72675
C  8.02575 24.07725 20.51025
C  9.80925 22.29375 20.51025
C  9.80925 24.07725 18.72675
C  7.13400 21.40200 21.40200
C  7.13400 23.18550 23.18550
C  8.91750 21.40200 23.18550
C  8.91750 23.18550 21.40200
C  8.02575 22.29375 22.29375
C  8.02575 24.07725 24.07725
C  9.80925 22.29375 24.07725
C  9.80925 24.07725 22.29375
C  7.13400 21.40200 24.96900
C  7.13400 23.18550 26.75250
C  8.91750 21.40200 26.75250
C  8.91750 23.18550 24.96900
C  8.02575 22.29375 25.86075
C  8.02575 24.07725 27.64425
C  9.80925 22.29375 27.64425
C  9.80925 24.07725 25.86075
C  7.13400 21.40200 28.53600
C  7.13400 23.18550 30.31950
C  8.91750 21.40200 30.31950
C  8.91750 23.18550 28.53600
C  8.02575 22.29375 29.42775
C  8.02575 24.07725 31.21125
C  9.80925 22.29375 31.21125
C  9.80925 24.07725 29.42775
C  7.13400 21.40200 32.10300
C  7.13400 23.18550 33.88650
C  8.91750 21.40200 33.88650
C  8.91750 23.18550 32.10300
C  8.02575 22.29375 32.99475
C  8.02575 24.07725 34.77825
C  9.80925 22.29375 34.77825
C  9.80925 24.07725 32.99475
C  7.13400 24.96900 17.83500
C  7.13400 26.75250 19.61850
C  8.91750 24.96900 19.61850
C  8.91750 26.75250 17.83500
C  8.02575 25.86075 18.72675
C  8.02575 27.64425 20.51025
C  9.80925 25.86075 20.51025
C  9.80925 27.64425 18.72675
C  7.13400 24.96900 21.40200
C  7.13400 26.75250 23.18550
C  8.91750 24.96900 23.18550
C  8.91750 26.75250 21.40200
C  8.02575 25.86075 22.29375
C  8.02575 27.64425 24.07725
C  9.80925 25.86075 24.07725
C  9.80925 27.64425 22.29375
C  7.13400 24.96900 24.96900
C  7.13400 26.75250 26.75250
C  8.91750 24.96900 26.75250
C  8.91750 26.75250 24.96900
C  8.02575 25.86075 25.86075
C  8.02575 27.64425 27.64425
C  9.80925 25.86075 27.64425
C  9.80925 27.64425 25.86075
C  7.13400 24.96900 28.53600
C  7.13400 26.75250 30.31950
C  8.91750 24.96900 30.31950
C  8.91750 26.75250 28.53600
C  8.02575 25.86075 29.42775
C  8.02575 27.64425 31.21125
C  9.80925 25.86075 31.21125
C  9.80925 27.64425 29.42775
C  7.13400 24.96900 32.10300
C  7.13400 26.75250 33.88650
C  8.91750 24.96900 33.88650
C  8.91750 26.75250 32.10300
C  8.02575 25.86075 32.99475
C  8.02575 27.64425 34.77825
C  9.80925 25.86075 34.77825
C  9.80925 27.64425 32.99475
C  7.13400 28.53600 17.83500
C  7.13400 30.31950 19.61850
C  8.91750 28.53600 19.61850
C  8.91750 30.31950 17.83500
C  8.02575 29.42775 18.72675
C  8.02575 31.21125 20.51025
C  9.80925 29.42775 20.51025
C  9.80925 31.21125 18.72675
C  7.13400 28.53600 21.40200
C  7.13400 30.31950 23.18550
C  8.91750 28.53600 23.18550
C  8.91750 30.31950 21.40200
C  8.02575 29.42775 22.29375
C  8.02575 31.21125 24.07725
C  9.80925 29.42775 24.07725
C  9.80925 31.21125 22.29375
C  7.13400 28.53600 24.96900
C  7.13400 30.31950 26.75250
C  8.91750 28.53600 26.75250
C  8.91750 30.31950 24.96900
C  8.02575 29.42775 25.86075
C  8.02575 31.21125 27.64425
C  9.80925 29.42775 27.64425
C  9.80925 31.21125 25.86075
C  7.13400 28.53600 28.53600
C  7.13400 30.31950 30.31950
C  8.91750 28.53600 30.31950
C  8.91750 30.31950 28.53600
C  8.02575 29.42775 29.42775
C  8.02575 31.21125 31.21125
C  9.80925 29.42775 31.21125
C  9.80925 31.21125 29.42775
C  7.13400 28.53600 32.10300
C  7.13400 30.31950 33.88650
C  8.91750 28.53600 33.88650
C  8.91750 30.31950 32.10300
C  8.02575 29.42775 32.99475
C  8.02575 31.21125 34.77825
C  9.80925 29.42775 34.77825
C  9.80925 31.21125 32.99475
C  7.13400 32.10300 17.83500
C  7.13400 33.88650 19.61850
C  8.91750 32.10300 19.61850
C  8.91750 33.88650 17.83500
C  8.02575 32.99475 18.72675
C  8.02575 34.77825 20.51025
C  9.80925 32.99475 20.51025
C  9.80925 34.77825 18.72675
C  7.13400 32.10300 21.40200
C  7.13400 33.88650 23.18550
C  8.91750 32.10300 23.18550
C  8.91750 33.88650 21.40200
C  8.02575 32.99475 22.29375
C  8.02575 34.77825 24.07725
C  9.80925 32.99475 24.07725
C  9.80925 34.77825 22.29375
C  7.13400 32.10300 24.96900
C  7.13400 33.88650 26.75250
C  8.91750 32.10300 26.75250
C  8.91750 33.88650 24.96900
C  8.02575 32.99475 25.86075
C  8.02575 34.77825 27.64425
C  9.80925 32.99475 27.64425
C  9.80925 34.77825 25.86075
C  7.13400 32.10300 28.53600
C  7.13400 33.88650 30.31950
C  8.91750 32.10300 30.31950
C  8.91750 33.88650 28.53600
C  8.02575 32.99475 29.42775
C  8.02575 34.77825 31.21125
C  9.80925 32.99475 31.21125
C  9.80925 34.77825 29.42775
C  7.13400 32.10300 32.10300
C  7.13400 33.88650 33.88650
C  8.91750 32.10300 33.88650
C  8.91750 33.88650 32.10300
C  8.02575 32.99475 32.99475
C  8.02575 34.77825 34.77825
C  9.80925 32.99475 34.77825
C  9.80925 34.77825 32.99475
C 10.70100 17.83500 17.83500
C 10.70100 19.61850 19.61850
C 12.48450 17.83500 19.61850
C 12.48450 19.61850 17.83500
C 11.59275 18.72675 18.72675
C 11.59275 20.51025 20.51025
C 13.37625 18.72675 20.51025
C 13.37625 20.51025 18.72675
C 10.70100 17.83500 21.40200
C 10.70100 19.61850 23.18550
C 12.48450 17.83500 23.18550
C 12.48450 19.61850 21.40200
C 11.59275 18.72675 22.29375
C 11.59275 20.51025 24.07725
C 13.37625 18.72675 24.07725
C 13.37625 20.51025 22.29375
C 10.70100 17.83500 24.96900
C 10.70100 19.61850 26.75250
C 12.48450 17.83500 26.75250
C 12.48450 19.61850 24.96900
C 11.59275 18.72675 25.86075
C 11.59275 20.51025 27.64425
C 13.37625 18.72675 27.64425
C 13.37625 20.51025 25.86075
C 10.70100 17.83500 28.53600
C 10.70100 19.61850 30.31950
C 12.48450 17.83500 30.31950
C 12.48450 19.61850 28.53600
C 11.59275 18.72675 29.42775
C 11.59275 20.51025 31.21125
C 13.37625 18.72675 31.21125
C 13.37625 20.51025 29.42775
C 10.70100 17.83500 32.10300
C 10.70100 19.61850 33.88650
C 12.48450 17.83500 33.88650
C 12.48450 19.61850 32.10300
C 11.59275 18.72675 32.99475
C 11.59275 20.51025 34.77825
C 13.37625 18.72675 34.77825
C 13.37625 20.51025 32.99475
C 10.70100 21.40200 17.83500
C 10.70100 23.18550 19.61850
C 12.48450 21.40200 19.61850
C 12.48450 23.18550 17.83500
C 11.59275 22.29375 18.72675
C 11.59275 24.07725 20.51025
C 13.37625 22.29375 20.51025
C 13.37625 24.07725 18.72675
C 10.70100 21.40200 21.40200
C 10.70100 23.18550 23.18550
C 12.48450 21.40200 23.18550
C 12.48450 23.18550 21.40200
C 11.59275 22.29375 22.29375
C 11.59275 24.07725 24.07725
C 13.37625 22.29375 24.07725
C 13.37625 24.07725 22.29375
C 10.70100 21.40200 24.96900
C 10.70100 23.18550 26.75250
C 12.48450 21.40200 26.75250
C 12.48450 23.18550 24.96900
C 11.59275 22.29375 25.86075
C 11.59275 24.07725 27.64425
C 13.37625 22.29375 27.64425
C 13.37625 24.07725 25.86075
C 10.70100 21.40200 28.53600
C 10.70100 23.18550 30.31950
C 12.48450 21.40200 30.31950
C 12.48450 23.18550 28.53600
C 11.59275 22.29375 29.42775
C 11.59275 24.07725 31.21125
C 13.37625 22.29375 31.21125
C 13.37625 24.07725 29.42775
C 10.70100 21.40200 32.10300
C 10.70100 23.18550 33.88650
C 12.48450 21.40200 33.88650
C 12.48450 23.18550 32.10300
C 11.59275 22.29375 32.99475
C 11.59275 24.07725 34.77825
C 13.37625 22.29375 34.77825
C 13.37625 24.07725 32.99475
C 10.70100 24.96900 17.83500
C 10.70100 26.75250 19.61850
C 12.48450 24.96900 19.61850
C 12.48450 26.75250 17.83500
C 11.59275 25.86075 18.72675
C 11.59275 27.64425 20.51025
C 13.37625 25.86075 20.51025
C 13.37625 27.64425 18.72675
C 10.70100 24.96900 21.40200
C 10.70100 26.75250 23.18550
C 12.48450 24.96900 23.18550
C 12.48450 26.75250 21.40200
C 11.59275 25.86075 22.29375
C 11.59275 27.64425 24.07725
C 13.37625 25.86075 24.07725
C 13.37625 27.64425 22.29375
C 10.70100 24.96900 24.96900
C 10.70100 26.75250 26.75250
C 12.48450 24.96900 26.75250
C 12.48450 26.75250 24.96900
C 11.59275 25.86075 25.86075
C 11.59275 27.64425 27.64425
C 13.37625 25.86075 27.64425
C 13.37625 27.64425 25.86075
C 10.70100 24.96900 28.53600
C 10.70100 26.75250 30.31950
C 12.48450 24.96900 30.31950
C 12.48450 26.75250 28.53600
C 11.59275 25.86075 29.42775
C 11.59275 27.64425 31.21125
C 13.37625 25.86075 31.21125
C 13.37625 27.64425 29.42775
C 10.70100 24.96900 32.10300
C 10.70100 26.75250 33.88650
C 12.48450 24.96900 33.88650
C 12.48450 26.75250 32.10300
C 11.59275 25.86075 32.99475
C 11.59275 27.64425 34.77825
C 13.37625 25.86075 34.77825
C 13.37625 27.64425 32.99475
C 10.70100 28.53600 17.83500
C 10.70100 30.31950 19.61850
C 12.48450 28.53600 19.61850
C 12.48450 30.31950 17.83500
C 11.59275 29.42775 18.72675
C 11.59275 31.21125 20.51025
C 13.37625 29.42775 20.51025
C 13.37625 31.21125 18.72675
C 10.70100 28.53600 21.40200
C 10.70100 30.31950 23.18550
C 12.48450 28.53600 23.18550
C 12.48450 30.31950 21.40200
C 11.59275 29.42775 22.29375
C 11.59275 31.21125 24.07725
C 13.37625 29.42775 24.07725
C 13.37625 31.21125 22.29375
C 10.70100 28.53600 24.96900
C 10.70100 30.31950 26.75250
C 12.48450 28.53600 26.75250
C 12.48450 30.31950 24.96900
C 11.59275 29.42775 25.86075
C 11.59275 31.21125 27.64425
C 13.37625 29.42775 27.64425
C 13.37625 31.21125 25.86075
C 10.70100 28.53600 28.53600
C 10.70100 30.31950 30.31950
C 12.48450 28.53600 30.31950
C 12.48450 30.31950 28.53600
C 11.59275 29.42775 29.42775
C 11.59275 31.21125 31.21125
C 13.37625 29.42775 31.21125
C 13.37625 31.21125 29.42775
C 10.70100 28.53600 32.10300
C 10.70100 30.31950 33.88650
C 12.48450 28.53600 33.88650
C 12.48450 30.31950 32.10300
C 11.59275 29.42775 32.99475
C 11.59275 31.21125 34.77825
C 13.37625 29.42775 34.77825
C 13.37625 31.21125 32.99475
C 10.70100 32.10300 17.83500
C 10.70100 33.88650 19.61850
C 12.48450 32.10300 19.61850
C 12.48450 33.88650 17.83500
C 11.59275 32.99475 18.72675
C 11.59275 34.77825 20.51025
C 13.37625 32.99475 20.51025
C 13.37625 34.77825 18.72675
C 10.70100 32.10300 21.40200
C 10.70100 33.88650 23.18550
C 12.48450 32.10300 23.18550
C 12.48450 33.88650 21.40200
C 11.59275 32.99475 22.29375
C 11.59275 34.77825 24.07725
C 13.37625 32.99475 24.07725
C 13.37625 34.77825 22.29375
C 10.70100 32.10300 24.96900
C 10.70100 33.88650 26.75250
C 12.48450 32.10300 26.75250
C 12.48450 33.88650 24.96900
C 11.59275 32.99475 25.86075
C 11.59275 34.77825 27.64425
C 13.37625 32.99475 27.64425
C 13.37625 34.77825 25.86075
C 10.70100 32.10300 28.53600
C 10.70100 33.88650 30.31950
C 12.48450 32.10300 30.31950
C 12.48450 33.88650 28.53600
C 11.59275 32.99475 29.42775
C 11.59275 34.77825 31.21125
C 13.37625 32.99475 31.21125
C 13.37625 34.77825 29.42775
C 10.70100 32.10300 32.10300
C 10.70100 33.88650 33.88650
C 12.48450 32.10300 33.88650
C 12.48450 33.88650 32.10300
C 11.59275 32.99475 32.99475
C 11.59275 34.77825 34.77825
C 13.37625 32.99475 34.77825
C 13.37625 34.77825 32.99475
C 14.26800 17.83500 17.83500
C 14.26800 19.61850 19.61850
C 16.05150 17.83500 19.61850
C 16.05150 19.61850 17.83500
C 15.15975 18.72675 18.72675
C 15.15975 20.51025 20.51025
C 16.94325 18.72675 20.51025
C 16.94325 20.51025 18.72675
C 14.26800 17.83500 21.40200
C 14.26800 19.61850 23.18550
C 16.05150 17.83500 23.18550
C 16.05150 19.61850 21.40200
C 15.15975 18.72675 22.29375
C 15.15975 20.51025 24.07725
C 16.94325 18.72675 24.07725
C 16.94325 20.51025 22.29375
C 14.26800 17.83500 24.96900
C 14.26800 19.61850 26.75250
C 16.05150 17.83500 26.75250
C 16.05150 19.61850 24.96900
C 15.15975 18.72675 25.86075
C 15.15975 20.51025 27.64425
C 16.94325 18.72675 27.64425
C 16.94325 20.51025 25.86075
C 14.26800 17.83500 28.53600
C 14.26800 19.61850 30.31950
C 16.05150 17.83500 30.31950
C 16.05150 19.61850 28.53600
C 15.15975 18.72675 29.42775
C 15.15975 20.51025 31.21125
C 16.94325 18.72675 31.21125
C 16.94325 20.51025 29.42775
C 14.26800 17.83500 32.10300
C 14.26800 19.61850 33.88650
C 16.05150 17.83500 33.88650
C 16.05150 19.61850 32.10300
C 15.15975 18.72675 32.99475
C 15.15975 20.51025 34.77825
C 16.94325 18.72675 34.77825
C 16.94325 20.51025 32.99475
C 14.26800 21.40200 17.83500
C 14.26800 23.18550 19.61850
C 16.05150 21.40200 19.61850
C 16.05150 23.18550 17.83500
C 15.15975 22.29375 18.72675
C 15.15975 24.07725 20.51025
C 16.94325 22.29375 20.51025
C 16.94325 24.07725 18.72675
C 14.26800 21.40200 21.40200
C 14.26800 23.18550 23.18550
C 16.05150 21.40200 23.18550
C 16.05150 23.18550 21.40200
C 15.15975 22.29375 22.29375
C 15.15975 24.07725 24.07725
C 16.94325 22.29375 24.07725
C 16.94325 24.07725 22.29375
C 14.26800 21.40200 24.96900
C 14.26800 23.18550 26.75250
C 16.05150 21.40200 26.75250
C 16.05150 23.18550 24.96900
C 15.15975 22.29375 25.86075
C 15.15975 24.07725 27.64425
C 16.94325 22.29375 27.64425
C 16.94325 24.07725 25.86075
C 14.26800 21.40200 28.53600
C 14.26800 23.18550 30.31950
C 16.05150 21.40200 30.31950
C 16.05150 23.18550 28.53600
C 15.15975 22.29375 29.42775
C 15.15975 24.07725 31.21125
C 16.94325 22.29375 31.21125
C 16.94325 24.07725 29.42775
C 14.26800 21.40200 32.10300
C 14.26800 23.18550 33.88650
C 16.05150 21.40200 33.88650
C 16.05150 23.18550 32.10300
C 15.15975 22.29375 32.99475
C 15.15975 24.07725 34.77825
C 16.94325 22.29375 34.77825
C 16.94325 24.07725 32.99475
C 14.26800 24.96900 17.83500
C 14.26800 26.75250 19.61850
C 16.05150 24.96900 19.61850
C 16.05150 26.75250 17.83500
C 15.15975 25.86075 18.72675
C 15.15975 27.64425 20.51025
C 16.94325 25.86075 20.51025
C 16.94325 27.64425 18.72675
C 14.26800 24.96900 21.40200
C 14.26800 26.75250 23.18550
C 16.05150 24.96900 23.18550
C 16.05150 26.75250 21.40200
C 15.15975 25.86075 22.29375
C 15.15975 27.64425 24.07725
C 16.94325 25.86075 24.07725
C 16.94325 27.64425 22.29375
C 14.26800 24.96900 24.96900
C 14.26800 26.75250 26.75250
C 16.05150 24.96900 26.75250
C 16.05150 26.75250 24.96900
C 15.15975 25.86075 25.86075
C 15.15975 27.64425 27.64425
C 16.94325 25.86075 27.64425
C 16.94325 27.64425 25.86075
C 14.26800 24.96900 28.53600
C 14.26800 26.75250 30.31950
C 16.05150 24.96900 30.31950
C 16.05150 26.75250 28.53600
C 15.15975 25.86075 29.42775
C 15.15975 27.64425 31.21125
C 16.94325 25.86075 31.21125
C 16.94325 27.64425 29.42775
C 14.26800 24.96900 32.10300
C 14.26800 26.75250 33.88650
C 16.05150 24.96900 33.88650
C 16.05150 26.75250 32.10300
C 15.15975 25.86075 32.99475
C 15.15975 27.64425 34.77825
C 16.94325 25.86075 34.77825
C 16.94325 27.64425 32.99475
C 14.26800 28.53600 17.83500
C 14.26800 30.31950 19.61850
C 16.05150 28.53600 19.61850
C 16.05150 30.31950 17.83500
C 15.15975 29.42775 18.72675
C 15.15975 31.21125 20.51025
C 16.94325 29.42775 20.51025
C 16.94325 31.21125 18.72675
C 14.26800 28.53600 21.40200
C 14.26800 30.31950 23.18550
C 16.05150 28.53600 23.18550
C 16.05150 30.31950 21.40200
C 15.15975 29.42775 22.29375
C 15.15975 31.21125 24.07725
C 16.94325 29.42775 24.07725
C 16.94325 31.21125 22.29375
C 14.26800 28.53600 24.96900
C 14.26800 30.31950 26.75250
C 16.05150 28.53600 26.75250
C 16.05150 30.31950 24.96900
C 15.15975 29.42775 25.86075
C 15.15975 31.21125 27.64425
C 16.94325 29.42775 27.64425
C 16.94325 31.21125 25.86075
C 14.26800 28.53600 28.53600
C 14.26800 30.31950 30.31950
C 16.05150 28.53600 30.31950
C 16.05150 30.31950 28.53600
C 15.15975 29.42775 29.42775
C 15.15975 31.21125 31.21125
C 16.94325 29.42775 31.21125
C 16.94325 31.21125 29.42775
C 14.26800 28.53600 32.10300
C 14.26800 30.31950 33.88650
C 16.05150 28.53600 33.88650
C 16.05150 30.31950 32.10300
C 15.15975 29.42775 32.99475
C 15.15975 31.21125 34.77825
C 16.94325 29.42775 34.77825
C 16.94325 31.21125 32.99475
C 14.26800 32.10300 17.83500
C 14.26800 33.88650 19.61850
C 16.05150 32.10300 19.61850
C 16.05150 33.88650 17.83500
C 15.15975 32.99475 18.72675
C 15.15975 34.77825 20.51025
C 16.94325 32.99475 20.51025
C 16.94325 34.77825 18.72675
C 14.26800 32.10300 21.40200
C 14.26800 33.88650 23.18550
C 16.05150 32.10300 23.18550
C 16.05150 33.88650 21.40200
C 15.15975 32.99475 22.29375
C 15.15975 34.77825 24.07725
C 16.94325 32.99475 24.07725
C 16.94325 34.77825 22.29375
C 14.26800 32.10300 24.96900
C 14.26800 33.88650 26.75250
C 16.05150 32.10300 26.75250
C 16.05150 33.88650 24.96900
C 15.15975 32.99475 25.86075
C 15.15975 34.77825 27.64425
C 16.94325 32.99475 27.64425
C 16.94325 34.77825 25.86075
C 14.26800 32.10300 28.53600
C 14.26800 33.88650 30.31950
C 16.05150 32.10300 30.31950
C 16.05150 33.88650 28.53600
C 15.15975 32.99475 29.42775
C 15.15975 34.77825 31.21125
C 16.94325 32.99475 31.21125
C 16.94325 34.77825 29.42775
C 14.26800 32.10300 32.10300
C 14.26800 33.88650 33.88650
C 16.05150 32.10300 33.88650
C 16.05150 33.88650 32.10300
C 15.15975 32.99475 32.99475
C 15.15975 34.77825 34.77825
C 16.94325 32.99475 34.77825
C 16.94325 34.77825 32.99475
N 17.83500 -17.83500 -17.83500
C 17.83500 -16.05150 -16.05150
C 19.61850 -17.83500 -16.05150
C 19.61850 -16.05150 -17.83500
C 18.72675 -16.94325 -16.94325
C 18.72675 -15.15975 -15.15975
C 20.51025 -16.94325 -15.15975
C 20.51025 -15.15975 -16.94325
C 17.83500 -17.83500 -14.26800
C 17.83500 -16.05150 -12.48450
C 19.61850 -17.83500 -12.48450
C 19.61850 -16.05150 -14.26800
C 18.72675 -16.94325 -13.37625
C 18.72675 -15.15975 -11.59275
C 20.51025 -16.94325 -11.59275
C 20.51025 -15.15975 -13.37625
C 17.83500 -17.83500 -10.70100
C 17.83500 -16.05150 -8.91750
C 19.61850 -17.83500 -8.91750
C 19.61850 -16.05150 -10.70100
C 18.72675 -16.94325 -9.80925
C 18.72675 -15.15975 -8.02575
C 20.51025 -16.94325 -8.02575
C 20.51025 -15.15975 -9.80925
C 17.83500 -17.83500 -7.13400
C 17.83500 -16.05150 -5.35050
C 19.61850 -17.83500 -5.35050
C 19.61850 -16.05150 -7.13400
C 18.72675 -16.94325 -6.24225
C 18.72675 -15.15975 -4.45875
C 20.51025 -16.94325 -4.45875
C 20.51025 -15.15975 -6.24225
C 17.83500 -17.83500 -3.56700
C 17.83500 -16.05150 -1.78350
C 19.61850 -17.83500 -1.78350
C 19.61850 -16.05150 -3.56700
C 18.72675 -16.94325 -2.67525
C 18.72675 -15.15975 -0.89175
C 20.51025 -16.94325 -0.89175
C 20.51025 -15.15975 -2.67525
C 17.83500 -14.26800 -17.83500
C 17.83500 -12.48450 -16.05150
C 19.61850 -14.26800 -16.05150
C 19.61850 -12.48450 -17.83500
C 18.72675 -13.37625 -16.94325
C 18.72675 -11.59275 -15.15975
C 20.51025 -13.37625 -15.15975
C 20.51025 -11.59275 -16.94325
C 17.83500 -14.26800 -14.26800
C 17.83500 -12.48450 -12.48450
C 19.61850 -14.26800 -12.48450
C 19.61850 -12.48450 -14.26800
C 18.72675 -13.37625 -13.37625
C 18.72675 -11.59275 -11.59275
C 20.51025 -13.37625 -11.59275
C 20.51025 -11.59275 -13.37625
C 17.83500 -14.26800 -10.70100
C 17.83500 -12.48450 -8.91750
C 19.61850 -14.26800 -8.91750
C 19.61850 -12.48450 -10.70100
C 18.72675 -13.37625 -9.80925
C 18.72675 -11.59275 -8.02575
C 20.51025 -13.37625 -8.02575
C 20.51025 -11.59275 -9.80925
C 17.83500 -14.26800 -7.13400
C 17.83500 -12.48450 -5.35050
C 19.61850 -14.26800 -5.35050
C 19.61850 -12.48450 -7.13400
C 18.72675 -13.37625 -6.24225
C 18.72675 -11.59275 -4.45875
C 20.51025 -13.37625 -4.45875
C 20.51025 -11.59275 -6.24225
C 17.83500 -14.26800 -3.56700
C 17.83500 -12.48450 -1.78350
C 19.61850 -14.26800 -1.78350
C 19.61850 -12.48450 -3.56700
C 18.72675 -13.37625 -2.67525
C 18.72675 -11.59275 -0.89175
C 20.51025 -13.37625 -0.89175
C 20.51025 -11.59275 -2.67525
C 17.83500 -10.70100 -17.83500
C 17.83500 -8.91750 -16.05150
C 19.61850 -10.70100 -16.05150
C 19.61850 -8.91750 -17.83500
C 18.72675 -9.80925 -16.94325
C 18.72675 -8.02575 -15.15975
C 20.51025 -9.80925 -15.15975
C 20.51025 -8.02575 -16.94325
C 17.83500 -10.70100 -14.26800
C 17.83500 -8.91750 -12.48450
C 19.61850 -10.70100 -12.48450
C 19.61850 -8.91750 -14.26800
C 18.72675 -9.80925 -13.37625
C 18.72675 -8.02575 -11.59275
C 20.51025 -9.80925 -11.59275
C 20.51025 -8.02575 -13.37625
C 17.83500 -10.70100 -10.70100
C 17.83500 -8.91750 -8.91750
C 19.61850 -10.70100 -8.91750
C 19.61850 -8.91750 -10.70100
C 18.72675 -9.80925 -9.80925
C 18.72675 -8.02575 -8.02575
C 20.51025 -9.80925 -8.02575
C 20.51025 -8.02575 -9.80925
C 17.83500 -10.70100 -7.13400
C 17.83500 -8.91750 -5.35050
C 19.61850 -10.70100 -5.35050
C 19.61850 -8.91750 -7.13400
C 18.72675 -9.80925 -6.24225
C 18.72675 -8.02575 -4.45875
C 20.51025 -9.80925 -4.45875
C 20.51025 -8.02575 -6.24225
C 17.83500 -10.70100 -3.56700
C 17.83500 -8.91750 -1.78350
C 19.61850 -10.70100 -1.78350
C 19.61850 -8.91750 -3.56700
C 18.72675 -9.80925 -2.67525
C 18.72675 -8.02575 -0.89175
C 20.51025 -9.80925 -0.89175
C 20.51025 -8.02575 -2.67525
C 17.83500 -7.13400 -17.83500
C 17.83500 -5.35050 -16.05150
C 19.61850 -7.13400 -16.05150
C 19.61850 -5.35050 -17.83500
C 18.72675 -6.24225 -16.94325
C 18.72675 -4.45875 -15.15975
C 20.51025 -6.24225 -15.15975
C 20.51025 -4.45875 -16.94325
C 17.83500 -7.13400 -14.26800
C 17.83500 -5.35050 -12.48450
C 19.61850 -7.13400 -12.48450
C 19.61850 -5.35050 -14.26800
C 18.72675 -6.24225 -13.37625
C 18.72675 -4.45875 -11.59275
C 20.51025 -6.24225 -11.59275
C 20.51025 -4.45875 -13.37625
C 17.83500 -7.13400 -10.70100
C 17.83500 -5.35050 -8.91750
C 19.61850 -7.13400 -8.91750
C 19.61850 -5.35050 -10.70100
C 18.72675 -6.24225 -9.80925
C 18.72675 -4.45875 -8.02575
C 20.51025 -6.24225 -8.02575
C 20.51025 -4.45875 -9.80925
C 17.83500 -7.13400 -7.13400
C 17.83500 -5.35050 -5.35050
C 19.61850 -7.13400 -5.35050
C 19.61850 -5.35050 -7.13400
C 18.72675 -6.24225 -6.24225
C 18.72675 -4.45875 -4.45875
C 20.51025 -6.24225 -4.45875
C 20.51025 -4.45875 -6.24225
C 17.83500 -7.13400 -3.56700
C 17.83500 -5.35050 -1.78350
C 19.61850 -7.13400 -1.78350
C 19.61850 -5.35050 -3.56700
C 18.72675 -6.24225 -2.67525
C 18.72675 -4.45875 -0.89175
C 20.51025 -6.24225 -0.89175
C 20.51025 -4.45875 -2.67525
C 17.83500 -3.56700 -17.83500
C 17.83500 -1.78350 -16.05150
C 19.61850 -3.56700 -16.05150
C 19.61850 -1.78350 -17.83500
C 18.72675 -2.67525 -16.94325
C 18.72675 -0.89175 -15.15975
C 20.51025 -2.67525 -15.15975
C 20.51025 -0.89175 -16.94325
C 17.83500 -3.56700 -14.26800
C 17.83500 -1.78350 -12.48450
C 19.61850 -3.56700 -12.48450
C 19.61850 -1.78350 -14.26800
C 18.72675 -2.67525 -13.37625
C 18.72675 -0.89175 -11.59275
C 20.51025 -2.67525 -11.59275
C 20.51025 -0.89175 -13.37625
C 17.83500 -3.56700 -10.70100
C 17.83500 -1.78350 -8.91750
C 19.61850 -3.56700 -8.91750
C 19.61850 -1.78350 -10.70100
C 18.72675 -2.67525 -9.80925
C 18.72675 -0.89175 -8.02575
C 20.51025 -2.67525 -8.02575
C 20.51025 -0.89175 -9.80925
C 17.83500 -3.56700 -7.13400
C 17.83500 -1.78350 -5.35050
C 19.61850 -3.56700 -5.35050
C 19.61850 -1.78350 -7.13400
C 18.72675 -2.67525 -6.24225
C 18.72675 -0.89175 -4.45875
C 20.51025 -2.67525 -4.45875
C 20.51025 -0.89175 -6.24225
C 17.83500 -3.56700 -3.56700
C 17.83500 -1.78350 -1.78350
C 19.61850 -3.56700 -1.78350
C 19.61850 -1.78350 -3.56700
C 18.72675 -2.67525 -2.67525
C 18.72675 -0.89175 -0.89175
C 20.51025 -2.67525 -0.89175
C 20.51025 -0.89175 -2.67525
C 21.40200 -17.83500 -17.83500
C 21.40200 -16.05150 -16.05150
C 23.18550 -17.83500 -16.05150
C 23.18550 -16.05150 -17.83500
C 22.29375 -16.94325 -16.94325
C 22.29375 -15.15975 -15.15975
C 24.07725 -16.94325 -15.15975
C 24.07725 -15.15975 -16.94325
C 21.40200 -17.83500 -14.26800
C 21.40200 -16.05150 -12.48450
C 23.18550 -17.83500 -12.48450
C 23.18550 -16.05150 -14.26800
C 22.29375 -16.94325 -13.37625
C 22.29375 -15.15975 -11.59275
C 24.07725 -16.94325 -11.59275
C 24.07725 -15.15975 -13.37625
C 21.40200 -17.83500 -10.70100
C 21.40200 -16.05150 -8.91750
C 23.18550 -17.83500 -8.91750
C 23.18550 -16.05150 -10.70100
C 22.29375 -16.94325 -9.80925
C 22.29375 -15.15975 -8.02575
C 24.07725 -16.94325 -8.02575
C 24.07725 -15.15975 -9.80925
C 21.40200 -17.83500 -7.13400
C 21.40200 -16.05150 -5.35050
C 23.18550 -17.83500 -5.35050
C 23.18550 -16.05150 -7.13400
C 22.29375 -16.94325 -6.24225
C 22.29375 -15.15975 -4.45875
C 24.07725 -16.94325 -4.45875
C 24.07725 -15.15975 -6.24225
C 21.40200 -17.83500 -3.56700
C 21.40200 -16.05150 -1.78350
C 23.18550 -17.83500 -1.78350
C 23.18550 -16.05150 -3.56700
C 22.29375 -16.94325 -2.67525
C 22.29375 -15.15975 -0.89175
C 24.07725 -16.94325 -0.89175
C 24.07725 -15.15975 -2.67525
C 21.40200 -14.26800 -17.83500
C 21.40200 -12.48450 -16.05150
C 23.18550 -14.26800 -16.05150
C 23.18550 -12.48450 -17.83500
C 22.29375 -13.37625 -16.94325
C 22.29375 -11.59275 -15.15975
C 24.07725 -13.37625 -15.15975
C 24.07725 -11.59275 -16.94325
C 21.40200 -14.26800 -14.26800
C 21.40200 -12.48450 -12.48450
C 23.18550 -14.26800 -12.48450
C 23.18550 -12.48450 -14.26800
C 22.29375 -13.37625 -13.37625
C 22.29375 -11.59275 -11.59275
C 24.07725 -13.37625 -11.59275
C 24.07725 -11.59275 -13.37625
C 21.40200 -14.26800 -10.70100
C 21.40200 -12.48450 -8.91750
C 23.18550 -14.26800 -8.91750
C 23.18550 -12.48450 -10.70100
C 22.29375 -13.37625 -9.80925
C 22.29375 -11.59275 -8.02575
C 24.07725 -13.37625 -8.02575
C 24.07725 -11.59275 -9.80925
C 21.40200 -14.26800 -7.13400
C 21.40200 -12.48450 -5.35050
C 23.18550 -14.26800 -5.35050
C 23.18550 -12.48450 -7.13400
C 22.29375 -13.37625 -6.24225
C 22.29375 -11.59275 -4.45875
C 24.07725 -13.37625 -4.45875
C 24.07725 -11.59275 -6.24225
C 21.40200 -14.26800 -3.56700
C 21.40200 -12.48450 -1.78350
C 23.18550 -14.26800 -1.78350
C 23.18550 -12.48450 -3.56700
C 22.29375 -13.37625 -2.67525
C 22.29375 -11.59275 -0.89175
C 24.07725 -13.37625 -0.89175
C 24.07725 -11.59275 -2.67525
C 21.40200 -10.70100 -17.83500
C 21.40200 -8.91750 -16.05150
C 23.18550 -10.70100 -16.05150
C 23.18550 -8.91750 -17.83500
C 22.29375 -9.80925 -16.94325
C 22.29375 -8.02575 -15.15975
C 24.07725 -9.80925 -15.15975
C 24.07725 -8.02575 -16.94325
C 21.40200 -10.70100 -14.26800
C 21.40200 -8.91750 -12.48450
C 23.18550 -10.70100 -12.48450
C 23.18550 -8.91750 -14.26800
C 22.29375 -9.80925 -13.37625
C 22.29375 -8.02575 -11.59275
C 24.07725 -9.80925 -11.59275
C 24.07725 -8.02575 -13.37625
C 21.40200 -10.70100 -10.70100
C 21.40200 -8.91750 -8.91750
C 23.18550 -10.70100 -8.91750
C 23.18550 -8.91750 -10.70100
C 22.29375 -9.80925 -9.80925
C 22.29375 -8.02575 -8.02575
C 24.07725 -9.80925 -8.02575
C 24.07725 -8.02575 -9.80925
C 21.40200 -10.70100 -7.13400
C 21.40200 -8.91750 -5.35050
C 23.18550 -10.70100 -5.35050
C 23.18550 -8.91750 -7.13400
C 22.29375 -9.80925 -6.24225
C 22.29375 -8.02575 -4.45875
C 24.07725 -9.80925 -4.45875
C 24.07725 -8.02575 -6.24225
C 21.40200 -10.70100 -3.56700
C 21.40200 -8.91750 -1.78350
C 23.18550 -10.70100 -1.78350
C 23.18550 -8.91750 -3.56700
C 22.29375 -9.80925 -2.67525
C 22.29375 -8.02575 -0.89175
C 24.07725 -9.80925 -0.89175
C 24.07725 -8.02575 -2.67525
C 21.40200 -7.13400 -17.83500
C 21.40200 -5.35050 -16.05150
C 23.18550 -7.13400 -16.05150
C 23.18550 -5.35050 -17.83500
C 22.29375 -6.24225 -16.94325
C 22.29375 -4.45875 -15.15975
C 24.07725 -6.24225 -15.15975
C 24.07725 -4.45875 -16.94325
C 21.40200 -7.13400 -14.26800
C 21.40200 -5.35050 -12.48450
C 23.18550 -7.13400 -12.48450
C 23.18550 -5.35050 -14.26800
C 22.29375 -6.24225 -13.37625
C 22.29375 -4.45875 -11.59275
C 24.07725 -6.24225 -11.59275
C 24.07725 -4.45875 -13.37625
C 21.40200 -7.13400 -10.70100
C 21.40200 -5.35050 -8.91750
C 23.18550 -7.13400 -8.91750
C 23.18550 -5.35050 -10.70100
C 22.29375 -6.24225 -9.80925
C 22.29375 -4.45875 -8.02575
C 24.07725 -6.24225 -8.02575
C 24.07725 -4.45875 -9.80925
C 21.40200 -7.13400 -7.13400
C 21.40200 -5.35050 -5.35050
C 23.18550 -7.13400 -5.35050
C 23.18550 -5.35050 -7.13400
C 22.29375 -6.24225 -6.24225
C 22.29375 -4.45875 -4.45875
C 24.07725 -6.24225 -4.45875
C 24.07725 -4.45875 -6.24225
C 21.40200 -7.13400 -3.56700
C 21.40200 -5.35050 -1.78350
C 23.18550 -7.13400 -1.78350
C 23.18550 -5.35050 -3.56700
C 22.29375 -6.24225 -2.67525
C 22.29375 -4.45875 -0.89175
C 24.07725 -6.24225 -0.89175
C 24.07725 -4.45875 -2.67525
C 21.40200 -3.56700 -17.83500
C 21.40200 -1.78350 -16.05150
C 23.18550 -3.56700 -16.05150
C 23.18550 -1.78350 -17.83500
C 22.29375 -2.67525 -16.94325
C 22.29375 -0.89175 -15.15975
C 24.07725 -2.67525 -15.15975
C 24.07725 -0.89175 -16.94325
C 21.40200 -3.56700 -14.26800
C 21.40200 -1.78350 -12.48450
C 23.18550 -3.56700 -12.48450
C 23.18550 -1.78350 -14.26800
C 22.29375 -2.67525 -13.37625
C 22.29375 -0.89175 -11.59275
C 24.07725 -2.67525 -11.59275
C 24.07725 -0.89175 -13.37625
C 21.40200 -3.56700 -10.70100
C 21.40200 -1.78350 -8.91750
C 23.18550 -3.56700 -8.91750
C 23.18550 -1.78350 -10.70100
C 22.29375 -2.67525 -9.80925
C 22.29375 -0.89175 -8.02575
C 24.07725 -2.67525 -8.02575
C 24.07725 -0.89175 -9.80925
C 21.40200 -3.56700 -7.13400
C 21.40200 -1.78350 -5.35050
C 23.18550 -3.56700 -5.35050
C 23.18550 -1.78350 -7.13400
C 22.29375 -2.67525 -6.24225
C 22.29375 -0.89175 -4.45875
C 24.07725 -2.67525 -4.45875
C 24.07725 -0.89175 -6.24225
C 21.40200 -3.56700 -3.56700
C 21.40200 -1.78350 -1.78350
C 23.18550 -3.56700 -1.78350
C 23.18550 -1.78350 -3.56700
C 22.29375 -2.67525 -2.67525
C 22.29375 -0.89175 -0.89175
C 24.07725 -2.67525 -0.89175
C 24.07725 -0.89175 -2.67525
C 24.96900 -17.83500 -17.83500
C 24.96900 -16.05150 -16.05150
C 26.75250 -17.83500 -16.05150
C 26.75250 -16.05150 -17.83500
C 25.86075 -16.94325 -16.94325
C 25.86075 -15.15975 -15.15975
C 27.64425 -16.94325 -15.15975
C 27.64425 -15.15975 -16.94325
C 24.96900 -17.83500 -14.26800
C 24.96900 -16.05150 -12.48450
C 26.75250 -17.83500 -12.48450
C 26.75250 -16.05150 -14.26800
C 25.86075 -16.94325 -13.37625
C 25.86075 -15.15975 -11.59275
C 27.64425 -16.94325 -11.59275
C 27.64425 -15.15975 -13.37625
C 24.96900 -17.83500 -10.70100
C 24.96900 -16.05150 -8.91750
C 26.75250 -17.83500 -8.91750
C 26.75250 -16.05150 -10.70100
C 25.86075 -16.94325 -9.80925
C 25.86075 -15.15975 -8.02575
C 27.64425 -16.94325 -8.02575
C 27.64425 -15.15975 -9.80925
C 24.96900 -17.83500 -7.13400
C 24.96900 -16.05150 -5.35050
C 26.75250 -17.83500 -5.35050
C 26.75250 -16.05150 -7.13400
C 25.86075 -16.94325 -6.24225
C 25.86075 -15.15975 -4.45875
C 27.64425 -16.94325 -4.45875
C 27.64425 -15.15975 -6.24225
C 24.96900 -17.83500 -3.56700
C 24.96900 -16.05150 -1.78350
C 26.75250 -17.83500 -1.78350
C 26.75250 -16.05150 -3.56700
C 25.86075 -16.94325 -2.67525
C 25.86075 -15.15975 -0.89175
C 27.64425 -16.94325 -0.89175
C 27.64425 -15.15975 -2.67525
C 24.96900 -14.26800 -17.83500
C 24.96900 -12.48450 -16.05150
C 26.75250 -14.26800 -16.05150
C 26.75250 -12.48450 -17.83500
C 25.86075 -13.37625 -16.94325
C 25.86075 -11.59275 -15.15975
C 27.64425 -13.37625 -15.15975
C 27.64425 -11.59275 -16.94325
C 24.96900 -14.26800 -14.26800
C 24.96900 -12.48450 -12.48450
C 26.75250 -14.26800 -12.48450
C 26.75250 -12.48450 -14.26800
C 25.86075 -13.37625 -13.37625
C 25.86075 -11.59275 -11.59275
C 27.64425 -13.37625 -11.59275
C 27.64425 -11.59275 -13.37625
C 24.96900 -14.26800 -10.70100
C 24.96900 -12.48450 -8.91750
C 26.75250 -14.26800 -8.91750
C 26.75250 -12.48450 -10.70100
C 25.86075 -13.37625 -9.80925
C 25.86075 -11.59275 -8.02575
C 27.64425 -13.37625 -8.02575
C 27.64425 -11.59275 -9.80925
C 24.96900 -14.26800 -7.13400
C 24.96900 -12.48450 -5.35050
C 26.75250 -14.26800 -5.35050
C 26.75250 -12.48450 -7.13400
C 25.86075 -13.37625 -6.24225
C 25.86075 -11.59275 -4.45875
C 27.64425 -13.37625 -4.45875
C 27.64425 -11.59275 -6.24225
C 24.96900 -14.26800 -3.56700
C 24.96900 -12.48450 -1.78350
C 26.75250 -14.26800 -1.78350
C 26.75250 -12.48450 -3.56700
C 25.86075 -13.37625 -2.67525
C 25.86075 -11.59275 -0.89175
C 27.64425 -13.37625 -0.89175
C 27.64425 -11.59275 -2.67525
C 24.96900 -10.70100 -17.83500
C 24.96900 -8.91750 -16.05150
C 26.75250 -10.70100 -16.05150
C 26.75250 -8.91750 -17.83500
C 25.86075 -9.80925 -16.94325
C 25.86075 -8.02575 -15.15975
C 27.64425 -9.80925 -15.15975
C 27.64425 -8.02575 -16.94325
C 24.96900 -10.70100 -14.26800
C 24.96900 -8.91750 -12.48450
C 26.75250 -10.70100 -12.48450
C 26.75250 -8.91750 -14.26800
C 25.86075 -9.80925 -13.37625
C 25.86075 -8.02575 -11.59275
C 27.64425 -9.80925 -11.59275
C 27.64425 -8.02575 -13.37625
C 24.96900 -10.70100 -10.70100
C 24.96900 -8.91750 -8.91750
C 26.75250 -10.70100 -8.91750
C 26.75250 -8.91750 -10.70100
C 25.86075 -9.80925 -9.80925
C 25.86075 -8.02575 -8.02575
C 27.64425 -9.80925 -8.02575
C 27.64425 -8.02575 -9.80925
C 24.96900 -10.70100 -7.13400
C 24.96900 -8.91750 -5.35050
C 26.75250 -10.70100 -5.35050
C 26.75250 -8.91750 -7.13400
C 25.86075 -9.80925 -6.24225
C 25.86075 -8.02575 -4.45875
C 27.64425 -9.80925 -4.45875
C 27.64425 -8.02575 -6.24225
C 24.96900 -10.70100 -3.56700
C 24.96900 -8.91750 -1.78350
C 26.75250 -10.70100 -1.78350
C 26.75250 -8.91750 -3.56700
C 25.86075 -9.80925 -2.67525
C 25.86075 -8.02575 -0.89175
C 27.64425 -9.80925 -0.89175
C 27.64425 -8.02575 -2.67525
C 24.96900 -7.13400 -17.83500
C 24.96900 -5.35050 -16.05150
C 26.75250 -7.13400 -16.05150
C 26.75250 -5.35050 -17.83500
C 25.86075 -6.24225 -16.94325
C 25.86075 -4.45875 -15.15975
C 27.64425 -6.24225 -15.15975
C 27.64425 -4.45875 -16.94325
C 24.96900 -7.13400 -14.26800
C 24.96900 -5.35050 -12.48450
C 26.75250 -7.13400 -12.48450
C 26.75250 -5.35050 -14.26800
C 25.86075 -6.24225 -13.37625
C 25.86075 -4.45875 -11.59275
C 27.64425 -6.24225 -11.59275
C 27.64425 -4.45875 -13.37625
C 24.96900 -7.13400 -10.70100
C 24.96900 -5.35050 -8.91750
C 26.75250 -7.13400 -8.91750
C 26.75250 -5.35050 -10.70100
C 25.86075 -6.24225 -9.80925
C 25.86075 -4.45875 -8.02575
C 27.64425 -6.24225 -8.02575
C 27.64425 -4.45875 -9.80925
C 24.96900 -7.13400 -7.13400
C 24.96900 -5.35050 -5.35050
C 26.75250 -7.13400 -5.35050
C 26.75250 -5.35050 -7.13400
C 25.86075 -6.24225 -6.24225
C 25.86075 -4.45875 -4.45875
C 27.64425 -6.24225 -4.45875
C 27.64425 -4.45875 -6.24225
C 24.96900 -7.13400 -3.56700
C 24.96900 -5.35050 -1.78350
C 26.75250 -7.13400 -1.78350
C 26.75250 -5.35050 -3.56700
C 25.86075 -6.24225 -2.67525
C 25.86075 -4.45875 -0.89175
C 27.64425 -6.24225 -0.89175
C 27.64425 -4.45875 -2.67525
C 24.96900 -3.56700 -17.83500
C 24.96900 -1.78350 -16.05150
C 26.75250 -3.56700 -16.05150
C 26.75250 -1.78350 -17.83500
C 25.86075 -2.67525 -16.94325
C 25.86075 -0.89175 -15.15975
C 27.64425 -2.67525 -15.15975
C 27.64425 -0.89175 -16.94325
C 24.96900 -3.56700 -14.26800
C 24.96900 -1.78350 -12.48450
C 26.75250 -3.56700 -12.48450
C 26.75250 -1.78350 -14.26800
C 25.86075 -2.67525 -13.37625
C 25.86075 -0.89175 -11.59275
C 27.64425 -2.67525 -11.59275
C 27.64425 -0.89175 -13.37625
C 24.96900 -3.56700 -10.70100
C 24.96900 -1.78350 -8.91750
C 26.75250 -3.56700 -8.91750
C 26.75250 -1.78350 -10.70100
C 25.86075 -2.67525 -9.80925
C 25.86075 -0.89175 -8.02575
C 27.64425 -2.67525 -8.02575
C 27.64425 -0.89175 -9.80925
C 24.96900 -3.56700 -7.13400
C 24.96900 -1.78350 -5.35050
C 26.75250 -3.56700 -5.35050
C 26.75250 -1.78350 -7.13400
C 25.86075 -2.67525 -6.24225
C 25.86075 -0.89175 -4.45875
C 27.64425 -2.67525 -4.45875
C 27.64425 -0.89175 -6.24225
C 24.96900 -3.56700 -3.56700
C 24.96900 -1.78350 -1.78350
C 26.75250 -3.56700 -1.78350
C 26.75250 -1.78350 -3.56700
C 25.86075 -2.67525 -2.67525
C 25.86075 -0.89175 -0.89175
C 27.64425 -2.67525 -0.89175
C 27.64425 -0.89175 -2.67525
C 28.53600 -17.83500 -17.83500
C 28.53600 -16.05150 -16.05150
C 30.31950 -17.83500 -16.05150
C 30.31950 -16.05150 -17.83500
C 29.42775 -16.94325 -16.94325
C 29.42775 -15.15975 -15.15975
C 31.21125 -16.94325 -15.15975
C 31.21125 -15.15975 -16.94325
C 28.53600 -17.83500 -14.26800
C 28.53600 -16.05150 -12.48450
C 30.31950 -17.83500 -12.48450
C 30.31950 -16.05150 -14.26800
C 29.42775 -16.94325 -13.37625
C 29.42775 -15.15975 -11.59275
C 31.21125 -16.94325 -11.59275
C 31.21125 -15.15975 -13.37625
C 28.53600 -17.83500 -10.70100
C 28.53600 -16.05150 -8.91750
C 30.31950 -17.83500 -8.91750
C 30.31950 -16.05150 -10.70100
C 29.42775 -16.94325 -9.80925
C 29.42775 -15.15975 -8.02575
C 31.21125 -16.94325 -8.02575
C 31.21125 -15.15975 -9.80925
C 28.53600 -17.83500 -7.13400
C 28.53600 -16.05150 -5.35050
C 30.31950 -17.83500 -5.35050
C 30.31950 -16.05150 -7.13400
C 29.42775 -16.94325 -6.24225
C 29.42775 -15.15975 -4.45875
C 31.21125 -16.94325 -4.45875
C 31.21125 -15.15975 -6.24225
C 28.53600 -17.83500 -3.56700
C 28.53600 -16.05150 -1.78350
C 30.31950 -17.83500 -1.78350
C 30.31950 -16.05150 -3.56700
C 29.42775 -16.94325 -2.67525
C 29.42775 -15.15975 -0.89175
C 31.21125 -16.94325 -0.89175
C 31.21125 -15.15975 -2.67525
C 28.53600 -14.26800 -17.83500
C 28.53600 -12.48450 -16.05150
C 30.31950 -14.26800 -16.05150
C 30.31950 -12.48450 -17.83500
C 29.42775 -13.37625 -16.94325
C 29.42775 -11.59275 -15.15975
C 31.21125 -13.37625 -15.15975
C 31.21125 -11.59275 -16.94325
C 28.53600 -14.26800 -14.26800
C 28.53600 -12.48450 -12.48450
C 30.31950 -14.26800 -12.48450
C 30.31950 -12.48450 -14.26800
C 29.42775 -13.37625 -13.37625
C 29.42775 -11.59275 -11.59275
C 31.21125 -13.37625 -11.59275
C 31.21125 -11.59275 -13.37625
C 28.53600 -14.26800 -10.70100
C 28.53600 -12.48450 -8.91750
C 30.31950 -14.26800 -8.91750
C 30.31950 -12.48450 -10.70100
C 29.42775 -13.37625 -9.80925
C 29.42775 -11.59275 -8.02575
C 31.21125 -13.37625 -8.02575
C 31.21125 -11.59275 -9.80925
C 28.53600 -14.26800 -7.13400
C 28.53600 -12.48450 -5.35050
C 30.31950 -14.26800 -5.35050
C 30.31950 -12.48450 -7.13400
C 29.42775 -13.37625 -6.24225
C 29.42775 -11.59275 -4.45875
C 31.21125 -13.37625 -4.45875
C 31.21125 -11.59275 -6.24225
C 28.53600 -14.26800 -3.56700
C 28.53600 -12.48450 -1.78350
C 30.31950 -14.26800 -1.78350
C 30.31950 -12.48450 -3.56700
C 29.42775 -13.37625 -2.67525
C 29.42775 -11.59275 -0.89175
C 31.21125 -13.37625 -0.89175
C 31.21125 -11.59275 -2.67525
C 28.53600 -10.70100 -17.83500
C 28.53600 -8.91750 -16.05150
C 30.31950 -10.70100 -16.05150
C 30.31950 -8.91750 -17.83500
C 29.42775 -9.80925 -16.94325
C 29.42775 -8.02575 -15.15975
C 31.21125 -9.80925 -15.15975
C 31.21125 -8.02575 -16.94325
C 28.53600 -10.70100 -14.26800
C 28.53600 -8.91750 -12.48450
C 30.31950 -10.70100 -12.48450
C 30.31950 -8.91750 -14.26800
C 29.42775 -9.80925 -13.37625
C 29.42775 -8.02575 -11.59275
C 31.21125 -9.80925 -11.59275
C 31.21125 -8.02575 -13.37625
C 28.53600 -10.70100 -10.70100
C 28.53600 -8.91750 -8.91750
C 30.31950 -10.70100 -8.91750
C 30.31950 -8.91750 -10.70100
C 29.42775 -9.80925 -9.80925
C 29.42775 -8.02575 -8.02575
C 31.21125 -9.80925 -8.02575
C 31.21125 -8.02575 -9.80925
C 28.53600 -10.70100 -7.13400
C 28.53600 -8.91750 -5.35050
C 30.31950 -10.70100 -5.35050
C 30.31950 -8.91750 -7.13400
C 29.42775 -9.80925 -6.24225
C 29.42775 -8.02575 -4.45875
C 31.21125 -9.80925 -4.45875
C 31.21125 -8.02575 -6.24225
C 28.53600 -10.70100 -3.56700
C 28.53600 -8.91750 -1.78350
C 30.31950 -10.70100 -1.78350
C 30.31950 -8.91750 -3.56700
C 29.42775 -9.80925 -2.67525
C 29.42775 -8.02575 -0.89175
C 31.21125 -9.80925 -0.89175
C 31.21125 -8.02575 -2.67525
C 28.53600 -7.13400 -17.83500
C 28.53600 -5.35050 -16.05150
C 30.31950 -7.13400 -16.05150
C 30.31950 -5.35050 -17.83500
C 29.42775 -6.24225 -16.94325
C 29.42775 -4.45875 -15.15975
C 31.21125 -6.24225 -15.15975
C 31.21125 -4.45875 -16.94325
C 28.53600 -7.13400 -14.26800
C 28.53600 -5.35050 -12.48450
C 30.31950 -7.13400 -12.48450
C 30.31950 -5.35050 -14.26800
C 29.42775 -6.24225 -13.37625
C 29.42775 -4.45875 -11.59275
C 31.21125 -6.24225 -11.59275
C 31.21125 -4.45875 -13.37625
C 28.53600 -7.13400 -10.70100
C 28.53600 -5.35050 -8.91750
C 30.31950 -7.13400 -8.91750
C 30.31950 -5.35050 -10.70100
C 29.42775 -6.24225 -9.80925
C 29.42775 -4.45875 -8.02575
C 31.21125 -6.24225 -8.02575
C 31.21125 -4.45875 -9.80925
C 28.53600 -7.13400 -7.13400
C 28.53600 -5.35050 -5.35050
C 30.31950 -7.13400 -5.35050
C 30.31950 -5.35050 -7.13400
C 29.42775 -6.24225 -6.24225
C 29.42775 -4.45875 -4.45875
C 31.21125 -6.24225 -4.45875
C 31.21125 -4.45875 -6.24225
C 28.53600 -7.13400 -3.56700
C 28.53600 -5.35050 -1.78350
C 30.31950 -7.13400 -1.78350
C 30.31950 -5.35050 -3.56700
C 29.42775 -6.24225 -2.67525
C 29.42775 -4.45875 -0.89175
C 31.21125 -6.24225 -0.89175
C 31.21125 -4.45875 -2.67525
C 28.53600 -3.56700 -17.83500
C 28.53600 -1.78350 -16.05150
C 30.31950 -3.56700 -16.05150
C 30.31950 -1.78350 -17.83500
C 29.42775 -2.67525 -16.94325
C 29.42775 -0.89175 -15.15975
C 31.21125 -2.67525 -15.15975
C 31.21125 -0.89175 -16.94325
C 28.53600 -3.56700 -14.26800
C 28.53600 -1.78350 -12.48450
C 30.31950 -3.56700 -12.48450
C 30.31950 -1.78350 -14.26800
C 29.42775 -2.67525 -13.37625
C 29.42775 -0.89175 -11.59275
C 31.21125 -2.67525 -11.59275
C 31.21125 -0.89175 -13.37625
C 28.53600 -3.56700 -10.70100
C 28.53600 -1.78350 -8.91750
C 30.31950 -3.56700 -8.91750
C 30.31950 -1.78350 -10.70100
C 29.42775 -2.67525 -9.80925
C 29.42775 -0.89175 -8.02575
C 31.21125 -2.67525 -8.02575
C 31.21125 -0.89175 -9.80925
C 28.53600 -3.56700 -7.13400
C 28.53600 -1.78350 -5.35050
C 30.31950 -3.56700 -5.35050
C 30.31950 -1.78350 -7.13400
C 29.42775 -2.67525 -6.24225
C 29.42775 -0.89175 -4.45875
C 31.21125 -2.67525 -4.45875
C 31.21125 -0.89175 -6.24225
C 28.53600 -3.56700 -3.56700
C 28.53600 -1.78350 -1.78350
C 30.31950 -3.56700 -1.78350
C 30.31950 -1.78350 -3.56700
C 29.42775 -2.67525 -2.67525
C 29.42775 -0.89175 -0.89175
C 31.21125 -2.67525 -0.89175
C 31.21125 -0.89175 -2.67525
C 32.10300 -17.83500 -17.83500
C 32.10300 -16.05150 -16.05150
C 33.88650 -17.83500 -16.05150
C 33.88650 -16.05150 -17.83500
C 32.99475 -16.94325 -16.94325
C 32.99475 -15.15975 -15.15975
C 34.77825 -16.94325 -15.15975
C 34.77825 -15.15975 -16.94325
C 32.10300 -17.83500 -14.26800
C 32.10300 -16.05150 -12.48450
C 33.88650 -17.83500 -12.48450
C 33.88650 -16.05150 -14.26800
C 32.99475 -16.94325 -13.37625
C 32.99475 -15.15975 -11.59275
C 34.77825 -16.94325 -11.59275
C 34.77825 -15.15975 -13.37625
C 32.10300 -17.83500 -10.70100
C 32.10300 -16.05150 -8.91750
C 33.88650 -17.83500 -8.91750
C 33.88650 -16.05150 -10.70100
C 32.99475 -16.94325 -9.80925
C 32.99475 -15.15975 -8.02575
C 34.77825 -16.94325 -8.02575
C 34.77825 -15.15975 -9.80925
C 32.10300 -17.83500 -7.13400
C 32.10300 -16.05150 -5.35050
C 33.88650 -17.83500 -5.35050
C 33.88650 -16.05150 -7.13400
C 32.99475 -16.94325 -6.24225
C 32.99475 -15.15975 -4.45875
C 34.77825 -16.94325 -4.45875
C 34.77825 -15.15975 -6.24225
C 32.10300 -17.83500 -3.56700
C 32.10300 -16.05150 -1.78350
C 33.88650 -17.83500 -1.78350
C 33.88650 -16.05150 -3.56700
C 32.99475 -16.94325 -2.67525
C 32.99475 -15.15975 -0.89175
C 34.77825 -16.94325 -0.89175
C 34.77825 -15.15975 -2.67525
C 32.10300 -14.26800 -17.83500
C 32.10300 -12.48450 -16.05150
C 33.88650 -14.26800 -16.05150
C 33.88650 -12.48450 -17.83500
C 32.99475 -13.37625 -16.94325
C 32.99475 -11.59275 -15.15975
C 34.77825 -13.37625 -15.15975
C 34.77825 -11.59275 -16.94325
C 32.10300 -14.26800 -14.26800
C 32.10300 -12.48450 -12.48450
C 33.88650 -14.26800 -12.48450
C 33.88650 -12.48450 -14.26800
C 32.99475 -13.37625 -13.37625
C 32.99475 -11.59275 -11.59275
C 34.77825 -13.37625 -11.59275
C 34.77825 -11.59275 -13.37625
C 32.10300 -14.26800 -10.70100
C 32.10300 -12.48450 -8.91750
C 33.88650 -14.26800 -8.91750
C 33.88650 -12.48450 -10.70100
C 32.99475 -13.37625 -9.80925
C 32.99475 -11.59275 -8.02575
C 34.77825 -13.37625 -8.02575
C 34.77825 -11.59275 -9.80925
C 32.10300 -14.26800 -7.13400
C 32.10300 -12.48450 -5.35050
C 33.88650 -14.26800 -5.35050
C 33.88650 -12.48450 -7.13400
C 32.99475 -13.37625 -6.24225
C 32.99475 -11.59275 -4.45875
C 34.77825 -13.37625 -4.45875
C 34.77825 -11.59275 -6.24225
C 32.10300 -14.26800 -3.56700
C 32.10300 -12.48450 -1.78350
C 33.88650 -14.26800 -1.78350
C 33.88650 -12.48450 -3.56700
C 32.99475 -13.37625 -2.67525
C 32.99475 -11.59275 -0.89175
C 34.77825 -13.37625 -0.89175
C 34.77825 -11.59275 -2.67525
C 32.10300 -10.70100 -17.83500
C 32.10300 -8.91750 -16.05150
C 33.88650 -10.70100 -16.05150
C 33.88650 -8.91750 -17.83500
C 32.99475 -9.80925 -16.94325
C 32.99475 -8.02575 -15.15975
C 34.77825 -9.80925 -15.15975
C 34.77825 -8.02575 -16.94325
C 32.10300 -10.70100 -14.26800
C 32.10300 -8.91750 -12.48450
C 33.88650 -10.70100 -12.48450
C 33.88650 -8.91750 -14.26800
C 32.99475 -9.80925 -13.37625
C 32.99475 -8.02575 -11.59275
C 34.77825 -9.80925 -11.59275
C 34.77825 -8.02575 -13.37625
C 32.10300 -10.70100 -10.70100
C 32.10300 -8.91750 -8.91750
C 33.88650 -10.70100 -8.91750
C 33.88650 -8.91750 -10.70100
C 32.99475 -9.80925 -9.80925
C 32.99475 -8.02575 -8.02575
C 34.77825 -9.80925 -8.02575
C 34.77825 -8.02575 -9.80925
C 32.10300 -10.70100 -7.13400
C 32.10300 -8.91750 -5.35050
C 33.88650 -10.70100 -5.35050
C 33.88650 -8.91750 -7.13400
C 32.99475 -9.80925 -6.24225
C 32.99475 -8.02575 -4.45875
C 34.77825 -9.80925 -4.45875
C 34.77825 -8.02575 -6.24225
C 32.10300 -10.70100 -3.56700
C 32.10300 -8.91750 -1.78350
C 33.88650 -10.70100 -1.78350
C 33.88650 -8.91750 -3.56700
C 32.99475 -9.80925 -2.67525
C 32.99475 -8.02575 -0.89175
C 34.77825 -9.80925 -0.89175
C 34.77825 -8.02575 -2.67525
C 32.10300 -7.13400 -17.83500
C 32.10300 -5.35050 -16.05150
C 33.88650 -7.13400 -16.05150
C 33.88650 -5.35050 -17.83500
C 32.99475 -6.24225 -16.94325
C 32.99475 -4.45875 -15.15975
C 34.77825 -6.24225 -15.15975
C 34.77825 -4.45875 -16.94325
C 32.10300 -7.13400 -14.26800
C 32.10300 -5.35050 -12.48450
C 33.88650 -7.13400 -12.48450
C 33.88650 -5.35050 -14.26800
C 32.99475 -6.24225 -13.37625
C 32.99475 -4.45875 -11.59275
C 34.77825 -6.24225 -11.59275
C 34.77825 -4.45875 -13.37625
C 32.10300 -7.13400 -10.70100
C 32.10300 -5.35050 -8.91750
C 33.88650 -7.13400 -8.91750
C 33.88650 -5.35050 -10.70100
C 32.99475 -6.24225 -9.80925
C 32.99475 -4.45875 -8.02575
C 34.77825 -6.24225 -8.02575
C 34.77825 -4.45875 -9.80925
C 32.10300 -7.13400 -7.13400
C 32.10300 -5.35050 -5.35050
C 33.88650 -7.13400 -5.35050
C 33.88650 -5.35050 -7.13400
C 32.99475 -6.24225 -6.24225
C 32.99475 -4.45875 -4.45875
C 34.77825 -6.24225 -4.45875
C 34.77825 -4.45875 -6.24225
C 32.10300 -7.13400 -3.56700
C 32.10300 -5.35050 -1.78350
C 33.88650 -7.13400 -1.78350
C 33.88650 -5.35050 -3.56700
C 32.99475 -6.24225 -2.67525
C 32.99475 -4.45875 -0.89175
C 34.77825 -6.24225 -0.89175
C 34.77825 -4.45875 -2.67525
C 32.10300 -3.56700 -17.83500
C 32.10300 -1.78350 -16.05150
C 33.88650 -3.56700 -16.05150
C 33.88650 -1.78350 -17.83500
C 32.99475 -2.67525 -16.94325
C 32.99475 -0.89175 -15.15975
C 34.77825 -2.67525 -15.15975
C 34.77825 -0.89175 -16.94325
C 32.10300 -3.56700 -14.26800
C 32.10300 -1.78350 -12.48450
C 33.88650 -3.56700 -12.48450
C 33.88650 -1.78350 -14.26800
C 32.99475 -2.67525 -13.37625
C 32.99475 -0.89175 -11.59275
C 34.77825 -2.67525 -11.59275
C 34.77825 -0.89175 -13.37625
C 32.10300 -3.56700 -10.70100
C 32.10300 -1.78350 -8.91750
C 33.88650 -3.56700 -8.91750
C 33.88650 -1.78350 -10.70100
C 32.99475 -2.67525 -9.80925
C 32.99475 -0.89175 -8.02575
C 34.77825 -2.67525 -8.02575
C 34.77825 -0.89175 -9.80925
C 32.10300 -3.56700 -7.13400
C 32.10300 -1.78350 -5.35050
C 33.88650 -3.56700 -5.35050
C 33.88650 -1.78350 -7.13400
C 32.99475 -2.67525 -6.24225
C 32.99475 -0.89175 -4.45875
C 34.77825 -2.67525 -4.45875
C 34.77825 -0.89175 -6.24225
C 32.10300 -3.56700 -3.56700
C 32.10300 -1.78350 -1.78350
C 33.88650 -3.56700 -1.78350
C 33.88650 -1.78350 -3.56700
C 32.99475 -2.67525 -2.67525
C 32.99475 -0.89175 -0.89175
C 34.77825 -2.67525 -0.89175
C 34.77825 -0.89175 -2.67525
N 17.83500 -17.83500  0.00000
C 17.83500 -16.05150  1.78350
C 19.61850 -17.83500  1.78350
C 19.61850 -16.05150  0.00000
C 18.72675 -16.94325  0.89175
C 18.72675 -15.15975  2.67525
C 20.51025 -16.94325  2.67525
C 20.51025 -15.15975  0.89175
C 17.83500 -17.83500  3.56700
C 17.83500 -16.05150  5.35050
C 19.61850 -17.83500  5.35050
C 19.61850 -16.05150  3.56700
C 18.72675 -16.94325  4.45875
C 18.72675 -15.15975  6.24225
C 20.51025 -16.94325  6.24225
C 20.51025 -15.15975  4.45875
C 17.83500 -17.83500  7.13400
C 17.83500 -16.05150  8.91750
C 19.61850 -17.83500  8.91750
C 19.61850 -16.05150  7.13400
C 18.72675 -16.94325  8.02575
C 18.72675 -15.15975  9.80925
C 20.51025 -16.94325  9.80925
C 20.51025 -15.15975  8.02575
C 17.83500 -17.83500 10.70100
C 17.83500 -16.05150 12.48450
C 19.61850 -17.83500 12.48450
C 19.61850 -16.05150 10.70100
C 18.72675 -16.94325 11.59275
C 18.72675 -15.15975 13.37625
C 20.51025 -16.94325 13.37625
C 20.51025 -15.15975 11.59275
C 17.83500 -17.83500 14.26800
C 17.83500 -16.05150 16.05150
C 19.61850 -17.83500 16.05150
C 19.61850 -16.05150 14.26800
C 18.72675 -16.94325 15.15975
C 18.72675 -15.15975 16.94325
C 20.51025 -16.94325 16.94325
C 20.51025 -15.15975 15.15975
C 17.83500 -14.26800  0.00000
C 17.83500 -12.48450  1.78350
C 19.61850 -14.26800  1.78350
C 19.61850 -12.48450  0.00000
C 18.72675 -13.37625  0.89175
C 18.72675 -11.59275  2.67525
C 20.51025 -13.37625  2.67525
C 20.51025 -11.59275  0.89175
C 17.83500 -14.26800  3.56700
C 17.83500 -12.48450  5.35050
C 19.61850 -14.26800  5.35050
C 19.61850 -12.48450  3.56700
C 18.72675 -13.37625  4.45875
C 18.72675 -11.59275  6.24225
C 20.51025 -13.37625  6.24225
C 20.51025 -11.59275  4.45875
C 17.83500 -14.26800  7.13400
C 17.83500 -12.48450  8.91750
C 19.61850 -14.26800  8.91750
C 19.61850 -12.48450  7.13400
C 18.72675 -13.37625  8.02575
C 18.72675 -11.59275  9.80925
C 20.51025 -13.37625  9.80925
C 20.51025 -11.59275  8.02575
C 17.83500 -14.26800 10.70100
C 17.83500 -12.48450 12.48450
C 19.61850 -14.26800 12.48450
C 19.61850 -12.48450 10.70100
C 18.72675 -13.37625 11.59275
C 18.72675 -11.59275 13.37625
C 20.51025 -13.37625 13.37625
C 20.51025 -11.59275 11.59275
C 17.83500 -14.26800 14.26800
C 17.83500 -12.48450 16.05150
C 19.61850 -14.26800 16.05150
C 19.61850 -12.48450 14.26800
C 18.72675 -13.37625 15.15975
C 18.72675 -11.59275 16.94325
C 20.51025 -13.37625 16.94325
C 20.51025 -11.59275 15.15975
C 17.83500 -10.70100  0.00000
C 17.83500 -8.91750  1.78350
C 19.61850 -10.70100  1.78350
C 19.61850 -8.91750  0.00000
C 18.72675 -9.80925  0.89175
C 18.72675 -8.02575  2.67525
C 20.51025 -9.80925  2.67525
C 20.51025 -8.02575  0.89175
C 17.83500 -10.70100  3.56700
C 17.83500 -8.91750  5.35050
C 19.61850 -10.70100  5.35050
C 19.61850 -8.91750  3.56700
C 18.72675 -9.80925  4.45875
C 18.72675 -8.02575  6.24225
C 20.51025 -9.80925  6.24225
C 20.51025 -8.02575  4.45875
C 17.83500 -10.70100  7.13400
C 17.83500 -8.91750  8.91750
C 19.61850 -10.70100  8.91750
C 19.61850 -8.91750  7.13400
C 18.72675 -9.80925  8.02575
C 18.72675 -8.02575  9.80925
C 20.51025 -9.80925  9.80925
C 20.51025 -8.02575  8.02575
C 17.83500 -10.70100 10.70100
C 17.83500 -8.91750 12.48450
C 19.61850 -10.70100 12.48450
C 19.61850 -8.91750 10.70100
C 18.72675 -9.80925 11.59275
C 18.72675 -8.02575 13.37625
C 20.51025 -9.80925 13.37625
C 20.51025 -8.02575 11.59275
C 17.83500 -10.70100 14.26800
C 17.83500 -8.91750 16.05150
C 19.61850 -10.70100 16.05150
C 19.61850 -8.91750 14.26800
C 18.72675 -9.80925 15.15975
C 18.72675 -8.02575 16.94325
C 20.51025 -9.80925 16.94325
C 20.51025 -8.02575 15.15975
C 17.83500 -7.13400  0.00000
C 17.83500 -5.35050  1.78350
C 19.61850 -7.13400  1.78350
C 19.61850 -5.35050  0.00000
C 18.72675 -6.24225  0.89175
C 18.72675 -4.45875  2.67525
C 20.51025 -6.24225  2.67525
C 20.51025 -4.45875  0.89175
C 17.83500 -7.13400  3.56700
C 17.83500 -5.35050  5.35050
C 19.61850 -7.13400  5.35050
C 19.61850 -5.35050  3.56700
C 18.72675 -6.24225  4.45875
C 18.72675 -4.45875  6.24225
C 20.51025 -6.24225  6.24225
C 20.51025 -4.45875  4.45875
C 17.83500 -7.13400  7.13400
C 17.83500 -5.35050  8.91750
C 19.61850 -7.13400  8.91750
C 19.61850 -5.35050  7.13400
C 18.72675 -6.24225  8.02575
C 18.72675 -4.45875  9.80925
C 20.51025 -6.24225  9.80925
C 20.51025 -4.45875  8.02575
C 17.83500 -7.13400 10.70100
C 17.83500 -5.35050 12.48450
C 19.61850 -7.13400 12.48450
C 19.61850 -5.35050 10.70100
C 18.72675 -6.24225 11.59275
C 18.72675 -4.45875 13.37625
C 20.51025 -6.24225 13.37625
C 20.51025 -4.45875 11.59275
C 17.83500 -7.13400 14.26800
C 17.83500 -5.35050 16.05150
C 19.61850 -7.13400 16.05150
C 19.61850 -5.35050 14.26800
C 18.72675 -6.24225 15.15975
C 18.72675 -4.45875 16.94325
C 20.51025 -6.24225 16.94325
C 20.51025 -4.45875 15.15975
C 17.83500 -3.56700  0.00000
C 17.83500 -1.78350  1.78350
C 19.61850 -3.56700  1.78350
C 19.61850 -1.78350  0.00000
C 18.72675 -2.67525  0.89175
C 18.72675 -0.89175  2.67525
C 20.51025 -2.67525  2.67525
C 20.51025 -0.89175  0.89175
C 17.83500 -3.56700  3.56700
C 17.83500 -1.78350  5.35050
C 19.61850 -3.56700  5.35050
C 19.61850 -1.78350  3.56700
C 18.72675 -2.67525  4.45875
C 18.72675 -0.89175  6.24225
C 20.51025 -2.67525  6.24225
C 20.51025 -0.89175  4.45875
C 17.83500 -3.56700  7.13400
C 17.83500 -1.78350  8.91750
C 19.61850 -3.56700  8.91750
C 19.61850 -1.78350  7.13400
C 18.72675 -2.67525  8.02575
C 18.72675 -0.89175  9.80925
C 20.51025 -2.67525  9.80925
C 20.51025 -0.89175  8.02575
C 17.83500 -3.56700 10.70100
C 17.83500 -1.78350 12.48450
C 19.61850 -3.56700 12.48450
C 19.61850 -1.78350 10.70100
C 18.72675 -2.67525 11.59275
C 18.72675 -0.89175 13.37625
C 20.51025 -2.67525 13.37625
C 20.51025 -0.89175 11.59275
C 17.83500 -3.56700 14.26800
C 17.83500 -1.78350 16.05150
C 19.61850 -3.56700 16.05150
C 19.61850 -1.78350 14.26800
C 18.72675 -2.67525 15.15975
C 18.72675 -0.89175 16.94325
C 20.51025 -2.67525 16.94325
C 20.51025 -0.89175 15.15975
C 21.40200 -17.83500  0.00000
C 21.40200 -16.05150  1.78350
C 23.18550 -17.83500  1.78350
C 23.18550 -16.05150  0.00000
C 22.29375 -16.94325  0.89175
C 22.29375 -15.15975  2.67525
C 24.07725 -16.94325  2.67525
C 24.07725 -15.15975  0.89175
C 21.40200 -17.83500  3.56700
C 21.40200 -16.05150  5.35050
C 23.18550 -17.83500  5.35050
C 23.18550 -16.05150  3.56700
C 22.29375 -16.94325  4.45875
C 22.29375 -15.15975  6.24225
C 24.07725 -16.94325  6.24225
C 24.07725 -15.15975  4.45875
C 21.40200 -17.83500  7.13400
C 21.40200 -16.05150  8.91750
C 23.18550 -17.83500  8.91750
C 23.18550 -16.05150  7.13400
C 22.29375 -16.94325  8.02575
C 22.29375 -15.15975  9.80925
C 24.07725 -16.94325  9.80925
C 24.07725 -15.15975  8.02575
C 21.40200 -17.83500 10.70100
C 21.40200 -16.05150 12.48450
C 23.18550 -17.83500 12.48450
C 23.18550 -16.05150 10.70100
C 22.29375 -16.94325 11.59275
C 22.29375 -15.15975 13.37625
C 24.07725 -16.94325 13.37625
C 24.07725 -15.15975 11.59275
C 21.40200 -17.83500 14.26800
C 21.40200 -16.05150 16.05150
C 23.18550 -17.83500 16.05150
C 23.18550 -16.05150 14.26800
C 22.29375 -16.94325 15.15975
C 22.29375 -15.15975 16.94325
C 24.07725 -16.94325 16.94325
C 24.07725 -15.15975 15.15975
C 21.40200 -14.26800  0.00000
C 21.40200 -12.48450  1.78350
C 23.18550 -14.26800  1.78350
C 23.18550 -12.48450  0.00000
C 22.29375 -13.37625  0.89175
C 22.29375 -11.59275  2.67525
C 24.07725 -13.37625  2.67525
C 24.07725 -11.59275  0.89175
C 21.40200 -14.26800  3.56700
C 21.40200 -12.48450  5.35050
C 23.18550 -14.26800  5.35050
C 23.18550 -12.48450  3.56700
C 22.29375 -13.37625  4.45875
C 22.29375 -11.59275  6.24225
C 24.07725 -13.37625  6.24225
C 24.07725 -11.59275  4.45875
C 21.40200 -14.26800  7.13400
C 21.40200 -12.48450  8.91750
C 23.18550 -14.26800  8.91750
C 23.18550 -12.48450  7.13400
C 22.29375 -13.37625  8.02575
C 22.29375 -11.59275  9.80925
C 24.07725 -13.37625  9.80925
C 24.07725 -11.59275  8.02575
C 21.40200 -14.26800 10.70100
C 21.40200 -12.48450 12.48450
C 23.18550 -14.26800 12.48450
C 23.18550 -12.48450 10.70100
C 22.29375 -13.37625 11.59275
C 22.29375 -11.59275 13.37625
C 24.07725 -13.37625 13.37625
C 24.07725 -11.59275 11.59275
C 21.40200 -14.26800 14.26800
C 21.40200 -12.48450 16.05150
C 23.18550 -14.26800 16.05150
C 23.18550 -12.48450 14.26800
C 22.29375 -13.37625 15.15975
C 22.29375 -11.59275 16.94325
C 24.07725 -13.37625 16.94325
C 24.07725 -11.59275 15.15975
C 21.40200 -10.70100  0.00000
C 21.40200 -8.91750  1.78350
C 23.18550 -10.70100  1.78350
C 23.18550 -8.91750  0.00000
C 22.29375 -9.80925  0.89175
C 22.29375 -8.02575  2.67525
C 24.07725 -9.80925  2.67525
C 24.07725 -8.02575  0.89175
C 21.40200 -10.70100  3.56700
C 21.40200 -8.91750  5.35050
C 23.18550 -10.70100  5.35050
C 23.18550 -8.91750  3.56700
C 22.29375 -9.80925  4.45875
C 22.29375 -8.02575  6.24225
C 24.07725 -9.80925  6.24225
C 24.07725 -8.02575  4.45875
C 21.40200 -10.70100  7.13400
C 21.40200 -8.91750  8.91750
C 23.18550 -10.70100  8.91750
C 23.18550 -8.91750  7.13400
C 22.29375 -9.80925  8.02575
C 22.29375 -8.02575  9.80925
C 24.07725 -9.80925  9.80925
C 24.07725 -8.02575  8.02575
C 21.40200 -10.70100 10.70100
C 21.40200 -8.91750 12.48450
C 23.18550 -10.70100 12.48450
C 23.18550 -8.91750 10.70100
C 22.29375 -9.80925 11.59275
C 22.29375 -8.02575 13.37625
C 24.07725 -9.80925 13.37625
C 24.07725 -8.02575 11.59275
C 21.40200 -10.70100 14.26800
C 21.40200 -8.91750 16.05150
C 23.18550 -10.70100 16.05150
C 23.18550 -8.91750 14.26800
C 22.29375 -9.80925 15.15975
C 22.29375 -8.02575 16.94325
C 24.07725 -9.80925 16.94325
C 24.07725 -8.02575 15.15975
C 21.40200 -7.13400  0.00000
C 21.40200 -5.35050  1.78350
C 23.18550 -7.13400  1.78350
C 23.18550 -5.35050  0.00000
C 22.29375 -6.24225  0.89175
C 22.29375 -4.45875  2.67525
C 24.07725 -6.24225  2.67525
C 24.07725 -4.45875  0.89175
C 21.40200 -7.13400  3.56700
C 21.40200 -5.35050  5.35050
C 23.18550 -7.13400  5.35050
C 23.18550 -5.35050  3.56700
C 22.29375 -6.24225  4.45875
C 22.29375 -4.45875  6.24225
C 24.07725 -6.24225  6.24225
C 24.07725 -4.45875  4.45875
C 21.40200 -7.13400  7.13400
C 21.40200 -5.35050  8.91750
C 23.18550 -7.13400  8.91750
C 23.18550 -5.35050  7.13400
C 22.29375 -6.24225  8.02575
C 22.29375 -4.45875  9.80925
C 24.07725 -6.24225  9.80925
C 24.07725 -4.45875  8.02575
C 21.40200 -7.13400 10.70100
C 21.40200 -5.35050 12.48450
C 23.18550 -7.13400 12.48450
C 23.18550 -5.35050 10.70100
C 22.29375 -6.24225 11.59275
C 22.29375 -4.45875 13.37625
C 24.07725 -6.24225 13.37625
C 24.07725 -4.45875 11.59275
C 21.40200 -7.13400 14.26800
C 21.40200 -5.35050 16.05150
C 23.18550 -7.13400 16.05150
C 23.18550 -5.35050 14.26800
C 22.29375 -6.24225 15.15975
C 22.29375 -4.45875 16.94325
C 24.07725 -6.24225 16.94325
C 24.07725 -4.45875 15.15975
C 21.40200 -3.56700  0.00000
C 21.40200 -1.78350  1.78350
C 23.18550 -3.56700  1.78350
C 23.18550 -1.78350  0.00000
C 22.29375 -2.67525  0.89175
C 22.29375 -0.89175  2.67525
C 24.07725 -2.67525  2.67525
C 24.07725 -0.89175  0.89175
C 21.40200 -3.56700  3.56700
C 21.40200 -1.78350  5.35050
C 23.18550 -3.56700  5.35050
C 23.18550 -1.78350  3.56700
C 22.29375 -2.67525  4.45875
C 22.29375 -0.89175  6.24225
C 24.07725 -2.67525  6.24225
C 24.07725 -0.89175  4.45875
C 21.40200 -3.56700  7.13400
C 21.40200 -1.78350  8.91750
C 23.18550 -3.56700  8.91750
C 23.18550 -1.78350  7.13400
C 22.29375 -2.67525  8.02575
C 22.29375 -0.89175  9.80925
C 24.07725 -2.67525  9.80925
C 24.07725 -0.89175  8.02575
C 21.40200 -3.56700 10.70100
C 21.40200 -1.78350 12.48450
C 23.18550 -3.56700 12.48450
C 23.18550 -1.78350 10.70100
C 22.29375 -2.67525 11.59275
C 22.29375 -0.89175 13.37625
C 24.07725 -2.67525 13.37625
C 24.07725 -0.89175 11.59275
C 21.40200 -3.56700 14.26800
C 21.40200 -1.78350 16.05150
C 23.18550 -3.56700 16.05150
C 23.18550 -1.78350 14.26800
C 22.29375 -2.67525 15.15975
C 22.29375 -0.89175 16.94325
C 24.07725 -2.67525 16.94325
C 24.07725 -0.89175 15.15975
C 24.96900 -17.83500  0.00000
C 24.96900 -16.05150  1.78350
C 26.75250 -17.83500  1.78350
C 26.75250 -16.05150  0.00000
C 25.86075 -16.94325  0.89175
C 25.86075 -15.15975  2.67525
C 27.64425 -16.94325  2.67525
C 27.64425 -15.15975  0.89175
C 24.96900 -17.83500  3.56700
C 24.96900 -16.05150  5.35050
C 26.75250 -17.83500  5.35050
C 26.75250 -16.05150  3.56700
C 25.86075 -16.94325  4.45875
C 25.86075 -15.15975  6.24225
C 27.64425 -16.94325  6.24225
C 27.64425 -15.15975  4.45875
C 24.96900 -17.83500  7.13400
C 24.96900 -16.05150  8.91750
C 26.75250 -17.83500  8.91750
C 26.75250 -16.05150  7.13400
C 25.86075 -16.94325  8.02575
C 25.86075 -15.15975  9.80925
C 27.64425 -16.94325  9.80925
C 27.64425 -15.15975  8.02575
C 24.96900 -17.83500 10.70100
C 24.96900 -16.05150 12.48450
C 26.75250 -17.83500 12.48450
C 26.75250 -16.05150 10.70100
C 25.86075 -16.94325 11.59275
C 25.86075 -15.15975 13.37625
C 27.64425 -16.94325 13.37625
C 27.64425 -15.15975 11.59275
C 24.96900 -17.83500 14.26800
C 24.96900 -16.05150 16.05150
C 26.75250 -17.83500 16.05150
C 26.75250 -16.05150 14.26800
C 25.86075 -16.94325 15.15975
C 25.86075 -15.15975 16.94325
C 27.64425 -16.94325 16.94325
C 27.64425 -15.15975 15.15975
C 24.96900 -14.26800  0.00000
C 24.96900 -12.48450  1.78350
C 26.75250 -14.26800  1.78350
C 26.75250 -12.48450  0.00000
C 25.86075 -13.37625  0.89175
C 25.86075 -11.59275  2.67525
C 27.64425 -13.37625  2.67525
C 27.64425 -11.59275  0.89175
C 24.96900 -14.26800  3.56700
C 24.96900 -12.48450  5.35050
C 26.75250 -14.26800  5.35050
C 26.75250 -12.48450  3.56700
C 25.86075 -13.37625  4.45875
C 25.86075 -11.59275  6.24225
C 27.64425 -13.37625  6.24225
C 27.64425 -11.59275  4.45875
C 24.96900 -14.26800  7.13400
C 24.96900 -12.48450  8.91750
C 26.75250 -14.26800  8.91750
C 26.75250 -12.48450  7.13400
C 25.86075 -13.37625  8.02575
C 25.86075 -11.59275  9.80925
C 27.64425 -13.37625  9.80925
C 27.64425 -11.59275  8.02575
C 24.96900 -14.26800 10.70100
C 24.96900 -12.48450 12.48450
C 26.75250 -14.26800 12.48450
C 26.75250 -12.48450 10.70100
C 25.86075 -13.37625 11.59275
C 25.86075 -11.59275 13.37625
C 27.64425 -13.37625 13.37625
C 27.64425 -11.59275 11.59275
C 24.96900 -14.26800 14.26800
C 24.96900 -12.48450 16.05150
C 26.75250 -14.26800 16.05150
C 26.75250 -12.48450 14.26800
C 25.86075 -13.37625 15.15975
C 25.86075 -11.59275 16.94325
C 27.64425 -13.37625 16.94325
C 27.64425 -11.59275 15.15975
C 24.96900 -10.70100  0.00000
C 24.96900 -8.91750  1.78350
C 26.75250 -10.70100  1.78350
C 26.75250 -8.91750  0.00000
C 25.86075 -9.80925  0.89175
C 25.86075 -8.02575  2.67525
C 27.64425 -9.80925  2.67525
C 27.64425 -8.02575  0.89175
C 24.96900 -10.70100  3.56700
C 24.96900 -8.91750  5.35050
C 26.75250 -10.70100  5.35050
C 26.75250 -8.91750  3.56700
C 25.86075 -9.80925  4.45875
C 25.86075 -8.02575  6.24225
C 27.64425 -9.80925  6.24225
C 27.64425 -8.02575  4.45875
C 24.96900 -10.70100  7.13400
C 24.96900 -8.91750  8.91750
C 26.75250 -10.70100  8.91750
C 26.75250 -8.91750  7.13400
C 25.86075 -9.80925  8.02575
C 25.86075 -8.02575  9.80925
C 27.64425 -9.80925  9.80925
C 27.64425 -8.02575  8.02575
C 24.96900 -10.70100 10.70100
C 24.96900 -8.91750 12.48450
C 26.75250 -10.70100 12.48450
C 26.75250 -8.91750 10.70100
C 25.86075 -9.80925 11.59275
C 25.86075 -8.02575 13.37625
C 27.64425 -9.80925 13.37625
C 27.64425 -8.02575 11.59275
C 24.96900 -10.70100 14.26800
C 24.96900 -8.91750 16.05150
C 26.75250 -10.70100 16.05150
C 26.75250 -8.91750 14.26800
C 25.86075 -9.80925 15.15975
C 25.86075 -8.02575 16.94325
C 27.64425 -9.80925 16.94325
C 27.64425 -8.02575 15.15975
C 24.96900 -7.13400  0.00000
C 24.96900 -5.35050  1.78350
C 26.75250 -7.13400  1.78350
C 26.75250 -5.35050  0.00000
C 25.86075 -6.24225  0.89175
C 25.86075 -4.45875  2.67525
C 27.64425 -6.24225  2.67525
C 27.64425 -4.45875  0.89175
C 24.96900 -7.13400  3.56700
C 24.96900 -5.35050  5.35050
C 26.75250 -7.13400  5.35050
C 26.75250 -5.35050  3.56700
C 25.86075 -6.24225  4.45875
C 25.86075 -4.45875  6.24225
C 27.64425 -6.24225  6.24225
C 27.64425 -4.45875  4.45875
C 24.96900 -7.13400  7.13400
C 24.96900 -5.35050  8.91750
C 26.75250 -7.13400  8.91750
C 26.75250 -5.35050  7.13400
C 25.86075 -6.24225  8.02575
C 25.86075 -4.45875  9.80925
C 27.64425 -6.24225  9.80925
C 27.64425 -4.45875  8.02575
C 24.96900 -7.13400 10.70100
C 24.96900 -5.35050 12.48450
C 26.75250 -7.13400 12.48450
C 26.75250 -5.35050 10.70100
C 25.86075 -6.24225 11.59275
C 25.86075 -4.45875 13.37625
C 27.64425 -6.24225 13.37625
C 27.64425 -4.45875 11.59275
C 24.96900 -7.13400 14.26800
C 24.96900 -5.35050 16.05150
C 26.75250 -7.13400 16.05150
C 26.75250 -5.35050 14.26800
C 25.86075 -6.24225 15.15975
C 25.86075 -4.45875 16.94325
C 27.64425 -6.24225 16.94325
C 27.64425 -4.45875 15.15975
C 24.96900 -3.56700  0.00000
C 24.96900 -1.78350  1.78350
C 26.75250 -3.56700  1.78350
C 26.75250 -1.78350  0.00000
C 25.86075 -2.67525  0.89175
C 25.86075 -0.89175  2.67525
C 27.64425 -2.67525  2.67525
C 27.64425 -0.89175  0.89175
C 24.96900 -3.56700  3.56700
C 24.96900 -1.78350  5.35050
C 26.75250 -3.56700  5.35050
C 26.75250 -1.78350  3.56700
C 25.86075 -2.67525  4.45875
C 25.86075 -0.89175  6.24225
C 27.64425 -2.67525  6.24225
C 27.64425 -0.89175  4.45875
C 24.96900 -3.56700  7.13400
C 24.96900 -1.78350  8.91750
C 26.75250 -3.56700  8.91750
C 26.75250 -1.78350  7.13400
C 25.86075 -2.67525  8.02575
C 25.86075 -0.89175  9.80925
C 27.64425 -2.67525  9.80925
C 27.64425 -0.89175  8.02575
C 24.96900 -3.56700 10.70100
C 24.96900 -1.78350 12.48450
C 26.75250 -3.56700 12.48450
C 26.75250 -1.78350 10.70100
C 25.86075 -2.67525 11.59275
C 25.86075 -0.89175 13.37625
C 27.64425 -2.67525 13.37625
C 27.64425 -0.89175 11.59275
C 24.96900 -3.56700 14.26800
C 24.96900 -1.78350 16.05150
C 26.75250 -3.56700 16.05150
C 26.75250 -1.78350 14.26800
C 25.86075 -2.67525 15.15975
C 25.86075 -0.89175 16.94325
C 27.64425 -2.67525 16.94325
C 27.64425 -0.89175 15.15975
C 28.53600 -17.83500  0.00000
C 28.53600 -16.05150  1.78350
C 30.31950 -17.83500  1.78350
C 30.31950 -16.05150  0.00000
C 29.42775 -16.94325  0.89175
C 29.42775 -15.15975  2.67525
C 31.21125 -16.94325  2.67525
C 31.21125 -15.15975  0.89175
C 28.53600 -17.83500  3.56700
C 28.53600 -16.05150  5.35050
C 30.31950 -17.83500  5.35050
C 30.31950 -16.05150  3.56700
C 29.42775 -16.94325  4.45875
C 29.42775 -15.15975  6.24225
C 31.21125 -16.94325  6.24225
C 31.21125 -15.15975  4.45875
C 28.53600 -17.83500  7.13400
C 28.53600 -16.05150  8.91750
C 30.31950 -17.83500  8.91750
C 30.31950 -16.05150  7.13400
C 29.42775 -16.94325  8.02575
C 29.42775 -15.15975  9.80925
C 31.21125 -16.94325  9.80925
C 31.21125 -15.15975  8.02575
C 28.53600 -17.83500 10.70100
C 28.53600 -16.05150 12.48450
C 30.31950 -17.83500 12.48450
C 30.31950 -16.05150 10.70100
C 29.42775 -16.94325 11.59275
C 29.42775 -15.15975 13.37625
C 31.21125 -16.94325 13.37625
C 31.21125 -15.15975 11.59275
C 28.53600 -17.83500 14.26800
C 28.53600 -16.05150 16.05150
C 30.31950 -17.83500 16.05150
C 30.31950 -16.05150 14.26800
C 29.42775 -16.94325 15.15975
C 29.42775 -15.15975 16.94325
C 31.21125 -16.94325 16.94325
C 31.21125 -15.15975 15.15975
C 28.53600 -14.26800  0.00000
C 28.53600 -12.48450  1.78350
C 30.31950 -14.26800  1.78350
C 30.31950 -12.48450  0.00000
C 29.42775 -13.37625  0.89175
C 29.42775 -11.59275  2.67525
C 31.21125 -13.37625  2.67525
C 31.21125 -11.59275  0.89175
C 28.53600 -14.26800  3.56700
C 28.53600 -12.48450  5.35050
C 30.31950 -14.26800  5.35050
C 30.31950 -12.48450  3.56700
C 29.42775 -13.37625  4.45875
C 29.42775 -11.59275  6.24225
C 31.21125 -13.37625  6.24225
C 31.21125 -11.59275  4.45875
C 28.53600 -14.26800  7.13400
C 28.53600 -12.48450  8.91750
C 30.31950 -14.26800  8.91750
C 30.31950 -12.48450  7.13400
C 29.42775 -13.37625  8.02575
C 29.42775 -11.59275  9.80925
C 31.21125 -13.37625  9.80925
C 31.21125 -11.59275  8.02575
C 28.53600 -14.26800 10.70100
C 28.53600 -12.48450 12.48450
C 30.31950 -14.26800 12.48450
C 30.31950 -12.48450 10.70100
C 29.42775 -13.37625 11.59275
C 29.42775 -11.59275 13.37625
C 31.21125 -13.37625 13.37625
C 31.21125 -11.59275 11.59275
C 28.53600 -14.26800 14.26800
C 28.53600 -12.48450 16.05150
C 30.31950 -14.26800 16.05150
C 30.31950 -12.48450 14.26800
C 29.42775 -13.37625 15.15975
C 29.42775 -11.59275 16.94325
C 31.21125 -13.37625 16.94325
C 31.21125 -11.59275 15.15975
C 28.53600 -10.70100  0.00000
C 28.53600 -8.91750  1.78350
C 30.31950 -10.70100  1.78350
C 30.31950 -8.91750  0.00000
C 29.42775 -9.80925  0.89175
C 29.42775 -8.02575  2.67525
C 31.21125 -9.80925  2.67525
C 31.21125 -8.02575  0.89175
C 28.53600 -10.70100  3.56700
C 28.53600 -8.91750  5.35050
C 30.31950 -10.70100  5.35050
C 30.31950 -8.91750  3.56700
C 29.42775 -9.80925  4.45875
C 29.42775 -8.02575  6.24225
C 31.21125 -9.80925  6.24225
C 31.21125 -8.02575  4.45875
C 28.53600 -10.70100  7.13400
C 28.53600 -8.91750  8.91750
C 30.31950 -10.70100  8.91750
C 30.31950 -8.91750  7.13400
C 29.42775 -9.80925  8.02575
C 29.42775 -8.02575  9.80925
C 31.21125 -9.80925  9.80925
C 31.21125 -8.02575  8.02575
C 28.53600 -10.70100 10.70100
C 28.53600 -8.91750 12.48450
C 30.31950 -10.70100 12.48450
C 30.31950 -8.91750 10.70100
C 29.42775 -9.80925 11.59275
C 29.42775 -8.02575 13.37625
C 31.21125 -9.80925 13.37625
C 31.21125 -8.02575 11.59275
C 28.53600 -10.70100 14.26800
C 28.53600 -8.91750 16.05150
C 30.31950 -10.70100 16.05150
C 30.31950 -8.91750 14.26800
C 29.42775 -9.80925 15.15975
C 29.42775 -8.02575 16.94325
C 31.21125 -9.80925 16.94325
C 31.21125 -8.02575 15.15975
C 28.53600 -7.13400  0.00000
C 28.53600 -5.35050  1.78350
C 30.31950 -7.13400  1.78350
C 30.31950 -5.35050  0.00000
C 29.42775 -6.24225  0.89175
C 29.42775 -4.45875  2.67525
C 31.21125 -6.24225  2.67525
C 31.21125 -4.45875  0.89175
C 28.53600 -7.13400  3.56700
C 28.53600 -5.35050  5.35050
C 30.31950 -7.13400  5.35050
C 30.31950 -5.35050  3.56700
C 29.42775 -6.24225  4.45875
C 29.42775 -4.45875  6.24225
C 31.21125 -6.24225  6.24225
C 31.21125 -4.45875  4.45875
C 28.53600 -7.13400  7.13400
C 28.53600 -5.35050  8.91750
C 30.31950 -7.13400  8.91750
C 30.31950 -5.35050  7.13400
C 29.42775 -6.24225  8.02575
C 29.42775 -4.45875  9.80925
C 31.21125 -6.24225  9.80925
C 31.21125 -4.45875  8.02575
C 28.53600 -7.13400 10.70100
C 28.53600 -5.35050 12.48450
C 30.31950 -7.13400 12.48450
C 30.31950 -5.35050 10.70100
C 29.42775 -6.24225 11.59275
C 29.42775 -4.45875 13.37625
C 31.21125 -6.24225 13.37625
C 31.21125 -4.45875 11.59275
C 28.53600 -7.13400 14.26800
C 28.53600 -5.35050 16.05150
C 30.31950 -7.13400 16.05150
C 30.31950 -5.35050 14.26800
C 29.42775 -6.24225 15.15975
C 29.42775 -4.45875 16.94325
C 31.21125 -6.24225 16.94325
C 31.21125 -4.45875 15.15975
C 28.53600 -3.56700  0.00000
C 28.53600 -1.78350  1.78350
C 30.31950 -3.56700  1.78350
C 30.31950 -1.78350  0.00000
C 29.42775 -2.67525  0.89175
C 29.42775 -0.89175  2.67525
C 31.21125 -2.67525  2.67525
C 31.21125 -0.89175  0.89175
C 28.53600 -3.56700  3.56700
C 28.53600 -1.78350  5.35050
C 30.31950 -3.56700  5.35050
C 30.31950 -1.78350  3.56700
C 29.42775 -2.67525  4.45875
C 29.42775 -0.89175  6.24225
C 31.21125 -2.67525  6.24225
C 31.21125 -0.89175  4.45875
C 28.53600 -3.56700  7.13400
C 28.53600 -1.78350  8.91750
C 30.31950 -3.56700  8.91750
C 30.31950 -1.78350  7.13400
C 29.42775 -2.67525  8.02575
C 29.42775 -0.89175  9.80925
C 31.21125 -2.67525  9.80925
C 31.21125 -0.89175  8.02575
C 28.53600 -3.56700 10.70100
C 28.53600 -1.78350 12.48450
C 30.31950 -3.56700 12.48450
C 30.31950 -1.78350 10.70100
C 29.42775 -2.67525 11.59275
C 29.42775 -0.89175 13.37625
C 31.21125 -2.67525 13.37625
C 31.21125 -0.89175 11.59275
C 28.53600 -3.56700 14.26800
C 28.53600 -1.78350 16.05150
C 30.31950 -3.56700 16.05150
C 30.31950 -1.78350 14.26800
C 29.42775 -2.67525 15.15975
C 29.42775 -0.89175 16.94325
C 31.21125 -2.67525 16.94325
C 31.21125 -0.89175 15.15975
C 32.10300 -17.83500  0.00000
C 32.10300 -16.05150  1.78350
C 33.88650 -17.83500  1.78350
C 33.88650 -16.05150  0.00000
C 32.99475 -16.94325  0.89175
C 32.99475 -15.15975  2.67525
C 34.77825 -16.94325  2.67525
C 34.77825 -15.15975  0.89175
C 32.10300 -17.83500  3.56700
C 32.10300 -16.05150  5.35050
C 33.88650 -17.83500  5.35050
C 33.88650 -16.05150  3.56700
C 32.99475 -16.94325  4.45875
C 32.99475 -15.15975  6.24225
C 34.77825 -16.94325  6.24225
C 34.77825 -15.15975  4.45875
C 32.10300 -17.83500  7.13400
C 32.10300 -16.05150  8.91750
C 33.88650 -17.83500  8.91750
C 33.88650 -16.05150  7.13400
C 32.99475 -16.94325  8.02575
C 32.99475 -15.15975  9.80925
C 34.77825 -16.94325  9.80925
C 34.77825 -15.15975  8.02575
C 32.10300 -17.83500 10.70100
C 32.10300 -16.05150 12.48450
C 33.88650 -17.83500 12.48450
C 33.88650 -16.05150 10.70100
C 32.99475 -16.94325 11.59275
C 32.99475 -15.15975 13.37625
C 34.77825 -16.94325 13.37625
C 34.77825 -15.15975 11.59275
C 32.10300 -17.83500 14.26800
C 32.10300 -16.05150 16.05150
C 33.88650 -17.83500 16.05150
C 33.88650 -16.05150 14.26800
C 32.99475 -16.94325 15.15975
C 32.99475 -15.15975 16.94325
C 34.77825 -16.94325 16.94325
C 34.77825 -15.15975 15.15975
C 32.10300 -14.26800  0.00000
C 32.10300 -12.48450  1.78350
C 33.88650 -14.26800  1.78350
C 33.88650 -12.48450  0.00000
C 32.99475 -13.37625  0.89175
C 32.99475 -11.59275  2.67525
C 34.77825 -13.37625  2.67525
C 34.77825 -11.59275  0.89175
C 32.10300 -14.26800  3.56700
C 32.10300 -12.48450  5.35050
C 33.88650 -14.26800  5.35050
C 33.88650 -12.48450  3.56700
C 32.99475 -13.37625  4.45875
C 32.99475 -11.59275  6.24225
C 34.77825 -13.37625  6.24225
C 34.77825 -11.59275  4.45875
C 32.10300 -14.26800  7.13400
C 32.10300 -12.48450  8.91750
C 33.88650 -14.26800  8.91750
C 33.88650 -12.48450  7.13400
C 32.99475 -13.37625  8.02575
C 32.99475 -11.59275  9.80925
C 34.77825 -13.37625  9.80925
C 34.77825 -11.59275  8.02575
C 32.10300 -14.26800 10.70100
C 32.10300 -12.48450 12.48450
C 33.88650 -14.26800 12.48450
C 33.88650 -12.48450 10.70100
C 32.99475 -13.37625 11.59275
C 32.99475 -11.59275 13.37625
C 34.77825 -13.37625 13.37625
C 34.77825 -11.59275 11.59275
C 32.10300 -14.26800 14.26800
C 32.10300 -12.48450 16.05150
C 33.88650 -14.26800 16.05150
C 33.88650 -12.48450 14.26800
C 32.99475 -13.37625 15.15975
C 32.99475 -11.59275 16.94325
C 34.77825 -13.37625 16.94325
C 34.77825 -11.59275 15.15975
C 32.10300 -10.70100  0.00000
C 32.10300 -8.91750  1.78350
C 33.88650 -10.70100  1.78350
C 33.88650 -8.91750  0.00000
C 32.99475 -9.80925  0.89175
C 32.99475 -8.02575  2.67525
C 34.77825 -9.80925  2.67525
C 34.77825 -8.02575  0.89175
C 32.10300 -10.70100  3.56700
C 32.10300 -8.91750  5.35050
C 33.88650 -10.70100  5.35050
C 33.88650 -8.91750  3.56700
C 32.99475 -9.80925  4.45875
C 32.99475 -8.02575  6.24225
C 34.77825 -9.80925  6.24225
C 34.77825 -8.02575  4.45875
C 32.10300 -10.70100  7.13400
C 32.10300 -8.91750  8.91750
C 33.88650 -10.70100  8.91750
C 33.88650 -8.91750  7.13400
C 32.99475 -9.80925  8.02575
C 32.99475 -8.02575  9.80925
C 34.77825 -9.80925  9.80925
C 34.77825 -8.02575  8.02575
C 32.10300 -10.70100 10.70100
C 32.10300 -8.91750 12.48450
C 33.88650 -10.70100 12.48450
C 33.88650 -8.91750 10.70100
C 32.99475 -9.80925 11.59275
C 32.99475 -8.02575 13.37625
C 34.77825 -9.80925 13.37625
C 34.77825 -8.02575 11.59275
C 32.10300 -10.70100 14.26800
C 32.10300 -8.91750 16.05150
C 33.88650 -10.70100 16.05150
C 33.88650 -8.91750 14.26800
C 32.99475 -9.80925 15.15975
C 32.99475 -8.02575 16.94325
C 34.77825 -9.80925 16.94325
C 34.77825 -8.02575 15.15975
C 32.10300 -7.13400  0.00000
C 32.10300 -5.35050  1.78350
C 33.88650 -7.13400  1.78350
C 33.88650 -5.35050  0.00000
C 32.99475 -6.24225  0.89175
C 32.99475 -4.45875  2.67525
C 34.77825 -6.24225  2.67525
C 34.77825 -4.45875  0.89175
C 32.10300 -7.13400  3.56700
C 32.10300 -5.35050  5.35050
C 33.88650 -7.13400  5.35050
C 33.88650 -5.35050  3.56700
C 32.99475 -6.24225  4.45875
C 32.99475 -4.45875  6.24225
C 34.77825 -6.24225  6.24225
C 34.77825 -4.45875  4.45875
C 32.10300 -7.13400  7.13400
C 32.10300 -5.35050  8.91750
C 33.88650 -7.13400  8.91750
C 33.88650 -5.35050  7.13400
C 32.99475 -6.24225  8.02575
C 32.99475 -4.45875  9.80925
C 34.77825 -6.24225  9.80925
C 34.77825 -4.45875  8.02575
C 32.10300 -7.13400 10.70100
C 32.10300 -5.35050 12.48450
C 33.88650 -7.13400 12.48450
C 33.88650 -5.35050 10.70100
C 32.99475 -6.24225 11.59275
C 32.99475 -4.45875 13.37625
C 34.77825 -6.24225 13.37625
C 34.77825 -4.45875 11.59275
C 32.10300 -7.13400 14.26800
C 32.10300 -5.35050 16.05150
C 33.88650 -7.13400 16.05150
C 33.88650 -5.35050 14.26800
C 32.99475 -6.24225 15.15975
C 32.99475 -4.45875 16.94325
C 34.77825 -6.24225 16.94325
C 34.77825 -4.45875 15.15975
C 32.10300 -3.56700  0.00000
C 32.10300 -1.78350  1.78350
C 33.88650 -3.56700  1.78350
C 33.88650 -1.78350  0.00000
C 32.99475 -2.67525  0.89175
C 32.99475 -0.89175  2.67525
C 34.77825 -2.67525  2.67525
C 34.77825 -0.89175  0.89175
C 32.10300 -3.56700  3.56700
C 32.10300 -1.78350  5.35050
C 33.88650 -3.56700  5.35050
C 33.88650 -1.78350  3.56700
C 32.99475 -2.67525  4.45875
C 32.99475 -0.89175  6.24225
C 34.77825 -2.67525  6.24225
C 34.77825 -0.89175  4.45875
C 32.10300 -3.56700  7.13400
C 32.10300 -1.78350  8.91750
C 33.88650 -3.56700  8.91750
C 33.88650 -1.78350  7.13400
C 32.99475 -2.67525  8.02575
C 32.99475 -0.89175  9.80925
C 34.77825 -2.67525  9.80925
C 34.77825 -0.89175  8.02575
C 32.10300 -3.56700 10.70100
C 32.10300 -1.78350 12.48450
C 33.88650 -3.56700 12.48450
C 33.88650 -1.78350 10.70100
C 32.99475 -2.67525 11.59275
C 32.99475 -0.89175 13.37625
C 34.77825 -2.67525 13.37625
C 34.77825 -0.89175 11.59275
C 32.10300 -3.56700 14.26800
C 32.10300 -1.78350 16.05150
C 33.88650 -3.56700 16.05150
C 33.88650 -1.78350 14.26800
C 32.99475 -2.67525 15.15975
C 32.99475 -0.89175 16.94325
C 34.77825 -2.67525 16.94325
C 34.77825 -0.89175 15.15975
N 17.83500 -17.83500 17.83500
C 17.83500 -16.05150 19.61850
C 19.61850 -17.83500 19.61850
C 19.61850 -16.05150 17.83500
C 18.72675 -16.94325 18.72675
C 18.72675 -15.15975 20.51025
C 20.51025 -16.94325 20.51025
C 20.51025 -15.15975 18.72675
C 17.83500 -17.83500 21.40200
C 17.83500 -16.05150 23.18550
C 19.61850 -17.83500 23.18550
C 19.61850 -16.05150 21.40200
C 18.72675 -16.94325 22.29375
C 18.72675 -15.15975 24.07725
C 20.51025 -16.94325 24.07725
C 20.51025 -15.15975 22.29375
C 17.83500 -17.83500 24.96900
C 17.83500 -16.05150 26.75250
C 19.61850 -17.83500 26.75250
C 19.61850 -16.05150 24.96900
C 18.72675 -16.94325 25.86075
C 18.72675 -15.15975 27.64425
C 20.51025 -16.94325 27.64425
C 20.51025 -15.15975 25.86075
C 17.83500 -17.83500 28.53600
C 17.83500 -16.05150 30.31950
C 19.61850 -17.83500 30.31950
C 19.61850 -16.05150 28.53600
C 18.72675 -16.94325 29.42775
C 18.72675 -15.15975 31.21125
C 20.51025 -16.94325 31.21125
C 20.51025 -15.15975 29.42775
C 17.83500 -17.83500 32.10300
C 17.83500 -16.05150 33.88650
C 19.61850 -17.83500 33.88650
C 19.61850 -16.05150 32.10300
C 18.72675 -16.94325 32.99475
C 18.72675 -15.15975 34.77825
C 20.51025 -16.94325 34.77825
C 20.51025 -15.15975 32.99475
C 17.83500 -14.26800 17.83500
C 17.83500 -12.48450 19.61850
C 19.61850 -14.26800 19.61850
C 19.61850 -12.48450 17.83500
C 18.72675 -13.37625 18.72675
C 18.72675 -11.59275 20.51025
C 20.51025 -13.37625 20.51025
C 20.51025 -11.59275 18.72675
C 17.83500 -14.26800 21.40200
C 17.83500 -12.48450 23.18550
C 19.61850 -14.26800 23.18550
C 19.61850 -12.48450 21.40200
C 18.72675 -13.37625 22.29375
C 18.72675 -11.59275 24.07725
C 20.51025 -13.37625 24.07725
C 20.51025 -11.59275 22.29375
C 17.83500 -14.26800 24.96900
C 17.83500 -12.48450 26.75250
C 19.61850 -14.26800 26.75250
C 19.61850 -12.48450 24.96900
C 18.72675 -13.37625 25.86075
C 18.72675 -11.59275 27.64425
C 20.51025 -13.37625 27.64425
C 20.51025 -11.59275 25.86075
C 17.83500 -14.26800 28.53600
C 17.83500 -12.48450 30.31950
C 19.61850 -14.26800 30.31950
C 19.61850 -12.48450 28.53600
C 18.72675 -13.37625 29.42775
C 18.72675 -11.59275 31.21125
C 20.51025 -13.37625 31.21125
C 20.51025 -11.59275 29.42775
C 17.83500 -14.26800 32.10300
C 17.83500 -12.48450 33.88650
C 19.61850 -14.26800 33.88650
C 19.61850 -12.48450 32.10300
C 18.72675 -13.37625 32.99475
C 18.72675 -11.59275 34.77825
C 20.51025 -13.37625 34.77825
C 20.51025 -11.59275 32.99475
C 17.83500 -10.70100 17.83500
C 17.83500 -8.91750 19.61850
C 19.61850 -10.70100 19.61850
C 19.61850 -8.91750 17.83500
C 18.72675 -9.80925 18.72675
C 18.72675 -8.02575 20.51025
C 20.51025 -9.80925 20.51025
C 20.51025 -8.02575 18.72675
C 17.83500 -10.70100 21.40200
C 17.83500 -8.91750 23.18550
C 19.61850 -10.70100 23.18550
C 19.61850 -8.91750 21.40200
C 18.72675 -9.80925 22.29375
C 18.72675 -8.02575 24.07725
C 20.51025 -9.80925 24.07725
C 20.51025 -8.02575 22.29375
C 17.83500 -10.70100 24.96900
C 17.83500 -8.91750 26.75250
C 19.61850 -10.70100 26.75250
C 19.61850 -8.91750 24.96900
C 18.72675 -9.80925 25.86075
C 18.72675 -8.02575 27.64425
C 20.51025 -9.80925 27.64425
C 20.51025 -8.02575 25.86075
C 17.83500 -10.70100 28.53600
C 17.83500 -8.91750 30.31950
C 19.61850 -10.70100 30.31950
C 19.61850 -8.91750 28.53600
C 18.72675 -9.80925 29.42775
C 18.72675 -8.02575 31.21125
C 20.51025 -9.80925 31.21125
C 20.51025 -8.02575 29.42775
C 17.83500 -10.70100 32.10300
C 17.83500 -8.91750 33.88650
C 19.61850 -10.70100 33.88650
C 19.61850 -8.91750 32.10300
C 18.72675 -9.80925 32.99475
C 18.72675 -8.02575 34.77825
C 20.51025 -9.80925 34.77825
C 20.51025 -8.02575 32.99475
C 17.83500 -7.13400 17.83500
C 17.83500 -5.35050 19.61850
C 19.61850 -7.13400 19.61850
C 19.61850 -5.35050 17.83500
C 18.72675 -6.24225 18.72675
C 18.72675 -4.45875 20.51025
C 20.51025 -6.24225 20.51025
C 20.51025 -4.45875 18.72675
C 17.83500 -7.13400 21.40200
C 17.83500 -5.35050 23.18550
C 19.61850 -7.13400 23.18550
C 19.61850 -5.35050 21.40200
C 18.72675 -6.24225 22.29375
C 18.72675 -4.45875 24.07725
C 20.51025 -6.24225 24.07725
C 20.51025 -4.45875 22.29375
C 17.83500 -7.13400 24.96900
C 17.83500 -5.35050 26.75250
C 19.61850 -7.13400 26.75250
C 19.61850 -5.35050 24.96900
C 18.72675 -6.24225 25.86075
C 18.72675 -4.45875 27.64425
C 20.51025 -6.24225 27.64425
C 20.51025 -4.45875 25.86075
C 17.83500 -7.13400 28.53600
C 17.83500 -5.35050 30.31950
C 19.61850 -7.13400 30.31950
C 19.61850 -5.35050 28.53600
C 18.72675 -6.24225 29.42775
C 18.72675 -4.45875 31.21125
C 20.51025 -6.24225 31.21125
C 20.51025 -4.45875 29.42775
C 17.83500 -7.13400 32.10300
C 17.83500 -5.35050 33.88650
C 19.61850 -7.13400 33.88650
C 19.61850 -5.35050 32.10300
C 18.72675 -6.24225 32.99475
C 18.72675 -4.45875 34.77825
C 20.51025 -6.24225 34.77825
C 20.51025 -4.45875 32.99475
C 17.83500 -3.56700 17.83500
C 17.83500 -1.78350 19.61850
C 19.61850 -3.56700 19.61850
C 19.61850 -1.78350 17.83500
C 18.72675 -2.67525 18.72675
C 18.72675 -0.89175 20.51025
C 20.51025 -2.67525 20.51025
C 20.51025 -0.89175 18.72675
C 17.83500 -3.56700 21.40200
C 17.83500 -1.78350 23.18550
C 19.61850 -3.56700 23.18550
C 19.61850 -1.78350 21.40200
C 18.72675 -2.67525 22.29375
C 18.72675 -0.89175 24.07725
C 20.51025 -2.67525 24.07725
C 20.51025 -0.89175 22.29375
C 17.83500 -3.56700 24.96900
C 17.83500 -1.78350 26.75250
C 19.61850 -3.56700 26.75250
C 19.61850 -1.78350 24.96900
C 18.72675 -2.67525 25.86075
C 18.72675 -0.89175 27.64425
C 20.51025 -2.67525 27.64425
C 20.51025 -0.89175 25.86075
C 17.83500 -3.56700 28.53600
C 17.83500 -1.78350 30.31950
C 19.61850 -3.56700 30.31950
C 19.61850 -1.78350 28.53600
C 18.72675 -2.67525 29.42775
C 18.72675 -0.89175 31.21125
C 20.51025 -2.67525 31.21125
C 20.51025 -0.89175 29.42775
C 17.83500 -3.56700 32.10300
C 17.83500 -1.78350 33.88650
C 19.61850 -3.56700 33.88650
C 19.61850 -1.78350 32.10300
C 18.72675 -2.67525 32.99475
C 18.72675 -0.89175 34.77825
C 20.51025 -2.67525 34.77825
C 20.51025 -0.89175 32.99475
C 21.40200 -17.83500 17.83500
C 21.40200 -16.05150 19.61850
C 23.18550 -17.83500 19.61850
C 23.18550 -16.05150 17.83500
C 22.29375 -16.94325 18.72675
C 22.29375 -15.15975 20.51025
C 24.07725 -16.94325 20.51025
C 24.07725 -15.15975 18.72675
C 21.40200 -17.83500 21.40200
C 21.40200 -16.05150 23.18550
C 23.18550 -17.83500 23.18550
C 23.18550 -16.05150 21.40200
C 22.29375 -16.94325 22.29375
C 22.29375 -15.15975 24.07725
C 24.07725 -16.94325 24.07725
C 24.07725 -15.15975 22.29375
C 21.40200 -17.83500 24.96900
C 21.40200 -16.05150 26.75250
C 23.18550 -17.83500 26.75250
C 23.18550 -16.05150 24.96900
C 22.29375 -16.94325 25.86075
C 22.29375 -15.15975 27.64425
C 24.07725 -16.94325 27.64425
C 24.07725 -15.15975 25.86075
C 21.40200 -17.83500 28.53600
C 21.40200 -16.05150 30.31950
C 23.18550 -17.83500 30.31950
C 23.18550 -16.05150 28.53600
C 22.29375 -16.94325 29.42775
C 22.29375 -15.15975 31.21125
C 24.07725 -16.94325 31.21125
C 24.07725 -15.15975 29.42775
C 21.40200 -17.83500 32.10300
C 21.40200 -16.05150 33.88650
C 23.18550 -17.83500 33.88650
C 23.18550 -16.05150 32.10300
C 22.29375 -16.94325 32.99475
C 22.29375 -15.15975 34.77825
C 24.07725 -16.94325 34.77825
C 24.07725 -15.15975 32.99475
C 21.40200 -14.26800 17.83500
C 21.40200 -12.48450 19.61850
C 23.18550 -14.26800 19.61850
C 23.18550 -12.48450 17.83500
C 22.29375 -13.37625 18.72675
C 22.29375 -11.59275 20.51025
C 24.07725 -13.37625 20.51025
C 24.07725 -11.59275 18.72675
C 21.40200 -14.26800 21.40200
C 21.40200 -12.48450 23.18550
C 23.18550 -14.26800 23.18550
C 23.18550 -12.48450 21.40200
C 22.29375 -13.37625 22.29375
C 22.29375 -11.59275 24.07725
C 24.07725 -13.37625 24.07725
C 24.07725 -11.59275 22.29375
C 21.40200 -14.26800 24.96900
C 21.40200 -12.48450 26.75250
C 23.18550 -14.26800 26.75250
C 23.18550 -12.48450 24.96900
C 22.29375 -13.37625 25.86075
C 22.29375 -11.59275 27.64425
C 24.07725 -13.37625 27.64425
C 24.07725 -11.59275 25.86075
C 21.40200 -14.26800 28.53600
C 21.40200 -12.48450 30.31950
C 23.18550 -14.26800 30.31950
C 23.18550 -12.48450 28.53600
C 22.29375 -13.37625 29.42775
C 22.29375 -11.59275 31.21125
C 24.07725 -13.37625 31.21125
C 24.07725 -11.59275 29.42775
C 21.40200 -14.26800 32.10300
C 21.40200 -12.48450 33.88650
C 23.18550 -14.26800 33.88650
C 23.18550 -12.48450 32.10300
C 22.29375 -13.37625 32.99475
C 22.29375 -11.59275 34.77825
C 24.07725 -13.37625 34.77825
C 24.07725 -11.59275 32.99475
C 21.40200 -10.70100 17.83500
C 21.40200 -8.91750 19.61850
C 23.18550 -10.70100 19.61850
C 23.18550 -8.91750 17.83500
C 22.29375 -9.80925 18.72675
C 22.29375 -8.02575 20.51025
C 24.07725 -9.80925 20.51025
C 24.07725 -8.02575 18.72675
C 21.40200 -10.70100 21.40200
C 21.40200 -8.91750 23.18550
C 23.18550 -10.70100 23.18550
C 23.18550 -8.91750 21.40200
C 22.29375 -9.80925 22.29375
C 22.29375 -8.02575 24.07725
C 24.07725 -9.80925 24.07725
C 24.07725 -8.02575 22.29375
C 21.40200 -10.70100 24.96900
C 21.40200 -8.91750 26.75250
C 23.18550 -10.70100 26.75250
C 23.18550 -8.91750 24.96900
C 22.29375 -9.80925 25.86075
C 22.29375 -8.02575 27.64425
C 24.07725 -9.80925 27.64425
C 24.07725 -8.02575 25.86075
C 21.40200 -10.70100 28.53600
C 21.40200 -8.91750 30.31950
C 23.18550 -10.70100 30.31950
C 23.18550 -8.91750 28.53600
C 22.29375 -9.80925 29.42775
C 22.29375 -8.02575 31.21125
C 24.07725 -9.80925 31.21125
C 24.07725 -8.02575 29.42775
C 21.40200 -10.70100 32.10300
C 21.40200 -8.91750 33.88650
C 23.18550 -10.70100 33.88650
C 23.18550 -8.91750 32.10300
C 22.29375 -9.80925 32.99475
C 22.29375 -8.02575 34.77825
C 24.07725 -9.80925 34.77825
C 24.07725 -8.02575 32.99475
C 21.40200 -7.13400 17.83500
C 21.40200 -5.35050 19.61850
C 23.18550 -7.13400 19.61850
C 23.18550 -5.35050 17.83500
C 22.29375 -6.24225 18.72675
C 22.29375 -4.45875 20.51025
C 24.07725 -6.24225 20.51025
C 24.07725 -4.45875 18.72675
C 21.40200 -7.13400 21.40200
C 21.40200 -5.35050 23.18550
C 23.18550 -7.13400 23.18550
C 23.18550 -5.35050 21.40200
C 22.29375 -6.24225 22.29375
C 22.29375 -4.45875 24.07725
C 24.07725 -6.24225 24.07725
C 24.07725 -4.45875 22.29375
C 21.40200 -7.13400 24.96900
C 21.40200 -5.35050 26.75250
C 23.18550 -7.13400 26.75250
C 23.18550 -5.35050 24.96900
C 22.29375 -6.24225 25.86075
C 22.29375 -4.45875 27.64425
C 24.07725 -6.24225 27.64425
C 24.07725 -4.45875 25.86075
C 21.40200 -7.13400 28.53600
C 21.40200 -5.35050 30.31950
C 23.18550 -7.13400 30.31950
C 23.18550 -5.35050 28.53600
C 22.29375 -6.24225 29.42775
C 22.29375 -4.45875 31.21125
C 24.07725 -6.24225 31.21125
C 24.07725 -4.45875 29.42775
C 21.40200 -7.13400 32.10300
C 21.40200 -5.35050 33.88650
C 23.18550 -7.13400 33.88650
C 23.18550 -5.35050 32.10300
C 22.29375 -6.24225 32.99475
C 22.29375 -4.45875 34.77825
C 24.07725 -6.24225 34.77825
C 24.07725 -4.45875 32.99475
C 21.40200 -3.56700 17.83500
C 21.40200 -1.78350 19.61850
C 23.18550 -3.56700 19.61850
C 23.18550 -1.78350 17.83500
C 22.29375 -2.67525 18.72675
C 22.29375 -0.89175 20.51025
C 24.07725 -2.67525 20.51025
C 24.07725 -0.89175 18.72675
C 21.40200 -3.56700 21.40200
C 21.40200 -1.78350 23.18550
C 23.18550 -3.56700 23.18550
C 23.18550 -1.78350 21.40200
C 22.29375 -2.67525 22.29375
C 22.29375 -0.89175 24.07725
C 24.07725 -2.67525 24.07725
C 24.07725 -0.89175 22.29375
C 21.40200 -3.56700 24.96900
C 21.40200 -1.78350 26.75250
C 23.18550 -3.56700 26.75250
C 23.18550 -1.78350 24.96900
C 22.29375 -2.67525 25.86075
C 22.29375 -0.89175 27.64425
C 24.07725 -2.67525 27.64425
C 24.07725 -0.89175 25.86075
C 21.40200 -3.56700 28.53600
C 21.40200 -1.78350 30.31950
C 23.18550 -3.56700 30.31950
C 23.18550 -1.78350 28.53600
C 22.29375 -2.67525 29.42775
C 22.29375 -0.89175 31.21125
C 24.07725 -2.67525 31.21125
C 24.07725 -0.89175 29.42775
C 21.40200 -3.56700 32.10300
C 21.40200 -1.78350 33.88650
C 23.18550 -3.56700 33.88650
C 23.18550 -1.78350 32.10300
C 22.29375 -2.67525 32.99475
C 22.29375 -0.89175 34.77825
C 24.07725 -2.67525 34.77825
C 24.07725 -0.89175 32.99475
C 24.96900 -17.83500 17.83500
C 24.96900 -16.05150 19.61850
C 26.75250 -17.83500 19.61850
C 26.75250 -16.05150 17.83500
C 25.86075 -16.94325 18.72675
C 25.86075 -15.15975 20.51025
C 27.64425 -16.94325 20.51025
C 27.64425 -15.15975 18.72675
C 24.96900 -17.83500 21.40200
C 24.96900 -16.05150 23.18550
C 26.75250 -17.83500 23.18550
C 26.75250 -16.05150 21.40200
C 25.86075 -16.94325 22.29375
C 25.86075 -15.15975 24.07725
C 27.64425 -16.94325 24.07725
C 27.64425 -15.15975 22.29375
C 24.96900 -17.83500 24.96900
C 24.96900 -16.05150 26.75250
C 26.75250 -17.83500 26.75250
C 26.75250 -16.05150 24.96900
C 25.86075 -16.94325 25.86075
C 25.86075 -15.15975 27.64425
C 27.64425 -16.94325 27.64425
C 27.64425 -15.15975 25.86075
C 24.96900 -17.83500 28.53600
C 24.96900 -16.05150 30.31950
C 26.75250 -17.83500 30.31950
C 26.75250 -16.05150 28.53600
C 25.86075 -16.94325 29.42775
C 25.86075 -15.15975 31.21125
C 27.64425 -16.94325 31.21125
C 27.64425 -15.15975 29.42775
C 24.96900 -17.83500 32.10300
C 24.96900 -16.05150 33.88650
C 26.75250 -17.83500 33.88650
C 26.75250 -16.05150 32.10300
C 25.86075 -16.94325 32.99475
C 25.86075 -15.15975 34.77825
C 27.64425 -16.94325 34.77825
C 27.64425 -15.15975 32.99475
C 24.96900 -14.26800 17.83500
C 24.96900 -12.48450 19.61850
C 26.75250 -14.26800 19.61850
C 26.75250 -12.48450 17.83500
C 25.86075 -13.37625 18.72675
C 25.86075 -11.59275 20.51025
C 27.64425 -13.37625 20.51025
C 27.64425 -11.59275 18.72675
C 24.96900 -14.26800 21.40200
C 24.96900 -12.48450 23.18550
C 26.75250 -14.26800 23.18550
C 26.75250 -12.48450 21.40200
C 25.86075 -13.37625 22.29375
C 25.86075 -11.59275 24.07725
C 27.64425 -13.37625 24.07725
C 27.64425 -11.59275 22.29375
C 24.96900 -14.26800 24.96900
C 24.96900 -12.48450 26.75250
C 26.75250 -14.26800 26.75250
C 26.75250 -12.48450 24.96900
C 25.86075 -13.37625 25.86075
C 25.86075 -11.59275 27.64425
C 27.64425 -13.37625 27.64425
C 27.64425 -11.59275 25.86075
C 24.96900 -14.26800 28.53600
C 24.96900 -12.48450 30.31950
C 26.75250 -14.26800 30.31950
C 26.75250 -12.48450 28.53600
C 25.86075 -13.37625 29.42775
C 25.86075 -11.59275 31.21125
C 27.64425 -13.37625 31.21125
C 27.64425 -11.59275 29.42775
C 24.96900 -14.26800 32.10300
C 24.96900 -12.48450 33.88650
C 26.75250 -14.26800 33.88650
C 26.75250 -12.48450 32.10300
C 25.86075 -13.37625 32.99475
C 25.86075 -11.59275 34.77825
C 27.64425 -13.37625 34.77825
C 27.64425 -11.59275 32.99475
C 24.96900 -10.70100 17.83500
C 24.96900 -8.91750 19.61850
C 26.75250 -10.70100 19.61850
C 26.75250 -8.91750 17.83500
C 25.86075 -9.80925 18.72675
C 25.86075 -8.02575 20.51025
C 27.64425 -9.80925 20.51025
C 27.64425 -8.02575 18.72675
C 24.96900 -10.70100 21.40200
C 24.96900 -8.91750 23.18550
C 26.75250 -10.70100 23.18550
C 26.75250 -8.91750 21.40200
C 25.86075 -9.80925 22.29375
C 25.86075 -8.02575 24.07725
C 27.64425 -9.80925 24.07725
C 27.64425 -8.02575 22.29375
C 24.96900 -10.70100 24.96900
C 24.96900 -8.91750 26.75250
C 26.75250 -10.70100 26.75250
C 26.75250 -8.91750 24.96900
C 25.86075 -9.80925 25.86075
C 25.86075 -8.02575 27.64425
C 27.64425 -9.80925 27.64425
C 27.64425 -8.02575 25.86075
C 24.96900 -10.70100 28.53600
C 24.96900 -8.91750 30.31950
C 26.75250 -10.70100 30.31950
C 26.75250 -8.91750 28.53600
C 25.86075 -9.80925 29.42775
C 25.86075 -8.02575 31.21125
C 27.64425 -9.80925 31.21125
C 27.64425 -8.02575 29.42775
C 24.96900 -10.70100 32.10300
C 24.96900 -8.91750 33.88650
C 26.75250 -10.70100 33.88650
C 26.75250 -8.91750 32.10300
C 25.86075 -9.80925 32.99475
C 25.86075 -8.02575 34.77825
C 27.64425 -9.80925 34.77825
C 27.64425 -8.02575 32.99475
C 24.96900 -7.13400 17.83500
C 24.96900 -5.35050 19.61850
C 26.75250 -7.13400 19.61850
C 26.75250 -5.35050 17.83500
C 25.86075 -6.24225 18.72675
C 25.86075 -4.45875 20.51025
C 27.64425 -6.24225 20.51025
C 27.64425 -4.45875 18.72675
C 24.96900 -7.13400 21.40200
C 24.96900 -5.35050 23.18550
C 26.75250 -7.13400 23.18550
C 26.75250 -5.35050 21.40200
C 25.86075 -6.24225 22.29375
C 25.86075 -4.45875 24.07725
C 27.64425 -6.24225 24.07725
C 27.64425 -4.45875 22.29375
C 24.96900 -7.13400 24.96900
C 24.96900 -5.35050 26.75250
C 26.75250 -7.13400 26.75250
C 26.75250 -5.35050 24.96900
C 25.86075 -6.24225 25.86075
C 25.86075 -4.45875 27.64425
C 27.64425 -6.24225 27.64425
C 27.64425 -4.45875 25.86075
C 24.96900 -7.13400 28.53600
C 24.96900 -5.35050 30.31950
C 26.75250 -7.13400 30.31950
C 26.75250 -5.35050 28.53600
C 25.86075 -6.24225 29.42775
C 25.86075 -4.45875 31.21125
C 27.64425 -6.24225 31.21125
C 27.64425 -4.45875 29.42775
C 24.96900 -7.13400 32.10300
C 24.96900 -5.35050 33.88650
C 26.75250 -7.13400 33.88650
C 26.75250 -5.35050 32.10300
C 25.86075 -6.24225 32.99475
C 25.86075 -4.45875 34.77825
C 27.64425 -6.24225 34.77825
C 27.64425 -4.45875 32.99475
C 24.96900 -3.56700 17.83500
C 24.96900 -1.78350 19.61850
C 26.75250 -3.56700 19.61850
C 26.75250 -1.78350 17.83500
C 25.86075 -2.67525 18.72675
C 25.86075 -0.89175 20.51025
C 27.64425 -2.67525 20.51025
C 27.64425 -0.89175 18.72675
C 24.96900 -3.56700 21.40200
C 24.96900 -1.78350 23.18550
C 26.75250 -3.56700 23.18550
C 26.75250 -1.78350 21.40200
C 25.86075 -2.67525 22.29375
C 25.86075 -0.89175 24.07725
C 27.64425 -2.67525 24.07725
C 27.64425 -0.89175 22.29375
C 24.96900 -3.56700 24.96900
C 24.96900 -1.78350 26.75250
C 26.75250 -3.56700 26.75250
C 26.75250 -1.78350 24.96900
C 25.86075 -2.67525 25.86075
C 25.86075 -0.89175 27.64425
C 27.64425 -2.67525 27.64425
C 27.64425 -0.89175 25.86075
C 24.96900 -3.56700 28.53600
C 24.96900 -1.78350 30.31950
C 26.75250 -3.56700 30.31950
C 26.75250 -1.78350 28.53600
C 25.86075 -2.67525 29.42775
C 25.86075 -0.89175 31.21125
C 27.64425 -2.67525 31.21125
C 27.64425 -0.89175 29.42775
C 24.96900 -3.56700 32.10300
C 24.96900 -1.78350 33.88650
C 26.75250 -3.56700 33.88650
C 26.75250 -1.78350 32.10300
C 25.86075 -2.67525 32.99475
C 25.86075 -0.89175 34.77825
C 27.64425 -2.67525 34.77825
C 27.64425 -0.89175 32.99475
C 28.53600 -17.83500 17.83500
C 28.53600 -16.05150 19.61850
C 30.31950 -17.83500 19.61850
C 30.31950 -16.05150 17.83500
C 29.42775 -16.94325 18.72675
C 29.42775 -15.15975 20.51025
C 31.21125 -16.94325 20.51025
C 31.21125 -15.15975 18.72675
C 28.53600 -17.83500 21.40200
C 28.53600 -16.05150 23.18550
C 30.31950 -17.83500 23.18550
C 30.31950 -16.05150 21.40200
C 29.42775 -16.94325 22.29375
C 29.42775 -15.15975 24.07725
C 31.21125 -16.94325 24.07725
C 31.21125 -15.15975 22.29375
C 28.53600 -17.83500 24.96900
C 28.53600 -16.05150 26.75250
C 30.31950 -17.83500 26.75250
C 30.31950 -16.05150 24.96900
C 29.42775 -16.94325 25.86075
C 29.42775 -15.15975 27.64425
C 31.21125 -16.94325 27.64425
C 31.21125 -15.15975 25.86075
C 28.53600 -17.83500 28.53600
C 28.53600 -16.05150 30.31950
C 30.31950 -17.83500 30.31950
C 30.31950 -16.05150 28.53600
C 29.42775 -16.94325 29.42775
C 29.42775 -15.15975 31.21125
C 31.21125 -16.94325 31.21125
C 31.21125 -15.15975 29.42775
C 28.53600 -17.83500 32.10300
C 28.53600 -16.05150 33.88650
C 30.31950 -17.83500 33.88650
C 30.31950 -16.05150 32.10300
C 29.42775 -16.94325 32.99475
C 29.42775 -15.15975 34.77825
C 31.21125 -16.94325 34.77825
C 31.21125 -15.15975 32.99475
C 28.53600 -14.26800 17.83500
C 28.53600 -12.48450 19.61850
C 30.31950 -14.26800 19.61850
C 30.31950 -12.48450 17.83500
C 29.42775 -13.37625 18.72675
C 29.42775 -11.59275 20.51025
C 31.21125 -13.37625 20.51025
C 31.21125 -11.59275 18.72675
C 28.53600 -14.26800 21.40200
C 28.53600 -12.48450 23.18550
C 30.31950 -14.26800 23.18550
C 30.31950 -12.48450 21.40200
C 29.42775 -13.37625 22.29375
C 29.42775 -11.59275 24.07725
C 31.21125 -13.37625 24.07725
C 31.21125 -11.59275 22.29375
C 28.53600 -14.26800 24.96900
C 28.53600 -12.48450 26.75250
C 30.31950 -14.26800 26.75250
C 30.31950 -12.48450 24.96900
C 29.42775 -13.37625 25.86075
C 29.42775 -11.59275 27.64425
C 31.21125 -13.37625 27.64425
C 31.21125 -11.59275 25.86075
C 28.53600 -14.26800 28.53600
C 28.53600 -12.48450 30.31950
C 30.31950 -14.26800 30.31950
C 30.31950 -12.48450 28.53600
C 29.42775 -13.37625 29.42775
C 29.42775 -11.59275 31.21125
C 31.21125 -13.37625 31.21125
C 31.21125 -11.59275 29.42775
C 28.53600 -14.26800 32.10300
C 28.53600 -12.48450 33.88650
C 30.31950 -14.26800 33.88650
C 30.31950 -12.48450 32.10300
C 29.42775 -13.37625 32.99475
C 29.42775 -11.59275 34.77825
C 31.21125 -13.37625 34.77825
C 31.21125 -11.59275 32.99475
C 28.53600 -10.70100 17.83500
C 28.53600 -8.91750 19.61850
C 30.31950 -10.70100 19.61850
C 30.31950 -8.91750 17.83500
C 29.42775 -9.80925 18.72675
C 29.42775 -8.02575 20.51025
C 31.21125 -9.80925 20.51025
C 31.21125 -8.02575 18.72675
C 28.53600 -10.70100 21.40200
C 28.53600 -8.91750 23.18550
C 30.31950 -10.70100 23.18550
C 30.31950 -8.91750 21.40200
C 29.42775 -9.80925 22.29375
C 29.42775 -8.02575 24.07725
C 31.21125 -9.80925 24.07725
C 31.21125 -8.02575 22.29375
C 28.53600 -10.70100 24.96900
C 28.53600 -8.91750 26.75250
C 30.31950 -10.70100 26.75250
C 30.31950 -8.91750 24.96900
C 29.42775 -9.80925 25.86075
C 29.42775 -8.02575 27.64425
C 31.21125 -9.80925 27.64425
C 31.21125 -8.02575 25.86075
C 28.53600 -10.70100 28.53600
C 28.53600 -8.91750 30.31950
C 30.31950 -10.70100 30.31950
C 30.31950 -8.91750 28.53600
C 29.42775 -9.80925 29.42775
C 29.42775 -8.02575 31.21125
C 31.21125 -9.80925 31.21125
C 31.21125 -8.02575 29.42775
C 28.53600 -10.70100 32.10300
C 28.53600 -8.91750 33.88650
C 30.31950 -10.70100 33.88650
C 30.31950 -8.91750 32.10300
C 29.42775 -9.80925 32.99475
C 29.42775 -8.02575 34.77825
C 31.21125 -9.80925 34.77825
C 31.21125 -8.02575 32.99475
C 28.53600 -7.13400 17.83500
C 28.53600 -5.35050 19.61850
C 30.31950 -7.13400 19.61850
C 30.31950 -5.35050 17.83500
C 29.42775 -6.24225 18.72675
C 29.42775 -4.45875 20.51025
C 31.21125 -6.24225 20.51025
C 31.21125 -4.45875 18.72675
C 28.53600 -7.13400 21.40200
C 28.53600 -5.35050 23.18550
C 30.31950 -7.13400 23.18550
C 30.31950 -5.35050 21.40200
C 29.42775 -6.24225 22.29375
C 29.42775 -4.45875 24.07725
C 31.21125 -6.24225 24.07725
C 31.21125 -4.45875 22.29375
C 28.53600 -7.13400 24.96900
C 28.53600 -5.35050 26.75250
C 30.31950 -7.13400 26.75250
C 30.31950 -5.35050 24.96900
C 29.42775 -6.24225 25.86075
C 29.42775 -4.45875 27.64425
C 31.21125 -6.24225 27.64425
C 31.21125 -4.45875 25.86075
C 28.53600 -7.13400 28.53600
C 28.53600 -5.35050 30.31950
C 30.31950 -7.13400 30.31950
C 30.31950 -5.35050 28.53600
C 29.42775 -6.24225 29.42775
C 29.42775 -4.45875 31.21125
C 31.21125 -6.24225 31.21125
C 31.21125 -4.45875 29.42775
C 28.53600 -7.13400 32.10300
C 28.53600 -5.35050 33.88650
C 30.31950 -7.13400 33.88650
C 30.31950 -5.35050 32.10300
C 29.42775 -6.24225 32.99475
C 29.42775 -4.45875 34.77825
C 31.21125 -6.24225 34.77825
C 31.21125 -4.45875 32.99475
C 28.53600 -3.56700 17.83500
C 28.53600 -1.78350 19.61850
C 30.31950 -3.56700 19.61850
C 30.31950 -1.78350 17.83500
C 29.42775 -2.67525 18.72675
C 29.42775 -0.89175 20.51025
C 31.21125 -2.67525 20.51025
C 31.21125 -0.89175 18.72675
C 28.53600 -3.56700 21.40200
C 28.53600 -1.78350 23.18550
C 30.31950 -3.56700 23.18550
C 30.31950 -1.78350 21.40200
C 29.42775 -2.67525 22.29375
C 29.42775 -0.89175 24.07725
C 31.21125 -2.67525 24.07725
C 31.21125 -0.89175 22.29375
C 28.53600 -3.56700 24.96900
C 28.53600 -1.78350 26.75250
C 30.31950 -3.56700 26.75250
C 30.31950 -1.78350 24.96900
C 29.42775 -2.67525 25.86075
C 29.42775 -0.89175 27.64425
C 31.21125 -2.67525 27.64425
C 31.21125 -0.89175 25.86075
C 28.53600 -3.56700 28.53600
C 28.53600 -1.78350 30.31950
C 30.31950 -3.56700 30.31950
C 30.31950 -1.78350 28.53600
C 29.42775 -2.67525 29.42775
C 29.42775 -0.89175 31.21125
C 31.21125 -2.67525 31.21125
C 31.21125 -0.89175 29.42775
C 28.53600 -3.56700 32.10300
C 28.53600 -1.78350 33.88650
C 30.31950 -3.56700 33.88650
C 30.31950 -1.78350 32.10300
C 29.42775 -2.67525 32.99475
C 29.42775 -0.89175 34.77825
C 31.21125 -2.67525 34.77825
C 31.21125 -0.89175 32.99475
C 32.10300 -17.83500 17.83500
C 32.10300 -16.05150 19.61850
C 33.88650 -17.83500 19.61850
C 33.88650 -16.05150 17.83500
C 32.99475 -16.94325 18.72675
C 32.99475 -15.15975 20.51025
C 34.77825 -16.94325 20.51025
C 34.77825 -15.15975 18.72675
C 32.10300 -17.83500 21.40200
C 32.10300 -16.05150 23.18550
C 33.88650 -17.83500 23.18550
C 33.88650 -16.05150 21.40200
C 32.99475 -16.94325 22.29375
C 32.99475 -15.15975 24.07725
C 34.77825 -16.94325 24.07725
C 34.77825 -15.15975 22.29375
C 32.10300 -17.83500 24.96900
C 32.10300 -16.05150 26.75250
C 33.88650 -17.83500 26.75250
C 33.88650 -16.05150 24.96900
C 32.99475 -16.94325 25.86075
C 32.99475 -15.15975 27.64425
C 34.77825 -16.94325 27.64425
C 34.77825 -15.15975 25.86075
C 32.10300 -17.83500 28.53600
C 32.10300 -16.05150 30.31950
C 33.88650 -17.83500 30.31950
C 33.88650 -16.05150 28.53600
C 32.99475 -16.94325 29.42775
C 32.99475 -15.15975 31.21125
C 34.77825 -16.94325 31.21125
C 34.77825 -15.15975 29.42775
C 32.10300 -17.83500 32.10300
C 32.10300 -16.05150 33.88650
C 33.88650 -17.83500 33.88650
C 33.88650 -16.05150 32.10300
C 32.99475 -16.94325 32.99475
C 32.99475 -15.15975 34.77825
C 34.77825 -16.94325 34.77825
C 34.77825 -15.15975 32.99475
C 32.10300 -14.26800 17.83500
C 32.10300 -12.48450 19.61850
C 33.88650 -14.26800 19.61850
C 33.88650 -12.48450 17.83500
C 32.99475 -13.37625 18.72675
C 32.99475 -11.59275 20.51025
C 34.77825 -13.37625 20.51025
C 34.77825 -11.59275 18.72675
C 32.10300 -14.26800 21.40200
C 32.10300 -12.48450 23.18550
C 33.88650 -14.26800 23.18550
C 33.88650 -12.48450 21.40200
C 32.99475 -13.37625 22.29375
C 32.99475 -11.59275 24.07725
C 34.77825 -13.37625 24.07725
C 34.77825 -11.59275 22.29375
C 32.10300 -14.26800 24.96900
C 32.10300 -12.48450 26.75250
C 33.88650 -14.26800 26.75250
C 33.88650 -12.48450 24.96900
C 32.99475 -13.37625 25.86075
C 32.99475 -11.59275 27.64425
C 34.77825 -13.37625 27.64425
C 34.77825 -11.59275 25.86075
C 32.10300 -14.26800 28.53600
C 32.10300 -12.48450 30.31950
C 33.88650 -14.26800 30.31950
C 33.88650 -12.48450 28.53600
C 32.99475 -13.37625 29.42775
C 32.99475 -11.59275 31.21125
C 34.77825 -13.37625 31.21125
C 34.77825 -11.59275 29.42775
C 32.10300 -14.26800 32.10300
C 32.10300 -12.48450 33.88650
C 33.88650 -14.26800 33.88650
C 33.88650 -12.48450 32.10300
C 32.99475 -13.37625 32.99475
C 32.99475 -11.59275 34.77825
C 34.77825 -13.37625 34.77825
C 34.77825 -11.59275 32.99475
C 32.10300 -10.70100 17.83500
C 32.10300 -8.91750 19.61850
C 33.88650 -10.70100 19.61850
C 33.88650 -8.91750 17.83500
C 32.99475 -9.80925 18.72675
C 32.99475 -8.02575 20.51025
C 34.77825 -9.80925 20.51025
C 34.77825 -8.02575 18.72675
C 32.10300 -10.70100 21.40200
C 32.10300 -8.91750 23.18550
C 33.88650 -10.70100 23.18550
C 33.88650 -8.91750 21.40200
C 32.99475 -9.80925 22.29375
C 32.99475 -8.02575 24.07725
C 34.77825 -9.80925 24.07725
C 34.77825 -8.02575 22.29375
C 32.10300 -10.70100 24.96900
C 32.10300 -8.91750 26.75250
C 33.88650 -10.70100 26.75250
C 33.88650 -8.91750 24.96900
C 32.99475 -9.80925 25.86075
C 32.99475 -8.02575 27.64425
C 34.77825 -9.80925 27.64425
C 34.77825 -8.02575 25.86075
C 32.10300 -10.70100 28.53600
C 32.10300 -8.91750 30.31950
C 33.88650 -10.70100 30.31950
C 33.88650 -8.91750 28.53600
C 32.99475 -9.80925 29.42775
C 32.99475 -8.02575 31.21125
C 34.77825 -9.80925 31.21125
C 34.77825 -8.02575 29.42775
C 32.10300 -10.70100 32.10300
C 32.10300 -8.91750 33.88650
C 33.88650 -10.70100 33.88650
C 33.88650 -8.91750 32.10300
C 32.99475 -9.80925 32.99475
C 32.99475 -8.02575 34.77825
C 34.77825 -9.80925 34.77825
C 34.77825 -8.02575 32.99475
C 32.10300 -7.13400 17.83500
C 32.10300 -5.35050 19.61850
C 33.88650 -7.13400 19.61850
C 33.88650 -5.35050 17.83500
C 32.99475 -6.24225 18.72675
C 32.99475 -4.45875 20.51025
C 34.77825 -6.24225 20.51025
C 34.77825 -4.45875 18.72675
C 32.10300 -7.13400 21.40200
C 32.10300 -5.35050 23.18550
C 33.88650 -7.13400 23.18550
C 33.88650 -5.35050 21.40200
C 32.99475 -6.24225 22.29375
C 32.99475 -4.45875 24.07725
C 34.77825 -6.24225 24.07725
C 34.77825 -4.45875 22.29375
C 32.10300 -7.13400 24.96900
C 32.10300 -5.35050 26.75250
C 33.88650 -7.13400 26.75250
C 33.88650 -5.35050 24.96900
C 32.99475 -6.24225 25.86075
C 32.99475 -4.45875 27.64425
C 34.77825 -6.24225 27.64425
C 34.77825 -4.45875 25.86075
C 32.10300 -7.13400 28.53600
C 32.10300 -5.35050 30.31950
C 33.88650 -7.13400 30.31950
C 33.88650 -5.35050 28.53600
C 32.99475 -6.24225 29.42775
C 32.99475 -4.45875 31.21125
C 34.77825 -6.24225 31.21125
C 34.77825 -4.45875 29.42775
C 32.10300 -7.13400 32.10300
C 32.10300 -5.35050 33.88650
C 33.88650 -7.13400 33.88650
C 33.88650 -5.35050 32.10300
C 32.99475 -6.24225 32.99475
C 32.99475 -4.45875 34.77825
C 34.77825 -6.24225 34.77825
C 34.77825 -4.45875 32.99475
C 32.10300 -3.56700 17.83500
C 32.10300 -1.78350 19.61850
C 33.88650 -3.56700 19.61850
C 33.88650 -1.78350 17.83500
C 32.99475 -2.67525 18.72675
C 32.99475 -0.89175 20.51025
C 34.77825 -2.67525 20.51025
C 34.77825 -0.89175 18.72675
C 32.10300 -3.56700 21.40200
C 32.10300 -1.78350 23.18550
C 33.88650 -3.56700 23.18550
C 33.88650 -1.78350 21.40200
C 32.99475 -2.67525 22.29375
C 32.99475 -0.89175 24.07725
C 34.77825 -2.67525 24.07725
C 34.77825 -0.89175 22.29375
C 32.10300 -3.56700 24.96900
C 32.10300 -1.78350 26.75250
C 33.88650 -3.56700 26.75250
C 33.88650 -1.78350 24.96900
C 32.99475 -2.67525 25.86075
C 32.99475 -0.89175 27.64425
C 34.77825 -2.67525 27.64425
C 34.77825 -0.89175 25.86075
C 32.10300 -3.56700 28.53600
C 32.10300 -1.78350 30.31950
C 33.88650 -3.56700 30.31950
C 33.88650 -1.78350 28.53600
C 32.99475 -2.67525 29.42775
C 32.99475 -0.89175 31.21125
C 34.77825 -2.67525 31.21125
C 34.77825 -0.89175 29.42775
C 32.10300 -3.56700 32.10300
C 32.10300 -1.78350 33.88650
C 33.88650 -3.56700 33.88650
C 33.88650 -1.78350 32.10300
C 32.99475 -2.67525 32.99475
C 32.99475 -0.89175 34.77825
C 34.77825 -2.67525 34.77825
C 34.77825 -0.89175 32.99475
N 17.83500  0.00000 -17.83500
C 17.83500  1.78350 -16.05150
C 19.61850  0.00000 -16.05150
C 19.61850  1.78350 -17.83500
C 18.72675  0.89175 -16.94325
C 18.72675  2.67525 -15.15975
C 20.51025  0.89175 -15.15975
C 20.51025  2.67525 -16.94325
C 17.83500  0.00000 -14.26800
C 17.83500  1.78350 -12.48450
C 19.61850  0.00000 -12.48450
C 19.61850  1.78350 -14.26800
C 18.72675  0.89175 -13.37625
C 18.72675  2.67525 -11.59275
C 20.51025  0.89175 -11.59275
C 20.51025  2.67525 -13.37625
C 17.83500  0.00000 -10.70100
C 17.83500  1.78350 -8.91750
C 19.61850  0.00000 -8.91750
C 19.61850  1.78350 -10.70100
C 18.72675  0.89175 -9.80925
C 18.72675  2.67525 -8.02575
C 20.51025  0.89175 -8.02575
C 20.51025  2.67525 -9.80925
C 17.83500  0.00000 -7.13400
C 17.83500  1.78350 -5.35050
C 19.61850  0.00000 -5.35050
C 19.61850  1.78350 -7.13400
C 18.72675  0.89175 -6.24225
C 18.72675  2.67525 -4.45875
C 20.51025  0.89175 -4.45875
C 20.51025  2.67525 -6.24225
C 17.83500  0.00000 -3.56700
C 17.83500  1.78350 -1.78350
C 19.61850  0.00000 -1.78350
C 19.61850  1.78350 -3.56700
C 18.72675  0.89175 -2.67525
C 18.72675  2.67525 -0.89175
C 20.51025  0.89175 -0.89175
C 20.51025  2.67525 -2.67525
C 17.83500  3.56700 -17.83500
C 17.83500  5.35050 -16.05150
C 19.61850  3.56700 -16.05150
C 19.61850  5.35050 -17.83500
C 18.72675  4.45875 -16.94325
C 18.72675  6.24225 -15.15975
C 20.51025  4.45875 -15.15975
C 20.51025  6.24225 -16.94325
C 17.83500  3.56700 -14.26800
C 17.83500  5.35050 -12.48450
C 19.61850  3.56700 -12.48450
C 19.61850  5.35050 -14.26800
C 18.72675  4.45875 -13.37625
C 18.72675  6.24225 -11.59275
C 20.51025  4.45875 -11.59275
C 20.51025  6.24225 -13.37625
C 17.83500  3.56700 -10.70100
C 17.83500  5.35050 -8.91750
C 19.61850  3.56700 -8.91750
C 19.61850  5.35050 -10.70100
C 18.72675  4.45875 -9.80925
C 18.72675  6.24225 -8.02575
C 20.51025  4.45875 -8.02575
C 20.51025  6.24225 -9.80925
C 17.83500  3.56700 -7.13400
C 17.83500  5.35050 -5.35050
C 19.61850  3.56700 -5.35050
C 19.61850  5.35050 -7.13400
C 18.72675  4.45875 -6.24225
C 18.72675  6.24225 -4.45875
C 20.51025  4.45875 -4.45875
C 20.51025  6.24225 -6.24225
C 17.83500  3.56700 -3.56700
C 17.83500  5.35050 -1.78350
C 19.61850  3.56700 -1.78350
C 19.61850  5.35050 -3.56700
C 18.72675  4.45875 -2.67525
C 18.72675  6.24225 -0.89175
C 20.51025  4.45875 -0.89175
C 20.51025  6.24225 -2.67525
C 17.83500  7.13400 -17.83500
C 17.83500  8.91750 -16.05150
C 19.61850  7.13400 -16.05150
C 19.61850  8.91750 -17.83500
C 18.72675  8.02575 -16.94325
C 18.72675  9.80925 -15.15975
C 20.51025  8.02575 -15.15975
C 20.51025  9.80925 -16.94325
C 17.83500  7.13400 -14.26800
C 17.83500  8.91750 -12.48450
C 19.61850  7.13400 -12.48450
C 19.61850  8.91750 -14.26800
C 18.72675  8.02575 -13.37625
C 18.72675  9.80925 -11.59275
C 20.51025  8.02575 -11.59275
C 20.51025  9.80925 -13.37625
C 17.83500  7.13400 -10.70100
C 17.83500  8.91750 -8.91750
C 19.61850  7.13400 -8.91750
C 19.61850  8.91750 -10.70100
C 18.72675  8.02575 -9.80925
C 18.72675  9.80925 -8.02575
C 20.51025  8.02575 -8.02575
C 20.51025  9.80925 -9.80925
C 17.83500  7.13400 -7.13400
C 17.83500  8.91750 -5.35050
C 19.61850  7.13400 -5.35050
C 19.61850  8.91750 -7.13400
C 18.72675  8.02575 -6.24225
C 18.72675  9.80925 -4.45875
C 20.51025  8.02575 -4.45875
C 20.51025  9.80925 -6.24225
C 17.83500  7.13400 -3.56700
C 17.83500  8.91750 -1.78350
C 19.61850  7.13400 -1.78350
C 19.61850  8.91750 -3.56700
C 18.72675  8.02575 -2.67525
C 18.72675  9.80925 -0.89175
C 20.51025  8.02575 -0.89175
C 20.51025  9.80925 -2.67525
C 17.83500 10.70100 -17.83500
C 17.83500 12.48450 -16.05150
C 19.61850 10.70100 -16.05150
C 19.61850 12.48450 -17.83500
C 18.72675 11.59275 -16.94325
C 18.72675 13.37625 -15.15975
C 20.51025 11.59275 -15.15975
C 20.51025 13.37625 -16.94325
C 17.83500 10.70100 -14.26800
C 17.83500 12.48450 -12.48450
C 19.61850 10.70100 -12.48450
C 19.61850 12.48450 -14.26800
C 18.72675 11.59275 -13.37625
C 18.72675 13.37625 -11.59275
C 20.51025 11.59275 -11.59275
C 20.51025 13.37625 -13.37625
C 17.83500 10.70100 -10.70100
C 17.83500 12.48450 -8.91750
C 19.61850 10.70100 -8.91750
C 19.61850 12.48450 -10.70100
C 18.72675 11.59275 -9.80925
C 18.72675 13.37625 -8.02575
C 20.51025 11.59275 -8.02575
C 20.51025 13.37625 -9.80925
C 17.83500 10.70100 -7.13400
C 17.83500 12.48450 -5.35050
C 19.61850 10.70100 -5.35050
C 19.61850 12.48450 -7.13400
C 18.72675 11.59275 -6.24225
C 18.72675 13.37625 -4.45875
C 20.51025 11.59275 -4.45875
C 20.51025 13.37625 -6.24225
C 17.83500 10.70100 -3.56700
C 17.83500 12.48450 -1.78350
C 19.61850 10.70100 -1.78350
C 19.61850 12.48450 -3.56700
C 18.72675 11.59275 -2.67525
C 18.72675 13.37625 -0.89175
C 20.51025 11.59275 -0.89175
C 20.51025 13.37625 -2.67525
C 17.83500 14.26800 -17.83500
C 17.83500 16.05150 -16.05150
C 19.61850 14.26800 -16.05150
C 19.61850 16.05150 -17.83500
C 18.72675 15.15975 -16.94325
C 18.72675 16.94325 -15.15975
C 20.51025 15.15975 -15.15975
C 20.51025 16.94325 -16.94325
C 17.83500 14.26800 -14.26800
C 17.83500 16.05150 -12.48450
C 19.61850 14.26800 -12.48450
C 19.61850 16.05150 -14.26800
C 18.72675 15.15975 -13.37625
C 18.72675 16.94325 -11.59275
C 20.51025 15.15975 -11.59275
C 20.51025 16.94325 -13.37625
C 17.83500 14.26800 -10.70100
C 17.83500 16.05150 -8.91750
C 19.61850 14.26800 -8.91750
C 19.61850 16.05150 -10.70100
C 18.72675 15.15975 -9.80925
C 18.72675 16.94325 -8.02575
C 20.51025 15.15975 -8.02575
C 20.51025 16.94325 -9.80925
C 17.83500 14.26800 -7.13400
C 17.83500 16.05150 -5.35050
C 19.61850 14.26800 -5.35050
C 19.61850 16.05150 -7.13400
C 18.72675 15.15975 -6.24225
C 18.72675 16.94325 -4.45875
C 20.51025 15.15975 -4.45875
C 20.51025 16.94325 -6.24225
C 17.83500 14.26800 -3.56700
C 17.83500 16.05150 -1.78350
C 19.61850 14.26800 -1.78350
C 19.61850 16.05150 -3.56700
C 18.72675 15.15975 -2.67525
C 18.72675 16.94325 -0.89175
C 20.51025 15.15975 -0.89175
C 20.51025 16.94325 -2.67525
C 21.40200  0.00000 -17.83500
C 21.40200  1.78350 -16.05150
C 23.18550  0.00000 -16.05150
C 23.18550  1.78350 -17.83500
C 22.29375  0.89175 -16.94325
C 22.29375  2.67525 -15.15975
C 24.07725  0.89175 -15.15975
C 24.07725  2.67525 -16.94325
C 21.40200  0.00000 -14.26800
C 21.40200  1.78350 -12.48450
C 23.18550  0.00000 -12.48450
C 23.18550  1.78350 -14.26800
C 22.29375  0.89175 -13.37625
C 22.29375  2.67525 -11.59275
C 24.07725  0.89175 -11.59275
C 24.07725  2.67525 -13.37625
C 21.40200  0.00000 -10.70100
C 21.40200  1.78350 -8.91750
C 23.18550  0.00000 -8.91750
C 23.18550  1.78350 -10.70100
C 22.29375  0.89175 -9.80925
C 22.29375  2.67525 -8.02575
C 24.07725  0.89175 -8.02575
C 24.07725  2.67525 -9.80925
C 21.40200  0.00000 -7.13400
C 21.40200  1.78350 -5.35050
C 23.18550  0.00000 -5.35050
C 23.18550  1.78350 -7.13400
C 22.29375  0.89175 -6.24225
C 22.29375  2.67525 -4.45875
C 24.07725  0.89175 -4.45875
C 24.07725  2.67525 -6.24225
C 21.40200  0.00000 -3.56700
C 21.40200  1.78350 -1.78350
C 23.18550  0.00000 -1.78350
C 23.18550  1.78350 -3.56700
C 22.29375  0.89175 -2.67525
C 22.29375  2.67525 -0.89175
C 24.07725  0.89175 -0.89175
C 24.07725  2.67525 -2.67525
C 21.40200  3.56700 -17.83500
C 21.40200  5.35050 -16.05150
C 23.18550  3.56700 -16.05150
C 23.18550  5.35050 -17.83500
C 22.29375  4.45875 -16.94325
C 22.29375  6.24225 -15.15975
C 24.07725  4.45875 -15.15975
C 24.07725  6.24225 -16.94325
C 21.40200  3.56700 -14.26800
C 21.40200  5.35050 -12.48450
C 23.18550  3.56700 -12.48450
C 23.18550  5.35050 -14.26800
C 22.29375  4.45875 -13.37625
C 22.29375  6.24225 -11.59275
C 24.07725  4.45875 -11.59275
C 24.07725  6.24225 -13.37625
C 21.40200  3.56700 -10.70100
C 21.40200  5.35050 -8.91750
C 23.18550  3.56700 -8.91750
C 23.18550  5.35050 -10.70100
C 22.29375  4.45875 -9.80925
C 22.29375  6.24225 -8.02575
C 24.07725  4.45875 -8.02575
C 24.07725  6.24225 -9.80925
C 21.40200  3.56700 -7.13400
C 21.40200  5.35050 -5.35050
C 23.18550  3.56700 -5.35050
C 23.18550  5.35050 -7.13400
C 22.29375  4.45875 -6.24225
C 22.29375  6.24225 -4.45875
C 24.07725  4.45875 -4.45875
C 24.07725  6.24225 -6.24225
C 21.40200  3.56700 -3.56700
C 21.40200  5.35050 -1.78350
C 23.18550  3.56700 -1.78350
C 23.18550  5.35050 -3.56700
C 22.29375  4.45875 -2.67525
C 22.29375  6.24225 -0.89175
C 24.07725  4.45875 -0.89175
C 24.07725  6.24225 -2.67525
C 21.40200  7.13400 -17.83500
C 21.40200  8.91750 -16.05150
C 23.18550  7.13400 -16.05150
C 23.18550  8.91750 -17.83500
C 22.29375  8.02575 -16.94325
C 22.29375  9.80925 -15.15975
C 24.07725  8.02575 -15.15975
C 24.07725  9.80925 -16.94325
C 21.40200  7.13400 -14.26800
C 21.40200  8.91750 -12.48450
C 23.18550  7.13400 -12.48450
C 23.18550  8.91750 -14.26800
C 22.29375  8.02575 -13.37625
C 22.29375  9.80925 -11.59275
C 24.07725  8.02575 -11.59275
C 24.07725  9.80925 -13.37625
C 21.40200  7.13400 -10.70100
C 21.40200  8.91750 -8.91750
C 23.18550  7.13400 -8.91750
C 23.18550  8.91750 -10.70100
C 22.29375  8.02575 -9.80925
C 22.29375  9.80925 -8.02575
C 24.07725  8.02575 -8.02575
C 24.07725  9.80925 -9.80925
C 21.40200  7.13400 -7.13400
C 21.40200  8.91750 -5.35050
C 23.18550  7.13400 -5.35050
C 23.18550  8.91750 -7.13400
C 22.29375  8.02575 -6.24225
C 22.29375  9.80925 -4.45875
C 24.07725  8.02575 -4.45875
C 24.07725  9.80925 -6.24225
C 21.40200  7.13400 -3.56700
C 21.40200  8.91750 -1.78350
C 23.18550  7.13400 -1.78350
C 23.18550  8.91750 -3.56700
C 22.29375  8.02575 -2.67525
C 22.29375  9.80925 -0.89175
C 24.07725  8.02575 -0.89175
C 24.07725  9.80925 -2.67525
C 21.40200 10.70100 -17.83500
C 21.40200 12.48450 -16.05150
C 23.18550 10.70100 -16.05150
C 23.18550 12.48450 -17.83500
C 22.29375 11.59275 -16.94325
C 22.29375 13.37625 -15.15975
C 24.07725 11.59275 -15.15975
C 24.07725 13.37625 -16.94325
C 21.40200 10.70100 -14.26800
C 21.40200 12.48450 -12.48450
C 23.18550 10.70100 -12.48450
C 23.18550 12.48450 -14.26800
C 22.29375 11.59275 -13.37625
C 22.29375 13.37625 -11.59275
C 24.07725 11.59275 -11.59275
C 24.07725 13.37625 -13.37625
C 21.40200 10.70100 -10.70100
C 21.40200 12.48450 -8.91750
C 23.18550 10.70100 -8.91750
C 23.18550 12.48450 -10.70100
C 22.29375 11.59275 -9.80925
C 22.29375 13.37625 -8.02575
C 24.07725 11.59275 -8.02575
C 24.07725 13.37625 -9.80925
C 21.40200 10.70100 -7.13400
C 21.40200 12.48450 -5.35050
C 23.18550 10.70100 -5.35050
C 23.18550 12.48450 -7.13400
C 22.29375 11.59275 -6.24225
C 22.29375 13.37625 -4.45875
C 24.07725 11.59275 -4.45875
C 24.07725 13.37625 -6.24225
C 21.40200 10.70100 -3.56700
C 21.40200 12.48450 -1.78350
C 23.18550 10.70100 -1.78350
C 23.18550 12.48450 -3.56700
C 22.29375 11.59275 -2.67525
C 22.29375 13.37625 -0.89175
C 24.07725 11.59275 -0.89175
C 24.07725 13.37625 -2.67525
C 21.40200 14.26800 -17.83500
C 21.40200 16.05150 -16.05150
C 23.18550 14.26800 -16.05150
C 23.18550 16.05150 -17.83500
C 22.29375 15.15975 -16.94325
C 22.29375 16.94325 -15.15975
C 24.07725 15.15975 -15.15975
C 24.07725 16.94325 -16.94325
C 21.40200 14.26800 -14.26800
C 21.40200 16.05150 -12.48450
C 23.18550 14.26800 -12.48450
C 23.18550 16.05150 -14.26800
C 22.29375 15.15975 -13.37625
C 22.29375 16.94325 -11.59275
C 24.07725 15.15975 -11.59275
C 24.07725 16.94325 -13.37625
C 21.40200 14.26800 -10.70100
C 21.40200 16.05150 -8.91750
C 23.18550 14.26800 -8.91750
C 23.18550 16.05150 -10.70100
C 22.29375 15.15975 -9.80925
C 22.29375 16.94325 -8.02575
C 24.07725 15.15975 -8.02575
C 24.07725 16.94325 -9.80925
C 21.40200 14.26800 -7.13400
C 21.40200 16.05150 -5.35050
C 23.18550 14.26800 -5.35050
C 23.18550 16.05150 -7.13400
C 22.29375 15.15975 -6.24225
C 22.29375 16.94325 -4.45875
C 24.07725 15.15975 -4.45875
C 24.07725 16.94325 -6.24225
C 21.40200 14.26800 -3.56700
C 21.40200 16.05150 -1.78350
C 23.18550 14.26800 -1.78350
C 23.18550 16.05150 -3.56700
C 22.29375 15.15975 -2.67525
C 22.29375 16.94325 -0.89175
C 24.07725 15.15975 -0.89175
C 24.07725 16.94325 -2.67525
C 24.96900  0.00000 -17.83500
C 24.96900  1.78350 -16.05150
C 26.75250  0.00000 -16.05150
C 26.75250  1.78350 -17.83500
C 25.86075  0.89175 -16.94325
C 25.86075  2.67525 -15.15975
C 27.64425  0.89175 -15.15975
C 27.64425  2.67525 -16.94325
C 24.96900  0.00000 -14.26800
C 24.96900  1.78350 -12.48450
C 26.75250  0.00000 -12.48450
C 26.75250  1.78350 -14.26800
C 25.86075  0.89175 -13.37625
C 25.86075  2.67525 -11.59275
C 27.64425  0.89175 -11.59275
C 27.64425  2.67525 -13.37625
C 24.96900  0.00000 -10.70100
C 24.96900  1.78350 -8.91750
C 26.75250  0.00000 -8.91750
C 26.75250  1.78350 -10.70100
C 25.86075  0.89175 -9.80925
C 25.86075  2.67525 -8.02575
C 27.64425  0.89175 -8.02575
C 27.64425  2.67525 -9.80925
C 24.96900  0.00000 -7.13400
C 24.96900  1.78350 -5.35050
C 26.75250  0.00000 -5.35050
C 26.75250  1.78350 -7.13400
C 25.86075  0.89175 -6.24225
C 25.86075  2.67525 -4.45875
C 27.64425  0.89175 -4.45875
C 27.64425  2.67525 -6.24225
C 24.96900  0.00000 -3.56700
C 24.96900  1.78350 -1.78350
C 26.75250  0.00000 -1.78350
C 26.75250  1.78350 -3.56700
C 25.86075  0.89175 -2.67525
C 25.86075  2.67525 -0.89175
C 27.64425  0.89175 -0.89175
C 27.64425  2.67525 -2.67525
C 24.96900  3.56700 -17.83500
C 24.96900  5.35050 -16.05150
C 26.75250  3.56700 -16.05150
C 26.75250  5.35050 -17.83500
C 25.86075  4.45875 -16.94325
C 25.86075  6.24225 -15.15975
C 27.64425  4.45875 -15.15975
C 27.64425  6.24225 -16.94325
C 24.96900  3.56700 -14.26800
C 24.96900  5.35050 -12.48450
C 26.75250  3.56700 -12.48450
C 26.75250  5.35050 -14.26800
C 25.86075  4.45875 -13.37625
C 25.86075  6.24225 -11.59275
C 27.64425  4.45875 -11.59275
C 27.64425  6.24225 -13.37625
C 24.96900  3.56700 -10.70100
C 24.96900  5.35050 -8.91750
C 26.75250  3.56700 -8.91750
C 26.75250  5.35050 -10.70100
C 25.86075  4.45875 -9.80925
C 25.86075  6.24225 -8.02575
C 27.64425  4.45875 -8.02575
C 27.64425  6.24225 -9.80925
C 24.96900  3.56700 -7.13400
C 24.96900  5.35050 -5.35050
C 26.75250  3.56700 -5.35050
C 26.75250  5.35050 -7.13400
C 25.86075  4.45875 -6.24225
C 25.86075  6.24225 -4.45875
C 27.64425  4.45875 -4.45875
C 27.64425  6.24225 -6.24225
C 24.96900  3.56700 -3.56700
C 24.96900  5.35050 -1.78350
C 26.75250  3.56700 -1.78350
C 26.75250  5.35050 -3.56700
C 25.86075  4.45875 -2.67525
C 25.86075  6.24225 -0.89175
C 27.64425  4.45875 -0.89175
C 27.64425  6.24225 -2.67525
C 24.96900  7.13400 -17.83500
C 24.96900  8.91750 -16.05150
C 26.75250  7.13400 -16.05150
C 26.75250  8.91750 -17.83500
C 25.86075  8.02575 -16.94325
C 25.86075  9.80925 -15.15975
C 27.64425  8.02575 -15.15975
C 27.64425  9.80925 -16.94325
C 24.96900  7.13400 -14.26800
C 24.96900  8.91750 -12.48450
C 26.75250  7.13400 -12.48450
C 26.75250  8.91750 -14.26800
C 25.86075  8.02575 -13.37625
C 25.86075  9.80925 -11.59275
C 27.64425  8.02575 -11.59275
C 27.64425  9.80925 -13.37625
C 24.96900  7.13400 -10.70100
C 24.96900  8.91750 -8.91750
C 26.75250  7.13400 -8.91750
C 26.75250  8.91750 -10.70100
C 25.86075  8.02575 -9.80925
C 25.86075  9.80925 -8.02575
C 27.64425  8.02575 -8.02575
C 27.64425  9.80925 -9.80925
C 24.96900  7.13400 -7.13400
C 24.96900  8.91750 -5.35050
C 26.75250  7.13400 -5.35050
C 26.75250  8.91750 -7.13400
C 25.86075  8.02575 -6.24225
C 25.86075  9.80925 -4.45875
C 27.64425  8.02575 -4.45875
C 27.64425  9.80925 -6.24225
C 24.96900  7.13400 -3.56700
C 24.96900  8.91750 -1.78350
C 26.75250  7.13400 -1.78350
C 26.75250  8.91750 -3.56700
C 25.86075  8.02575 -2.67525
C 25.86075  9.80925 -0.89175
C 27.64425  8.02575 -0.89175
C 27.64425  9.80925 -2.67525
C 24.96900 10.70100 -17.83500
C 24.96900 12.48450 -16.05150
C 26.75250 10.70100 -16.05150
C 26.75250 12.48450 -17.83500
C 25.86075 11.59275 -16.94325
C 25.86075 13.37625 -15.15975
C 27.64425 11.59275 -15.15975
C 27.64425 13.37625 -16.94325
C 24.96900 10.70100 -14.26800
C 24.96900 12.48450 -12.48450
C 26.75250 10.70100 -12.48450
C 26.75250 12.48450 -14.26800
C 25.86075 11.59275 -13.37625
C 25.86075 13.37625 -11.59275
C 27.64425 11.59275 -11.59275
C 27.64425 13.37625 -13.37625
C 24.96900 10.70100 -10.70100
C 24.96900 12.48450 -8.91750
C 26.75250 10.70100 -8.91750
C 26.75250 12.48450 -10.70100
C 25.86075 11.59275 -9.80925
C 25.86075 13.37625 -8.02575
C 27.64425 11.59275 -8.02575
C 27.64425 13.37625 -9.80925
C 24.96900 10.70100 -7.13400
C 24.96900 12.48450 -5.35050
C 26.75250 10.70100 -5.35050
C 26.75250 12.48450 -7.13400
C 25.86075 11.59275 -6.24225
C 25.86075 13.37625 -4.45875
C 27.64425 11.59275 -4.45875
C 27.64425 13.37625 -6.24225
C 24.96900 10.70100 -3.56700
C 24.96900 12.48450 -1.78350
C 26.75250 10.70100 -1.78350
C 26.75250 12.48450 -3.56700
C 25.86075 11.59275 -2.67525
C 25.86075 13.37625 -0.89175
C 27.64425 11.59275 -0.89175
C 27.64425 13.37625 -2.67525
C 24.96900 14.26800 -17.83500
C 24.96900 16.05150 -16.05150
C 26.75250 14.26800 -16.05150
C 26.75250 16.05150 -17.83500
C 25.86075 15.15975 -16.94325
C 25.86075 16.94325 -15.15975
C 27.64425 15.15975 -15.15975
C 27.64425 16.94325 -16.94325
C 24.96900 14.26800 -14.26800
C 24.96900 16.05150 -12.48450
C 26.75250 14.26800 -12.48450
C 26.75250 16.05150 -14.26800
C 25.86075 15.15975 -13.37625
C 25.86075 16.94325 -11.59275
C 27.64425 15.15975 -11.59275
C 27.64425 16.94325 -13.37625
C 24.96900 14.26800 -10.70100
C 24.96900 16.05150 -8.91750
C 26.75250 14.26800 -8.91750
C 26.75250 16.05150 -10.70100
C 25.86075 15.15975 -9.80925
C 25.86075 16.94325 -8.02575
C 27.64425 15.15975 -8.02575
C 27.64425 16.94325 -9.80925
C 24.96900 14.26800 -7.13400
C 24.96900 16.05150 -5.35050
C 26.75250 14.26800 -5.35050
C 26.75250 16.05150 -7.13400
C 25.86075 15.15975 -6.24225
C 25.86075 16.94325 -4.45875
C 27.64425 15.15975 -4.45875
C 27.64425 16.94325 -6.24225
C 24.96900 14.26800 -3.56700
C 24.96900 16.05150 -1.78350
C 26.75250 14.26800 -1.78350
C 26.75250 16.05150 -3.56700
C 25.86075 15.15975 -2.67525
C 25.86075 16.94325 -0.89175
C 27.64425 15.15975 -0.89175
C 27.64425 16.94325 -2.67525
C 28.53600  0.00000 -17.83500
C 28.53600  1.78350 -16.05150
C 30.31950  0.00000 -16.05150
C 30.31950  1.78350 -17.83500
C 29.42775  0.89175 -16.94325
C 29.42775  2.67525 -15.15975
C 31.21125  0.89175 -15.15975
C 31.21125  2.67525 -16.94325
C 28.53600  0.00000 -14.26800
C 28.53600  1.78350 -12.48450
C 30.31950  0.00000 -12.48450
C 30.31950  1.78350 -14.26800
C 29.42775  0.89175 -13.37625
C 29.42775  2.67525 -11.59275
C 31.21125  0.89175 -11.59275
C 31.21125  2.67525 -13.37625
C 28.53600  0.00000 -10.70100
C 28.53600  1.78350 -8.91750
C 30.31950  0.00000 -8.91750
C 30.31950  1.78350 -10.70100
C 29.42775  0.89175 -9.80925
C 29.42775  2.67525 -8.02575
C 31.21125  0.89175 -8.02575
C 31.21125  2.67525 -9.80925
C 28.53600  0.00000 -7.13400
C 28.53600  1.78350 -5.35050
C 30.31950  0.00000 -5.35050
C 30.31950  1.78350 -7.13400
C 29.42775  0.89175 -6.24225
C 29.42775  2.67525 -4.45875
C 31.21125  0.89175 -4.45875
C 31.21125  2.67525 -6.24225
C 28.53600  0.00000 -3.56700
C 28.53600  1.78350 -1.78350
C 30.31950  0.00000 -1.78350
C 30.31950  1.78350 -3.56700
C 29.42775  0.89175 -2.67525
C 29.42775  2.67525 -0.89175
C 31.21125  0.89175 -0.89175
C 31.21125  2.67525 -2.67525
C 28.53600  3.56700 -17.83500
C 28.53600  5.35050 -16.05150
C 30.31950  3.56700 -16.05150
C 30.31950  5.35050 -17.83500
C 29.42775  4.45875 -16.94325
C 29.42775  6.24225 -15.15975
C 31.21125  4.45875 -15.15975
C 31.21125  6.24225 -16.94325
C 28.53600  3.56700 -14.26800
C 28.53600  5.35050 -12.48450
C 30.31950  3.56700 -12.48450
C 30.31950  5.35050 -14.26800
C 29.42775  4.45875 -13.37625
C 29.42775  6.24225 -11.59275
C 31.21125  4.45875 -11.59275
C 31.21125  6.24225 -13.37625
C 28.53600  3.56700 -10.70100
C 28.53600  5.35050 -8.91750
C 30.31950  3.56700 -8.91750
C 30.31950  5.35050 -10.70100
C 29.42775  4.45875 -9.80925
C 29.42775  6.24225 -8.02575
C 31.21125  4.45875 -8.02575
C 31.21125  6.24225 -9.80925
C 28.53600  3.56700 -7.13400
C 28.53600  5.35050 -5.35050
C 30.31950  3.56700 -5.35050
C 30.31950  5.35050 -7.13400
C 29.42775  4.45875 -6.24225
C 29.42775  6.24225 -4.45875
C 31.21125  4.45875 -4.45875
C 31.21125  6.24225 -6.24225
C 28.53600  3.56700 -3.56700
C 28.53600  5.35050 -1.78350
C 30.31950  3.56700 -1.78350
C 30.31950  5.35050 -3.56700
C 29.42775  4.45875 -2.67525
C 29.42775  6.24225 -0.89175
C 31.21125  4.45875 -0.89175
C 31.21125  6.24225 -2.67525
C 28.53600  7.13400 -17.83500
C 28.53600  8.91750 -16.05150
C 30.31950  7.13400 -16.05150
C 30.31950  8.91750 -17.83500
C 29.42775  8.02575 -16.94325
C 29.42775  9.80925 -15.15975
C 31.21125  8.02575 -15.15975
C 31.21125  9.80925 -16.94325
C 28.53600  7.13400 -14.26800
C 28.53600  8.91750 -12.48450
C 30.31950  7.13400 -12.48450
C 30.31950  8.91750 -14.26800
C 29.42775  8.02575 -13.37625
C 29.42775  9.80925 -11.59275
C 31.21125  8.02575 -11.59275
C 31.21125  9.80925 -13.37625
C 28.53600  7.13400 -10.70100
C 28.53600  8.91750 -8.91750
C 30.31950  7.13400 -8.91750
C 30.31950  8.91750 -10.70100
C 29.42775  8.02575 -9.80925
C 29.42775  9.80925 -8.02575
C 31.21125  8.02575 -8.02575
C 31.21125  9.80925 -9.80925
C 28.53600  7.13400 -7.13400
C 28.53600  8.91750 -5.35050
C 30.31950  7.13400 -5.35050
C 30.31950  8.91750 -7.13400
C 29.42775  8.02575 -6.24225
C 29.42775  9.80925 -4.45875
C 31.21125  8.02575 -4.45875
C 31.21125  9.80925 -6.24225
C 28.53600  7.13400 -3.56700
C 28.53600  8.91750 -1.78350
C 30.31950  7.13400 -1.78350
C 30.31950  8.91750 -3.56700
C 29.42775  8.02575 -2.67525
C 29.42775  9.80925 -0.89175
C 31.21125  8.02575 -0.89175
C 31.21125  9.80925 -2.67525
C 28.53600 10.70100 -17.83500
C 28.53600 12.48450 -16.05150
C 30.31950 10.70100 -16.05150
C 30.31950 12.48450 -17.83500
C 29.42775 11.59275 -16.94325
C 29.42775 13.37625 -15.15975
C 31.21125 11.59275 -15.15975
C 31.21125 13.37625 -16.94325
C 28.53600 10.70100 -14.26800
C 28.53600 12.48450 -12.48450
C 30.31950 10.70100 -12.48450
C 30.31950 12.48450 -14.26800
C 29.42775 11.59275 -13.37625
C 29.42775 13.37625 -11.59275
C 31.21125 11.59275 -11.59275
C 31.21125 13.37625 -13.37625
C 28.53600 10.70100 -10.70100
C 28.53600 12.48450 -8.91750
C 30.31950 10.70100 -8.91750
C 30.31950 12.48450 -10.70100
C 29.42775 11.59275 -9.80925
C 29.42775 13.37625 -8.02575
C 31.21125 11.59275 -8.02575
C 31.21125 13.37625 -9.80925
C 28.53600 10.70100 -7.13400
C 28.53600 12.48450 -5.35050
C 30.31950 10.70100 -5.35050
C 30.31950 12.48450 -7.13400
C 29.42775 11.59275 -6.24225
C 29.42775 13.37625 -4.45875
C 31.21125 11.59275 -4.45875
C 31.21125 13.37625 -6.24225
C 28.53600 10.70100 -3.56700
C 28.53600 12.48450 -1.78350
C 30.31950 10.70100 -1.78350
C 30.31950 12.48450 -3.56700
C 29.42775 11.59275 -2.67525
C 29.42775 13.37625 -0.89175
C 31.21125 11.59275 -0.89175
C 31.21125 13.37625 -2.67525
C 28.53600 14.26800 -17.83500
C 28.53600 16.05150 -16.05150
C 30.31950 14.26800 -16.05150
C 30.31950 16.05150 -17.83500
C 29.42775 15.15975 -16.94325
C 29.42775 16.94325 -15.15975
C 31.21125 15.15975 -15.15975
C 31.21125 16.94325 -16.94325
C 28.53600 14.26800 -14.26800
C 28.53600 16.05150 -12.48450
C 30.31950 14.26800 -12.48450
C 30.31950 16.05150 -14.26800
C 29.42775 15.15975 -13.37625
C 29.42775 16.94325 -11.59275
C 31.21125 15.15975 -11.59275
C 31.21125 16.94325 -13.37625
C 28.53600 14.26800 -10.70100
C 28.53600 16.05150 -8.91750
C 30.31950 14.26800 -8.91750
C 30.31950 16.05150 -10.70100
C 29.42775 15.15975 -9.80925
C 29.42775 16.94325 -8.02575
C 31.21125 15.15975 -8.02575
C 31.21125 16.94325 -9.80925
C 28.53600 14.26800 -7.13400
C 28.53600 16.05150 -5.35050
C 30.31950 14.26800 -5.35050
C 30.31950 16.05150 -7.13400
C 29.42775 15.15975 -6.24225
C 29.42775 16.94325 -4.45875
C 31.21125 15.15975 -4.45875
C 31.21125 16.94325 -6.24225
C 28.53600 14.26800 -3.56700
C 28.53600 16.05150 -1.78350
C 30.31950 14.26800 -1.78350
C 30.31950 16.05150 -3.56700
C 29.42775 15.15975 -2.67525
C 29.42775 16.94325 -0.89175
C 31.21125 15.15975 -0.89175
C 31.21125 16.94325 -2.67525
C 32.10300  0.00000 -17.83500
C 32.10300  1.78350 -16.05150
C 33.88650  0.00000 -16.05150
C 33.88650  1.78350 -17.83500
C 32.99475  0.89175 -16.94325
C 32.99475  2.67525 -15.15975
C 34.77825  0.89175 -15.15975
C 34.77825  2.67525 -16.94325
C 32.10300  0.00000 -14.26800
C 32.10300  1.78350 -12.48450
C 33.88650  0.00000 -12.48450
C 33.88650  1.78350 -14.26800
C 32.99475  0.89175 -13.37625
C 32.99475  2.67525 -11.59275
C 34.77825  0.89175 -11.59275
C 34.77825  2.67525 -13.37625
C 32.10300  0.00000 -10.70100
C 32.10300  1.78350 -8.91750
C 33.88650  0.00000 -8.91750
C 33.88650  1.78350 -10.70100
C 32.99475  0.89175 -9.80925
C 32.99475  2.67525 -8.02575
C 34.77825  0.89175 -8.02575
C 34.77825  2.67525 -9.80925
C 32.10300  0.00000 -7.13400
C 32.10300  1.78350 -5.35050
C 33.88650  0.00000 -5.35050
C 33.88650  1.78350 -7.13400
C 32.99475  0.89175 -6.24225
C 32.99475  2.67525 -4.45875
C 34.77825  0.89175 -4.45875
C 34.77825  2.67525 -6.24225
C 32.10300  0.00000 -3.56700
C 32.10300  1.78350 -1.78350
C 33.88650  0.00000 -1.78350
C 33.88650  1.78350 -3.56700
C 32.99475  0.89175 -2.67525
C 32.99475  2.67525 -0.89175
C 34.77825  0.89175 -0.89175
C 34.77825  2.67525 -2.67525
C 32.10300  3.56700 -17.83500
C 32.10300  5.35050 -16.05150
C 33.88650  3.56700 -16.05150
C 33.88650  5.35050 -17.83500
C 32.99475  4.45875 -16.94325
C 32.99475  6.24225 -15.15975
C 34.77825  4.45875 -15.15975
C 34.77825  6.24225 -16.94325
C 32.10300  3.56700 -14.26800
C 32.10300  5.35050 -12.48450
C 33.88650  3.56700 -12.48450
C 33.88650  5.35050 -14.26800
C 32.99475  4.45875 -13.37625
C 32.99475  6.24225 -11.59275
C 34.77825  4.45875 -11.59275
C 34.77825  6.24225 -13.37625
C 32.10300  3.56700 -10.70100
C 32.10300  5.35050 -8.91750
C 33.88650  3.56700 -8.91750
C 33.88650  5.35050 -10.70100
C 32.99475  4.45875 -9.80925
C 32.99475  6.24225 -8.02575
C 34.77825  4.45875 -8.02575
C 34.77825  6.24225 -9.80925
C 32.10300  3.56700 -7.13400
C 32.10300  5.35050 -5.35050
C 33.88650  3.56700 -5.35050
C 33.88650  5.35050 -7.13400
C 32.99475  4.45875 -6.24225
C 32.99475  6.24225 -4.45875
C 34.77825  4.45875 -4.45875
C 34.77825  6.24225 -6.24225
C 32.10300  3.56700 -3.56700
C 32.10300  5.35050 -1.78350
C 33.88650  3.56700 -1.78350
C 33.88650  5.35050 -3.56700
C 32.99475  4.45875 -2.67525
C 32.99475  6.24225 -0.89175
C 34.77825  4.45875 -0.89175
C 34.77825  6.24225 -2.67525
C 32.10300  7.13400 -17.83500
C 32.10300  8.91750 -16.05150
C 33.88650  7.13400 -16.05150
C 33.88650  8.91750 -17.83500
C 32.99475  8.02575 -16.94325
C 32.99475  9.80925 -15.15975
C 34.77825  8.02575 -15.15975
C 34.77825  9.80925 -16.94325
C 32.10300  7.13400 -14.26800
C 32.10300  8.91750 -12.48450
C 33.88650  7.13400 -12.48450
C 33.88650  8.91750 -14.26800
C 32.99475  8.02575 -13.37625
C 32.99475  9.80925 -11.59275
C 34.77825  8.02575 -11.59275
C 34.77825  9.80925 -13.37625
C 32.10300  7.13400 -10.70100
C 32.10300  8.91750 -8.91750
C 33.88650  7.13400 -8.91750
C 33.88650  8.91750 -10.70100
C 32.99475  8.02575 -9.80925
C 32.99475  9.80925 -8.02575
C 34.77825  8.02575 -8.02575
C 34.77825  9.80925 -9.80925
C 32.10300  7.13400 -7.13400
C 32.10300  8.91750 -5.35050
C 33.88650  7.13400 -5.35050
C 33.88650  8.91750 -7.13400
C 32.99475  8.02575 -6.24225
C 32.99475  9.80925 -4.45875
C 34.77825  8.02575 -4.45875
C 34.77825  9.80925 -6.24225
C 32.10300  7.13400 -3.56700
C 32.10300  8.91750 -1.78350
C 33.88650  7.13400 -1.78350
C 33.88650  8.91750 -3.56700
C 32.99475  8.02575 -2.67525
C 32.99475  9.80925 -0.89175
C 34.77825  8.02575 -0.89175
C 34.77825  9.80925 -2.67525
C 32.10300 10.70100 -17.83500
C 32.10300 12.48450 -16.05150
C 33.88650 10.70100 -16.05150
C 33.88650 12.48450 -17.83500
C 32.99475 11.59275 -16.94325
C 32.99475 13.37625 -15.15975
C 34.77825 11.59275 -15.15975
C 34.77825 13.37625 -16.94325
C 32.10300 10.70100 -14.26800
C 32.10300 12.48450 -12.48450
C 33.88650 10.70100 -12.48450
C 33.88650 12.48450 -14.26800
C 32.99475 11.59275 -13.37625
C 32.99475 13.37625 -11.59275
C 34.77825 11.59275 -11.59275
C 34.77825 13.37625 -13.37625
C 32.10300 10.70100 -10.70100
C 32.10300 12.48450 -8.91750
C 33.88650 10.70100 -8.91750
C 33.88650 12.48450 -10.70100
C 32.99475 11.59275 -9.80925
C 32.99475 13.37625 -8.02575
C 34.77825 11.59275 -8.02575
C 34.77825 13.37625 -9.80925
C 32.10300 10.70100 -7.13400
C 32.10300 12.48450 -5.35050
C 33.88650 10.70100 -5.35050
C 33.88650 12.48450 -7.13400
C 32.99475 11.59275 -6.24225
C 32.99475 13.37625 -4.45875
C 34.77825 11.59275 -4.45875
C 34.77825 13.37625 -6.24225
C 32.10300 10.70100 -3.56700
C 32.10300 12.48450 -1.78350
C 33.88650 10.70100 -1.78350
C 33.88650 12.48450 -3.56700
C 32.99475 11.59275 -2.67525
C 32.99475 13.37625 -0.89175
C 34.77825 11.59275 -0.89175
C 34.77825 13.37625 -2.67525
C 32.10300 14.26800 -17.83500
C 32.10300 16.05150 -16.05150
C 33.88650 14.26800 -16.05150
C 33.88650 16.05150 -17.83500
C 32.99475 15.15975 -16.94325
C 32.99475 16.94325 -15.15975
C 34.77825 15.15975 -15.15975
C 34.77825 16.94325 -16.94325
C 32.10300 14.26800 -14.26800
C 32.10300 16.05150 -12.48450
C 33.88650 14.26800 -12.48450
C 33.88650 16.05150 -14.26800
C 32.99475 15.15975 -13.37625
C 32.99475 16.94325 -11.59275
C 34.77825 15.15975 -11.59275
C 34.77825 16.94325 -13.37625
C 32.10300 14.26800 -10.70100
C 32.10300 16.05150 -8.91750
C 33.88650 14.26800 -8.91750
C 33.88650 16.05150 -10.70100
C 32.99475 15.15975 -9.80925
C 32.99475 16.94325 -8.02575
C 34.77825 15.15975 -8.02575
C 34.77825 16.94325 -9.80925
C 32.10300 14.26800 -7.13400
C 32.10300 16.05150 -5.35050
C 33.88650 14.26800 -5.35050
C 33.88650 16.05150 -7.13400
C 32.99475 15.15975 -6.24225
C 32.99475 16.94325 -4.45875
C 34.77825 15.15975 -4.45875
C 34.77825 16.94325 -6.24225
C 32.10300 14.26800 -3.56700
C 32.10300 16.05150 -1.78350
C 33.88650 14.26800 -1.78350
C 33.88650 16.05150 -3.56700
C 32.99475 15.15975 -2.67525
C 32.99475 16.94325 -0.89175
C 34.77825 15.15975 -0.89175
C 34.77825 16.94325 -2.67525
N 17.83500  0.00000  0.00000
C 17.83500  1.78350  1.78350
C 19.61850  0.00000  1.78350
C 19.61850  1.78350  0.00000
C 18.72675  0.89175  0.89175
C 18.72675  2.67525  2.67525
C 20.51025  0.89175  2.67525
C 20.51025  2.67525  0.89175
C 17.83500  0.00000  3.56700
C 17.83500  1.78350  5.35050
C 19.61850  0.00000  5.35050
C 19.61850  1.78350  3.56700
C 18.72675  0.89175  4.45875
C 18.72675  2.67525  6.24225
C 20.51025  0.89175  6.24225
C 20.51025  2.67525  4.45875
C 17.83500  0.00000  7.13400
C 17.83500  1.78350  8.91750
C 19.61850  0.00000  8.91750
C 19.61850  1.78350  7.13400
C 18.72675  0.89175  8.02575
C 18.72675  2.67525  9.80925
C 20.51025  0.89175  9.80925
C 20.51025  2.67525  8.02575
C 17.83500  0.00000 10.70100
C 17.83500  1.78350 12.48450
C 19.61850  0.00000 12.48450
C 19.61850  1.78350 10.70100
C 18.72675  0.89175 11.59275
C 18.72675  2.67525 13.37625
C 20.51025  0.89175 13.37625
C 20.51025  2.67525 11.59275
C 17.83500  0.00000 14.26800
C 17.83500  1.78350 16.05150
C 19.61850  0.00000 16.05150
C 19.61850  1.78350 14.26800
C 18.72675  0.89175 15.15975
C 18.72675  2.67525 16.94325
C 20.51025  0.89175 16.94325
C 20.51025  2.67525 15.15975
C 17.83500  3.56700  0.00000
C 17.83500  5.35050  1.78350
C 19.61850  3.56700  1.78350
C 19.61850  5.35050  0.00000
C 18.72675  4.45875  0.89175
C 18.72675  6.24225  2.67525
C 20.51025  4.45875  2.67525
C 20.51025  6.24225  0.89175
C 17.83500  3.56700  3.56700
C 17.83500  5.35050  5.35050
C 19.61850  3.56700  5.35050
C 19.61850  5.35050  3.56700
C 18.72675  4.45875  4.45875
C 18.72675  6.24225  6.24225
C 20.51025  4.45875  6.24225
C 20.51025  6.24225  4.45875
C 17.83500  3.56700  7.13400
C 17.83500  5.35050  8.91750
C 19.61850  3.56700  8.91750
C 19.61850  5.35050  7.13400
C 18.72675  4.45875  8.02575
C 18.72675  6.24225  9.80925
C 20.51025  4.45875  9.80925
C 20.51025  6.24225  8.02575
C 17.83500  3.56700 10.70100
C 17.83500  5.35050 12.48450
C 19.61850  3.56700 12.48450
C 19.61850  5.35050 10.70100
C 18.72675  4.45875 11.59275
C 18.72675  6.24225 13.37625
C 20.51025  4.45875 13.37625
C 20.51025  6.24225 11.59275
C 17.83500  3.56700 14.26800
C 17.83500  5.35050 16.05150
C 19.61850  3.56700 16.05150
C 19.61850  5.35050 14.26800
C 18.72675  4.45875 15.15975
C 18.72675  6.24225 16.94325
C 20.51025  4.45875 16.94325
C 20.51025  6.24225 15.15975
C 17.83500  7.13400  0.00000
C 17.83500  8.91750  1.78350
C 19.61850  7.13400  1.78350
C 19.61850  8.91750  0.00000
C 18.72675  8.02575  0.89175
C 18.72675  9.80925  2.67525
C 20.51025  8.02575  2.67525
C 20.51025  9.80925  0.89175
C 17.83500  7.13400  3.56700
C 17.83500  8.91750  5.35050
C 19.61850  7.13400  5.35050
C 19.61850  8.91750  3.56700
C 18.72675  8.02575  4.45875
C 18.72675  9.80925  6.24225
C 20.51025  8.02575  6.24225
C 20.51025  9.80925  4.45875
C 17.83500  7.13400  7.13400
C 17.83500  8.91750  8.91750
C 19.61850  7.13400  8.91750
C 19.61850  8.91750  7.13400
C 18.72675  8.02575  8.02575
C 18.72675  9.80925  9.80925
C 20.51025  8.02575  9.80925
C 20.51025  9.80925  8.02575
C 17.83500  7.13400 10.70100
C 17.83500  8.91750 12.48450
C 19.61850  7.13400 12.48450
C 19.61850  8.91750 10.70100
C 18.72675  8.02575 11.59275
C 18.72675  9.80925 13.37625
C 20.51025  8.02575 13.37625
C 20.51025  9.80925 11.59275
C 17.83500  7.13400 14.26800
C 17.83500  8.91750 16.05150
C 19.61850  7.13400 16.05150
C 19.61850  8.91750 14.26800
C 18.72675  8.02575 15.15975
C 18.72675  9.80925 16.94325
C 20.51025  8.02575 16.94325
C 20.51025  9.80925 15.15975
C 17.83500 10.70100  0.00000
C 17.83500 12.48450  1.78350
C 19.61850 10.70100  1.78350
C 19.61850 12.48450  0.00000
C 18.72675 11.59275  0.89175
C 18.72675 13.37625  2.67525
C 20.51025 11.59275  2.67525
C 20.51025 13.37625  0.89175
C 17.83500 10.70100  3.56700
C 17.83500 12.48450  5.35050
C 19.61850 10.70100  5.35050
C 19.61850 12.48450  3.56700
C 18.72675 11.59275  4.45875
C 18.72675 13.37625  6.24225
C 20.51025 11.59275  6.24225
C 20.51025 13.37625  4.45875
C 17.83500 10.70100  7.13400
C 17.83500 12.48450  8.91750
C 19.61850 10.70100  8.91750
C 19.61850 12.48450  7.13400
C 18.72675 11.59275  8.02575
C 18.72675 13.37625  9.80925
C 20.51025 11.59275  9.80925
C 20.51025 13.37625  8.02575
C 17.83500 10.70100 10.70100
C 17.83500 12.48450 12.48450
C 19.61850 10.70100 12.48450
C 19.61850 12.48450 10.70100
C 18.72675 11.59275 11.59275
C 18.72675 13.37625 13.37625
C 20.51025 11.59275 13.37625
C 20.51025 13.37625 11.59275
C 17.83500 10.70100 14.26800
C 17.83500 12.48450 16.05150
C 19.61850 10.70100 16.05150
C 19.61850 12.48450 14.26800
C 18.72675 11.59275 15.15975
C 18.72675 13.37625 16.94325
C 20.51025 11.59275 16.94325
C 20.51025 13.37625 15.15975
C 17.83500 14.26800  0.00000
C 17.83500 16.05150  1.78350
C 19.61850 14.26800  1.78350
C 19.61850 16.05150  0.00000
C 18.72675 15.15975  0.89175
C 18.72675 16.94325  2.67525
C 20.51025 15.15975  2.67525
C 20.51025 16.94325  0.89175
C 17.83500 14.26800  3.56700
C 17.83500 16.05150  5.35050
C 19.61850 14.26800  5.35050
C 19.61850 16.05150  3.56700
C 18.72675 15.15975  4.45875
C 18.72675 16.94325  6.24225
C 20.51025 15.15975  6.24225
C 20.51025 16.94325  4.45875
C 17.83500 14.26800  7.13400
C 17.83500 16.05150  8.91750
C 19.61850 14.26800  8.91750
C 19.61850 16.05150  7.13400
C 18.72675 15.15975  8.02575
C 18.72675 16.94325  9.80925
C 20.51025 15.15975  9.80925
C 20.51025 16.94325  8.02575
C 17.83500 14.26800 10.70100
C 17.83500 16.05150 12.48450
C 19.61850 14.26800 12.48450
C 19.61850 16.05150 10.70100
C 18.72675 15.15975 11.59275
C 18.72675 16.94325 13.37625
C 20.51025 15.15975 13.37625
C 20.51025 16.94325 11.59275
C 17.83500 14.26800 14.26800
C 17.83500 16.05150 16.05150
C 19.61850 14.26800 16.05150
C 19.61850 16.05150 14.26800
C 18.72675 15.15975 15.15975
C 18.72675 16.94325 16.94325
C 20.51025 15.15975 16.94325
C 20.51025 16.94325 15.15975
C 21.40200  0.00000  0.00000
C 21.40200  1.78350  1.78350
C 23.18550  0.00000  1.78350
C 23.18550  1.78350  0.00000
C 22.29375  0.89175  0.89175
C 22.29375  2.67525  2.67525
C 24.07725  0.89175  2.67525
C 24.07725  2.67525  0.89175
C 21.40200  0.00000  3.56700
C 21.40200  1.78350  5.35050
C 23.18550  0.00000  5.35050
C 23.18550  1.78350  3.56700
C 22.29375  0.89175  4.45875
C 22.29375  2.67525  6.24225
C 24.07725  0.89175  6.24225
C 24.07725  2.67525  4.45875
C 21.40200  0.00000  7.13400
C 21.40200  1.78350  8.91750
C 23.18550  0.00000  8.91750
C 23.18550  1.78350  7.13400
C 22.29375  0.89175  8.02575
C 22.29375  2.67525  9.80925
C 24.07725  0.89175  9.80925
C 24.07725  2.67525  8.02575
C 21.40200  0.00000 10.70100
C 21.40200  1.78350 12.48450
C 23.18550  0.00000 12.48450
C 23.18550  1.78350 10.70100
C 22.29375  0.89175 11.59275
C 22.29375  2.67525 13.37625
C 24.07725  0.89175 13.37625
C 24.07725  2.67525 11.59275
C 21.40200  0.00000 14.26800
C 21.40200  1.78350 16.05150
C 23.18550  0.00000 16.05150
C 23.18550  1.78350 14.26800
C 22.29375  0.89175 15.15975
C 22.29375  2.67525 16.94325
C 24.07725  0.89175 16.94325
C 24.07725  2.67525 15.15975
C 21.40200  3.56700  0.00000
C 21.40200  5.35050  1.78350
C 23.18550  3.56700  1.78350
C 23.18550  5.35050  0.00000
C 22.29375  4.45875  0.89175
C 22.29375  6.24225  2.67525
C 24.07725  4.45875  2.67525
C 24.07725  6.24225  0.89175
C 21.40200  3.56700  3.56700
C 21.40200  5.35050  5.35050
C 23.18550  3.56700  5.35050
C 23.18550  5.35050  3.56700
C 22.29375  4.45875  4.45875
C 22.29375  6.24225  6.24225
C 24.07725  4.45875  6.24225
C 24.07725  6.24225  4.45875
C 21.40200  3.56700  7.13400
C 21.40200  5.35050  8.91750
C 23.18550  3.56700  8.91750
C 23.18550  5.35050  7.13400
C 22.29375  4.45875  8.02575
C 22.29375  6.24225  9.80925
C 24.07725  4.45875  9.80925
C 24.07725  6.24225  8.02575
C 21.40200  3.56700 10.70100
C 21.40200  5.35050 12.48450
C 23.18550  3.56700 12.48450
C 23.18550  5.35050 10.70100
C 22.29375  4.45875 11.59275
C 22.29375  6.24225 13.37625
C 24.07725  4.45875 13.37625
C 24.07725  6.24225 11.59275
C 21.40200  3.56700 14.26800
C 21.40200  5.35050 16.05150
C 23.18550  3.56700 16.05150
C 23.18550  5.35050 14.26800
C 22.29375  4.45875 15.15975
C 22.29375  6.24225 16.94325
C 24.07725  4.45875 16.94325
C 24.07725  6.24225 15.15975
C 21.40200  7.13400  0.00000
C 21.40200  8.91750  1.78350
C 23.18550  7.13400  1.78350
C 23.18550  8.91750  0.00000
C 22.29375  8.02575  0.89175
C 22.29375  9.80925  2.67525
C 24.07725  8.02575  2.67525
C 24.07725  9.80925  0.89175
C 21.40200  7.13400  3.56700
C 21.40200  8.91750  5.35050
C 23.18550  7.13400  5.35050
C 23.18550  8.91750  3.56700
C 22.29375  8.02575  4.45875
C 22.29375  9.80925  6.24225
C 24.07725  8.02575  6.24225
C 24.07725  9.80925  4.45875
C 21.40200  7.13400  7.13400
C 21.40200  8.91750  8.91750
C 23.18550  7.13400  8.91750
C 23.18550  8.91750  7.13400
C 22.29375  8.02575  8.02575
C 22.29375  9.80925  9.80925
C 24.07725  8.02575  9.80925
C 24.07725  9.80925  8.02575
C 21.40200  7.13400 10.70100
C 21.40200  8.91750 12.48450
C 23.18550  7.13400 12.48450
C 23.18550  8.91750 10.70100
C 22.29375  8.02575 11.59275
C 22.29375  9.80925 13.37625
C 24.07725  8.02575 13.37625
C 24.07725  9.80925 11.59275
C 21.40200  7.13400 14.26800
C 21.40200  8.91750 16.05150
C 23.18550  7.13400 16.05150
C 23.18550  8.91750 14.26800
C 22.29375  8.02575 15.15975
C 22.29375  9.80925 16.94325
C 24.07725  8.02575 16.94325
C 24.07725  9.80925 15.15975
C 21.40200 10.70100  0.00000
C 21.40200 12.48450  1.78350
C 23.18550 10.70100  1.78350
C 23.18550 12.48450  0.00000
C 22.29375 11.59275  0.89175
C 22.29375 13.37625  2.67525
C 24.07725 11.59275  2.67525
C 24.07725 13.37625  0.89175
C 21.40200 10.70100  3.56700
C 21.40200 12.48450  5.35050
C 23.18550 10.70100  5.35050
C 23.18550 12.48450  3.56700
C 22.29375 11.59275  4.45875
C 22.29375 13.37625  6.24225
C 24.07725 11.59275  6.24225
C 24.07725 13.37625  4.45875
C 21.40200 10.70100  7.13400
C 21.40200 12.48450  8.91750
C 23.18550 10.70100  8.91750
C 23.18550 12.48450  7.13400
C 22.29375 11.59275  8.02575
C 22.29375 13.37625  9.80925
C 24.07725 11.59275  9.80925
C 24.07725 13.37625  8.02575
C 21.40200 10.70100 10.70100
C 21.40200 12.48450 12.48450
C 23.18550 10.70100 12.48450
C 23.18550 12.48450 10.70100
C 22.29375 11.59275 11.59275
C 22.29375 13.37625 13.37625
C 24.07725 11.59275 13.37625
C 24.07725 13.37625 11.59275
C 21.40200 10.70100 14.26800
C 21.40200 12.48450 16.05150
C 23.18550 10.70100 16.05150
C 23.18550 12.48450 14.26800
C 22.29375 11.59275 15.15975
C 22.29375 13.37625 16.94325
C 24.07725 11.59275 16.94325
C 24.07725 13.37625 15.15975
C 21.40200 14.26800  0.00000
C 21.40200 16.05150  1.78350
C 23.18550 14.26800  1.78350
C 23.18550 16.05150  0.00000
C 22.29375 15.15975  0.89175
C 22.29375 16.94325  2.67525
C 24.07725 15.15975  2.67525
C 24.07725 16.94325  0.89175
C 21.40200 14.26800  3.56700
C 21.40200 16.05150  5.35050
C 23.18550 14.26800  5.35050
C 23.18550 16.05150  3.56700
C 22.29375 15.15975  4.45875
C 22.29375 16.94325  6.24225
C 24.07725 15.15975  6.24225
C 24.07725 16.94325  4.45875
C 21.40200 14.26800  7.13400
C 21.40200 16.05150  8.91750
C 23.18550 14.26800  8.91750
C 23.18550 16.05150  7.13400
C 22.29375 15.15975  8.02575
C 22.29375 16.94325  9.80925
C 24.07725 15.15975  9.80925
C 24.07725 16.94325  8.02575
C 21.40200 14.26800 10.70100
C 21.40200 16.05150 12.48450
C 23.18550 14.26800 12.48450
C 23.18550 16.05150 10.70100
C 22.29375 15.15975 11.59275
C 22.29375 16.94325 13.37625
C 24.07725 15.15975 13.37625
C 24.07725 16.94325 11.59275
C 21.40200 14.26800 14.26800
C 21.40200 16.05150 16.05150
C 23.18550 14.26800 16.05150
C 23.18550 16.05150 14.26800
C 22.29375 15.15975 15.15975
C 22.29375 16.94325 16.94325
C 24.07725 15.15975 16.94325
C 24.07725 16.94325 15.15975
C 24.96900  0.00000  0.00000
C 24.96900  1.78350  1.78350
C 26.75250  0.00000  1.78350
C 26.75250  1.78350  0.00000
C 25.86075  0.89175  0.89175
C 25.86075  2.67525  2.67525
C 27.64425  0.89175  2.67525
C 27.64425  2.67525  0.89175
C 24.96900  0.00000  3.56700
C 24.96900  1.78350  5.35050
C 26.75250  0.00000  5.35050
C 26.75250  1.78350  3.56700
C 25.86075  0.89175  4.45875
C 25.86075  2.67525  6.24225
C 27.64425  0.89175  6.24225
C 27.64425  2.67525  4.45875
C 24.96900  0.00000  7.13400
C 24.96900  1.78350  8.91750
C 26.75250  0.00000  8.91750
C 26.75250  1.78350  7.13400
C 25.86075  0.89175  8.02575
C 25.86075  2.67525  9.80925
C 27.64425  0.89175  9.80925
C 27.64425  2.67525  8.02575
C 24.96900  0.00000 10.70100
C 24.96900  1.78350 12.48450
C 26.75250  0.00000 12.48450
C 26.75250  1.78350 10.70100
C 25.86075  0.89175 11.59275
C 25.86075  2.67525 13.37625
C 27.64425  0.89175 13.37625
C 27.64425  2.67525 11.59275
C 24.96900  0.00000 14.26800
C 24.96900  1.78350 16.05150
C 26.75250  0.00000 16.05150
C 26.75250  1.78350 14.26800
C 25.86075  0.89175 15.15975
C 25.86075  2.67525 16.94325
C 27.64425  0.89175 16.94325
C 27.64425  2.67525 15.15975
C 24.96900  3.56700  0.00000
C 24.96900  5.35050  1.78350
C 26.75250  3.56700  1.78350
C 26.75250  5.35050  0.00000
C 25.86075  4.45875  0.89175
C 25.86075  6.24225  2.67525
C 27.64425  4.45875  2.67525
C 27.64425  6.24225  0.89175
C 24.96900  3.56700  3.56700
C 24.96900  5.35050  5.35050
C 26.75250  3.56700  5.35050
C 26.75250  5.35050  3.56700
C 25.86075  4.45875  4.45875
C 25.86075  6.24225  6.24225
C 27.64425  4.45875  6.24225
C 27.64425  6.24225  4.45875
C 24.96900  3.56700  7.13400
C 24.96900  5.35050  8.91750
C 26.75250  3.56700  8.91750
C 26.75250  5.35050  7.13400
C 25.86075  4.45875  8.02575
C 25.86075  6.24225  9.80925
C 27.64425  4.45875  9.80925
C 27.64425  6.24225  8.02575
C 24.96900  3.56700 10.70100
C 24.96900  5.35050 12.48450
C 26.75250  3.56700 12.48450
C 26.75250  5.35050 10.70100
C 25.86075  4.45875 11.59275
C 25.86075  6.24225 13.37625
C 27.64425  4.45875 13.37625
C 27.64425  6.24225 11.59275
C 24.96900  3.56700 14.26800
C 24.96900  5.35050 16.05150
C 26.75250  3.56700 16.05150
C 26.75250  5.35050 14.26800
C 25.86075  4.45875 15.15975
C 25.86075  6.24225 16.94325
C 27.64425  4.45875 16.94325
C 27.64425  6.24225 15.15975
C 24.96900  7.13400  0.00000
C 24.96900  8.91750  1.78350
C 26.75250  7.13400  1.78350
C 26.75250  8.91750  0.00000
C 25.86075  8.02575  0.89175
C 25.86075  9.80925  2.67525
C 27.64425  8.02575  2.67525
C 27.64425  9.80925  0.89175
C 24.96900  7.13400  3.56700
C 24.96900  8.91750  5.35050
C 26.75250  7.13400  5.35050
C 26.75250  8.91750  3.56700
C 25.86075  8.02575  4.45875
C 25.86075  9.80925  6.24225
C 27.64425  8.02575  6.24225
C 27.64425  9.80925  4.45875
C 24.96900  7.13400  7.13400
C 24.96900  8.91750  8.91750
C 26.75250  7.13400  8.91750
C 26.75250  8.91750  7.13400
C 25.86075  8.02575  8.02575
C 25.86075  9.80925  9.80925
C 27.64425  8.02575  9.80925
C 27.64425  9.80925  8.02575
C 24.96900  7.13400 10.70100
C 24.96900  8.91750 12.48450
C 26.75250  7.13400 12.48450
C 26.75250  8.91750 10.70100
C 25.86075  8.02575 11.59275
C 25.86075  9.80925 13.37625
C 27.64425  8.02575 13.37625
C 27.64425  9.80925 11.59275
C 24.96900  7.13400 14.26800
C 24.96900  8.91750 16.05150
C 26.75250  7.13400 16.05150
C 26.75250  8.91750 14.26800
C 25.86075  8.02575 15.15975
C 25.86075  9.80925 16.94325
C 27.64425  8.02575 16.94325
C 27.64425  9.80925 15.15975
C 24.96900 10.70100  0.00000
C 24.96900 12.48450  1.78350
C 26.75250 10.70100  1.78350
C 26.75250 12.48450  0.00000
C 25.86075 11.59275  0.89175
C 25.86075 13.37625  2.67525
C 27.64425 11.59275  2.67525
C 27.64425 13.37625  0.89175
C 24.96900 10.70100  3.56700
C 24.96900 12.48450  5.35050
C 26.75250 10.70100  5.35050
C 26.75250 12.48450  3.56700
C 25.86075 11.59275  4.45875
C 25.86075 13.37625  6.24225
C 27.64425 11.59275  6.24225
C 27.64425 13.37625  4.45875
C 24.96900 10.70100  7.13400
C 24.96900 12.48450  8.91750
C 26.75250 10.70100  8.91750
C 26.75250 12.48450  7.13400
C 25.86075 11.59275  8.02575
C 25.86075 13.37625  9.80925
C 27.64425 11.59275  9.80925
C 27.64425 13.37625  8.02575
C 24.96900 10.70100 10.70100
C 24.96900 12.48450 12.48450
C 26.75250 10.70100 12.48450
C 26.75250 12.48450 10.70100
C 25.86075 11.59275 11.59275
C 25.86075 13.37625 13.37625
C 27.64425 11.59275 13.37625
C 27.64425 13.37625 11.59275
C 24.96900 10.70100 14.26800
C 24.96900 12.48450 16.05150
C 26.75250 10.70100 16.05150
C 26.75250 12.48450 14.26800
C 25.86075 11.59275 15.15975
C 25.86075 13.37625 16.94325
C 27.64425 11.59275 16.94325
C 27.64425 13.37625 15.15975
C 24.96900 14.26800  0.00000
C 24.96900 16.05150  1.78350
C 26.75250 14.26800  1.78350
C 26.75250 16.05150  0.00000
C 25.86075 15.15975  0.89175
C 25.86075 16.94325  2.67525
C 27.64425 15.15975  2.67525
C 27.64425 16.94325  0.89175
C 24.96900 14.26800  3.56700
C 24.96900 16.05150  5.35050
C 26.75250 14.26800  5.35050
C 26.75250 16.05150  3.56700
C 25.86075 15.15975  4.45875
C 25.86075 16.94325  6.24225
C 27.64425 15.15975  6.24225
C 27.64425 16.94325  4.45875
C 24.96900 14.26800  7.13400
C 24.96900 16.05150  8.91750
C 26.75250 14.26800  8.91750
C 26.75250 16.05150  7.13400
C 25.86075 15.15975  8.02575
C 25.86075 16.94325  9.80925
C 27.64425 15.15975  9.80925
C 27.64425 16.94325  8.02575
C 24.96900 14.26800 10.70100
C 24.96900 16.05150 12.48450
C 26.75250 14.26800 12.48450
C 26.75250 16.05150 10.70100
C 25.86075 15.15975 11.59275
C 25.86075 16.94325 13.37625
C 27.64425 15.15975 13.37625
C 27.64425 16.94325 11.59275
C 24.96900 14.26800 14.26800
C 24.96900 16.05150 16.05150
C 26.75250 14.26800 16.05150
C 26.75250 16.05150 14.26800
C 25.86075 15.15975 15.15975
C 25.86075 16.94325 16.94325
C 27.64425 15.15975 16.94325
C 27.64425 16.94325 15.15975
C 28.53600  0.00000  0.00000
C 28.53600  1.78350  1.78350
C 30.31950  0.00000  1.78350
C 30.31950  1.78350  0.00000
C 29.42775  0.89175  0.89175
C 29.42775  2.67525  2.67525
C 31.21125  0.89175  2.67525
C 31.21125  2.67525  0.89175
C 28.53600  0.00000  3.56700
C 28.53600  1.78350  5.35050
C 30.31950  0.00000  5.35050
C 30.31950  1.78350  3.56700
C 29.42775  0.89175  4.45875
C 29.42775  2.67525  6.24225
C 31.21125  0.89175  6.24225
C 31.21125  2.67525  4.45875
C 28.53600  0.00000  7.13400
C 28.53600  1.78350  8.91750
C 30.31950  0.00000  8.91750
C 30.31950  1.78350  7.13400
C 29.42775  0.89175  8.02575
C 29.42775  2.67525  9.80925
C 31.21125  0.89175  9.80925
C 31.21125  2.67525  8.02575
C 28.53600  0.00000 10.70100
C 28.53600  1.78350 12.48450
C 30.31950  0.00000 12.48450
C 30.31950  1.78350 10.70100
C 29.42775  0.89175 11.59275
C 29.42775  2.67525 13.37625
C 31.21125  0.89175 13.37625
C 31.21125  2.67525 11.59275
C 28.53600  0.00000 14.26800
C 28.53600  1.78350 16.05150
C 30.31950  0.00000 16.05150
C 30.31950  1.78350 14.26800
C 29.42775  0.89175 15.15975
C 29.42775  2.67525 16.94325
C 31.21125  0.89175 16.94325
C 31.21125  2.67525 15.15975
C 28.53600  3.56700  0.00000
C 28.53600  5.35050  1.78350
C 30.31950  3.56700  1.78350
C 30.31950  5.35050  0.00000
C 29.42775  4.45875  0.89175
C 29.42775  6.24225  2.67525
C 31.21125  4.45875  2.67525
C 31.21125  6.24225  0.89175
C 28.53600  3.56700  3.56700
C 28.53600  5.35050  5.35050
C 30.31950  3.56700  5.35050
C 30.31950  5.35050  3.56700
C 29.42775  4.45875  4.45875
C 29.42775  6.24225  6.24225
C 31.21125  4.45875  6.24225
C 31.21125  6.24225  4.45875
C 28.53600  3.56700  7.13400
C 28.53600  5.35050  8.91750
C 30.31950  3.56700  8.91750
C 30.31950  5.35050  7.13400
C 29.42775  4.45875  8.02575
C 29.42775  6.24225  9.80925
C 31.21125  4.45875  9.80925
C 31.21125  6.24225  8.02575
C 28.53600  3.56700 10.70100
C 28.53600  5.35050 12.48450
C 30.31950  3.56700 12.48450
C 30.31950  5.35050 10.70100
C 29.42775  4.45875 11.59275
C 29.42775  6.24225 13.37625
C 31.21125  4.45875 13.37625
C 31.21125  6.24225 11.59275
C 28.53600  3.56700 14.26800
C 28.53600  5.35050 16.05150
C 30.31950  3.56700 16.05150
C 30.31950  5.35050 14.26800
C 29.42775  4.45875 15.15975
C 29.42775  6.24225 16.94325
C 31.21125  4.45875 16.94325
C 31.21125  6.24225 15.15975
C 28.53600  7.13400  0.00000
C 28.53600  8.91750  1.78350
C 30.31950  7.13400  1.78350
C 30.31950  8.91750  0.00000
C 29.42775  8.02575  0.89175
C 29.42775  9.80925  2.67525
C 31.21125  8.02575  2.67525
C 31.21125  9.80925  0.89175
C 28.53600  7.13400  3.56700
C 28.53600  8.91750  5.35050
C 30.31950  7.13400  5.35050
C 30.31950  8.91750  3.56700
C 29.42775  8.02575  4.45875
C 29.42775  9.80925  6.24225
C 31.21125  8.02575  6.24225
C 31.21125  9.80925  4.45875
C 28.53600  7.13400  7.13400
C 28.53600  8.91750  8.91750
C 30.31950  7.13400  8.91750
C 30.31950  8.91750  7.13400
C 29.42775  8.02575  8.02575
C 29.42775  9.80925  9.80925
C 31.21125  8.02575  9.80925
C 31.21125  9.80925  8.02575
C 28.53600  7.13400 10.70100
C 28.53600  8.91750 12.48450
C 30.31950  7.13400 12.48450
C 30.31950  8.91750 10.70100
C 29.42775  8.02575 11.59275
C 29.42775  9.80925 13.37625
C 31.21125  8.02575 13.37625
C 31.21125  9.80925 11.59275
C 28.53600  7.13400 14.26800
C 28.53600  8.91750 16.05150
C 30.31950  7.13400 16.05150
C 30.31950  8.91750 14.26800
C 29.42775  8.02575 15.15975
C 29.42775  9.80925 16.94325
C 31.21125  8.02575 16.94325
C 31.21125  9.80925 15.15975
C 28.53600 10.70100  0.00000
C 28.53600 12.48450  1.78350
C 30.31950 10.70100  1.78350
C 30.31950 12.48450  0.00000
C 29.42775 11.59275  0.89175
C 29.42775 13.37625  2.67525
C 31.21125 11.59275  2.67525
C 31.21125 13.37625  0.89175
C 28.53600 10.70100  3.56700
C 28.53600 12.48450  5.35050
C 30.31950 10.70100  5.35050
C 30.31950 12.48450  3.56700
C 29.42775 11.59275  4.45875
C 29.42775 13.37625  6.24225
C 31.21125 11.59275  6.24225
C 31.21125 13.37625  4.45875
C 28.53600 10.70100  7.13400
C 28.53600 12.48450  8.91750
C 30.31950 10.70100  8.91750
C 30.31950 12.48450  7.13400
C 29.42775 11.59275  8.02575
C 29.42775 13.37625  9.80925
C 31.21125 11.59275  9.80925
C 31.21125 13.37625  8.02575
C 28.53600 10.70100 10.70100
C 28.53600 12.48450 12.48450
C 30.31950 10.70100 12.48450
C 30.31950 12.48450 10.70100
C 29.42775 11.59275 11.59275
C 29.42775 13.37625 13.37625
C 31.21125 11.59275 13.37625
C 31.21125 13.37625 11.59275
C 28.53600 10.70100 14.26800
C 28.53600 12.48450 16.05150
C 30.31950 10.70100 16.05150
C 30.31950 12.48450 14.26800
C 29.42775 11.59275 15.15975
C 29.42775 13.37625 16.94325
C 31.21125 11.59275 16.94325
C 31.21125 13.37625 15.15975
C 28.53600 14.26800  0.00000
C 28.53600 16.05150  1.78350
C 30.31950 14.26800  1.78350
C 30.31950 16.05150  0.00000
C 29.42775 15.15975  0.89175
C 29.42775 16.94325  2.67525
C 31.21125 15.15975  2.67525
C 31.21125 16.94325  0.89175
C 28.53600 14.26800  3.56700
C 28.53600 16.05150  5.35050
C 30.31950 14.26800  5.35050
C 30.31950 16.05150  3.56700
C 29.42775 15.15975  4.45875
C 29.42775 16.94325  6.24225
C 31.21125 15.15975  6.24225
C 31.21125 16.94325  4.45875
C 28.53600 14.26800  7.13400
C 28.53600 16.05150  8.91750
C 30.31950 14.26800  8.91750
C 30.31950 16.05150  7.13400
C 29.42775 15.15975  8.02575
C 29.42775 16.94325  9.80925
C 31.21125 15.15975  9.80925
C 31.21125 16.94325  8.02575
C 28.53600 14.26800 10.70100
C 28.53600 16.05150 12.48450
C 30.31950 14.26800 12.48450
C 30.31950 16.05150 10.70100
C 29.42775 15.15975 11.59275
C 29.42775 16.94325 13.37625
C 31.21125 15.15975 13.37625
C 31.21125 16.94325 11.59275
C 28.53600 14.26800 14.26800
C 28.53600 16.05150 16.05150
C 30.31950 14.26800 16.05150
C 30.31950 16.05150 14.26800
C 29.42775 15.15975 15.15975
C 29.42775 16.94325 16.94325
C 31.21125 15.15975 16.94325
C 31.21125 16.94325 15.15975
C 32.10300  0.00000  0.00000
C 32.10300  1.78350  1.78350
C 33.88650  0.00000  1.78350
C 33.88650  1.78350  0.00000
C 32.99475  0.89175  0.89175
C 32.99475  2.67525  2.67525
C 34.77825  0.89175  2.67525
C 34.77825  2.67525  0.89175
C 32.10300  0.00000  3.56700
C 32.10300  1.78350  5.35050
C 33.88650  0.00000  5.35050
C 33.88650  1.78350  3.56700
C 32.99475  0.89175  4.45875
C 32.99475  2.67525  6.24225
C 34.77825  0.89175  6.24225
C 34.77825  2.67525  4.45875
C 32.10300  0.00000  7.13400
C 32.10300  1.78350  8.91750
C 33.88650  0.00000  8.91750
C 33.88650  1.78350  7.13400
C 32.99475  0.89175  8.02575
C 32.99475  2.67525  9.80925
C 34.77825  0.89175  9.80925
C 34.77825  2.67525  8.02575
C 32.10300  0.00000 10.70100
C 32.10300  1.78350 12.48450
C 33.88650  0.00000 12.48450
C 33.88650  1.78350 10.70100
C 32.99475  0.89175 11.59275
C 32.99475  2.67525 13.37625
C 34.77825  0.89175 13.37625
C 34.77825  2.67525 11.59275
C 32.10300  0.00000 14.26800
C 32.10300  1.78350 16.05150
C 33.88650  0.00000 16.05150
C 33.88650  1.78350 14.26800
C 32.99475  0.89175 15.15975
C 32.99475  2.67525 16.94325
C 34.77825  0.89175 16.94325
C 34.77825  2.67525 15.15975
C 32.10300  3.56700  0.00000
C 32.10300  5.35050  1.78350
C 33.88650  3.56700  1.78350
C 33.88650  5.35050  0.00000
C 32.99475  4.45875  0.89175
C 32.99475  6.24225  2.67525
C 34.77825  4.45875  2.67525
C 34.77825  6.24225  0.89175
C 32.10300  3.56700  3.56700
C 32.10300  5.35050  5.35050
C 33.88650  3.56700  5.35050
C 33.88650  5.35050  3.56700
C 32.99475  4.45875  4.45875
C 32.99475  6.24225  6.24225
C 34.77825  4.45875  6.24225
C 34.77825  6.24225  4.45875
C 32.10300  3.56700  7.13400
C 32.10300  5.35050  8.91750
C 33.88650  3.56700  8.91750
C 33.88650  5.35050  7.13400
C 32.99475  4.45875  8.02575
C 32.99475  6.24225  9.80925
C 34.77825  4.45875  9.80925
C 34.77825  6.24225  8.02575
C 32.10300  3.56700 10.70100
C 32.10300  5.35050 12.48450
C 33.88650  3.56700 12.48450
C 33.88650  5.35050 10.70100
C 32.99475  4.45875 11.59275
C 32.99475  6.24225 13.37625
C 34.77825  4.45875 13.37625
C 34.77825  6.24225 11.59275
C 32.10300  3.56700 14.26800
C 32.10300  5.35050 16.05150
C 33.88650  3.56700 16.05150
C 33.88650  5.35050 14.26800
C 32.99475  4.45875 15.15975
C 32.99475  6.24225 16.94325
C 34.77825  4.45875 16.94325
C 34.77825  6.24225 15.15975
C 32.10300  7.13400  0.00000
C 32.10300  8.91750  1.78350
C 33.88650  7.13400  1.78350
C 33.88650  8.91750  0.00000
C 32.99475  8.02575  0.89175
C 32.99475  9.80925  2.67525
C 34.77825  8.02575  2.67525
C 34.77825  9.80925  0.89175
C 32.10300  7.13400  3.56700
C 32.10300  8.91750  5.35050
C 33.88650  7.13400  5.35050
C 33.88650  8.91750  3.56700
C 32.99475  8.02575  4.45875
C 32.99475  9.80925  6.24225
C 34.77825  8.02575  6.24225
C 34.77825  9.80925  4.45875
C 32.10300  7.13400  7.13400
C 32.10300  8.91750  8.91750
C 33.88650  7.13400  8.91750
C 33.88650  8.91750  7.13400
C 32.99475  8.02575  8.02575
C 32.99475  9.80925  9.80925
C 34.77825  8.02575  9.80925
C 34.77825  9.80925  8.02575
C 32.10300  7.13400 10.70100
C 32.10300  8.91750 12.48450
C 33.88650  7.13400 12.48450
C 33.88650  8.91750 10.70100
C 32.99475  8.02575 11.59275
C 32.99475  9.80925 13.37625
C 34.77825  8.02575 13.37625
C 34.77825  9.80925 11.59275
C 32.10300  7.13400 14.26800
C 32.10300  8.91750 16.05150
C 33.88650  7.13400 16.05150
C 33.88650  8.91750 14.26800
C 32.99475  8.02575 15.15975
C 32.99475  9.80925 16.94325
C 34.77825  8.02575 16.94325
C 34.77825  9.80925 15.15975
C 32.10300 10.70100  0.00000
C 32.10300 12.48450  1.78350
C 33.88650 10.70100  1.78350
C 33.88650 12.48450  0.00000
C 32.99475 11.59275  0.89175
C 32.99475 13.37625  2.67525
C 34.77825 11.59275  2.67525
C 34.77825 13.37625  0.89175
C 32.10300 10.70100  3.56700
C 32.10300 12.48450  5.35050
C 33.88650 10.70100  5.35050
C 33.88650 12.48450  3.56700
C 32.99475 11.59275  4.45875
C 32.99475 13.37625  6.24225
C 34.77825 11.59275  6.24225
C 34.77825 13.37625  4.45875
C 32.10300 10.70100  7.13400
C 32.10300 12.48450  8.91750
C 33.88650 10.70100  8.91750
C 33.88650 12.48450  7.13400
C 32.99475 11.59275  8.02575
C 32.99475 13.37625  9.80925
C 34.77825 11.59275  9.80925
C 34.77825 13.37625  8.02575
C 32.10300 10.70100 10.70100
C 32.10300 12.48450 12.48450
C 33.88650 10.70100 12.48450
C 33.88650 12.48450 10.70100
C 32.99475 11.59275 11.59275
C 32.99475 13.37625 13.37625
C 34.77825 11.59275 13.37625
C 34.77825 13.37625 11.59275
C 32.10300 10.70100 14.26800
C 32.10300 12.48450 16.05150
C 33.88650 10.70100 16.05150
C 33.88650 12.48450 14.26800
C 32.99475 11.59275 15.15975
C 32.99475 13.37625 16.94325
C 34.77825 11.59275 16.94325
C 34.77825 13.37625 15.15975
C 32.10300 14.26800  0.00000
C 32.10300 16.05150  1.78350
C 33.88650 14.26800  1.78350
C 33.88650 16.05150  0.00000
C 32.99475 15.15975  0.89175
C 32.99475 16.94325  2.67525
C 34.77825 15.15975  2.67525
C 34.77825 16.94325  0.89175
C 32.10300 14.26800  3.56700
C 32.10300 16.05150  5.35050
C 33.88650 14.26800  5.35050
C 33.88650 16.05150  3.56700
C 32.99475 15.15975  4.45875
C 32.99475 16.94325  6.24225
C 34.77825 15.15975  6.24225
C 34.77825 16.94325  4.45875
C 32.10300 14.26800  7.13400
C 32.10300 16.05150  8.91750
C 33.88650 14.26800  8.91750
C 33.88650 16.05150  7.13400
C 32.99475 15.15975  8.02575
C 32.99475 16.94325  9.80925
C 34.77825 15.15975  9.80925
C 34.77825 16.94325  8.02575
C 32.10300 14.26800 10.70100
C 32.10300 16.05150 12.48450
C 33.88650 14.26800 12.48450
C 33.88650 16.05150 10.70100
C 32.99475 15.15975 11.59275
C 32.99475 16.94325 13.37625
C 34.77825 15.15975 13.37625
C 34.77825 16.94325 11.59275
C 32.10300 14.26800 14.26800
C 32.10300 16.05150 16.05150
C 33.88650 14.26800 16.05150
C 33.88650 16.05150 14.26800
C 32.99475 15.15975 15.15975
C 32.99475 16.94325 16.94325
C 34.77825 15.15975 16.94325
C 34.77825 16.94325 15.15975
N 17.83500  0.00000 17.83500
C 17.83500  1.78350 19.61850
C 19.61850  0.00000 19.61850
C 19.61850  1.78350 17.83500
C 18.72675  0.89175 18.72675
C 18.72675  2.67525 20.51025
C 20.51025  0.89175 20.51025
C 20.51025  2.67525 18.72675
C 17.83500  0.00000 21.40200
C 17.83500  1.78350 23.18550
C 19.61850  0.00000 23.18550
C 19.61850  1.78350 21.40200
C 18.72675  0.89175 22.29375
C 18.72675  2.67525 24.07725
C 20.51025  0.89175 24.07725
C 20.51025  2.67525 22.29375
C 17.83500  0.00000 24.96900
C 17.83500  1.78350 26.75250
C 19.61850  0.00000 26.75250
C 19.61850  1.78350 24.96900
C 18.72675  0.89175 25.86075
C 18.72675  2.67525 27.64425
C 20.51025  0.89175 27.64425
C 20.51025  2.67525 25.86075
C 17.83500  0.00000 28.53600
C 17.83500  1.78350 30.31950
C 19.61850  0.00000 30.31950
C 19.61850  1.78350 28.53600
C 18.72675  0.89175 29.42775
C 18.72675  2.67525 31.21125
C 20.51025  0.89175 31.21125
C 20.51025  2.67525 29.42775
C 17.83500  0.00000 32.10300
C 17.83500  1.78350 33.88650
C 19.61850  0.00000 33.88650
C 19.61850  1.78350 32.10300
C 18.72675  0.89175 32.99475
C 18.72675  2.67525 34.77825
C 20.51025  0.89175 34.77825
C 20.51025  2.67525 32.99475
C 17.83500  3.56700 17.83500
C 17.83500  5.35050 19.61850
C 19.61850  3.56700 19.61850
C 19.61850  5.35050 17.83500
C 18.72675  4.45875 18.72675
C 18.72675  6.24225 20.51025
C 20.51025  4.45875 20.51025
C 20.51025  6.24225 18.72675
C 17.83500  3.56700 21.40200
C 17.83500  5.35050 23.18550
C 19.61850  3.56700 23.18550
C 19.61850  5.35050 21.40200
C 18.72675  4.45875 22.29375
C 18.72675  6.24225 24.07725
C 20.51025  4.45875 24.07725
C 20.51025  6.24225 22.29375
C 17.83500  3.56700 24.96900
C 17.83500  5.35050 26.75250
C 19.61850  3.56700 26.75250
C 19.61850  5.35050 24.96900
C 18.72675  4.45875 25.86075
C 18.72675  6.24225 27.64425
C 20.51025  4.45875 27.64425
C 20.51025  6.24225 25.86075
C 17.83500  3.56700 28.53600
C 17.83500  5.35050 30.31950
C 19.61850  3.56700 30.31950
C 19.61850  5.35050 28.53600
C 18.72675  4.45875 29.42775
C 18.72675  6.24225 31.21125
C 20.51025  4.45875 31.21125
C 20.51025  6.24225 29.42775
C 17.83500  3.56700 32.10300
C 17.83500  5.35050 33.88650
C 19.61850  3.56700 33.88650
C 19.61850  5.35050 32.10300
C 18.72675  4.45875 32.99475
C 18.72675  6.24225 34.77825
C 20.51025  4.45875 34.77825
C 20.51025  6.24225 32.99475
C 17.83500  7.13400 17.83500
C 17.83500  8.91750 19.61850
C 19.61850  7.13400 19.61850
C 19.61850  8.91750 17.83500
C 18.72675  8.02575 18.72675
C 18.72675  9.80925 20.51025
C 20.51025  8.02575 20.51025
C 20.51025  9.80925 18.72675
C 17.83500  7.13400 21.40200
C 17.83500  8.91750 23.18550
C 19.61850  7.13400 23.18550
C 19.61850  8.91750 21.40200
C 18.72675  8.02575 22.29375
C 18.72675  9.80925 24.07725
C 20.51025  8.02575 24.07725
C 20.51025  9.80925 22.29375
C 17.83500  7.13400 24.96900
C 17.83500  8.91750 26.75250
C 19.61850  7.13400 26.75250
C 19.61850  8.91750 24.96900
C 18.72675  8.02575 25.86075
C 18.72675  9.80925 27.64425
C 20.51025  8.02575 27.64425
C 20.51025  9.80925 25.86075
C 17.83500  7.13400 28.53600
C 17.83500  8.91750 30.31950
C 19.61850  7.13400 30.31950
C 19.61850  8.91750 28.53600
C 18.72675  8.02575 29.42775
C 18.72675  9.80925 31.21125
C 20.51025  8.02575 31.21125
C 20.51025  9.80925 29.42775
C 17.83500  7.13400 32.10300
C 17.83500  8.91750 33.88650
C 19.61850  7.13400 33.88650
C 19.61850  8.91750 32.10300
C 18.72675  8.02575 32.99475
C 18.72675  9.80925 34.77825
C 20.51025  8.02575 34.77825
C 20.51025  9.80925 32.99475
C 17.83500 10.70100 17.83500
C 17.83500 12.48450 19.61850
C 19.61850 10.70100 19.61850
C 19.61850 12.48450 17.83500
C 18.72675 11.59275 18.72675
C 18.72675 13.37625 20.51025
C 20.51025 11.59275 20.51025
C 20.51025 13.37625 18.72675
C 17.83500 10.70100 21.40200
C 17.83500 12.48450 23.18550
C 19.61850 10.70100 23.18550
C 19.61850 12.48450 21.40200
C 18.72675 11.59275 22.29375
C 18.72675 13.37625 24.07725
C 20.51025 11.59275 24.07725
C 20.51025 13.37625 22.29375
C 17.83500 10.70100 24.96900
C 17.83500 12.48450 26.75250
C 19.61850 10.70100 26.75250
C 19.61850 12.48450 24.96900
C 18.72675 11.59275 25.86075
C 18.72675 13.37625 27.64425
C 20.51025 11.59275 27.64425
C 20.51025 13.37625 25.86075
C 17.83500 10.70100 28.53600
C 17.83500 12.48450 30.31950
C 19.61850 10.70100 30.31950
C 19.61850 12.48450 28.53600
C 18.72675 11.59275 29.42775
C 18.72675 13.37625 31.21125
C 20.51025 11.59275 31.21125
C 20.51025 13.37625 29.42775
C 17.83500 10.70100 32.10300
C 17.83500 12.48450 33.88650
C 19.61850 10.70100 33.88650
C 19.61850 12.48450 32.10300
C 18.72675 11.59275 32.99475
C 18.72675 13.37625 34.77825
C 20.51025 11.59275 34.77825
C 20.51025 13.37625 32.99475
C 17.83500 14.26800 17.83500
C 17.83500 16.05150 19.61850
C 19.61850 14.26800 19.61850
C 19.61850 16.05150 17.83500
C 18.72675 15.15975 18.72675
C 18.72675 16.94325 20.51025
C 20.51025 15.15975 20.51025
C 20.51025 16.94325 18.72675
C 17.83500 14.26800 21.40200
C 17.83500 16.05150 23.18550
C 19.61850 14.26800 23.18550
C 19.61850 16.05150 21.40200
C 18.72675 15.15975 22.29375
C 18.72675 16.94325 24.07725
C 20.51025 15.15975 24.07725
C 20.51025 16.94325 22.29375
C 17.83500 14.26800 24.96900
C 17.83500 16.05150 26.75250
C 19.61850 14.26800 26.75250
C 19.61850 16.05150 24.96900
C 18.72675 15.15975 25.86075
C 18.72675 16.94325 27.64425
C 20.51025 15.15975 27.64425
C 20.51025 16.94325 25.86075
C 17.83500 14.26800 28.53600
C 17.83500 16.05150 30.31950
C 19.61850 14.26800 30.31950
C 19.61850 16.05150 28.53600
C 18.72675 15.15975 29.42775
C 18.72675 16.94325 31.21125
C 20.51025 15.15975 31.21125
C 20.51025 16.94325 29.42775
C 17.83500 14.26800 32.10300
C 17.83500 16.05150 33.88650
C 19.61850 14.26800 33.88650
C 19.61850 16.05150 32.10300
C 18.72675 15.15975 32.99475
C 18.72675 16.94325 34.77825
C 20.51025 15.15975 34.77825
C 20.51025 16.94325 32.99475
C 21.40200  0.00000 17.83500
C 21.40200  1.78350 19.61850
C 23.18550  0.00000 19.61850
C 23.18550  1.78350 17.83500
C 22.29375  0.89175 18.72675
C 22.29375  2.67525 20.51025
C 24.07725  0.89175 20.51025
C 24.07725  2.67525 18.72675
C 21.40200  0.00000 21.40200
C 21.40200  1.78350 23.18550
C 23.18550  0.00000 23.18550
C 23.18550  1.78350 21.40200
C 22.29375  0.89175 22.29375
C 22.29375  2.67525 24.07725
C 24.07725  0.89175 24.07725
C 24.07725  2.67525 22.29375
C 21.40200  0.00000 24.96900
C 21.40200  1.78350 26.75250
C 23.18550  0.00000 26.75250
C 23.18550  1.78350 24.96900
C 22.29375  0.89175 25.86075
C 22.29375  2.67525 27.64425
C 24.07725  0.89175 27.64425
C 24.07725  2.67525 25.86075
C 21.40200  0.00000 28.53600
C 21.40200  1.78350 30.31950
C 23.18550  0.00000 30.31950
C 23.18550  1.78350 28.53600
C 22.29375  0.89175 29.42775
C 22.29375  2.67525 31.21125
C 24.07725  0.89175 31.21125
C 24.07725  2.67525 29.42775
C 21.40200  0.00000 32.10300
C 21.40200  1.78350 33.88650
C 23.18550  0.00000 33.88650
C 23.18550  1.78350 32.10300
C 22.29375  0.89175 32.99475
C 22.29375  2.67525 34.77825
C 24.07725  0.89175 34.77825
C 24.07725  2.67525 32.99475
C 21.40200  3.56700 17.83500
C 21.40200  5.35050 19.61850
C 23.18550  3.56700 19.61850
C 23.18550  5.35050 17.83500
C 22.29375  4.45875 18.72675
C 22.29375  6.24225 20.51025
C 24.07725  4.45875 20.51025
C 24.07725  6.24225 18.72675
C 21.40200  3.56700 21.40200
C 21.40200  5.35050 23.18550
C 23.18550  3.56700 23.18550
C 23.18550  5.35050 21.40200
C 22.29375  4.45875 22.29375
C 22.29375  6.24225 24.07725
C 24.07725  4.45875 24.07725
C 24.07725  6.24225 22.29375
C 21.40200  3.56700 24.96900
C 21.40200  5.35050 26.75250
C 23.18550  3.56700 26.75250
C 23.18550  5.35050 24.96900
C 22.29375  4.45875 25.86075
C 22.29375  6.24225 27.64425
C 24.07725  4.45875 27.64425
C 24.07725  6.24225 25.86075
C 21.40200  3.56700 28.53600
C 21.40200  5.35050 30.31950
C 23.18550  3.56700 30.31950
C 23.18550  5.35050 28.53600
C 22.29375  4.45875 29.42775
C 22.29375  6.24225 31.21125
C 24.07725  4.45875 31.21125
C 24.07725  6.24225 29.42775
C 21.40200  3.56700 32.10300
C 21.40200  5.35050 33.88650
C 23.18550  3.56700 33.88650
C 23.18550  5.35050 32.10300
C 22.29375  4.45875 32.99475
C 22.29375  6.24225 34.77825
C 24.07725  4.45875 34.77825
C 24.07725  6.24225 32.99475
C 21.40200  7.13400 17.83500
C 21.40200  8.91750 19.61850
C 23.18550  7.13400 19.61850
C 23.18550  8.91750 17.83500
C 22.29375  8.02575 18.72675
C 22.29375  9.80925 20.51025
C 24.07725  8.02575 20.51025
C 24.07725  9.80925 18.72675
C 21.40200  7.13400 21.40200
C 21.40200  8.91750 23.18550
C 23.18550  7.13400 23.18550
C 23.18550  8.91750 21.40200
C 22.29375  8.02575 22.29375
C 22.29375  9.80925 24.07725
C 24.07725  8.02575 24.07725
C 24.07725  9.80925 22.29375
C 21.40200  7.13400 24.96900
C 21.40200  8.91750 26.75250
C 23.18550  7.13400 26.75250
C 23.18550  8.91750 24.96900
C 22.29375  8.02575 25.86075
C 22.29375  9.80925 27.64425
C 24.07725  8.02575 27.64425
C 24.07725  9.80925 25.86075
C 21.40200  7.13400 28.53600
C 21.40200  8.91750 30.31950
C 23.18550  7.13400 30.31950
C 23.18550  8.91750 28.53600
C 22.29375  8.02575 29.42775
C 22.29375  9.80925 31.21125
C 24.07725  8.02575 31.21125
C 24.07725  9.80925 29.42775
C 21.40200  7.13400 32.10300
C 21.40200  8.91750 33.88650
C 23.18550  7.13400 33.88650
C 23.18550  8.91750 32.10300
C 22.29375  8.02575 32.99475
C 22.29375  9.80925 34.77825
C 24.07725  8.02575 34.77825
C 24.07725  9.80925 32.99475
C 21.40200 10.70100 17.83500
C 21.40200 12.48450 19.61850
C 23.18550 10.70100 19.61850
C 23.18550 12.48450 17.83500
C 22.29375 11.59275 18.72675
C 22.29375 13.37625 20.51025
C 24.07725 11.59275 20.51025
C 24.07725 13.37625 18.72675
C 21.40200 10.70100 21.40200
C 21.40200 12.48450 23.18550
C 23.18550 10.70100 23.18550
C 23.18550 12.48450 21.40200
C 22.29375 11.59275 22.29375
C 22.29375 13.37625 24.07725
C 24.07725 11.59275 24.07725
C 24.07725 13.37625 22.29375
C 21.40200 10.70100 24.96900
C 21.40200 12.48450 26.75250
C 23.18550 10.70100 26.75250
C 23.18550 12.48450 24.96900
C 22.29375 11.59275 25.86075
C 22.29375 13.37625 27.64425
C 24.07725 11.59275 27.64425
C 24.07725 13.37625 25.86075
C 21.40200 10.70100 28.53600
C 21.40200 12.48450 30.31950
C 23.18550 10.70100 30.31950
C 23.18550 12.48450 28.53600
C 22.29375 11.59275 29.42775
C 22.29375 13.37625 31.21125
C 24.07725 11.59275 31.21125
C 24.07725 13.37625 29.42775
C 21.40200 10.70100 32.10300
C 21.40200 12.48450 33.88650
C 23.18550 10.70100 33.88650
C 23.18550 12.48450 32.10300
C 22.29375 11.59275 32.99475
C 22.29375 13.37625 34.77825
C 24.07725 11.59275 34.77825
C 24.07725 13.37625 32.99475
C 21.40200 14.26800 17.83500
C 21.40200 16.05150 19.61850
C 23.18550 14.26800 19.61850
C 23.18550 16.05150 17.83500
C 22.29375 15.15975 18.72675
C 22.29375 16.94325 20.51025
C 24.07725 15.15975 20.51025
C 24.07725 16.94325 18.72675
C 21.40200 14.26800 21.40200
C 21.40200 16.05150 23.18550
C 23.18550 14.26800 23.18550
C 23.18550 16.05150 21.40200
C 22.29375 15.15975 22.29375
C 22.29375 16.94325 24.07725
C 24.07725 15.15975 24.07725
C 24.07725 16.94325 22.29375
C 21.40200 14.26800 24.96900
C 21.40200 16.05150 26.75250
C 23.18550 14.26800 26.75250
C 23.18550 16.05150 24.96900
C 22.29375 15.15975 25.86075
C 22.29375 16.94325 27.64425
C 24.07725 15.15975 27.64425
C 24.07725 16.94325 25.86075
C 21.40200 14.26800 28.53600
C 21.40200 16.05150 30.31950
C 23.18550 14.26800 30.31950
C 23.18550 16.05150 28.53600
C 22.29375 15.15975 29.42775
C 22.29375 16.94325 31.21125
C 24.07725 15.15975 31.21125
C 24.07725 16.94325 29.42775
C 21.40200 14.26800 32.10300
C 21.40200 16.05150 33.88650
C 23.18550 14.26800 33.88650
C 23.18550 16.05150 32.10300
C 22.29375 15.15975 32.99475
C 22.29375 16.94325 34.77825
C 24.07725 15.15975 34.77825
C 24.07725 16.94325 32.99475
C 24.96900  0.00000 17.83500
C 24.96900  1.78350 19.61850
C 26.75250  0.00000 19.61850
C 26.75250  1.78350 17.83500
C 25.86075  0.89175 18.72675
C 25.86075  2.67525 20.51025
C 27.64425  0.89175 20.51025
C 27.64425  2.67525 18.72675
C 24.96900  0.00000 21.40200
C 24.96900  1.78350 23.18550
C 26.75250  0.00000 23.18550
C 26.75250  1.78350 21.40200
C 25.86075  0.89175 22.29375
C 25.86075  2.67525 24.07725
C 27.64425  0.89175 24.07725
C 27.64425  2.67525 22.29375
C 24.96900  0.00000 24.96900
C 24.96900  1.78350 26.75250
C 26.75250  0.00000 26.75250
C 26.75250  1.78350 24.96900
C 25.86075  0.89175 25.86075
C 25.86075  2.67525 27.64425
C 27.64425  0.89175 27.64425
C 27.64425  2.67525 25.86075
C 24.96900  0.00000 28.53600
C 24.96900  1.78350 30.31950
C 26.75250  0.00000 30.31950
C 26.75250  1.78350 28.53600
C 25.86075  0.89175 29.42775
C 25.86075  2.67525 31.21125
C 27.64425  0.89175 31.21125
C 27.64425  2.67525 29.42775
C 24.96900  0.00000 32.10300
C 24.96900  1.78350 33.88650
C 26.75250  0.00000 33.88650
C 26.75250  1.78350 32.10300
C 25.86075  0.89175 32.99475
C 25.86075  2.67525 34.77825
C 27.64425  0.89175 34.77825
C 27.64425  2.67525 32.99475
C 24.96900  3.56700 17.83500
C 24.96900  5.35050 19.61850
C 26.75250  3.56700 19.61850
C 26.75250  5.35050 17.83500
C 25.86075  4.45875 18.72675
C 25.86075  6.24225 20.51025
C 27.64425  4.45875 20.51025
C 27.64425  6.24225 18.72675
C 24.96900  3.56700 21.40200
C 24.96900  5.35050 23.18550
C 26.75250  3.56700 23.18550
C 26.75250  5.35050 21.40200
C 25.86075  4.45875 22.29375
C 25.86075  6.24225 24.07725
C 27.64425  4.45875 24.07725
C 27.64425  6.24225 22.29375
C 24.96900  3.56700 24.96900
C 24.96900  5.35050 26.75250
C 26.75250  3.56700 26.75250
C 26.75250  5.35050 24.96900
C 25.86075  4.45875 25.86075
C 25.86075  6.24225 27.64425
C 27.64425  4.45875 27.64425
C 27.64425  6.24225 25.86075
C 24.96900  3.56700 28.53600
C 24.96900  5.35050 30.31950
C 26.75250  3.56700 30.31950
C 26.75250  5.35050 28.53600
C 25.86075  4.45875 29.42775
C 25.86075  6.24225 31.21125
C 27.64425  4.45875 31.21125
C 27.64425  6.24225 29.42775
C 24.96900  3.56700 32.10300
C 24.96900  5.35050 33.88650
C 26.75250  3.56700 33.88650
C 26.75250  5.35050 32.10300
C 25.86075  4.45875 32.99475
C 25.86075  6.24225 34.77825
C 27.64425  4.45875 34.77825
C 27.64425  6.24225 32.99475
C 24.96900  7.13400 17.83500
C 24.96900  8.91750 19.61850
C 26.75250  7.13400 19.61850
C 26.75250  8.91750 17.83500
C 25.86075  8.02575 18.72675
C 25.86075  9.80925 20.51025
C 27.64425  8.02575 20.51025
C 27.64425  9.80925 18.72675
C 24.96900  7.13400 21.40200
C 24.96900  8.91750 23.18550
C 26.75250  7.13400 23.18550
C 26.75250  8.91750 21.40200
C 25.86075  8.02575 22.29375
C 25.86075  9.80925 24.07725
C 27.64425  8.02575 24.07725
C 27.64425  9.80925 22.29375
C 24.96900  7.13400 24.96900
C 24.96900  8.91750 26.75250
C 26.75250  7.13400 26.75250
C 26.75250  8.91750 24.96900
C 25.86075  8.02575 25.86075
C 25.86075  9.80925 27.64425
C 27.64425  8.02575 27.64425
C 27.64425  9.80925 25.86075
C 24.96900  7.13400 28.53600
C 24.96900  8.91750 30.31950
C 26.75250  7.13400 30.31950
C 26.75250  8.91750 28.53600
C 25.86075  8.02575 29.42775
C 25.86075  9.80925 31.21125
C 27.64425  8.02575 31.21125
C 27.64425  9.80925 29.42775
C 24.96900  7.13400 32.10300
C 24.96900  8.91750 33.88650
C 26.75250  7.13400 33.88650
C 26.75250  8.91750 32.10300
C 25.86075  8.02575 32.99475
C 25.86075  9.80925 34.77825
C 27.64425  8.02575 34.77825
C 27.64425  9.80925 32.99475
C 24.96900 10.70100 17.83500
C 24.96900 12.48450 19.61850
C 26.75250 10.70100 19.61850
C 26.75250 12.48450 17.83500
C 25.86075 11.59275 18.72675
C 25.86075 13.37625 20.51025
C 27.64425 11.59275 20.51025
C 27.64425 13.37625 18.72675
C 24.96900 10.70100 21.40200
C 24.96900 12.48450 23.18550
C 26.75250 10.70100 23.18550
C 26.75250 12.48450 21.40200
C 25.86075 11.59275 22.29375
C 25.86075 13.37625 24.07725
C 27.64425 11.59275 24.07725
C 27.64425 13.37625 22.29375
C 24.96900 10.70100 24.96900
C 24.96900 12.48450 26.75250
C 26.75250 10.70100 26.75250
C 26.75250 12.48450 24.96900
C 25.86075 11.59275 25.86075
C 25.86075 13.37625 27.64425
C 27.64425 11.59275 27.64425
C 27.64425 13.37625 25.86075
C 24.96900 10.70100 28.53600
C 24.96900 12.48450 30.31950
C 26.75250 10.70100 30.31950
C 26.75250 12.48450 28.53600
C 25.86075 11.59275 29.42775
C 25.86075 13.37625 31.21125
C 27.64425 11.59275 31.21125
C 27.64425 13.37625 29.42775
C 24.96900 10.70100 32.10300
C 24.96900 12.48450 33.88650
C 26.75250 10.70100 33.88650
C 26.75250 12.48450 32.10300
C 25.86075 11.59275 32.99475
C 25.86075 13.37625 34.77825
C 27.64425 11.59275 34.77825
C 27.64425 13.37625 32.99475
C 24.96900 14.26800 17.83500
C 24.96900 16.05150 19.61850
C 26.75250 14.26800 19.61850
C 26.75250 16.05150 17.83500
C 25.86075 15.15975 18.72675
C 25.86075 16.94325 20.51025
C 27.64425 15.15975 20.51025
C 27.64425 16.94325 18.72675
C 24.96900 14.26800 21.40200
C 24.96900 16.05150 23.18550
C 26.75250 14.26800 23.18550
C 26.75250 16.05150 21.40200
C 25.86075 15.15975 22.29375
C 25.86075 16.94325 24.07725
C 27.64425 15.15975 24.07725
C 27.64425 16.94325 22.29375
C 24.96900 14.26800 24.96900
C 24.96900 16.05150 26.75250
C 26.75250 14.26800 26.75250
C 26.75250 16.05150 24.96900
C 25.86075 15.15975 25.86075
C 25.86075 16.94325 27.64425
C 27.64425 15.15975 27.64425
C 27.64425 16.94325 25.86075
C 24.96900 14.26800 28.53600
C 24.96900 16.05150 30.31950
C 26.75250 14.26800 30.31950
C 26.75250 16.05150 28.53600
C 25.86075 15.15975 29.42775
C 25.86075 16.94325 31.21125
C 27.64425 15.15975 31.21125
C 27.64425 16.94325 29.42775
C 24.96900 14.26800 32.10300
C 24.96900 16.05150 33.88650
C 26.75250 14.26800 33.88650
C 26.75250 16.05150 32.10300
C 25.86075 15.15975 32.99475
C 25.86075 16.94325 34.77825
C 27.64425 15.15975 34.77825
C 27.64425 16.94325 32.99475
C 28.53600  0.00000 17.83500
C 28.53600  1.78350 19.61850
C 30.31950  0.00000 19.61850
C 30.31950  1.78350 17.83500
C 29.42775  0.89175 18.72675
C 29.42775  2.67525 20.51025
C 31.21125  0.89175 20.51025
C 31.21125  2.67525 18.72675
C 28.53600  0.00000 21.40200
C 28.53600  1.78350 23.18550
C 30.31950  0.00000 23.18550
C 30.31950  1.78350 21.40200
C 29.42775  0.89175 22.29375
C 29.42775  2.67525 24.07725
C 31.21125  0.89175 24.07725
C 31.21125  2.67525 22.29375
C 28.53600  0.00000 24.96900
C 28.53600  1.78350 26.75250
C 30.31950  0.00000 26.75250
C 30.31950  1.78350 24.96900
C 29.42775  0.89175 25.86075
C 29.42775  2.67525 27.64425
C 31.21125  0.89175 27.64425
C 31.21125  2.67525 25.86075
C 28.53600  0.00000 28.53600
C 28.53600  1.78350 30.31950
C 30.31950  0.00000 30.31950
C 30.31950  1.78350 28.53600
C 29.42775  0.89175 29.42775
C 29.42775  2.67525 31.21125
C 31.21125  0.89175 31.21125
C 31.21125  2.67525 29.42775
C 28.53600  0.00000 32.10300
C 28.53600  1.78350 33.88650
C 30.31950  0.00000 33.88650
C 30.31950  1.78350 32.10300
C 29.42775  0.89175 32.99475
C 29.42775  2.67525 34.77825
C 31.21125  0.89175 34.77825
C 31.21125  2.67525 32.99475
C 28.53600  3.56700 17.83500
C 28.53600  5.35050 19.61850
C 30.31950  3.56700 19.61850
C 30.31950  5.35050 17.83500
C 29.42775  4.45875 18.72675
C 29.42775  6.24225 20.51025
C 31.21125  4.45875 20.51025
C 31.21125  6.24225 18.72675
C 28.53600  3.56700 21.40200
C 28.53600  5.35050 23.18550
C 30.31950  3.56700 23.18550
C 30.31950  5.35050 21.40200
C 29.42775  4.45875 22.29375
C 29.42775  6.24225 24.07725
C 31.21125  4.45875 24.07725
C 31.21125  6.24225 22.29375
C 28.53600  3.56700 24.96900
C 28.53600  5.35050 26.75250
C 30.31950  3.56700 26.75250
C 30.31950  5.35050 24.96900
C 29.42775  4.45875 25.86075
C 29.42775  6.24225 27.64425
C 31.21125  4.45875 27.64425
C 31.21125  6.24225 25.86075
C 28.53600  3.56700 28.53600
C 28.53600  5.35050 30.31950
C 30.31950  3.56700 30.31950
C 30.31950  5.35050 28.53600
C 29.42775  4.45875 29.42775
C 29.42775  6.24225 31.21125
C 31.21125  4.45875 31.21125
C 31.21125  6.24225 29.42775
C 28.53600  3.56700 32.10300
C 28.53600  5.35050 33.88650
C 30.31950  3.56700 33.88650
C 30.31950  5.35050 32.10300
C 29.42775  4.45875 32.99475
C 29.42775  6.24225 34.77825
C 31.21125  4.45875 34.77825
C 31.21125  6.24225 32.99475
C 28.53600  7.13400 17.83500
C 28.53600  8.91750 19.61850
C 30.31950  7.13400 19.61850
C 30.31950  8.91750 17.83500
C 29.42775  8.02575 18.72675
C 29.42775  9.80925 20.51025
C 31.21125  8.02575 20.51025
C 31.21125  9.80925 18.72675
C 28.53600  7.13400 21.40200
C 28.53600  8.91750 23.18550
C 30.31950  7.13400 23.18550
C 30.31950  8.91750 21.40200
C 29.42775  8.02575 22.29375
C 29.42775  9.80925 24.07725
C 31.21125  8.02575 24.07725
C 31.21125  9.80925 22.29375
C 28.53600  7.13400 24.96900
C 28.53600  8.91750 26.75250
C 30.31950  7.13400 26.75250
C 30.31950  8.91750 24.96900
C 29.42775  8.02575 25.86075
C 29.42775  9.80925 27.64425
C 31.21125  8.02575 27.64425
C 31.21125  9.80925 25.86075
C 28.53600  7.13400 28.53600
C 28.53600  8.91750 30.31950
C 30.31950  7.13400 30.31950
C 30.31950  8.91750 28.53600
C 29.42775  8.02575 29.42775
C 29.42775  9.80925 31.21125
C 31.21125  8.02575 31.21125
C 31.21125  9.80925 29.42775
C 28.53600  7.13400 32.10300
C 28.53600  8.91750 33.88650
C 30.31950  7.13400 33.88650
C 30.31950  8.91750 32.10300
C 29.42775  8.02575 32.99475
C 29.42775  9.80925 34.77825
C 31.21125  8.02575 34.77825
C 31.21125  9.80925 32.99475
C 28.53600 10.70100 17.83500
C 28.53600 12.48450 19.61850
C 30.31950 10.70100 19.61850
C 30.31950 12.48450 17.83500
C 29.42775 11.59275 18.72675
C 29.42775 13.37625 20.51025
C 31.21125 11.59275 20.51025
C 31.21125 13.37625 18.72675
C 28.53600 10.70100 21.40200
C 28.53600 12.48450 23.18550
C 30.31950 10.70100 23.18550
C 30.31950 12.48450 21.40200
C 29.42775 11.59275 22.29375
C 29.42775 13.37625 24.07725
C 31.21125 11.59275 24.07725
C 31.21125 13.37625 22.29375
C 28.53600 10.70100 24.96900
C 28.53600 12.48450 26.75250
C 30.31950 10.70100 26.75250
C 30.31950 12.48450 24.96900
C 29.42775 11.59275 25.86075
C 29.42775 13.37625 27.64425
C 31.21125 11.59275 27.64425
C 31.21125 13.37625 25.86075
C 28.53600 10.70100 28.53600
C 28.53600 12.48450 30.31950
C 30.31950 10.70100 30.31950
C 30.31950 12.48450 28.53600
C 29.42775 11.59275 29.42775
C 29.42775 13.37625 31.21125
C 31.21125 11.59275 31.21125
C 31.21125 13.37625 29.42775
C 28.53600 10.70100 32.10300
C 28.53600 12.48450 33.88650
C 30.31950 10.70100 33.88650
C 30.31950 12.48450 32.10300
C 29.42775 11.59275 32.99475
C 29.42775 13.37625 34.77825
C 31.21125 11.59275 34.77825
C 31.21125 13.37625 32.99475
C 28.53600 14.26800 17.83500
C 28.53600 16.05150 19.61850
C 30.31950 14.26800 19.61850
C 30.31950 16.05150 17.83500
C 29.42775 15.15975 18.72675
C 29.42775 16.94325 20.51025
C 31.21125 15.15975 20.51025
C 31.21125 16.94325 18.72675
C 28.53600 14.26800 21.40200
C 28.53600 16.05150 23.18550
C 30.31950 14.26800 23.18550
C 30.31950 16.05150 21.40200
C 29.42775 15.15975 22.29375
C 29.42775 16.94325 24.07725
C 31.21125 15.15975 24.07725
C 31.21125 16.94325 22.29375
C 28.53600 14.26800 24.96900
C 28.53600 16.05150 26.75250
C 30.31950 14.26800 26.75250
C 30.31950 16.05150 24.96900
C 29.42775 15.15975 25.86075
C 29.42775 16.94325 27.64425
C 31.21125 15.15975 27.64425
C 31.21125 16.94325 25.86075
C 28.53600 14.26800 28.53600
C 28.53600 16.05150 30.31950
C 30.31950 14.26800 30.31950
C 30.31950 16.05150 28.53600
C 29.42775 15.15975 29.42775
C 29.42775 16.94325 31.21125
C 31.21125 15.15975 31.21125
C 31.21125 16.94325 29.42775
C 28.53600 14.26800 32.10300
C 28.53600 16.05150 33.88650
C 30.31950 14.26800 33.88650
C 30.31950 16.05150 32.10300
C 29.42775 15.15975 32.99475
C 29.42775 16.94325 34.77825
C 31.21125 15.15975 34.77825
C 31.21125 16.94325 32.99475
C 32.10300  0.00000 17.83500
C 32.10300  1.78350 19.61850
C 33.88650  0.00000 19.61850
C 33.88650  1.78350 17.83500
C 32.99475  0.89175 18.72675
C 32.99475  2.67525 20.51025
C 34.77825  0.89175 20.51025
C 34.77825  2.67525 18.72675
C 32.10300  0.00000 21.40200
C 32.10300  1.78350 23.18550
C 33.88650  0.00000 23.18550
C 33.88650  1.78350 21.40200
C 32.99475  0.89175 22.29375
C 32.99475  2.67525 24.07725
C 34.77825  0.89175 24.07725
C 34.77825  2.67525 22.29375
C 32.10300  0.00000 24.96900
C 32.10300  1.78350 26.75250
C 33.88650  0.00000 26.75250
C 33.88650  1.78350 24.96900
C 32.99475  0.89175 25.86075
C 32.99475  2.67525 27.64425
C 34.77825  0.89175 27.64425
C 34.77825  2.67525 25.86075
C 32.10300  0.00000 28.53600
C 32.10300  1.78350 30.31950
C 33.88650  0.00000 30.31950
C 33.88650  1.78350 28.53600
C 32.99475  0.89175 29.42775
C 32.99475  2.67525 31.21125
C 34.77825  0.89175 31.21125
C 34.77825  2.67525 29.42775
C 32.10300  0.00000 32.10300
C 32.10300  1.78350 33.88650
C 33.88650  0.00000 33.88650
C 33.88650  1.78350 32.10300
C 32.99475  0.89175 32.99475
C 32.99475  2.67525 34.77825
C 34.77825  0.89175 34.77825
C 34.77825  2.67525 32.99475
C 32.10300  3.56700 17.83500
C 32.10300  5.35050 19.61850
C 33.88650  3.56700 19.61850
C 33.88650  5.35050 17.83500
C 32.99475  4.45875 18.72675
C 32.99475  6.24225 20.51025
C 34.77825  4.45875 20.51025
C 34.77825  6.24225 18.72675
C 32.10300  3.56700 21.40200
C 32.10300  5.35050 23.18550
C 33.88650  3.56700 23.18550
C 33.88650  5.35050 21.40200
C 32.99475  4.45875 22.29375
C 32.99475  6.24225 24.07725
C 34.77825  4.45875 24.07725
C 34.77825  6.24225 22.29375
C 32.10300  3.56700 24.96900
C 32.10300  5.35050 26.75250
C 33.88650  3.56700 26.75250
C 33.88650  5.35050 24.96900
C 32.99475  4.45875 25.86075
C 32.99475  6.24225 27.64425
C 34.77825  4.45875 27.64425
C 34.77825  6.24225 25.86075
C 32.10300  3.56700 28.53600
C 32.10300  5.35050 30.31950
C 33.88650  3.56700 30.31950
C 33.88650  5.35050 28.53600
C 32.99475  4.45875 29.42775
C 32.99475  6.24225 31.21125
C 34.77825  4.45875 31.21125
C 34.77825  6.24225 29.42775
C 32.10300  3.56700 32.10300
C 32.10300  5.35050 33.88650
C 33.88650  3.56700 33.88650
C 33.88650  5.35050 32.10300
C 32.99475  4.45875 32.99475
C 32.99475  6.24225 34.77825
C 34.77825  4.45875 34.77825
C 34.77825  6.24225 32.99475
C 32.10300  7.13400 17.83500
C 32.10300  8.91750 19.61850
C 33.88650  7.13400 19.61850
C 33.88650  8.91750 17.83500
C 32.99475  8.02575 18.72675
C 32.99475  9.80925 20.51025
C 34.77825  8.02575 20.51025
C 34.77825  9.80925 18.72675
C 32.10300  7.13400 21.40200
C 32.10300  8.91750 23.18550
C 33.88650  7.13400 23.18550
C 33.88650  8.91750 21.40200
C 32.99475  8.02575 22.29375
C 32.99475  9.80925 24.07725
C 34.77825  8.02575 24.07725
C 34.77825  9.80925 22.29375
C 32.10300  7.13400 24.96900
C 32.10300  8.91750 26.75250
C 33.88650  7.13400 26.75250
C 33.88650  8.91750 24.96900
C 32.99475  8.02575 25.86075
C 32.99475  9.80925 27.64425
C 34.77825  8.02575 27.64425
C 34.77825  9.80925 25.86075
C 32.10300  7.13400 28.53600
C 32.10300  8.91750 30.31950
C 33.88650  7.13400 30.31950
C 33.88650  8.91750 28.53600
C 32.99475  8.02575 29.42775
C 32.99475  9.80925 31.21125
C 34.77825  8.02575 31.21125
C 34.77825  9.80925 29.42775
C 32.10300  7.13400 32.10300
C 32.10300  8.91750 33.88650
C 33.88650  7.13400 33.88650
C 33.88650  8.91750 32.10300
C 32.99475  8.02575 32.99475
C 32.99475  9.80925 34.77825
C 34.77825  8.02575 34.77825
C 34.77825  9.80925 32.99475
C 32.10300 10.70100 17.83500
C 32.10300 12.48450 19.61850
C 33.88650 10.70100 19.61850
C 33.88650 12.48450 17.83500
C 32.99475 11.59275 18.72675
C 32.99475 13.37625 20.51025
C 34.77825 11.59275 20.51025
C 34.77825 13.37625 18.72675
C 32.10300 10.70100 21.40200
C 32.10300 12.48450 23.18550
C 33.88650 10.70100 23.18550
C 33.88650 12.48450 21.40200
C 32.99475 11.59275 22.29375
C 32.99475 13.37625 24.07725
C 34.77825 11.59275 24.07725
C 34.77825 13.37625 22.29375
C 32.10300 10.70100 24.96900
C 32.10300 12.48450 26.75250
C 33.88650 10.70100 26.75250
C 33.88650 12.48450 24.96900
C 32.99475 11.59275 25.86075
C 32.99475 13.37625 27.64425
C 34.77825 11.59275 27.64425
C 34.77825 13.37625 25.86075
C 32.10300 10.70100 28.53600
C 32.10300 12.48450 30.31950
C 33.88650 10.70100 30.31950
C 33.88650 12.48450 28.53600
C 32.99475 11.59275 29.42775
C 32.99475 13.37625 31.21125
C 34.77825 11.59275 31.21125
C 34.77825 13.37625 29.42775
C 32.10300 10.70100 32.10300
C 32.10300 12.48450 33.88650
C 33.88650 10.70100 33.88650
C 33.88650 12.48450 32.10300
C 32.99475 11.59275 32.99475
C 32.99475 13.37625 34.77825
C 34.77825 11.59275 34.77825
C 34.77825 13.37625 32.99475
C 32.10300 14.26800 17.83500
C 32.10300 16.05150 19.61850
C 33.88650 14.26800 19.61850
C 33.88650 16.05150 17.83500
C 32.99475 15.15975 18.72675
C 32.99475 16.94325 20.51025
C 34.77825 15.15975 20.51025
C 34.77825 16.94325 18.72675
C 32.10300 14.26800 21.40200
C 32.10300 16.05150 23.18550
C 33.88650 14.26800 23.18550
C 33.88650 16.05150 21.40200
C 32.99475 15.15975 22.29375
C 32.99475 16.94325 24.07725
C 34.77825 15.15975 24.07725
C 34.77825 16.94325 22.29375
C 32.10300 14.26800 24.96900
C 32.10300 16.05150 26.75250
C 33.88650 14.26800 26.75250
C 33.88650 16.05150 24.96900
C 32.99475 15.15975 25.86075
C 32.99475 16.94325 27.64425
C 34.77825 15.15975 27.64425
C 34.77825 16.94325 25.86075
C 32.10300 14.26800 28.53600
C 32.10300 16.05150 30.31950
C 33.88650 14.26800 30.31950
C 33.88650 16.05150 28.53600
C 32.99475 15.15975 29.42775
C 32.99475 16.94325 31.21125
C 34.77825 15.15975 31.21125
C 34.77825 16.94325 29.42775
C 32.10300 14.26800 32.10300
C 32.10300 16.05150 33.88650
C 33.88650 14.26800 33.88650
C 33.88650 16.05150 32.10300
C 32.99475 15.15975 32.99475
C 32.99475 16.94325 34.77825
C 34.77825 15.15975 34.77825
C 34.77825 16.94325 32.99475
N 17.83500 17.83500 -17.83500
C 17.83500 19.61850 -16.05150
C 19.61850 17.83500 -16.05150
C 19.61850 19.61850 -17.83500
C 18.72675 18.72675 -16.94325
C 18.72675 20.51025 -15.15975
C 20.51025 18.72675 -15.15975
C 20.51025 20.51025 -16.94325
C 17.83500 17.83500 -14.26800
C 17.83500 19.61850 -12.48450
C 19.61850 17.83500 -12.48450
C 19.61850 19.61850 -14.26800
C 18.72675 18.72675 -13.37625
C 18.72675 20.51025 -11.59275
C 20.51025 18.72675 -11.59275
C 20.51025 20.51025 -13.37625
C 17.83500 17.83500 -10.70100
C 17.83500 19.61850 -8.91750
C 19.61850 17.83500 -8.91750
C 19.61850 19.61850 -10.70100
C 18.72675 18.72675 -9.80925
C 18.72675 20.51025 -8.02575
C 20.51025 18.72675 -8.02575
C 20.51025 20.51025 -9.80925
C 17.83500 17.83500 -7.13400
C 17.83500 19.61850 -5.35050
C 19.61850 17.83500 -5.35050
C 19.61850 19.61850 -7.13400
C 18.72675 18.72675 -6.24225
C 18.72675 20.51025 -4.45875
C 20.51025 18.72675 -4.45875
C 20.51025 20.51025 -6.24225
C 17.83500 17.83500 -3.56700
C 17.83500 19.61850 -1.78350
C 19.61850 17.83500 -1.78350
C 19.61850 19.61850 -3.56700
C 18.72675 18.72675 -2.67525
C 18.72675 20.51025 -0.89175
C 20.51025 18.72675 -0.89175
C 20.51025 20.51025 -2.67525
C 17.83500 21.40200 -17.83500
C 17.83500 23.18550 -16.05150
C 19.61850 21.40200 -16.05150
C 19.61850 23.18550 -17.83500
C 18.72675 22.29375 -16.94325
C 18.72675 24.07725 -15.15975
C 20.51025 22.29375 -15.15975
C 20.51025 24.07725 -16.94325
C 17.83500 21.40200 -14.26800
C 17.83500 23.18550 -12.48450
C 19.61850 21.40200 -12.48450
C 19.61850 23.18550 -14.26800
C 18.72675 22.29375 -13.37625
C 18.72675 24.07725 -11.59275
C 20.51025 22.29375 -11.59275
C 20.51025 24.07725 -13.37625
C 17.83500 21.40200 -10.70100
C 17.83500 23.18550 -8.91750
C 19.61850 21.40200 -8.91750
C 19.61850 23.18550 -10.70100
C 18.72675 22.29375 -9.80925
C 18.72675 24.07725 -8.02575
C 20.51025 22.29375 -8.02575
C 20.51025 24.07725 -9.80925
C 17.83500 21.40200 -7.13400
C 17.83500 23.18550 -5.35050
C 19.61850 21.40200 -5.35050
C 19.61850 23.18550 -7.13400
C 18.72675 22.29375 -6.24225
C 18.72675 24.07725 -4.45875
C 20.51025 22.29375 -4.45875
C 20.51025 24.07725 -6.24225
C 17.83500 21.40200 -3.56700
C 17.83500 23.18550 -1.78350
C 19.61850 21.40200 -1.78350
C 19.61850 23.18550 -3.56700
C 18.72675 22.29375 -2.67525
C 18.72675 24.07725 -0.89175
C 20.51025 22.29375 -0.89175
C 20.51025 24.07725 -2.67525
C 17.83500 24.96900 -17.83500
C 17.83500 26.75250 -16.05150
C 19.61850 24.96900 -16.05150
C 19.61850 26.75250 -17.83500
C 18.72675 25.86075 -16.94325
C 18.72675 27.64425 -15.15975
C 20.51025 25.86075 -15.15975
C 20.51025 27.64425 -16.94325
C 17.83500 24.96900 -14.26800
C 17.83500 26.75250 -12.48450
C 19.61850 24.96900 -12.48450
C 19.61850 26.75250 -14.26800
C 18.72675 25.86075 -13.37625
C 18.72675 27.64425 -11.59275
C 20.51025 25.86075 -11.59275
C 20.51025 27.64425 -13.37625
C 17.83500 24.96900 -10.70100
C 17.83500 26.75250 -8.91750
C 19.61850 24.96900 -8.91750
C 19.61850 26.75250 -10.70100
C 18.72675 25.86075 -9.80925
C 18.72675 27.64425 -8.02575
C 20.51025 25.86075 -8.02575
C 20.51025 27.64425 -9.80925
C 17.83500 24.96900 -7.13400
C 17.83500 26.75250 -5.35050
C 19.61850 24.96900 -5.35050
C 19.61850 26.75250 -7.13400
C 18.72675 25.86075 -6.24225
C 18.72675 27.64425 -4.45875
C 20.51025 25.86075 -4.45875
C 20.51025 27.64425 -6.24225
C 17.83500 24.96900 -3.56700
C 17.83500 26.75250 -1.78350
C 19.61850 24.96900 -1.78350
C 19.61850 26.75250 -3.56700
C 18.72675 25.86075 -2.67525
C 18.72675 27.64425 -0.89175
C 20.51025 25.86075 -0.89175
C 20.51025 27.64425 -2.67525
C 17.83500 28.53600 -17.83500
C 17.83500 30.31950 -16.05150
C 19.61850 28.53600 -16.05150
C 19.61850 30.31950 -17.83500
C 18.72675 29.42775 -16.94325
C 18.72675 31.21125 -15.15975
C 20.51025 29.42775 -15.15975
C 20.51025 31.21125 -16.94325
C 17.83500 28.53600 -14.26800
C 17.83500 30.31950 -12.48450
C 19.61850 28.53600 -12.48450
C 19.61850 30.31950 -14.26800
C 18.72675 29.42775 -13.37625
C 18.72675 31.21125 -11.59275
C 20.51025 29.42775 -11.59275
C 20.51025 31.21125 -13.37625
C 17.83500 28.53600 -10.70100
C 17.83500 30.31950 -8.91750
C 19.61850 28.53600 -8.91750
C 19.61850 30.31950 -10.70100
C 18.72675 29.42775 -9.80925
C 18.72675 31.21125 -8.02575
C 20.51025 29.42775 -8.02575
C 20.51025 31.21125 -9.80925
C 17.83500 28.53600 -7.13400
C 17.83500 30.31950 -5.35050
C 19.61850 28.53600 -5.35050
C 19.61850 30.31950 -7.13400
C 18.72675 29.42775 -6.24225
C 18.72675 31.21125 -4.45875
C 20.51025 29.42775 -4.45875
C 20.51025 31.21125 -6.24225
C 17.83500 28.53600 -3.56700
C 17.83500 30.31950 -1.78350
C 19.61850 28.53600 -1.78350
C 19.61850 30.31950 -3.56700
C 18.72675 29.42775 -2.67525
C 18.72675 31.21125 -0.89175
C 20.51025 29.42775 -0.89175
C 20.51025 31.21125 -2.67525
C 17.83500 32.10300 -17.83500
C 17.83500 33.88650 -16.05150
C 19.61850 32.10300 -16.05150
C 19.61850 33.88650 -17.83500
C 18.72675 32.99475 -16.94325
C 18.72675 34.77825 -15.15975
C 20.51025 32.99475 -15.15975
C 20.51025 34.77825 -16.94325
C 17.83500 32.10300 -14.26800
C 17.83500 33.88650 -12.48450
C 19.61850 32.10300 -12.48450
C 19.61850 33.88650 -14.26800
C 18.72675 32.99475 -13.37625
C 18.72675 34.77825 -11.59275
C 20.51025 32.99475 -11.59275
C 20.51025 34.77825 -13.37625
C 17.83500 32.10300 -10.70100
C 17.83500 33.88650 -8.91750
C 19.61850 32.10300 -8.91750
C 19.61850 33.88650 -10.70100
C 18.72675 32.99475 -9.80925
C 18.72675 34.77825 -8.02575
C 20.51025 32.99475 -8.02575
C 20.51025 34.77825 -9.80925
C 17.83500 32.10300 -7.13400
C 17.83500 33.88650 -5.35050
C 19.61850 32.10300 -5.35050
C 19.61850 33.88650 -7.13400
C 18.72675 32.99475 -6.24225
C 18.72675 34.77825 -4.45875
C 20.51025 32.99475 -4.45875
C 20.51025 34.77825 -6.24225
C 17.83500 32.10300 -3.56700
C 17.83500 33.88650 -1.78350
C 19.61850 32.10300 -1.78350
C 19.61850 33.88650 -3.56700
C 18.72675 32.99475 -2.67525
C 18.72675 34.77825 -0.89175
C 20.51025 32.99475 -0.89175
C 20.51025 34.77825 -2.67525
C 21.40200 17.83500 -17.83500
C 21.40200 19.61850 -16.05150
C 23.18550 17.83500 -16.05150
C 23.18550 19.61850 -17.83500
C 22.29375 18.72675 -16.94325
C 22.29375 20.51025 -15.15975
C 24.07725 18.72675 -15.15975
C 24.07725 20.51025 -16.94325
C 21.40200 17.83500 -14.26800
C 21.40200 19.61850 -12.48450
C 23.18550 17.83500 -12.48450
C 23.18550 19.61850 -14.26800
C 22.29375 18.72675 -13.37625
C 22.29375 20.51025 -11.59275
C 24.07725 18.72675 -11.59275
C 24.07725 20.51025 -13.37625
C 21.40200 17.83500 -10.70100
C 21.40200 19.61850 -8.91750
C 23.18550 17.83500 -8.91750
C 23.18550 19.61850 -10.70100
C 22.29375 18.72675 -9.80925
C 22.29375 20.51025 -8.02575
C 24.07725 18.72675 -8.02575
C 24.07725 20.51025 -9.80925
C 21.40200 17.83500 -7.13400
C 21.40200 19.61850 -5.35050
C 23.18550 17.83500 -5.35050
C 23.18550 19.61850 -7.13400
C 22.29375 18.72675 -6.24225
C 22.29375 20.51025 -4.45875
C 24.07725 18.72675 -4.45875
C 24.07725 20.51025 -6.24225
C 21.40200 17.83500 -3.56700
C 21.40200 19.61850 -1.78350
C 23.18550 17.83500 -1.78350
C 23.18550 19.61850 -3.56700
C 22.29375 18.72675 -2.67525
C 22.29375 20.51025 -0.89175
C 24.07725 18.72675 -0.89175
C 24.07725 20.51025 -2.67525
C 21.40200 21.40200 -17.83500
C 21.40200 23.18550 -16.05150
C 23.18550 21.40200 -16.05150
C 23.18550 23.18550 -17.83500
C 22.29375 22.29375 -16.94325
C 22.29375 24.07725 -15.15975
C 24.07725 22.29375 -15.15975
C 24.07725 24.07725 -16.94325
C 21.40200 21.40200 -14.26800
C 21.40200 23.18550 -12.48450
C 23.18550 21.40200 -12.48450
C 23.18550 23.18550 -14.26800
C 22.29375 22.29375 -13.37625
C 22.29375 24.07725 -11.59275
C 24.07725 22.29375 -11.59275
C 24.07725 24.07725 -13.37625
C 21.40200 21.40200 -10.70100
C 21.40200 23.18550 -8.91750
C 23.18550 21.40200 -8.91750
C 23.18550 23.18550 -10.70100
C 22.29375 22.29375 -9.80925
C 22.29375 24.07725 -8.02575
C 24.07725 22.29375 -8.02575
C 24.07725 24.07725 -9.80925
C 21.40200 21.40200 -7.13400
C 21.40200 23.18550 -5.35050
C 23.18550 21.40200 -5.35050
C 23.18550 23.18550 -7.13400
C 22.29375 22.29375 -6.24225
C 22.29375 24.07725 -4.45875
C 24.07725 22.29375 -4.45875
C 24.07725 24.07725 -6.24225
C 21.40200 21.40200 -3.56700
C 21.40200 23.18550 -1.78350
C 23.18550 21.40200 -1.78350
C 23.18550 23.18550 -3.56700
C 22.29375 22.29375 -2.67525
C 22.29375 24.07725 -0.89175
C 24.07725 22.29375 -0.89175
C 24.07725 24.07725 -2.67525
C 21.40200 24.96900 -17.83500
C 21.40200 26.75250 -16.05150
C 23.18550 24.96900 -16.05150
C 23.18550 26.75250 -17.83500
C 22.29375 25.86075 -16.94325
C 22.29375 27.64425 -15.15975
C 24.07725 25.86075 -15.15975
C 24.07725 27.64425 -16.94325
C 21.40200 24.96900 -14.26800
C 21.40200 26.75250 -12.48450
C 23.18550 24.96900 -12.48450
C 23.18550 26.75250 -14.26800
C 22.29375 25.86075 -13.37625
C 22.29375 27.64425 -11.59275
C 24.07725 25.86075 -11.59275
C 24.07725 27.64425 -13.37625
C 21.40200 24.96900 -10.70100
C 21.40200 26.75250 -8.91750
C 23.18550 24.96900 -8.91750
C 23.18550 26.75250 -10.70100
C 22.29375 25.86075 -9.80925
C 22.29375 27.64425 -8.02575
C 24.07725 25.86075 -8.02575
C 24.07725 27.64425 -9.80925
C 21.40200 24.96900 -7.13400
C 21.40200 26.75250 -5.35050
C 23.18550 24.96900 -5.35050
C 23.18550 26.75250 -7.13400
C 22.29375 25.86075 -6.24225
C 22.29375 27.64425 -4.45875
C 24.07725 25.86075 -4.45875
C 24.07725 27.64425 -6.24225
C 21.40200 24.96900 -3.56700
C 21.40200 26.75250 -1.78350
C 23.18550 24.96900 -1.78350
C 23.18550 26.75250 -3.56700
C 22.29375 25.86075 -2.67525
C 22.29375 27.64425 -0.89175
C 24.07725 25.86075 -0.89175
C 24.07725 27.64425 -2.67525
C 21.40200 28.53600 -17.83500
C 21.40200 30.31950 -16.05150
C 23.18550 28.53600 -16.05150
C 23.18550 30.31950 -17.83500
C 22.29375 29.42775 -16.94325
C 22.29375 31.21125 -15.15975
C 24.07725 29.42775 -15.15975
C 24.07725 31.21125 -16.94325
C 21.40200 28.53600 -14.26800
C 21.40200 30.31950 -12.48450
C 23.18550 28.53600 -12.48450
C 23.18550 30.31950 -14.26800
C 22.29375 29.42775 -13.37625
C 22.29375 31.21125 -11.59275
C 24.07725 29.42775 -11.59275
C 24.07725 31.21125 -13.37625
C 21.40200 28.53600 -10.70100
C 21.40200 30.31950 -8.91750
C 23.18550 28.53600 -8.91750
C 23.18550 30.31950 -10.70100
C 22.29375 29.42775 -9.80925
C 22.29375 31.21125 -8.02575
C 24.07725 29.42775 -8.02575
C 24.07725 31.21125 -9.80925
C 21.40200 28.53600 -7.13400
C 21.40200 30.31950 -5.35050
C 23.18550 28.53600 -5.35050
C 23.18550 30.31950 -7.13400
C 22.29375 29.42775 -6.24225
C 22.29375 31.21125 -4.45875
C 24.07725 29.42775 -4.45875
C 24.07725 31.21125 -6.24225
C 21.40200 28.53600 -3.56700
C 21.40200 30.31950 -1.78350
C 23.18550 28.53600 -1.78350
C 23.18550 30.31950 -3.56700
C 22.29375 29.42775 -2.67525
C 22.29375 31.21125 -0.89175
C 24.07725 29.42775 -0.89175
C 24.07725 31.21125 -2.67525
C 21.40200 32.10300 -17.83500
C 21.40200 33.88650 -16.05150
C 23.18550 32.10300 -16.05150
C 23.18550 33.88650 -17.83500
C 22.29375 32.99475 -16.94325
C 22.29375 34.77825 -15.15975
C 24.07725 32.99475 -15.15975
C 24.07725 34.77825 -16.94325
C 21.40200 32.10300 -14.26800
C 21.40200 33.88650 -12.48450
C 23.18550 32.10300 -12.48450
C 23.18550 33.88650 -14.26800
C 22.29375 32.99475 -13.37625
C 22.29375 34.77825 -11.59275
C 24.07725 32.99475 -11.59275
C 24.07725 34.77825 -13.37625
C 21.40200 32.10300 -10.70100
C 21.40200 33.88650 -8.91750
C 23.18550 32.10300 -8.91750
C 23.18550 33.88650 -10.70100
C 22.29375 32.99475 -9.80925
C 22.29375 34.77825 -8.02575
C 24.07725 32.99475 -8.02575
C 24.07725 34.77825 -9.80925
C 21.40200 32.10300 -7.13400
C 21.40200 33.88650 -5.35050
C 23.18550 32.10300 -5.35050
C 23.18550 33.88650 -7.13400
C 22.29375 32.99475 -6.24225
C 22.29375 34.77825 -4.45875
C 24.07725 32.99475 -4.45875
C 24.07725 34.77825 -6.24225
C 21.40200 32.10300 -3.56700
C 21.40200 33.88650 -1.78350
C 23.18550 32.10300 -1.78350
C 23.18550 33.88650 -3.56700
C 22.29375 32.99475 -2.67525
C 22.29375 34.77825 -0.89175
C 24.07725 32.99475 -0.89175
C 24.07725 34.77825 -2.67525
C 24.96900 17.83500 -17.83500
C 24.96900 19.61850 -16.05150
C 26.75250 17.83500 -16.05150
C 26.75250 19.61850 -17.83500
C 25.86075 18.72675 -16.94325
C 25.86075 20.51025 -15.15975
C 27.64425 18.72675 -15.15975
C 27.64425 20.51025 -16.94325
C 24.96900 17.83500 -14.26800
C 24.96900 19.61850 -12.48450
C 26.75250 17.83500 -12.48450
C 26.75250 19.61850 -14.26800
C 25.86075 18.72675 -13.37625
C 25.86075 20.51025 -11.59275
C 27.64425 18.72675 -11.59275
C 27.64425 20.51025 -13.37625
C 24.96900 17.83500 -10.70100
C 24.96900 19.61850 -8.91750
C 26.75250 17.83500 -8.91750
C 26.75250 19.61850 -10.70100
C 25.86075 18.72675 -9.80925
C 25.86075 20.51025 -8.02575
C 27.64425 18.72675 -8.02575
C 27.64425 20.51025 -9.80925
C 24.96900 17.83500 -7.13400
C 24.96900 19.61850 -5.35050
C 26.75250 17.83500 -5.35050
C 26.75250 19.61850 -7.13400
C 25.86075 18.72675 -6.24225
C 25.86075 20.51025 -4.45875
C 27.64425 18.72675 -4.45875
C 27.64425 20.51025 -6.24225
C 24.96900 17.83500 -3.56700
C 24.96900 19.61850 -1.78350
C 26.75250 17.83500 -1.78350
C 26.75250 19.61850 -3.56700
C 25.86075 18.72675 -2.67525
C 25.86075 20.51025 -0.89175
C 27.64425 18.72675 -0.89175
C 27.64425 20.51025 -2.67525
C 24.96900 21.40200 -17.83500
C 24.96900 23.18550 -16.05150
C 26.75250 21.40200 -16.05150
C 26.75250 23.18550 -17.83500
C 25.86075 22.29375 -16.94325
C 25.86075 24.07725 -15.15975
C 27.64425 22.29375 -15.15975
C 27.64425 24.07725 -16.94325
C 24.96900 21.40200 -14.26800
C 24.96900 23.18550 -12.48450
C 26.75250 21.40200 -12.48450
C 26.75250 23.18550 -14.26800
C 25.86075 22.29375 -13.37625
C 25.86075 24.07725 -11.59275
C 27.64425 22.29375 -11.59275
C 27.64425 24.07725 -13.37625
C 24.96900 21.40200 -10.70100
C 24.96900 23.18550 -8.91750
C 26.75250 21.40200 -8.91750
C 26.75250 23.18550 -10.70100
C 25.86075 22.29375 -9.80925
C 25.86075 24.07725 -8.02575
C 27.64425 22.29375 -8.02575
C 27.64425 24.07725 -9.80925
C 24.96900 21.40200 -7.13400
C 24.96900 23.18550 -5.35050
C 26.75250 21.40200 -5.35050
C 26.75250 23.18550 -7.13400
C 25.86075 22.29375 -6.24225
C 25.86075 24.07725 -4.45875
C 27.64425 22.29375 -4.45875
C 27.64425 24.07725 -6.24225
C 24.96900 21.40200 -3.56700
C 24.96900 23.18550 -1.78350
C 26.75250 21.40200 -1.78350
C 26.75250 23.18550 -3.56700
C 25.86075 22.29375 -2.67525
C 25.86075 24.07725 -0.89175
C 27.64425 22.29375 -0.89175
C 27.64425 24.07725 -2.67525
C 24.96900 24.96900 -17.83500
C 24.96900 26.75250 -16.05150
C 26.75250 24.96900 -16.05150
C 26.75250 26.75250 -17.83500
C 25.86075 25.86075 -16.94325
C 25.86075 27.64425 -15.15975
C 27.64425 25.86075 -15.15975
C 27.64425 27.64425 -16.94325
C 24.96900 24.96900 -14.26800
C 24.96900 26.75250 -12.48450
C 26.75250 24.96900 -12.48450
C 26.75250 26.75250 -14.26800
C 25.86075 25.86075 -13.37625
C 25.86075 27.64425 -11.59275
C 27.64425 25.86075 -11.59275
C 27.64425 27.64425 -13.37625
C 24.96900 24.96900 -10.70100
C 24.96900 26.75250 -8.91750
C 26.75250 24.96900 -8.91750
C 26.75250 26.75250 -10.70100
C 25.86075 25.86075 -9.80925
C 25.86075 27.64425 -8.02575
C 27.64425 25.86075 -8.02575
C 27.64425 27.64425 -9.80925
C 24.96900 24.96900 -7.13400
C 24.96900 26.75250 -5.35050
C 26.75250 24.96900 -5.35050
C 26.75250 26.75250 -7.13400
C 25.86075 25.86075 -6.24225
C 25.86075 27.64425 -4.45875
C 27.64425 25.86075 -4.45875
C 27.64425 27.64425 -6.24225
C 24.96900 24.96900 -3.56700
C 24.96900 26.75250 -1.78350
C 26.75250 24.96900 -1.78350
C 26.75250 26.75250 -3.56700
C 25.86075 25.86075 -2.67525
C 25.86075 27.64425 -0.89175
C 27.64425 25.86075 -0.89175
C 27.64425 27.64425 -2.67525
C 24.96900 28.53600 -17.83500
C 24.96900 30.31950 -16.05150
C 26.75250 28.53600 -16.05150
C 26.75250 30.31950 -17.83500
C 25.86075 29.42775 -16.94325
C 25.86075 31.21125 -15.15975
C 27.64425 29.42775 -15.15975
C 27.64425 31.21125 -16.94325
C 24.96900 28.53600 -14.26800
C 24.96900 30.31950 -12.48450
C 26.75250 28.53600 -12.48450
C 26.75250 30.31950 -14.26800
C 25.86075 29.42775 -13.37625
C 25.86075 31.21125 -11.59275
C 27.64425 29.42775 -11.59275
C 27.64425 31.21125 -13.37625
C 24.96900 28.53600 -10.70100
C 24.96900 30.31950 -8.91750
C 26.75250 28.53600 -8.91750
C 26.75250 30.31950 -10.70100
C 25.86075 29.42775 -9.80925
C 25.86075 31.21125 -8.02575
C 27.64425 29.42775 -8.02575
C 27.64425 31.21125 -9.80925
C 24.96900 28.53600 -7.13400
C 24.96900 30.31950 -5.35050
C 26.75250 28.53600 -5.35050
C 26.75250 30.31950 -7.13400
C 25.86075 29.42775 -6.24225
C 25.86075 31.21125 -4.45875
C 27.64425 29.42775 -4.45875
C 27.64425 31.21125 -6.24225
C 24.96900 28.53600 -3.56700
C 24.96900 30.31950 -1.78350
C 26.75250 28.53600 -1.78350
C 26.75250 30.31950 -3.56700
C 25.86075 29.42775 -2.67525
C 25.86075 31.21125 -0.89175
C 27.64425 29.42775 -0.89175
C 27.64425 31.21125 -2.67525
C 24.96900 32.10300 -17.83500
C 24.96900 33.88650 -16.05150
C 26.75250 32.10300 -16.05150
C 26.75250 33.88650 -17.83500
C 25.86075 32.99475 -16.94325
C 25.86075 34.77825 -15.15975
C 27.64425 32.99475 -15.15975
C 27.64425 34.77825 -16.94325
C 24.96900 32.10300 -14.26800
C 24.96900 33.88650 -12.48450
C 26.75250 32.10300 -12.48450
C 26.75250 33.88650 -14.26800
C 25.86075 32.99475 -13.37625
C 25.86075 34.77825 -11.59275
C 27.64425 32.99475 -11.59275
C 27.64425 34.77825 -13.37625
C 24.96900 32.10300 -10.70100
C 24.96900 33.88650 -8.91750
C 26.75250 32.10300 -8.91750
C 26.75250 33.88650 -10.70100
C 25.86075 32.99475 -9.80925
C 25.86075 34.77825 -8.02575
C 27.64425 32.99475 -8.02575
C 27.64425 34.77825 -9.80925
C 24.96900 32.10300 -7.13400
C 24.96900 33.88650 -5.35050
C 26.75250 32.10300 -5.35050
C 26.75250 33.88650 -7.13400
C 25.86075 32.99475 -6.24225
C 25.86075 34.77825 -4.45875
C 27.64425 32.99475 -4.45875
C 27.64425 34.77825 -6.24225
C 24.96900 32.10300 -3.56700
C 24.96900 33.88650 -1.78350
C 26.75250 32.10300 -1.78350
C 26.75250 33.88650 -3.56700
C 25.86075 32.99475 -2.67525
C 25.86075 34.77825 -0.89175
C 27.64425 32.99475 -0.89175
C 27.64425 34.77825 -2.67525
C 28.53600 17.83500 -17.83500
C 28.53600 19.61850 -16.05150
C 30.31950 17.83500 -16.05150
C 30.31950 19.61850 -17.83500
C 29.42775 18.72675 -16.94325
C 29.42775 20.51025 -15.15975
C 31.21125 18.72675 -15.15975
C 31.21125 20.51025 -16.94325
C 28.53600 17.83500 -14.26800
C 28.53600 19.61850 -12.48450
C 30.31950 17.83500 -12.48450
C 30.31950 19.61850 -14.26800
C 29.42775 18.72675 -13.37625
C 29.42775 20.51025 -11.59275
C 31.21125 18.72675 -11.59275
C 31.21125 20.51025 -13.37625
C 28.53600 17.83500 -10.70100
C 28.53600 19.61850 -8.91750
C 30.31950 17.83500 -8.91750
C 30.31950 19.61850 -10.70100
C 29.42775 18.72675 -9.80925
C 29.42775 20.51025 -8.02575
C 31.21125 18.72675 -8.02575
C 31.21125 20.51025 -9.80925
C 28.53600 17.83500 -7.13400
C 28.53600 19.61850 -5.35050
C 30.31950 17.83500 -5.35050
C 30.31950 19.61850 -7.13400
C 29.42775 18.72675 -6.24225
C 29.42775 20.51025 -4.45875
C 31.21125 18.72675 -4.45875
C 31.21125 20.51025 -6.24225
C 28.53600 17.83500 -3.56700
C 28.53600 19.61850 -1.78350
C 30.31950 17.83500 -1.78350
C 30.31950 19.61850 -3.56700
C 29.42775 18.72675 -2.67525
C 29.42775 20.51025 -0.89175
C 31.21125 18.72675 -0.89175
C 31.21125 20.51025 -2.67525
C 28.53600 21.40200 -17.83500
C 28.53600 23.18550 -16.05150
C 30.31950 21.40200 -16.05150
C 30.31950 23.18550 -17.83500
C 29.42775 22.29375 -16.94325
C 29.42775 24.07725 -15.15975
C 31.21125 22.29375 -15.15975
C 31.21125 24.07725 -16.94325
C 28.53600 21.40200 -14.26800
C 28.53600 23.18550 -12.48450
C 30.31950 21.40200 -12.48450
C 30.31950 23.18550 -14.26800
C 29.42775 22.29375 -13.37625
C 29.42775 24.07725 -11.59275
C 31.21125 22.29375 -11.59275
C 31.21125 24.07725 -13.37625
C 28.53600 21.40200 -10.70100
C 28.53600 23.18550 -8.91750
C 30.31950 21.40200 -8.91750
C 30.31950 23.18550 -10.70100
C 29.42775 22.29375 -9.80925
C 29.42775 24.07725 -8.02575
C 31.21125 22.29375 -8.02575
C 31.21125 24.07725 -9.80925
C 28.53600 21.40200 -7.13400
C 28.53600 23.18550 -5.35050
C 30.31950 21.40200 -5.35050
C 30.31950 23.18550 -7.13400
C 29.42775 22.29375 -6.24225
C 29.42775 24.07725 -4.45875
C 31.21125 22.29375 -4.45875
C 31.21125 24.07725 -6.24225
C 28.53600 21.40200 -3.56700
C 28.53600 23.18550 -1.78350
C 30.31950 21.40200 -1.78350
C 30.31950 23.18550 -3.56700
C 29.42775 22.29375 -2.67525
C 29.42775 24.07725 -0.89175
C 31.21125 22.29375 -0.89175
C 31.21125 24.07725 -2.67525
C 28.53600 24.96900 -17.83500
C 28.53600 26.75250 -16.05150
C 30.31950 24.96900 -16.05150
C 30.31950 26.75250 -17.83500
C 29.42775 25.86075 -16.94325
C 29.42775 27.64425 -15.15975
C 31.21125 25.86075 -15.15975
C 31.21125 27.64425 -16.94325
C 28.53600 24.96900 -14.26800
C 28.53600 26.75250 -12.48450
C 30.31950 24.96900 -12.48450
C 30.31950 26.75250 -14.26800
C 29.42775 25.86075 -13.37625
C 29.42775 27.64425 -11.59275
C 31.21125 25.86075 -11.59275
C 31.21125 27.64425 -13.37625
C 28.53600 24.96900 -10.70100
C 28.53600 26.75250 -8.91750
C 30.31950 24.96900 -8.91750
C 30.31950 26.75250 -10.70100
C 29.42775 25.86075 -9.80925
C 29.42775 27.64425 -8.02575
C 31.21125 25.86075 -8.02575
C 31.21125 27.64425 -9.80925
C 28.53600 24.96900 -7.13400
C 28.53600 26.75250 -5.35050
C 30.31950 24.96900 -5.35050
C 30.31950 26.75250 -7.13400
C 29.42775 25.86075 -6.24225
C 29.42775 27.64425 -4.45875
C 31.21125 25.86075 -4.45875
C 31.21125 27.64425 -6.24225
C 28.53600 24.96900 -3.56700
C 28.53600 26.75250 -1.78350
C 30.31950 24.96900 -1.78350
C 30.31950 26.75250 -3.56700
C 29.42775 25.86075 -2.67525
C 29.42775 27.64425 -0.89175
C 31.21125 25.86075 -0.89175
C 31.21125 27.64425 -2.67525
C 28.53600 28.53600 -17.83500
C 28.53600 30.31950 -16.05150
C 30.31950 28.53600 -16.05150
C 30.31950 30.31950 -17.83500
C 29.42775 29.42775 -16.94325
C 29.42775 31.21125 -15.15975
C 31.21125 29.42775 -15.15975
C 31.21125 31.21125 -16.94325
C 28.53600 28.53600 -14.26800
C 28.53600 30.31950 -12.48450
C 30.31950 28.53600 -12.48450
C 30.31950 30.31950 -14.26800
C 29.42775 29.42775 -13.37625
C 29.42775 31.21125 -11.59275
C 31.21125 29.42775 -11.59275
C 31.21125 31.21125 -13.37625
C 28.53600 28.53600 -10.70100
C 28.53600 30.31950 -8.91750
C 30.31950 28.53600 -8.91750
C 30.31950 30.31950 -10.70100
C 29.42775 29.42775 -9.80925
C 29.42775 31.21125 -8.02575
C 31.21125 29.42775 -8.02575
C 31.21125 31.21125 -9.80925
C 28.53600 28.53600 -7.13400
C 28.53600 30.31950 -5.35050
C 30.31950 28.53600 -5.35050
C 30.31950 30.31950 -7.13400
C 29.42775 29.42775 -6.24225
C 29.42775 31.21125 -4.45875
C 31.21125 29.42775 -4.45875
C 31.21125 31.21125 -6.24225
C 28.53600 28.53600 -3.56700
C 28.53600 30.31950 -1.78350
C 30.31950 28.53600 -1.78350
C 30.31950 30.31950 -3.56700
C 29.42775 29.42775 -2.67525
C 29.42775 31.21125 -0.89175
C 31.21125 29.42775 -0.89175
C 31.21125 31.21125 -2.67525
C 28.53600 32.10300 -17.83500
C 28.53600 33.88650 -16.05150
C 30.31950 32.10300 -16.05150
C 30.31950 33.88650 -17.83500
C 29.42775 32.99475 -16.94325
C 29.42775 34.77825 -15.15975
C 31.21125 32.99475 -15.15975
C 31.21125 34.77825 -16.94325
C 28.53600 32.10300 -14.26800
C 28.53600 33.88650 -12.48450
C 30.31950 32.10300 -12.48450
C 30.31950 33.88650 -14.26800
C 29.42775 32.99475 -13.37625
C 29.42775 34.77825 -11.59275
C 31.21125 32.99475 -11.59275
C 31.21125 34.77825 -13.37625
C 28.53600 32.10300 -10.70100
C 28.53600 33.88650 -8.91750
C 30.31950 32.10300 -8.91750
C 30.31950 33.88650 -10.70100
C 29.42775 32.99475 -9.80925
C 29.42775 34.77825 -8.02575
C 31.21125 32.99475 -8.02575
C 31.21125 34.77825 -9.80925
C 28.53600 32.10300 -7.13400
C 28.53600 33.88650 -5.35050
C 30.31950 32.10300 -5.35050
C 30.31950 33.88650 -7.13400
C 29.42775 32.99475 -6.24225
C 29.42775 34.77825 -4.45875
C 31.21125 32.99475 -4.45875
C 31.21125 34.77825 -6.24225
C 28.53600 32.10300 -3.56700
C 28.53600 33.88650 -1.78350
C 30.31950 32.10300 -1.78350
C 30.31950 33.88650 -3.56700
C 29.42775 32.99475 -2.67525
C 29.42775 34.77825 -0.89175
C 31.21125 32.99475 -0.89175
C 31.21125 34.77825 -2.67525
C 32.10300 17.83500 -17.83500
C 32.10300 19.61850 -16.05150
C 33.88650 17.83500 -16.05150
C 33.88650 19.61850 -17.83500
C 32.99475 18.72675 -16.94325
C 32.99475 20.51025 -15.15975
C 34.77825 18.72675 -15.15975
C 34.77825 20.51025 -16.94325
C 32.10300 17.83500 -14.26800
C 32.10300 19.61850 -12.48450
C 33.88650 17.83500 -12.48450
C 33.88650 19.61850 -14.26800
C 32.99475 18.72675 -13.37625
C 32.99475 20.51025 -11.59275
C 34.77825 18.72675 -11.59275
C 34.77825 20.51025 -13.37625
C 32.10300 17.83500 -10.70100
C 32.10300 19.61850 -8.91750
C 33.88650 17.83500 -8.91750
C 33.88650 19.61850 -10.70100
C 32.99475 18.72675 -9.80925
C 32.99475 20.51025 -8.02575
C 34.77825 18.72675 -8.02575
C 34.77825 20.51025 -9.80925
C 32.10300 17.83500 -7.13400
C 32.10300 19.61850 -5.35050
C 33.88650 17.83500 -5.35050
C 33.88650 19.61850 -7.13400
C 32.99475 18.72675 -6.24225
C 32.99475 20.51025 -4.45875
C 34.77825 18.72675 -4.45875
C 34.77825 20.51025 -6.24225
C 32.10300 17.83500 -3.56700
C 32.10300 19.61850 -1.78350
C 33.88650 17.83500 -1.78350
C 33.88650 19.61850 -3.56700
C 32.99475 18.72675 -2.67525
C 32.99475 20.51025 -0.89175
C 34.77825 18.72675 -0.89175
C 34.77825 20.51025 -2.67525
C 32.10300 21.40200 -17.83500
C 32.10300 23.18550 -16.05150
C 33.88650 21.40200 -16.05150
C 33.88650 23.18550 -17.83500
C 32.99475 22.29375 -16.94325
C 32.99475 24.07725 -15.15975
C 34.77825 22.29375 -15.15975
C 34.77825 24.07725 -16.94325
C 32.10300 21.40200 -14.26800
C 32.10300 23.18550 -12.48450
C 33.88650 21.40200 -12.48450
C 33.88650 23.18550 -14.26800
C 32.99475 22.29375 -13.37625
C 32.99475 24.07725 -11.59275
C 34.77825 22.29375 -11.59275
C 34.77825 24.07725 -13.37625
C 32.10300 21.40200 -10.70100
C 32.10300 23.18550 -8.91750
C 33.88650 21.40200 -8.91750
C 33.88650 23.18550 -10.70100
C 32.99475 22.29375 -9.80925
C 32.99475 24.07725 -8.02575
C 34.77825 22.29375 -8.02575
C 34.77825 24.07725 -9.80925
C 32.10300 21.40200 -7.13400
C 32.10300 23.18550 -5.35050
C 33.88650 21.40200 -5.35050
C 33.88650 23.18550 -7.13400
C 32.99475 22.29375 -6.24225
C 32.99475 24.07725 -4.45875
C 34.77825 22.29375 -4.45875
C 34.77825 24.07725 -6.24225
C 32.10300 21.40200 -3.56700
C 32.10300 23.18550 -1.78350
C 33.88650 21.40200 -1.78350
C 33.88650 23.18550 -3.56700
C 32.99475 22.29375 -2.67525
C 32.99475 24.07725 -0.89175
C 34.77825 22.29375 -0.89175
C 34.77825 24.07725 -2.67525
C 32.10300 24.96900 -17.83500
C 32.10300 26.75250 -16.05150
C 33.88650 24.96900 -16.05150
C 33.88650 26.75250 -17.83500
C 32.99475 25.86075 -16.94325
C 32.99475 27.64425 -15.15975
C 34.77825 25.86075 -15.15975
C 34.77825 27.64425 -16.94325
C 32.10300 24.96900 -14.26800
C 32.10300 26.75250 -12.48450
C 33.88650 24.96900 -12.48450
C 33.88650 26.75250 -14.26800
C 32.99475 25.86075 -13.37625
C 32.99475 27.64425 -11.59275
C 34.77825 25.86075 -11.59275
C 34.77825 27.64425 -13.37625
C 32.10300 24.96900 -10.70100
C 32.10300 26.75250 -8.91750
C 33.88650 24.96900 -8.91750
C 33.88650 26.75250 -10.70100
C 32.99475 25.86075 -9.80925
C 32.99475 27.64425 -8.02575
C 34.77825 25.86075 -8.02575
C 34.77825 27.64425 -9.80925
C 32.10300 24.96900 -7.13400
C 32.10300 26.75250 -5.35050
C 33.88650 24.96900 -5.35050
C 33.88650 26.75250 -7.13400
C 32.99475 25.86075 -6.24225
C 32.99475 27.64425 -4.45875
C 34.77825 25.86075 -4.45875
C 34.77825 27.64425 -6.24225
C 32.10300 24.96900 -3.56700
C 32.10300 26.75250 -1.78350
C 33.88650 24.96900 -1.78350
C 33.88650 26.75250 -3.56700
C 32.99475 25.86075 -2.67525
C 32.99475 27.64425 -0.89175
C 34.77825 25.86075 -0.89175
C 34.77825 27.64425 -2.67525
C 32.10300 28.53600 -17.83500
C 32.10300 30.31950 -16.05150
C 33.88650 28.53600 -16.05150
C 33.88650 30.31950 -17.83500
C 32.99475 29.42775 -16.94325
C 32.99475 31.21125 -15.15975
C 34.77825 29.42775 -15.15975
C 34.77825 31.21125 -16.94325
C 32.10300 28.53600 -14.26800
C 32.10300 30.31950 -12.48450
C 33.88650 28.53600 -12.48450
C 33.88650 30.31950 -14.26800
C 32.99475 29.42775 -13.37625
C 32.99475 31.21125 -11.59275
C 34.77825 29.42775 -11.59275
C 34.77825 31.21125 -13.37625
C 32.10300 28.53600 -10.70100
C 32.10300 30.31950 -8.91750
C 33.88650 28.53600 -8.91750
C 33.88650 30.31950 -10.70100
C 32.99475 29.42775 -9.80925
C 32.99475 31.21125 -8.02575
C 34.77825 29.42775 -8.02575
C 34.77825 31.21125 -9.80925
C 32.10300 28.53600 -7.13400
C 32.10300 30.31950 -5.35050
C 33.88650 28.53600 -5.35050
C 33.88650 30.31950 -7.13400
C 32.99475 29.42775 -6.24225
C 32.99475 31.21125 -4.45875
C 34.77825 29.42775 -4.45875
C 34.77825 31.21125 -6.24225
C 32.10300 28.53600 -3.56700
C 32.10300 30.31950 -1.78350
C 33.88650 28.53600 -1.78350
C 33.88650 30.31950 -3.56700
C 32.99475 29.42775 -2.67525
C 32.99475 31.21125 -0.89175
C 34.77825 29.42775 -0.89175
C 34.77825 31.21125 -2.67525
C 32.10300 32.10300 -17.83500
C 32.10300 33.88650 -16.05150
C 33.88650 32.10300 -16.05150
C 33.88650 33.88650 -17.83500
C 32.99475 32.99475 -16.94325
C 32.99475 34.77825 -15.15975
C 34.77825 32.99475 -15.15975
C 34.77825 34.77825 -16.94325
C 32.10300 32.10300 -14.26800
C 32.10300 33.88650 -12.48450
C 33.88650 32.10300 -12.48450
C 33.88650 33.88650 -14.26800
C 32.99475 32.99475 -13.37625
C 32.99475 34.77825 -11.59275
C 34.77825 32.99475 -11.59275
C 34.77825 34.77825 -13.37625
C 32.10300 32.10300 -10.70100
C 32.10300 33.88650 -8.91750
C 33.88650 32.10300 -8.91750
C 33.88650 33.88650 -10.70100
C 32.99475 32.99475 -9.80925
C 32.99475 34.77825 -8.02575
C 34.77825 32.99475 -8.02575
C 34.77825 34.77825 -9.80925
C 32.10300 32.10300 -7.13400
C 32.10300 33.88650 -5.35050
C 33.88650 32.10300 -5.35050
C 33.88650 33.88650 -7.13400
C 32.99475 32.99475 -6.24225
C 32.99475 34.77825 -4.45875
C 34.77825 32.99475 -4.45875
C 34.77825 34.77825 -6.24225
C 32.10300 32.10300 -3.56700
C 32.10300 33.88650 -1.78350
C 33.88650 32.10300 -1.78350
C 33.88650 33.88650 -3.56700
C 32.99475 32.99475 -2.67525
C 32.99475 34.77825 -0.89175
C 34.77825 32.99475 -0.89175
C 34.77825 34.77825 -2.67525
N 17.83500 17.83500  0.00000
C 17.83500 19.61850  1.78350
C 19.61850 17.83500  1.78350
C 19.61850 19.61850  0.00000
C 18.72675 18.72675  0.89175
C 18.72675 20.51025  2.67525
C 20.51025 18.72675  2.67525
C 20.51025 20.51025  0.89175
C 17.83500 17.83500  3.56700
C 17.83500 19.61850  5.35050
C 19.61850 17.83500  5.35050
C 19.61850 19.61850  3.56700
C 18.72675 18.72675  4.45875
C 18.72675 20.51025  6.24225
C 20.51025 18.72675  6.24225
C 20.51025 20.51025  4.45875
C 17.83500 17.83500  7.13400
C 17.83500 19.61850  8.91750
C 19.61850 17.83500  8.91750
C 19.61850 19.61850  7.13400
C 18.72675 18.72675  8.02575
C 18.72675 20.51025  9.80925
C 20.51025 18.72675  9.80925
C 20.51025 20.51025  8.02575
C 17.83500 17.83500 10.70100
C 17.83500 19.61850 12.48450
C 19.61850 17.83500 12.48450
C 19.61850 19.61850 10.70100
C 18.72675 18.72675 11.59275
C 18.72675 20.51025 13.37625
C 20.51025 18.72675 13.37625
C 20.51025 20.51025 11.59275
C 17.83500 17.83500 14.26800
C 17.83500 19.61850 16.05150
C 19.61850 17.83500 16.05150
C 19.61850 19.61850 14.26800
C 18.72675 18.72675 15.15975
C 18.72675 20.51025 16.94325
C 20.51025 18.72675 16.94325
C 20.51025 20.51025 15.15975
C 17.83500 21.40200  0.00000
C 17.83500 23.18550  1.78350
C 19.61850 21.40200  1.78350
C 19.61850 23.18550  0.00000
C 18.72675 22.29375  0.89175
C 18.72675 24.07725  2.67525
C 20.51025 22.29375  2.67525
C 20.51025 24.07725  0.89175
C 17.83500 21.40200  3.56700
C 17.83500 23.18550  5.35050
C 19.61850 21.40200  5.35050
C 19.61850 23.18550  3.56700
C 18.72675 22.29375  4.45875
C 18.72675 24.07725  6.24225
C 20.51025 22.29375  6.24225
C 20.51025 24.07725  4.45875
C 17.83500 21.40200  7.13400
C 17.83500 23.18550  8.91750
C 19.61850 21.40200  8.91750
C 19.61850 23.18550  7.13400
C 18.72675 22.29375  8.02575
C 18.72675 24.07725  9.80925
C 20.51025 22.29375  9.80925
C 20.51025 24.07725  8.02575
C 17.83500 21.40200 10.70100
C 17.83500 23.18550 12.48450
C 19.61850 21.40200 12.48450
C 19.61850 23.18550 10.70100
C 18.72675 22.29375 11.59275
C 18.72675 24.07725 13.37625
C 20.51025 22.29375 13.37625
C 20.51025 24.07725 11.59275
C 17.83500 21.40200 14.26800
C 17.83500 23.18550 16.05150
C 19.61850 21.40200 16.05150
C 19.61850 23.18550 14.26800
C 18.72675 22.29375 15.15975
C 18.72675 24.07725 16.94325
C 20.51025 22.29375 16.94325
C 20.51025 24.07725 15.15975
C 17.83500 24.96900  0.00000
C 17.83500 26.75250  1.78350
C 19.61850 24.96900  1.78350
C 19.61850 26.75250  0.00000
C 18.72675 25.86075  0.89175
C 18.72675 27.64425  2.67525
C 20.51025 25.86075  2.67525
C 20.51025 27.64425  0.89175
C 17.83500 24.96900  3.56700
C 17.83500 26.75250  5.35050
C 19.61850 24.96900  5.35050
C 19.61850 26.75250  3.56700
C 18.72675 25.86075  4.45875
C 18.72675 27.64425  6.24225
C 20.51025 25.86075  6.24225
C 20.51025 27.64425  4.45875
C 17.83500 24.96900  7.13400
C 17.83500 26.75250  8.91750
C 19.61850 24.96900  8.91750
C 19.61850 26.75250  7.13400
C 18.72675 25.86075  8.02575
C 18.72675 27.64425  9.80925
C 20.51025 25.86075  9.80925
C 20.51025 27.64425  8.02575
C 17.83500 24.96900 10.70100
C 17.83500 26.75250 12.48450
C 19.61850 24.96900 12.48450
C 19.61850 26.75250 10.70100
C 18.72675 25.86075 11.59275
C 18.72675 27.64425 13.37625
C 20.51025 25.86075 13.37625
C 20.51025 27.64425 11.59275
C 17.83500 24.96900 14.26800
C 17.83500 26.75250 16.05150
C 19.61850 24.96900 16.05150
C 19.61850 26.75250 14.26800
C 18.72675 25.86075 15.15975
C 18.72675 27.64425 16.94325
C 20.51025 25.86075 16.94325
C 20.51025 27.64425 15.15975
C 17.83500 28.53600  0.00000
C 17.83500 30.31950  1.78350
C 19.61850 28.53600  1.78350
C 19.61850 30.31950  0.00000
C 18.72675 29.42775  0.89175
C 18.72675 31.21125  2.67525
C 20.51025 29.42775  2.67525
C 20.51025 31.21125  0.89175
C 17.83500 28.53600  3.56700
C 17.83500 30.31950  5.35050
C 19.61850 28.53600  5.35050
C 19.61850 30.31950  3.56700
C 18.72675 29.42775  4.45875
C 18.72675 31.21125  6.24225
C 20.51025 29.42775  6.24225
C 20.51025 31.21125  4.45875
C 17.83500 28.53600  7.13400
C 17.83500 30.31950  8.91750
C 19.61850 28.53600  8.91750
C 19.61850 30.31950  7.13400
C 18.72675 29.42775  8.02575
C 18.72675 31.21125  9.80925
C 20.51025 29.42775  9.80925
C 20.51025 31.21125  8.02575
C 17.83500 28.53600 10.70100
C 17.83500 30.31950 12.48450
C 19.61850 28.53600 12.48450
C 19.61850 30.31950 10.70100
C 18.72675 29.42775 11.59275
C 18.72675 31.21125 13.37625
C 20.51025 29.42775 13.37625
C 20.51025 31.21125 11.59275
C 17.83500 28.53600 14.26800
C 17.83500 30.31950 16.05150
C 19.61850 28.53600 16.05150
C 19.61850 30.31950 14.26800
C 18.72675 29.42775 15.15975
C 18.72675 31.21125 16.94325
C 20.51025 29.42775 16.94325
C 20.51025 31.21125 15.15975
C 17.83500 32.10300  0.00000
C 17.83500 33.88650  1.78350
C 19.61850 32.10300  1.78350
C 19.61850 33.88650  0.00000
C 18.72675 32.99475  0.89175
C 18.72675 34.77825  2.67525
C 20.51025 32.99475  2.67525
C 20.51025 34.77825  0.89175
C 17.83500 32.10300  3.56700
C 17.83500 33.88650  5.35050
C 19.61850 32.10300  5.35050
C 19.61850 33.88650  3.56700
C 18.72675 32.99475  4.45875
C 18.72675 34.77825  6.24225
C 20.51025 32.99475  6.24225
C 20.51025 34.77825  4.45875
C 17.83500 32.10300  7.13400
C 17.83500 33.88650  8.91750
C 19.61850 32.10300  8.91750
C 19.61850 33.88650  7.13400
C 18.72675 32.99475  8.02575
C 18.72675 34.77825  9.80925
C 20.51025 32.99475  9.80925
C 20.51025 34.77825  8.02575
C 17.83500 32.10300 10.70100
C 17.83500 33.88650 12.48450
C 19.61850 32.10300 12.48450
C 19.61850 33.88650 10.70100
C 18.72675 32.99475 11.59275
C 18.72675 34.77825 13.37625
C 20.51025 32.99475 13.37625
C 20.51025 34.77825 11.59275
C 17.83500 32.10300 14.26800
C 17.83500 33.88650 16.05150
C 19.61850 32.10300 16.05150
C 19.61850 33.88650 14.26800
C 18.72675 32.99475 15.15975
C 18.72675 34.77825 16.94325
C 20.51025 32.99475 16.94325
C 20.51025 34.77825 15.15975
C 21.40200 17.83500  0.00000
C 21.40200 19.61850  1.78350
C 23.18550 17.83500  1.78350
C 23.18550 19.61850  0.00000
C 22.29375 18.72675  0.89175
C 22.29375 20.51025  2.67525
C 24.07725 18.72675  2.67525
C 24.07725 20.51025  0.89175
C 21.40200 17.83500  3.56700
C 21.40200 19.61850  5.35050
C 23.18550 17.83500  5.35050
C 23.18550 19.61850  3.56700
C 22.29375 18.72675  4.45875
C 22.29375 20.51025  6.24225
C 24.07725 18.72675  6.24225
C 24.07725 20.51025  4.45875
C 21.40200 17.83500  7.13400
C 21.40200 19.61850  8.91750
C 23.18550 17.83500  8.91750
C 23.18550 19.61850  7.13400
C 22.29375 18.72675  8.02575
C 22.29375 20.51025  9.80925
C 24.07725 18.72675  9.80925
C 24.07725 20.51025  8.02575
C 21.40200 17.83500 10.70100
C 21.40200 19.61850 12.48450
C 23.18550 17.83500 12.48450
C 23.18550 19.61850 10.70100
C 22.29375 18.72675 11.59275
C 22.29375 20.51025 13.37625
C 24.07725 18.72675 13.37625
C 24.07725 20.51025 11.59275
C 21.40200 17.83500 14.26800
C 21.40200 19.61850 16.05150
C 23.18550 17.83500 16.05150
C 23.18550 19.61850 14.26800
C 22.29375 18.72675 15.15975
C 22.29375 20.51025 16.94325
C 24.07725 18.72675 16.94325
C 24.07725 20.51025 15.15975
C 21.40200 21.40200  0.00000
C 21.40200 23.18550  1.78350
C 23.18550 21.40200  1.78350
C 23.18550 23.18550  0.00000
C 22.29375 22.29375  0.89175
C 22.29375 24.07725  2.67525
C 24.07725 22.29375  2.67525
C 24.07725 24.07725  0.89175
C 21.40200 21.40200  3.56700
C 21.40200 23.18550  5.35050
C 23.18550 21.40200  5.35050
C 23.18550 23.18550  3.56700
C 22.29375 22.29375  4.45875
C 22.29375 24.07725  6.24225
C 24.07725 22.29375  6.24225
C 24.07725 24.07725  4.45875
C 21.40200 21.40200  7.13400
C 21.40200 23.18550  8.91750
C 23.18550 21.40200  8.91750
C 23.18550 23.18550  7.13400
C 22.29375 22.29375  8.02575
C 22.29375 24.07725  9.80925
C 24.07725 22.29375  9.80925
C 24.07725 24.07725  8.02575
C 21.40200 21.40200 10.70100
C 21.40200 23.18550 12.48450
C 23.18550 21.40200 12.48450
C 23.18550 23.18550 10.70100
C 22.29375 22.29375 11.59275
C 22.29375 24.07725 13.37625
C 24.07725 22.29375 13.37625
C 24.07725 24.07725 11.59275
C 21.40200 21.40200 14.26800
C 21.40200 23.18550 16.05150
C 23.18550 21.40200 16.05150
C 23.18550 23.18550 14.26800
C 22.29375 22.29375 15.15975
C 22.29375 24.07725 16.94325
C 24.07725 22.29375 16.94325
C 24.07725 24.07725 15.15975
C 21.40200 24.96900  0.00000
C 21.40200 26.75250  1.78350
C 23.18550 24.96900  1.78350
C 23.18550 26.75250  0.00000
C 22.29375 25.86075  0.89175
C 22.29375 27.64425  2.67525
C 24.07725 25.86075  2.67525
C 24.07725 27.64425  0.89175
C 21.40200 24.96900  3.56700
C 21.40200 26.75250  5.35050
C 23.18550 24.96900  5.35050
C 23.18550 26.75250  3.56700
C 22.29375 25.86075  4.45875
C 22.29375 27.64425  6.24225
C 24.07725 25.86075  6.24225
C 24.07725 27.64425  4.45875
C 21.40200 24.96900  7.13400
C 21.40200 26.75250  8.91750
C 23.18550 24.96900  8.91750
C 23.18550 26.75250  7.13400
C 22.29375 25.86075  8.02575
C 22.29375 27.64425  9.80925
C 24.07725 25.86075  9.80925
C 24.07725 27.64425  8.02575
C 21.40200 24.96900 10.70100
C 21.40200 26.75250 12.48450
C 23.18550 24.96900 12.48450
C 23.18550 26.75250 10.70100
C 22.29375 25.86075 11.59275
C 22.29375 27.64425 13.37625
C 24.07725 25.86075 13.37625
C 24.07725 27.64425 11.59275
C 21.40200 24.96900 14.26800
C 21.40200 26.75250 16.05150
C 23.18550 24.96900 16.05150
C 23.18550 26.75250 14.26800
C 22.29375 25.86075 15.15975
C 22.29375 27.64425 16.94325
C 24.07725 25.86075 16.94325
C 24.07725 27.64425 15.15975
C 21.40200 28.53600  0.00000
C 21.40200 30.31950  1.78350
C 23.18550 28.53600  1.78350
C 23.18550 30.31950  0.00000
C 22.29375 29.42775  0.89175
C 22.29375 31.21125  2.67525
C 24.07725 29.42775  2.67525
C 24.07725 31.21125  0.89175
C 21.40200 28.53600  3.56700
C 21.40200 30.31950  5.35050
C 23.18550 28.53600  5.35050
C 23.18550 30.31950  3.56700
C 22.29375 29.42775  4.45875
C 22.29375 31.21125  6.24225
C 24.07725 29.42775  6.24225
C 24.07725 31.21125  4.45875
C 21.40200 28.53600  7.13400
C 21.40200 30.31950  8.91750
C 23.18550 28.53600  8.91750
C 23.18550 30.31950  7.13400
C 22.29375 29.42775  8.02575
C 22.29375 31.21125  9.80925
C 24.07725 29.42775  9.80925
C 24.07725 31.21125  8.02575
C 21.40200 28.53600 10.70100
C 21.40200 30.31950 12.48450
C 23.18550 28.53600 12.48450
C 23.18550 30.31950 10.70100
C 22.29375 29.42775 11.59275
C 22.29375 31.21125 13.37625
C 24.07725 29.42775 13.37625
C 24.07725 31.21125 11.59275
C 21.40200 28.53600 14.26800
C 21.40200 30.31950 16.05150
C 23.18550 28.53600 16.05150
C 23.18550 30.31950 14.26800
C 22.29375 29.42775 15.15975
C 22.29375 31.21125 16.94325
C 24.07725 29.42775 16.94325
C 24.07725 31.21125 15.15975
C 21.40200 32.10300  0.00000
C 21.40200 33.88650  1.78350
C 23.18550 32.10300  1.78350
C 23.18550 33.88650  0.00000
C 22.29375 32.99475  0.89175
C 22.29375 34.77825  2.67525
C 24.07725 32.99475  2.67525
C 24.07725 34.77825  0.89175
C 21.40200 32.10300  3.56700
C 21.40200 33.88650  5.35050
C 23.18550 32.10300  5.35050
C 23.18550 33.88650  3.56700
C 22.29375 32.99475  4.45875
C 22.29375 34.77825  6.24225
C 24.07725 32.99475  6.24225
C 24.07725 34.77825  4.45875
C 21.40200 32.10300  7.13400
C 21.40200 33.88650  8.91750
C 23.18550 32.10300  8.91750
C 23.18550 33.88650  7.13400
C 22.29375 32.99475  8.02575
C 22.29375 34.77825  9.80925
C 24.07725 32.99475  9.80925
C 24.07725 34.77825  8.02575
C 21.40200 32.10300 10.70100
C 21.40200 33.88650 12.48450
C 23.18550 32.10300 12.48450
C 23.18550 33.88650 10.70100
C 22.29375 32.99475 11.59275
C 22.29375 34.77825 13.37625
C 24.07725 32.99475 13.37625
C 24.07725 34.77825 11.59275
C 21.40200 32.10300 14.26800
C 21.40200 33.88650 16.05150
C 23.18550 32.10300 16.05150
C 23.18550 33.88650 14.26800
C 22.29375 32.99475 15.15975
C 22.29375 34.77825 16.94325
C 24.07725 32.99475 16.94325
C 24.07725 34.77825 15.15975
C 24.96900 17.83500  0.00000
C 24.96900 19.61850  1.78350
C 26.75250 17.83500  1.78350
C 26.75250 19.61850  0.00000
C 25.86075 18.72675  0.89175
C 25.86075 20.51025  2.67525
C 27.64425 18.72675  2.67525
C 27.64425 20.51025  0.89175
C 24.96900 17.83500  3.56700
C 24.96900 19.61850  5.35050
C 26.75250 17.83500  5.35050
C 26.75250 19.61850  3.56700
C 25.86075 18.72675  4.45875
C 25.86075 20.51025  6.24225
C 27.64425 18.72675  6.24225
C 27.64425 20.51025  4.45875
C 24.96900 17.83500  7.13400
C 24.96900 19.61850  8.91750
C 26.75250 17.83500  8.91750
C 26.75250 19.61850  7.13400
C 25.86075 18.72675  8.02575
C 25.86075 20.51025  9.80925
C 27.64425 18.72675  9.80925
C 27.64425 20.51025  8.02575
C 24.96900 17.83500 10.70100
C 24.96900 19.61850 12.48450
C 26.75250 17.83500 12.48450
C 26.75250 19.61850 10.70100
C 25.86075 18.72675 11.59275
C 25.86075 20.51025 13.37625
C 27.64425 18.72675 13.37625
C 27.64425 20.51025 11.59275
C 24.96900 17.83500 14.26800
C 24.96900 19.61850 16.05150
C 26.75250 17.83500 16.05150
C 26.75250 19.61850 14.26800
C 25.86075 18.72675 15.15975
C 25.86075 20.51025 16.94325
C 27.64425 18.72675 16.94325
C 27.64425 20.51025 15.15975
C 24.96900 21.40200  0.00000
C 24.96900 23.18550  1.78350
C 26.75250 21.40200  1.78350
C 26.75250 23.18550  0.00000
C 25.86075 22.29375  0.89175
C 25.86075 24.07725  2.67525
C 27.64425 22.29375  2.67525
C 27.64425 24.07725  0.89175
C 24.96900 21.40200  3.56700
C 24.96900 23.18550  5.35050
C 26.75250 21.40200  5.35050
C 26.75250 23.18550  3.56700
C 25.86075 22.29375  4.45875
C 25.86075 24.07725  6.24225
C 27.64425 22.29375  6.24225
C 27.64425 24.07725  4.45875
C 24.96900 21.40200  7.13400
C 24.96900 23.18550  8.91750
C 26.75250 21.40200  8.91750
C 26.75250 23.18550  7.13400
C 25.86075 22.29375  8.02575
C 25.86075 24.07725  9.80925
C 27.64425 22.29375  9.80925
C 27.64425 24.07725  8.02575
C 24.96900 21.40200 10.70100
C 24.96900 23.18550 12.48450
C 26.75250 21.40200 12.48450
C 26.75250 23.18550 10.70100
C 25.86075 22.29375 11.59275
C 25.86075 24.07725 13.37625
C 27.64425 22.29375 13.37625
C 27.64425 24.07725 11.59275
C 24.96900 21.40200 14.26800
C 24.96900 23.18550 16.05150
C 26.75250 21.40200 16.05150
C 26.75250 23.18550 14.26800
C 25.86075 22.29375 15.15975
C 25.86075 24.07725 16.94325
C 27.64425 22.29375 16.94325
C 27.64425 24.07725 15.15975
C 24.96900 24.96900  0.00000
C 24.96900 26.75250  1.78350
C 26.75250 24.96900  1.78350
C 26.75250 26.75250  0.00000
C 25.86075 25.86075  0.89175
C 25.86075 27.64425  2.67525
C 27.64425 25.86075  2.67525
C 27.64425 27.64425  0.89175
C 24.96900 24.96900  3.56700
C 24.96900 26.75250  5.35050
C 26.75250 24.96900  5.35050
C 26.75250 26.75250  3.56700
C 25.86075 25.86075  4.45875
C 25.86075 27.64425  6.24225
C 27.64425 25.86075  6.24225
C 27.64425 27.64425  4.45875
C 24.96900 24.96900  7.13400
C 24.96900 26.75250  8.91750
C 26.75250 24.96900  8.91750
C 26.75250 26.75250  7.13400
C 25.86075 25.86075  8.02575
C 25.86075 27.64425  9.80925
C 27.64425 25.86075  9.80925
C 27.64425 27.64425  8.02575
C 24.96900 24.96900 10.70100
C 24.96900 26.75250 12.48450
C 26.75250 24.96900 12.48450
C 26.75250 26.75250 10.70100
C 25.86075 25.86075 11.59275
C 25.86075 27.64425 13.37625
C 27.64425 25.86075 13.37625
C 27.64425 27.64425 11.59275
C 24.96900 24.96900 14.26800
C 24.96900 26.75250 16.05150
C 26.75250 24.96900 16.05150
C 26.75250 26.75250 14.26800
C 25.86075 25.86075 15.15975
C 25.86075 27.64425 16.94325
C 27.64425 25.86075 16.94325
C 27.64425 27.64425 15.15975
C 24.96900 28.53600  0.00000
C 24.96900 30.31950  1.78350
C 26.75250 28.53600  1.78350
C 26.75250 30.31950  0.00000
C 25.86075 29.42775  0.89175
C 25.86075 31.21125  2.67525
C 27.64425 29.42775  2.67525
C 27.64425 31.21125  0.89175
C 24.96900 28.53600  3.56700
C 24.96900 30.31950  5.35050
C 26.75250 28.53600  5.35050
C 26.75250 30.31950  3.56700
C 25.86075 29.42775  4.45875
C 25.86075 31.21125  6.24225
C 27.64425 29.42775  6.24225
C 27.64425 31.21125  4.45875
C 24.96900 28.53600  7.13400
C 24.96900 30.31950  8.91750
C 26.75250 28.53600  8.91750
C 26.75250 30.31950  7.13400
C 25.86075 29.42775  8.02575
C 25.86075 31.21125  9.80925
C 27.64425 29.42775  9.80925
C 27.64425 31.21125  8.02575
C 24.96900 28.53600 10.70100
C 24.96900 30.31950 12.48450
C 26.75250 28.53600 12.48450
C 26.75250 30.31950 10.70100
C 25.86075 29.42775 11.59275
C 25.86075 31.21125 13.37625
C 27.64425 29.42775 13.37625
C 27.64425 31.21125 11.59275
C 24.96900 28.53600 14.26800
C 24.96900 30.31950 16.05150
C 26.75250 28.53600 16.05150
C 26.75250 30.31950 14.26800
C 25.86075 29.42775 15.15975
C 25.86075 31.21125 16.94325
C 27.64425 29.42775 16.94325
C 27.64425 31.21125 15.15975
C 24.96900 32.10300  0.00000
C 24.96900 33.88650  1.78350
C 26.75250 32.10300  1.78350
C 26.75250 33.88650  0.00000
C 25.86075 32.99475  0.89175
C 25.86075 34.77825  2.67525
C 27.64425 32.99475  2.67525
C 27.64425 34.77825  0.89175
C 24.96900 32.10300  3.56700
C 24.96900 33.88650  5.35050
C 26.75250 32.10300  5.35050
C 26.75250 33.88650  3.56700
C 25.86075 32.99475  4.45875
C 25.86075 34.77825  6.24225
C 27.64425 32.99475  6.24225
C 27.64425 34.77825  4.45875
C 24.96900 32.10300  7.13400
C 24.96900 33.88650  8.91750
C 26.75250 32.10300  8.91750
C 26.75250 33.88650  7.13400
C 25.86075 32.99475  8.02575
C 25.86075 34.77825  9.80925
C 27.64425 32.99475  9.80925
C 27.64425 34.77825  8.02575
C 24.96900 32.10300 10.70100
C 24.96900 33.88650 12.48450
C 26.75250 32.10300 12.48450
C 26.75250 33.88650 10.70100
C 25.86075 32.99475 11.59275
C 25.86075 34.77825 13.37625
C 27.64425 32.99475 13.37625
C 27.64425 34.77825 11.59275
C 24.96900 32.10300 14.26800
C 24.96900 33.88650 16.05150
C 26.75250 32.10300 16.05150
C 26.75250 33.88650 14.26800
C 25.86075 32.99475 15.15975
C 25.86075 34.77825 16.94325
C 27.64425 32.99475 16.94325
C 27.64425 34.77825 15.15975
C 28.53600 17.83500  0.00000
C 28.53600 19.61850  1.78350
C 30.31950 17.83500  1.78350
C 30.31950 19.61850  0.00000
C 29.42775 18.72675  0.89175
C 29.42775 20.51025  2.67525
C 31.21125 18.72675  2.67525
C 31.21125 20.51025  0.89175
C 28.53600 17.83500  3.56700
C 28.53600 19.61850  5.35050
C 30.31950 17.83500  5.35050
C 30.31950 19.61850  3.56700
C 29.42775 18.72675  4.45875
C 29.42775 20.51025  6.24225
C 31.21125 18.72675  6.24225
C 31.21125 20.51025  4.45875
C 28.53600 17.83500  7.13400
C 28.53600 19.61850  8.91750
C 30.31950 17.83500  8.91750
C 30.31950 19.61850  7.13400
C 29.42775 18.72675  8.02575
C 29.42775 20.51025  9.80925
C 31.21125 18.72675  9.80925
C 31.21125 20.51025  8.02575
C 28.53600 17.83500 10.70100
C 28.53600 19.61850 12.48450
C 30.31950 17.83500 12.48450
C 30.31950 19.61850 10.70100
C 29.42775 18.72675 11.59275
C 29.42775 20.51025 13.37625
C 31.21125 18.72675 13.37625
C 31.21125 20.51025 11.59275
C 28.53600 17.83500 14.26800
C 28.53600 19.61850 16.05150
C 30.31950 17.83500 16.05150
C 30.31950 19.61850 14.26800
C 29.42775 18.72675 15.15975
C 29.42775 20.51025 16.94325
C 31.21125 18.72675 16.94325
C 31.21125 20.51025 15.15975
C 28.53600 21.40200  0.00000
C 28.53600 23.18550  1.78350
C 30.31950 21.40200  1.78350
C 30.31950 23.18550  0.00000
C 29.42775 22.29375  0.89175
C 29.42775 24.07725  2.67525
C 31.21125 22.29375  2.67525
C 31.21125 24.07725  0.89175
C 28.53600 21.40200  3.56700
C 28.53600 23.18550  5.35050
C 30.31950 21.40200  5.35050
C 30.31950 23.18550  3.56700
C 29.42775 22.29375  4.45875
C 29.42775 24.07725  6.24225
C 31.21125 22.29375  6.24225
C 31.21125 24.07725  4.45875
C 28.53600 21.40200  7.13400
C 28.53600 23.18550  8.91750
C 30.31950 21.40200  8.91750
C 30.31950 23.18550  7.13400
C 29.42775 22.29375  8.02575
C 29.42775 24.07725  9.80925
C 31.21125 22.29375  9.80925
C 31.21125 24.07725  8.02575
C 28.53600 21.40200 10.70100
C 28.53600 23.18550 12.48450
C 30.31950 21.40200 12.48450
C 30.31950 23.18550 10.70100
C 29.42775 22.29375 11.59275
C 29.42775 24.07725 13.37625
C 31.21125 22.29375 13.37625
C 31.21125 24.07725 11.59275
C 28.53600 21.40200 14.26800
C 28.53600 23.18550 16.05150
C 30.31950 21.40200 16.05150
C 30.31950 23.18550 14.26800
C 29.42775 22.29375 15.15975
C 29.42775 24.07725 16.94325
C 31.21125 22.29375 16.94325
C 31.21125 24.07725 15.15975
C 28.53600 24.96900  0.00000
C 28.53600 26.75250  1.78350
C 30.31950 24.96900  1.78350
C 30.31950 26.75250  0.00000
C 29.42775 25.86075  0.89175
C 29.42775 27.64425  2.67525
C 31.21125 25.86075  2.67525
C 31.21125 27.64425  0.89175
C 28.53600 24.96900  3.56700
C 28.53600 26.75250  5.35050
C 30.31950 24.96900  5.35050
C 30.31950 26.75250  3.56700
C 29.42775 25.86075  4.45875
C 29.42775 27.64425  6.24225
C 31.21125 25.86075  6.24225
C 31.21125 27.64425  4.45875
C 28.53600 24.96900  7.13400
C 28.53600 26.75250  8.91750
C 30.31950 24.96900  8.91750
C 30.31950 26.75250  7.13400
C 29.42775 25.86075  8.02575
C 29.42775 27.64425  9.80925
C 31.21125 25.86075  9.80925
C 31.21125 27.64425  8.02575
C 28.53600 24.96900 10.70100
C 28.53600 26.75250 12.48450
C 30.31950 24.96900 12.48450
C 30.31950 26.75250 10.70100
C 29.42775 25.86075 11.59275
C 29.42775 27.64425 13.37625
C 31.21125 25.86075 13.37625
C 31.21125 27.64425 11.59275
C 28.53600 24.96900 14.26800
C 28.53600 26.75250 16.05150
C 30.31950 24.96900 16.05150
C 30.31950 26.75250 14.26800
C 29.42775 25.86075 15.15975
C 29.42775 27.64425 16.94325
C 31.21125 25.86075 16.94325
C 31.21125 27.64425 15.15975
C 28.53600 28.53600  0.00000
C 28.53600 30.31950  1.78350
C 30.31950 28.53600  1.78350
C 30.31950 30.31950  0.00000
C 29.42775 29.42775  0.89175
C 29.42775 31.21125  2.67525
C 31.21125 29.42775  2.67525
C 31.21125 31.21125  0.89175
C 28.53600 28.53600  3.56700
C 28.53600 30.31950  5.35050
C 30.31950 28.53600  5.35050
C 30.31950 30.31950  3.56700
C 29.42775 29.42775  4.45875
C 29.42775 31.21125  6.24225
C 31.21125 29.42775  6.24225
C 31.21125 31.21125  4.45875
C 28.53600 28.53600  7.13400
C 28.53600 30.31950  8.91750
C 30.31950 28.53600  8.91750
C 30.31950 30.31950  7.13400
C 29.42775 29.42775  8.02575
C 29.42775 31.21125  9.80925
C 31.21125 29.42775  9.80925
C 31.21125 31.21125  8.02575
C 28.53600 28.53600 10.70100
C 28.53600 30.31950 12.48450
C 30.31950 28.53600 12.48450
C 30.31950 30.31950 10.70100
C 29.42775 29.42775 11.59275
C 29.42775 31.21125 13.37625
C 31.21125 29.42775 13.37625
C 31.21125 31.21125 11.59275
C 28.53600 28.53600 14.26800
C 28.53600 30.31950 16.05150
C 30.31950 28.53600 16.05150
C 30.31950 30.31950 14.26800
C 29.42775 29.42775 15.15975
C 29.42775 31.21125 16.94325
C 31.21125 29.42775 16.94325
C 31.21125 31.21125 15.15975
C 28.53600 32.10300  0.00000
C 28.53600 33.88650  1.78350
C 30.31950 32.10300  1.78350
C 30.31950 33.88650  0.00000
C 29.42775 32.99475  0.89175
C 29.42775 34.77825  2.67525
C 31.21125 32.99475  2.67525
C 31.21125 34.77825  0.89175
C 28.53600 32.10300  3.56700
C 28.53600 33.88650  5.35050
C 30.31950 32.10300  5.35050
C 30.31950 33.88650  3.56700
C 29.42775 32.99475  4.45875
C 29.42775 34.77825  6.24225
C 31.21125 32.99475  6.24225
C 31.21125 34.77825  4.45875
C 28.53600 32.10300  7.13400
C 28.53600 33.88650  8.91750
C 30.31950 32.10300  8.91750
C 30.31950 33.88650  7.13400
C 29.42775 32.99475  8.02575
C 29.42775 34.77825  9.80925
C 31.21125 32.99475  9.80925
C 31.21125 34.77825  8.02575
C 28.53600 32.10300 10.70100
C 28.53600 33.88650 12.48450
C 30.31950 32.10300 12.48450
C 30.31950 33.88650 10.70100
C 29.42775 32.99475 11.59275
C 29.42775 34.77825 13.37625
C 31.21125 32.99475 13.37625
C 31.21125 34.77825 11.59275
C 28.53600 32.10300 14.26800
C 28.53600 33.88650 16.05150
C 30.31950 32.10300 16.05150
C 30.31950 33.88650 14.26800
C 29.42775 32.99475 15.15975
C 29.42775 34.77825 16.94325
C 31.21125 32.99475 16.94325
C 31.21125 34.77825 15.15975
C 32.10300 17.83500  0.00000
C 32.10300 19.61850  1.78350
C 33.88650 17.83500  1.78350
C 33.88650 19.61850  0.00000
C 32.99475 18.72675  0.89175
C 32.99475 20.51025  2.67525
C 34.77825 18.72675  2.67525
C 34.77825 20.51025  0.89175
C 32.10300 17.83500  3.56700
C 32.10300 19.61850  5.35050
C 33.88650 17.83500  5.35050
C 33.88650 19.61850  3.56700
C 32.99475 18.72675  4.45875
C 32.99475 20.51025  6.24225
C 34.77825 18.72675  6.24225
C 34.77825 20.51025  4.45875
C 32.10300 17.83500  7.13400
C 32.10300 19.61850  8.91750
C 33.88650 17.83500  8.91750
C 33.88650 19.61850  7.13400
C 32.99475 18.72675  8.02575
C 32.99475 20.51025  9.80925
C 34.77825 18.72675  9.80925
C 34.77825 20.51025  8.02575
C 32.10300 17.83500 10.70100
C 32.10300 19.61850 12.48450
C 33.88650 17.83500 12.48450
C 33.88650 19.61850 10.70100
C 32.99475 18.72675 11.59275
C 32.99475 20.51025 13.37625
C 34.77825 18.72675 13.37625
C 34.77825 20.51025 11.59275
C 32.10300 17.83500 14.26800
C 32.10300 19.61850 16.05150
C 33.88650 17.83500 16.05150
C 33.88650 19.61850 14.26800
C 32.99475 18.72675 15.15975
C 32.99475 20.51025 16.94325
C 34.77825 18.72675 16.94325
C 34.77825 20.51025 15.15975
C 32.10300 21.40200  0.00000
C 32.10300 23.18550  1.78350
C 33.88650 21.40200  1.78350
C 33.88650 23.18550  0.00000
C 32.99475 22.29375  0.89175
C 32.99475 24.07725  2.67525
C 34.77825 22.29375  2.67525
C 34.77825 24.07725  0.89175
C 32.10300 21.40200  3.56700
C 32.10300 23.18550  5.35050
C 33.88650 21.40200  5.35050
C 33.88650 23.18550  3.56700
C 32.99475 22.29375  4.45875
C 32.99475 24.07725  6.24225
C 34.77825 22.29375  6.24225
C 34.77825 24.07725  4.45875
C 32.10300 21.40200  7.13400
C 32.10300 23.18550  8.91750
C 33.88650 21.40200  8.91750
C 33.88650 23.18550  7.13400
C 32.99475 22.29375  8.02575
C 32.99475 24.07725  9.80925
C 34.77825 22.29375  9.80925
C 34.77825 24.07725  8.02575
C 32.10300 21.40200 10.70100
C 32.10300 23.18550 12.48450
C 33.88650 21.40200 12.48450
C 33.88650 23.18550 10.70100
C 32.99475 22.29375 11.59275
C 32.99475 24.07725 13.37625
C 34.77825 22.29375 13.37625
C 34.77825 24.07725 11.59275
C 32.10300 21.40200 14.26800
C 32.10300 23.18550 16.05150
C 33.88650 21.40200 16.05150
C 33.88650 23.18550 14.26800
C 32.99475 22.29375 15.15975
C 32.99475 24.07725 16.94325
C 34.77825 22.29375 16.94325
C 34.77825 24.07725 15.15975
C 32.10300 24.96900  0.00000
C 32.10300 26.75250  1.78350
C 33.88650 24.96900  1.78350
C 33.88650 26.75250  0.00000
C 32.99475 25.86075  0.89175
C 32.99475 27.64425  2.67525
C 34.77825 25.86075  2.67525
C 34.77825 27.64425  0.89175
C 32.10300 24.96900  3.56700
C 32.10300 26.75250  5.35050
C 33.88650 24.96900  5.35050
C 33.88650 26.75250  3.56700
C 32.99475 25.86075  4.45875
C 32.99475 27.64425  6.24225
C 34.77825 25.86075  6.24225
C 34.77825 27.64425  4.45875
C 32.10300 24.96900  7.13400
C 32.10300 26.75250  8.91750
C 33.88650 24.96900  8.91750
C 33.88650 26.75250  7.13400
C 32.99475 25.86075  8.02575
C 32.99475 27.64425  9.80925
C 34.77825 25.86075  9.80925
C 34.77825 27.64425  8.02575
C 32.10300 24.96900 10.70100
C 32.10300 26.75250 12.48450
C 33.88650 24.96900 12.48450
C 33.88650 26.75250 10.70100
C 32.99475 25.86075 11.59275
C 32.99475 27.64425 13.37625
C 34.77825 25.86075 13.37625
C 34.77825 27.64425 11.59275
C 32.10300 24.96900 14.26800
C 32.10300 26.75250 16.05150
C 33.88650 24.96900 16.05150
C 33.88650 26.75250 14.26800
C 32.99475 25.86075 15.15975
C 32.99475 27.64425 16.94325
C 34.77825 25.86075 16.94325
C 34.77825 27.64425 15.15975
C 32.10300 28.53600  0.00000
C 32.10300 30.31950  1.78350
C 33.88650 28.53600  1.78350
C 33.88650 30.31950  0.00000
C 32.99475 29.42775  0.89175
C 32.99475 31.21125  2.67525
C 34.77825 29.42775  2.67525
C 34.77825 31.21125  0.89175
C 32.10300 28.53600  3.56700
C 32.10300 30.31950  5.35050
C 33.88650 28.53600  5.35050
C 33.88650 30.31950  3.56700
C 32.99475 29.42775  4.45875
C 32.99475 31.21125  6.24225
C 34.77825 29.42775  6.24225
C 34.77825 31.21125  4.45875
C 32.10300 28.53600  7.13400
C 32.10300 30.31950  8.91750
C 33.88650 28.53600  8.91750
C 33.88650 30.31950  7.13400
C 32.99475 29.42775  8.02575
C 32.99475 31.21125  9.80925
C 34.77825 29.42775  9.80925
C 34.77825 31.21125  8.02575
C 32.10300 28.53600 10.70100
C 32.10300 30.31950 12.48450
C 33.88650 28.53600 12.48450
C 33.88650 30.31950 10.70100
C 32.99475 29.42775 11.59275
C 32.99475 31.21125 13.37625
C 34.77825 29.42775 13.37625
C 34.77825 31.21125 11.59275
C 32.10300 28.53600 14.26800
C 32.10300 30.31950 16.05150
C 33.88650 28.53600 16.05150
C 33.88650 30.31950 14.26800
C 32.99475 29.42775 15.15975
C 32.99475 31.21125 16.94325
C 34.77825 29.42775 16.94325
C 34.77825 31.21125 15.15975
C 32.10300 32.10300  0.00000
C 32.10300 33.88650  1.78350
C 33.88650 32.10300  1.78350
C 33.88650 33.88650  0.00000
C 32.99475 32.99475  0.89175
C 32.99475 34.77825  2.67525
C 34.77825 32.99475  2.67525
C 34.77825 34.77825  0.89175
C 32.10300 32.10300  3.56700
C 32.10300 33.88650  5.35050
C 33.88650 32.10300  5.35050
C 33.88650 33.88650  3.56700
C 32.99475 32.99475  4.45875
C 32.99475 34.77825  6.24225
C 34.77825 32.99475  6.24225
C 34.77825 34.77825  4.45875
C 32.10300 32.10300  7.13400
C 32.10300 33.88650  8.91750
C 33.88650 32.10300  8.91750
C 33.88650 33.88650  7.13400
C 32.99475 32.99475  8.02575
C 32.99475 34.77825  9.80925
C 34.77825 32.99475  9.80925
C 34.77825 34.77825  8.02575
C 32.10300 32.10300 10.70100
C 32.10300 33.88650 12.48450
C 33.88650 32.10300 12.48450
C 33.88650 33.88650 10.70100
C 32.99475 32.99475 11.59275
C 32.99475 34.77825 13.37625
C 34.77825 32.99475 13.37625
C 34.77825 34.77825 11.59275
C 32.10300 32.10300 14.26800
C 32.10300 33.88650 16.05150
C 33.88650 32.10300 16.05150
C 33.88650 33.88650 14.26800
C 32.99475 32.99475 15.15975
C 32.99475 34.77825 16.94325
C 34.77825 32.99475 16.94325
C 34.77825 34.77825 15.15975
N 17.83500 17.83500 17.83500
C 17.83500 19.61850 19.61850
C 19.61850 17.83500 19.61850
C 19.61850 19.61850 17.83500
C 18.72675 18.72675 18.72675
C 18.72675 20.51025 20.51025
C 20.51025 18.72675 20.51025
C 20.51025 20.51025 18.72675
C 17.83500 17.83500 21.40200
C 17.83500 19.61850 23.18550
C 19.61850 17.83500 23.18550
C 19.61850 19.61850 21.40200
C 18.72675 18.72675 22.29375
C 18.72675 20.51025 24.07725
C 20.51025 18.72675 24.07725
C 20.51025 20.51025 22.29375
C 17.83500 17.83500 24.96900
C 17.83500 19.61850 26.75250
C 19.61850 17.83500 26.75250
C 19.61850 19.61850 24.96900
C 18.72675 18.72675 25.86075
C 18.72675 20.51025 27.64425
C 20.51025 18.72675 27.64425
C 20.51025 20.51025 25.86075
C 17.83500 17.83500 28.53600
C 17.83500 19.61850 30.31950
C 19.61850 17.83500 30.31950
C 19.61850 19.61850 28.53600
C 18.72675 18.72675 29.42775
C 18.72675 20.51025 31.21125
C 20.51025 18.72675 31.21125
C 20.51025 20.51025 29.42775
C 17.83500 17.83500 32.10300
C 17.83500 19.61850 33.88650
C 19.61850 17.83500 33.88650
C 19.61850 19.61850 32.10300
C 18.72675 18.72675 32.99475
C 18.72675 20.51025 34.77825
C 20.51025 18.72675 34.77825
C 20.51025 20.51025 32.99475
C 17.83500 21.40200 17.83500
C 17.83500 23.18550 19.61850
C 19.61850 21.40200 19.61850
C 19.61850 23.18550 17.83500
C 18.72675 22.29375 18.72675
C 18.72675 24.07725 20.51025
C 20.51025 22.29375 20.51025
C 20.51025 24.07725 18.72675
C 17.83500 21.40200 21.40200
C 17.83500 23.18550 23.18550
C 19.61850 21.40200 23.18550
C 19.61850 23.18550 21.40200
C 18.72675 22.29375 22.29375
C 18.72675 24.07725 24.07725
C 20.51025 22.29375 24.07725
C 20.51025 24.07725 22.29375
C 17.83500 21.40200 24.96900
C 17.83500 23.18550 26.75250
C 19.61850 21.40200 26.75250
C 19.61850 23.18550 24.96900
C 18.72675 22.29375 25.86075
C 18.72675 24.07725 27.64425
C 20.51025 22.29375 27.64425
C 20.51025 24.07725 25.86075
C 17.83500 21.40200 28.53600
C 17.83500 23.18550 30.31950
C 19.61850 21.40200 30.31950
C 19.61850 23.18550 28.53600
C 18.72675 22.29375 29.42775
C 18.72675 24.07725 31.21125
C 20.51025 22.29375 31.21125
C 20.51025 24.07725 29.42775
C 17.83500 21.40200 32.10300
C 17.83500 23.18550 33.88650
C 19.61850 21.40200 33.88650
C 19.61850 23.18550 32.10300
C 18.72675 22.29375 32.99475
C 18.72675 24.07725 34.77825
C 20.51025 22.29375 34.77825
C 20.51025 24.07725 32.99475
C 17.83500 24.96900 17.83500
C 17.83500 26.75250 19.61850
C 19.61850 24.96900 19.61850
C 19.61850 26.75250 17.83500
C 18.72675 25.86075 18.72675
C 18.72675 27.64425 20.51025
C 20.51025 25.86075 20.51025
C 20.51025 27.64425 18.72675
C 17.83500 24.96900 21.40200
C 17.83500 26.75250 23.18550
C 19.61850 24.96900 23.18550
C 19.61850 26.75250 21.40200
C 18.72675 25.86075 22.29375
C 18.72675 27.64425 24.07725
C 20.51025 25.86075 24.07725
C 20.51025 27.64425 22.29375
C 17.83500 24.96900 24.96900
C 17.83500 26.75250 26.75250
C 19.61850 24.96900 26.75250
C 19.61850 26.75250 24.96900
C 18.72675 25.86075 25.86075
C 18.72675 27.64425 27.64425
C 20.51025 25.86075 27.64425
C 20.51025 27.64425 25.86075
C 17.83500 24.96900 28.53600
C 17.83500 26.75250 30.31950
C 19.61850 24.96900 30.31950
C 19.61850 26.75250 28.53600
C 18.72675 25.86075 29.42775
C 18.72675 27.64425 31.21125
C 20.51025 25.86075 31.21125
C 20.51025 27.64425 29.42775
C 17.83500 24.96900 32.10300
C 17.83500 26.75250 33.88650
C 19.61850 24.96900 33.88650
C 19.61850 26.75250 32.10300
C 18.72675 25.86075 32.99475
C 18.72675 27.64425 34.77825
C 20.51025 25.86075 34.77825
C 20.51025 27.64425 32.99475
C 17.83500 28.53600 17.83500
C 17.83500 30.31950 19.61850
C 19.61850 28.53600 19.61850
C 19.61850 30.31950 17.83500
C 18.72675 29.42775 18.72675
C 18.72675 31.21125 20.51025
C 20.51025 29.42775 20.51025
C 20.51025 31.21125 18.72675
C 17.83500 28.53600 21.40200
C 17.83500 30.31950 23.18550
C 19.61850 28.53600 23.18550
C 19.61850 30.31950 21.40200
C 18.72675 29.42775 22.29375
C 18.72675 31.21125 24.07725
C 20.51025 29.42775 24.07725
C 20.51025 31.21125 22.29375
C 17.83500 28.53600 24.96900
C 17.83500 30.31950 26.75250
C 19.61850 28.53600 26.75250
C 19.61850 30.31950 24.96900
C 18.72675 29.42775 25.86075
C 18.72675 31.21125 27.64425
C 20.51025 29.42775 27.64425
C 20.51025 31.21125 25.86075
C 17.83500 28.53600 28.53600
C 17.83500 30.31950 30.31950
C 19.61850 28.53600 30.31950
C 19.61850 30.31950 28.53600
C 18.72675 29.42775 29.42775
C 18.72675 31.21125 31.21125
C 20.51025 29.42775 31.21125
C 20.51025 31.21125 29.42775
C 17.83500 28.53600 32.10300
C 17.83500 30.31950 33.88650
C 19.61850 28.53600 33.88650
C 19.61850 30.31950 32.10300
C 18.72675 29.42775 32.99475
C 18.72675 31.21125 34.77825
C 20.51025 29.42775 34.77825
C 20.51025 31.21125 32.99475
C 17.83500 32.10300 17.83500
C 17.83500 33.88650 19.61850
C 19.61850 32.10300 19.61850
C 19.61850 33.88650 17.83500
C 18.72675 32.99475 18.72675
C 18.72675 34.77825 20.51025
C 20.51025 32.99475 20.51025
C 20.51025 34.77825 18.72675
C 17.83500 32.10300 21.40200
C 17.83500 33.88650 23.18550
C 19.61850 32.10300 23.18550
C 19.61850 33.88650 21.40200
C 18.72675 32.99475 22.29375
C 18.72675 34.77825 24.07725
C 20.51025 32.99475 24.07725
C 20.51025 34.77825 22.29375
C 17.83500 32.10300 24.96900
C 17.83500 33.88650 26.75250
C 19.61850 32.10300 26.75250
C 19.61850 33.88650 24.96900
C 18.72675 32.99475 25.86075
C 18.72675 34.77825 27.64425
C 20.51025 32.99475 27.64425
C 20.51025 34.77825 25.86075
C 17.83500 32.10300 28.53600
C 17.83500 33.88650 30.31950
C 19.61850 32.10300 30.31950
C 19.61850 33.88650 28.53600
C 18.72675 32.99475 29.42775
C 18.72675 34.77825 31.21125
C 20.51025 32.99475 31.21125
C 20.51025 34.77825 29.42775
C 17.83500 32.10300 32.10300
C 17.83500 33.88650 33.88650
C 19.61850 32.10300 33.88650
C 19.61850 33.88650 32.10300
C 18.72675 32.99475 32.99475
C 18.72675 34.77825 34.77825
C 20.51025 32.99475 34.77825
C 20.51025 34.77825 32.99475
C 21.40200 17.83500 17.83500
C 21.40200 19.61850 19.61850
C 23.18550 17.83500 19.61850
C 23.18550 19.61850 17.83500
C 22.29375 18.72675 18.72675
C 22.29375 20.51025 20.51025
C 24.07725 18.72675 20.51025
C 24.07725 20.51025 18.72675
C 21.40200 17.83500 21.40200
C 21.40200 19.61850 23.18550
C 23.18550 17.83500 23.18550
C 23.18550 19.61850 21.40200
C 22.29375 18.72675 22.29375
C 22.29375 20.51025 24.07725
C 24.07725 18.72675 24.07725
C 24.07725 20.51025 22.29375
C 21.40200 17.83500 24.96900
C 21.40200 19.61850 26.75250
C 23.18550 17.83500 26.75250
C 23.18550 19.61850 24.96900
C 22.29375 18.72675 25.86075
C 22.29375 20.51025 27.64425
C 24.07725 18.72675 27.64425
C 24.07725 20.51025 25.86075
C 21.40200 17.83500 28.53600
C 21.40200 19.61850 30.31950
C 23.18550 17.83500 30.31950
C 23.18550 19.61850 28.53600
C 22.29375 18.72675 29.42775
C 22.29375 20.51025 31.21125
C 24.07725 18.72675 31.21125
C 24.07725 20.51025 29.42775
C 21.40200 17.83500 32.10300
C 21.40200 19.61850 33.88650
C 23.18550 17.83500 33.88650
C 23.18550 19.61850 32.10300
C 22.29375 18.72675 32.99475
C 22.29375 20.51025 34.77825
C 24.07725 18.72675 34.77825
C 24.07725 20.51025 32.99475
C 21.40200 21.40200 17.83500
C 21.40200 23.18550 19.61850
C 23.18550 21.40200 19.61850
C 23.18550 23.18550 17.83500
C 22.29375 22.29375 18.72675
C 22.29375 24.07725 20.51025
C 24.07725 22.29375 20.51025
C 24.07725 24.07725 18.72675
C 21.40200 21.40200 21.40200
C 21.40200 23.18550 23.18550
C 23.18550 21.40200 23.18550
C 23.18550 23.18550 21.40200
C 22.29375 22.29375 22.29375
C 22.29375 24.07725 24.07725
C 24.07725 22.29375 24.07725
C 24.07725 24.07725 22.29375
C 21.40200 21.40200 24.96900
C 21.40200 23.18550 26.75250
C 23.18550 21.40200 26.75250
C 23.18550 23.18550 24.96900
C 22.29375 22.29375 25.86075
C 22.29375 24.07725 27.64425
C 24.07725 22.29375 27.64425
C 24.07725 24.07725 25.86075
C 21.40200 21.40200 28.53600
C 21.40200 23.18550 30.31950
C 23.18550 21.40200 30.31950
C 23.18550 23.18550 28.53600
C 22.29375 22.29375 29.42775
C 22.29375 24.07725 31.21125
C 24.07725 22.29375 31.21125
C 24.07725 24.07725 29.42775
C 21.40200 21.40200 32.10300
C 21.40200 23.18550 33.88650
C 23.18550 21.40200 33.88650
C 23.18550 23.18550 32.10300
C 22.29375 22.29375 32.99475
C 22.29375 24.07725 34.77825
C 24.07725 22.29375 34.77825
C 24.07725 24.07725 32.99475
C 21.40200 24.96900 17.83500
C 21.40200 26.75250 19.61850
C 23.18550 24.96900 19.61850
C 23.18550 26.75250 17.83500
C 22.29375 25.86075 18.72675
C 22.29375 27.64425 20.51025
C 24.07725 25.86075 20.51025
C 24.07725 27.64425 18.72675
C 21.40200 24.96900 21.40200
C 21.40200 26.75250 23.18550
C 23.18550 24.96900 23.18550
C 23.18550 26.75250 21.40200
C 22.29375 25.86075 22.29375
C 22.29375 27.64425 24.07725
C 24.07725 25.86075 24.07725
C 24.07725 27.64425 22.29375
C 21.40200 24.96900 24.96900
C 21.40200 26.75250 26.75250
C 23.18550 24.96900 26.75250
C 23.18550 26.75250 24.96900
C 22.29375 25.86075 25.86075
C 22.29375 27.64425 27.64425
C 24.07725 25.86075 27.64425
C 24.07725 27.64425 25.86075
C 21.40200 24.96900 28.53600
C 21.40200 26.75250 30.31950
C 23.18550 24.96900 30.31950
C 23.18550 26.75250 28.53600
C 22.29375 25.86075 29.42775
C 22.29375 27.64425 31.21125
C 24.07725 25.86075 31.21125
C 24.07725 27.64425 29.42775
C 21.40200 24.96900 32.10300
C 21.40200 26.75250 33.88650
C 23.18550 24.96900 33.88650
C 23.18550 26.75250 32.10300
C 22.29375 25.86075 32.99475
C 22.29375 27.64425 34.77825
C 24.07725 25.86075 34.77825
C 24.07725 27.64425 32.99475
C 21.40200 28.53600 17.83500
C 21.40200 30.31950 19.61850
C 23.18550 28.53600 19.61850
C 23.18550 30.31950 17.83500
C 22.29375 29.42775 18.72675
C 22.29375 31.21125 20.51025
C 24.07725 29.42775 20.51025
C 24.07725 31.21125 18.72675
C 21.40200 28.53600 21.40200
C 21.40200 30.31950 23.18550
C 23.18550 28.53600 23.18550
C 23.18550 30.31950 21.40200
C 22.29375 29.42775 22.29375
C 22.29375 31.21125 24.07725
C 24.07725 29.42775 24.07725
C 24.07725 31.21125 22.29375
C 21.40200 28.53600 24.96900
C 21.40200 30.31950 26.75250
C 23.18550 28.53600 26.75250
C 23.18550 30.31950 24.96900
C 22.29375 29.42775 25.86075
C 22.29375 31.21125 27.64425
C 24.07725 29.42775 27.64425
C 24.07725 31.21125 25.86075
C 21.40200 28.53600 28.53600
C 21.40200 30.31950 30.31950
C 23.18550 28.53600 30.31950
C 23.18550 30.31950 28.53600
C 22.29375 29.42775 29.42775
C 22.29375 31.21125 31.21125
C 24.07725 29.42775 31.21125
C 24.07725 31.21125 29.42775
C 21.40200 28.53600 32.10300
C 21.40200 30.31950 33.88650
C 23.18550 28.53600 33.88650
C 23.18550 30.31950 32.10300
C 22.29375 29.42775 32.99475
C 22.29375 31.21125 34.77825
C 24.07725 29.42775 34.77825
C 24.07725 31.21125 32.99475
C 21.40200 32.10300 17.83500
C 21.40200 33.88650 19.61850
C 23.18550 32.10300 19.61850
C 23.18550 33.88650 17.83500
C 22.29375 32.99475 18.72675
C 22.29375 34.77825 20.51025
C 24.07725 32.99475 20.51025
C 24.07725 34.77825 18.72675
C 21.40200 32.10300 21.40200
C 21.40200 33.88650 23.18550
C 23.18550 32.10300 23.18550
C 23.18550 33.88650 21.40200
C 22.29375 32.99475 22.29375
C 22.29375 34.77825 24.07725
C 24.07725 32.99475 24.07725
C 24.07725 34.77825 22.29375
C 21.40200 32.10300 24.96900
C 21.40200 33.88650 26.75250
C 23.18550 32.10300 26.75250
C 23.18550 33.88650 24.96900
C 22.29375 32.99475 25.86075
C 22.29375 34.77825 27.64425
C 24.07725 32.99475 27.64425
C 24.07725 34.77825 25.86075
C 21.40200 32.10300 28.53600
C 21.40200 33.88650 30.31950
C 23.18550 32.10300 30.31950
C 23.18550 33.88650 28.53600
C 22.29375 32.99475 29.42775
C 22.29375 34.77825 31.21125
C 24.07725 32.99475 31.21125
C 24.07725 34.77825 29.42775
C 21.40200 32.10300 32.10300
C 21.40200 33.88650 33.88650
C 23.18550 32.10300 33.88650
C 23.18550 33.88650 32.10300
C 22.29375 32.99475 32.99475
C 22.29375 34.77825 34.77825
C 24.07725 32.99475 34.77825
C 24.07725 34.77825 32.99475
C 24.96900 17.83500 17.83500
C 24.96900 19.61850 19.61850
C 26.75250 17.83500 19.61850
C 26.75250 19.61850 17.83500
C 25.86075 18.72675 18.72675
C 25.86075 20.51025 20.51025
C 27.64425 18.72675 20.51025
C 27.64425 20.51025 18.72675
C 24.96900 17.83500 21.40200
C 24.96900 19.61850 23.18550
C 26.75250 17.83500 23.18550
C 26.75250 19.61850 21.40200
C 25.86075 18.72675 22.29375
C 25.86075 20.51025 24.07725
C 27.64425 18.72675 24.07725
C 27.64425 20.51025 22.29375
C 24.96900 17.83500 24.96900
C 24.96900 19.61850 26.75250
C 26.75250 17.83500 26.75250
C 26.75250 19.61850 24.96900
C 25.86075 18.72675 25.86075
C 25.86075 20.51025 27.64425
C 27.64425 18.72675 27.64425
C 27.64425 20.51025 25.86075
C 24.96900 17.83500 28.53600
C 24.96900 19.61850 30.31950
C 26.75250 17.83500 30.31950
C 26.75250 19.61850 28.53600
C 25.86075 18.72675 29.42775
C 25.86075 20.51025 31.21125
C 27.64425 18.72675 31.21125
C 27.64425 20.51025 29.42775
C 24.96900 17.83500 32.10300
C 24.96900 19.61850 33.88650
C 26.75250 17.83500 33.88650
C 26.75250 19.61850 32.10300
C 25.86075 18.72675 32.99475
C 25.86075 20.51025 34.77825
C 27.64425 18.72675 34.77825
C 27.64425 20.51025 32.99475
C 24.96900 21.40200 17.83500
C 24.96900 23.18550 19.61850
C 26.75250 21.40200 19.61850
C 26.75250 23.18550 17.83500
C 25.86075 22.29375 18.72675
C 25.86075 24.07725 20.51025
C 27.64425 22.29375 20.51025
C 27.64425 24.07725 18.72675
C 24.96900 21.40200 21.40200
C 24.96900 23.18550 23.18550
C 26.75250 21.40200 23.18550
C 26.75250 23.18550 21.40200
C 25.86075 22.29375 22.29375
C 25.86075 24.07725 24.07725
C 27.64425 22.29375 24.07725
C 27.64425 24.07725 22.29375
C 24.96900 21.40200 24.96900
C 24.96900 23.18550 26.75250
C 26.75250 21.40200 26.75250
C 26.75250 23.18550 24.96900
C 25.86075 22.29375 25.86075
C 25.86075 24.07725 27.64425
C 27.64425 22.29375 27.64425
C 27.64425 24.07725 25.86075
C 24.96900 21.40200 28.53600
C 24.96900 23.18550 30.31950
C 26.75250 21.40200 30.31950
C 26.75250 23.18550 28.53600
C 25.86075 22.29375 29.42775
C 25.86075 24.07725 31.21125
C 27.64425 22.29375 31.21125
C 27.64425 24.07725 29.42775
C 24.96900 21.40200 32.10300
C 24.96900 23.18550 33.88650
C 26.75250 21.40200 33.88650
C 26.75250 23.18550 32.10300
C 25.86075 22.29375 32.99475
C 25.86075 24.07725 34.77825
C 27.64425 22.29375 34.77825
C 27.64425 24.07725 32.99475
C 24.96900 24.96900 17.83500
C 24.96900 26.75250 19.61850
C 26.75250 24.96900 19.61850
C 26.75250 26.75250 17.83500
C 25.86075 25.86075 18.72675
C 25.86075 27.64425 20.51025
C 27.64425 25.86075 20.51025
C 27.64425 27.64425 18.72675
C 24.96900 24.96900 21.40200
C 24.96900 26.75250 23.18550
C 26.75250 24.96900 23.18550
C 26.75250 26.75250 21.40200
C 25.86075 25.86075 22.29375
C 25.86075 27.64425 24.07725
C 27.64425 25.86075 24.07725
C 27.64425 27.64425 22.29375
C 24.96900 24.96900 24.96900
C 24.96900 26.75250 26.75250
C 26.75250 24.96900 26.75250
C 26.75250 26.75250 24.96900
C 25.86075 25.86075 25.86075
C 25.86075 27.64425 27.64425
C 27.64425 25.86075 27.64425
C 27.64425 27.64425 25.86075
C 24.96900 24.96900 28.53600
C 24.96900 26.75250 30.31950
C 26.75250 24.96900 30.31950
C 26.75250 26.75250 28.53600
C 25.86075 25.86075 29.42775
C 25.86075 27.64425 31.21125
C 27.64425 25.86075 31.21125
C 27.64425 27.64425 29.42775
C 24.96900 24.96900 32.10300
C 24.96900 26.75250 33.88650
C 26.75250 24.96900 33.88650
C 26.75250 26.75250 32.10300
C 25.86075 25.86075 32.99475
C 25.86075 27.64425 34.77825
C 27.64425 25.86075 34.77825
C 27.64425 27.64425 32.99475
C 24.96900 28.53600 17.83500
C 24.96900 30.31950 19.61850
C 26.75250 28.53600 19.61850
C 26.75250 30.31950 17.83500
C 25.86075 29.42775 18.72675
C 25.86075 31.21125 20.51025
C 27.64425 29.42775 20.51025
C 27.64425 31.21125 18.72675
C 24.96900 28.53600 21.40200
C 24.96900 30.31950 23.18550
C 26.75250 28.53600 23.18550
C 26.75250 30.31950 21.40200
C 25.86075 29.42775 22.29375
C 25.86075 31.21125 24.07725
C 27.64425 29.42775 24.07725
C 27.64425 31.21125 22.29375
C 24.96900 28.53600 24.96900
C 24.96900 30.31950 26.75250
C 26.75250 28.53600 26.75250
C 26.75250 30.31950 24.96900
C 25.86075 29.42775 25.86075
C 25.86075 31.21125 27.64425
C 27.64425 29.42775 27.64425
C 27.64425 31.21125 25.86075
C 24.96900 28.53600 28.53600
C 24.96900 30.31950 30.31950
C 26.75250 28.53600 30.31950
C 26.75250 30.31950 28.53600
C 25.86075 29.42775 29.42775
C 25.86075 31.21125 31.21125
C 27.64425 29.42775 31.21125
C 27.64425 31.21125 29.42775
C 24.96900 28.53600 32.10300
C 24.96900 30.31950 33.88650
C 26.75250 28.53600 33.88650
C 26.75250 30.31950 32.10300
C 25.86075 29.42775 32.99475
C 25.86075 31.21125 34.77825
C 27.64425 29.42775 34.77825
C 27.64425 31.21125 32.99475
C 24.96900 32.10300 17.83500
C 24.96900 33.88650 19.61850
C 26.75250 32.10300 19.61850
C 26.75250 33.88650 17.83500
C 25.86075 32.99475 18.72675
C 25.86075 34.77825 20.51025
C 27.64425 32.99475 20.51025
C 27.64425 34.77825 18.72675
C 24.96900 32.10300 21.40200
C 24.96900 33.88650 23.18550
C 26.75250 32.10300 23.18550
C 26.75250 33.88650 21.40200
C 25.86075 32.99475 22.29375
C 25.86075 34.77825 24.07725
C 27.64425 32.99475 24.07725
C 27.64425 34.77825 22.29375
C 24.96900 32.10300 24.96900
C 24.96900 33.88650 26.75250
C 26.75250 32.10300 26.75250
C 26.75250 33.88650 24.96900
C 25.86075 32.99475 25.86075
C 25.86075 34.77825 27.64425
C 27.64425 32.99475 27.64425
C 27.64425 34.77825 25.86075
C 24.96900 32.10300 28.53600
C 24.96900 33.88650 30.31950
C 26.75250 32.10300 30.31950
C 26.75250 33.88650 28.53600
C 25.86075 32.99475 29.42775
C 25.86075 34.77825 31.21125
C 27.64425 32.99475 31.21125
C 27.64425 34.77825 29.42775
C 24.96900 32.10300 32.10300
C 24.96900 33.88650 33.88650
C 26.75250 32.10300 33.88650
C 26.75250 33.88650 32.10300
C 25.86075 32.99475 32.99475
C 25.86075 34.77825 34.77825
C 27.64425 32.99475 34.77825
C 27.64425 34.77825 32.99475
C 28.53600 17.83500 17.83500
C 28.53600 19.61850 19.61850
C 30.31950 17.83500 19.61850
C 30.31950 19.61850 17.83500
C 29.42775 18.72675 18.72675
C 29.42775 20.51025 20.51025
C 31.21125 18.72675 20.51025
C 31.21125 20.51025 18.72675
C 28.53600 17.83500 21.40200
C 28.53600 19.61850 23.18550
C 30.31950 17.83500 23.18550
C 30.31950 19.61850 21.40200
C 29.42775 18.72675 22.29375
C 29.42775 20.51025 24.07725
C 31.21125 18.72675 24.07725
C 31.21125 20.51025 22.29375
C 28.53600 17.83500 24.96900
C 28.53600 19.61850 26.75250
C 30.31950 17.83500 26.75250
C 30.31950 19.61850 24.96900
C 29.42775 18.72675 25.86075
C 29.42775 20.51025 27.64425
C 31.21125 18.72675 27.64425
C 31.21125 20.51025 25.86075
C 28.53600 17.83500 28.53600
C 28.53600 19.61850 30.31950
C 30.31950 17.83500 30.31950
C 30.31950 19.61850 28.53600
C 29.42775 18.72675 29.42775
C 29.42775 20.51025 31.21125
C 31.21125 18.72675 31.21125
C 31.21125 20.51025 29.42775
C 28.53600 17.83500 32.10300
C 28.53600 19.61850 33.88650
C 30.31950 17.83500 33.88650
C 30.31950 19.61850 32.10300
C 29.42775 18.72675 32.99475
C 29.42775 20.51025 34.77825
C 31.21125 18.72675 34.77825
C 31.21125 20.51025 32.99475
C 28.53600 21.40200 17.83500
C 28.53600 23.18550 19.61850
C 30.31950 21.40200 19.61850
C 30.31950 23.18550 17.83500
C 29.42775 22.29375 18.72675
C 29.42775 24.07725 20.51025
C 31.21125 22.29375 20.51025
C 31.21125 24.07725 18.72675
C 28.53600 21.40200 21.40200
C 28.53600 23.18550 23.18550
C 30.31950 21.40200 23.18550
C 30.31950 23.18550 21.40200
C 29.42775 22.29375 22.29375
C 29.42775 24.07725 24.07725
C 31.21125 22.29375 24.07725
C 31.21125 24.07725 22.29375
C 28.53600 21.40200 24.96900
C 28.53600 23.18550 26.75250
C 30.31950 21.40200 26.75250
C 30.31950 23.18550 24.96900
C 29.42775 22.29375 25.86075
C 29.42775 24.07725 27.64425
C 31.21125 22.29375 27.64425
C 31.21125 24.07725 25.86075
C 28.53600 21.40200 28.53600
C 28.53600 23.18550 30.31950
C 30.31950 21.40200 30.31950
C 30.31950 23.18550 28.53600
C 29.42775 22.29375 29.42775
C 29.42775 24.07725 31.21125
C 31.21125 22.29375 31.21125
C 31.21125 24.07725 29.42775
C 28.53600 21.40200 32.10300
C 28.53600 23.18550 33.88650
C 30.31950 21.40200 33.88650
C 30.31950 23.18550 32.10300
C 29.42775 22.29375 32.99475
C 29.42775 24.07725 34.77825
C 31.21125 22.29375 34.77825
C 31.21125 24.07725 32.99475
C 28.53600 24.96900 17.83500
C 28.53600 26.75250 19.61850
C 30.31950 24.96900 19.61850
C 30.31950 26.75250 17.83500
C 29.42775 25.86075 18.72675
C 29.42775 27.64425 20.51025
C 31.21125 25.86075 20.51025
C 31.21125 27.64425 18.72675
C 28.53600 24.96900 21.40200
C 28.53600 26.75250 23.18550
C 30.31950 24.96900 23.18550
C 30.31950 26.75250 21.40200
C 29.42775 25.86075 22.29375
C 29.42775 27.64425 24.07725
C 31.21125 25.86075 24.07725
C 31.21125 27.64425 22.29375
C 28.53600 24.96900 24.96900
C 28.53600 26.75250 26.75250
C 30.31950 24.96900 26.75250
C 30.31950 26.75250 24.96900
C 29.42775 25.86075 25.86075
C 29.42775 27.64425 27.64425
C 31.21125 25.86075 27.64425
C 31.21125 27.64425 25.86075
C 28.53600 24.96900 28.53600
C 28.53600 26.75250 30.31950
C 30.31950 24.96900 30.31950
C 30.31950 26.75250 28.53600
C 29.42775 25.86075 29.42775
C 29.42775 27.64425 31.21125
C 31.21125 25.86075 31.21125
C 31.21125 27.64425 29.42775
C 28.53600 24.96900 32.10300
C 28.53600 26.75250 33.88650
C 30.31950 24.96900 33.88650
C 30.31950 26.75250 32.10300
C 29.42775 25.86075 32.99475
C 29.42775 27.64425 34.77825
C 31.21125 25.86075 34.77825
C 31.21125 27.64425 32.99475
C 28.53600 28.53600 17.83500
C 28.53600 30.31950 19.61850
C 30.31950 28.53600 19.61850
C 30.31950 30.31950 17.83500
C 29.42775 29.42775 18.72675
C 29.42775 31.21125 20.51025
C 31.21125 29.42775 20.51025
C 31.21125 31.21125 18.72675
C 28.53600 28.53600 21.40200
C 28.53600 30.31950 23.18550
C 30.31950 28.53600 23.18550
C 30.31950 30.31950 21.40200
C 29.42775 29.42775 22.29375
C 29.42775 31.21125 24.07725
C 31.21125 29.42775 24.07725
C 31.21125 31.21125 22.29375
C 28.53600 28.53600 24.96900
C 28.53600 30.31950 26.75250
C 30.31950 28.53600 26.75250
C 30.31950 30.31950 24.96900
C 29.42775 29.42775 25.86075
C 29.42775 31.21125 27.64425
C 31.21125 29.42775 27.64425
C 31.21125 31.21125 25.86075
C 28.53600 28.53600 28.53600
C 28.53600 30.31950 30.31950
C 30.31950 28.53600 30.31950
C 30.31950 30.31950 28.53600
C 29.42775 29.42775 29.42775
C 29.42775 31.21125 31.21125
C 31.21125 29.42775 31.21125
C 31.21125 31.21125 29.42775
C 28.53600 28.53600 32.10300
C 28.53600 30.31950 33.88650
C 30.31950 28.53600 33.88650
C 30.31950 30.31950 32.10300
C 29.42775 29.42775 32.99475
C 29.42775 31.21125 34.77825
C 31.21125 29.42775 34.77825
C 31.21125 31.21125 32.99475
C 28.53600 32.10300 17.83500
C 28.53600 33.88650 19.61850
C 30.31950 32.10300 19.61850
C 30.31950 33.88650 17.83500
C 29.42775 32.99475 18.72675
C 29.42775 34.77825 20.51025
C 31.21125 32.99475 20.51025
C 31.21125 34.77825 18.72675
C 28.53600 32.10300 21.40200
C 28.53600 33.88650 23.18550
C 30.31950 32.10300 23.18550
C 30.31950 33.88650 21.40200
C 29.42775 32.99475 22.29375
C 29.42775 34.77825 24.07725
C 31.21125 32.99475 24.07725
C 31.21125 34.77825 22.29375
C 28.53600 32.10300 24.96900
C 28.53600 33.88650 26.75250
C 30.31950 32.10300 26.75250
C 30.31950 33.88650 24.96900
C 29.42775 32.99475 25.86075
C 29.42775 34.77825 27.64425
C 31.21125 32.99475 27.64425
C 31.21125 34.77825 25.86075
C 28.53600 32.10300 28.53600
C 28.53600 33.88650 30.31950
C 30.31950 32.10300 30.31950
C 30.31950 33.88650 28.53600
C 29.42775 32.99475 29.42775
C 29.42775 34.77825 31.21125
C 31.21125 32.99475 31.21125
C 31.21125 34.77825 29.42775
C 28.53600 32.10300 32.10300
C 28.53600 33.88650 33.88650
C 30.31950 32.10300 33.88650
C 30.31950 33.88650 32.10300
C 29.42775 32.99475 32.99475
C 29.42775 34.77825 34.77825
C 31.21125 32.99475 34.77825
C 31.21125 34.77825 32.99475
C 32.10300 17.83500 17.83500
C 32.10300 19.61850 19.61850
C 33.88650 17.83500 19.61850
C 33.88650 19.61850 17.83500
C 32.99475 18.72675 18.72675
C 32.99475 20.51025 20.51025
C 34.77825 18.72675 20.51025
C 34.77825 20.51025 18.72675
C 32.10300 17.83500 21.40200
C 32.10300 19.61850 23.18550
C 33.88650 17.83500 23.18550
C 33.88650 19.61850 21.40200
C 32.99475 18.72675 22.29375
C 32.99475 20.51025 24.07725
C 34.77825 18.72675 24.07725
C 34.77825 20.51025 22.29375
C 32.10300 17.83500 24.96900
C 32.10300 19.61850 26.75250
C 33.88650 17.83500 26.75250
C 33.88650 19.61850 24.96900
C 32.99475 18.72675 25.86075
C 32.99475 20.51025 27.64425
C 34.77825 18.72675 27.64425
C 34.77825 20.51025 25.86075
C 32.10300 17.83500 28.53600
C 32.10300 19.61850 30.31950
C 33.88650 17.83500 30.31950
C 33.88650 19.61850 28.53600
C 32.99475 18.72675 29.42775
C 32.99475 20.51025 31.21125
C 34.77825 18.72675 31.21125
C 34.77825 20.51025 29.42775
C 32.10300 17.83500 32.10300
C 32.10300 19.61850 33.88650
C 33.88650 17.83500 33.88650
C 33.88650 19.61850 32.10300
C 32.99475 18.72675 32.99475
C 32.99475 20.51025 34.77825
C 34.77825 18.72675 34.77825
C 34.77825 20.51025 32.99475
C 32.10300 21.40200 17.83500
C 32.10300 23.18550 19.61850
C 33.88650 21.40200 19.61850
C 33.88650 23.18550 17.83500
C 32.99475 22.29375 18.72675
C 32.99475 24.07725 20.51025
C 34.77825 22.29375 20.51025
C 34.77825 24.07725 18.72675
C 32.10300 21.40200 21.40200
C 32.10300 23.18550 23.18550
C 33.88650 21.40200 23.18550
C 33.88650 23.18550 21.40200
C 32.99475 22.29375 22.29375
C 32.99475 24.07725 24.07725
C 34.77825 22.29375 24.07725
C 34.77825 24.07725 22.29375
C 32.10300 21.40200 24.96900
C 32.10300 23.18550 26.75250
C 33.88650 21.40200 26.75250
C 33.88650 23.18550 24.96900
C 32.99475 22.29375 25.86075
C 32.99475 24.07725 27.64425
C 34.77825 22.29375 27.64425
C 34.77825 24.07725 25.86075
C 32.10300 21.40200 28.53600
C 32.10300 23.18550 30.31950
C 33.88650 21.40200 30.31950
C 33.88650 23.18550 28.53600
C 32.99475 22.29375 29.42775
C 32.99475 24.07725 31.21125
C 34.77825 22.29375 31.21125
C 34.77825 24.07725 29.42775
C 32.10300 21.40200 32.10300
C 32.10300 23.18550 33.88650
C 33.88650 21.40200 33.88650
C 33.88650 23.18550 32.10300
C 32.99475 22.29375 32.99475
C 32.99475 24.07725 34.77825
C 34.77825 22.29375 34.77825
C 34.77825 24.07725 32.99475
C 32.10300 24.96900 17.83500
C 32.10300 26.75250 19.61850
C 33.88650 24.96900 19.61850
C 33.88650 26.75250 17.83500
C 32.99475 25.86075 18.72675
C 32.99475 27.64425 20.51025
C 34.77825 25.86075 20.51025
C 34.77825 27.64425 18.72675
C 32.10300 24.96900 21.40200
C 32.10300 26.75250 23.18550
C 33.88650 24.96900 23.18550
C 33.88650 26.75250 21.40200
C 32.99475 25.86075 22.29375
C 32.99475 27.64425 24.07725
C 34.77825 25.86075 24.07725
C 34.77825 27.64425 22.29375
C 32.10300 24.96900 24.96900
C 32.10300 26.75250 26.75250
C 33.88650 24.96900 26.75250
C 33.88650 26.75250 24.96900
C 32.99475 25.86075 25.86075
C 32.99475 27.64425 27.64425
C 34.77825 25.86075 27.64425
C 34.77825 27.64425 25.86075
C 32.10300 24.96900 28.53600
C 32.10300 26.75250 30.31950
C 33.88650 24.96900 30.31950
C 33.88650 26.75250 28.53600
C 32.99475 25.86075 29.42775
C 32.99475 27.64425 31.21125
C 34.77825 25.86075 31.21125
C 34.77825 27.64425 29.42775
C 32.10300 24.96900 32.10300
C 32.10300 26.75250 33.88650
C 33.88650 24.96900 33.88650
C 33.88650 26.75250 32.10300
C 32.99475 25.86075 32.99475
C 32.99475 27.64425 34.77825
C 34.77825 25.86075 34.77825
C 34.77825 27.64425 32.99475
C 32.10300 28.53600 17.83500
C 32.10300 30.31950 19.61850
C 33.88650 28.53600 19.61850
C 33.88650 30.31950 17.83500
C 32.99475 29.42775 18.72675
C 32.99475 31.21125 20.51025
C 34.77825 29.42775 20.51025
C 34.77825 31.21125 18.72675
C 32.10300 28.53600 21.40200
C 32.10300 30.31950 23.18550
C 33.88650 28.53600 23.18550
C 33.88650 30.31950 21.40200
C 32.99475 29.42775 22.29375
C 32.99475 31.21125 24.07725
C 34.77825 29.42775 24.07725
C 34.77825 31.21125 22.29375
C 32.10300 28.53600 24.96900
C 32.10300 30.31950 26.75250
C 33.88650 28.53600 26.75250
C 33.88650 30.31950 24.96900
C 32.99475 29.42775 25.86075
C 32.99475 31.21125 27.64425
C 34.77825 29.42775 27.64425
C 34.77825 31.21125 25.86075
C 32.10300 28.53600 28.53600
C 32.10300 30.31950 30.31950
C 33.88650 28.53600 30.31950
C 33.88650 30.31950 28.53600
C 32.99475 29.42775 29.42775
C 32.99475 31.21125 31.21125
C 34.77825 29.42775 31.21125
C 34.77825 31.21125 29.42775
C 32.10300 28.53600 32.10300
C 32.10300 30.31950 33.88650
C 33.88650 28.53600 33.88650
C 33.88650 30.31950 32.10300
C 32.99475 29.42775 32.99475
C 32.99475 31.21125 34.77825
C 34.77825 29.42775 34.77825
C 34.77825 31.21125 32.99475
C 32.10300 32.10300 17.83500
C 32.10300 33.88650 19.61850
C 33.88650 32.10300 19.61850
C 33.88650 33.88650 17.83500
C 32.99475 32.99475 18.72675
C 32.99475 34.77825 20.51025
C 34.77825 32.99475 20.51025
C 34.77825 34.77825 18.72675
C 32.10300 32.10300 21.40200
C 32.10300 33.88650 23.18550
C 33.88650 32.10300 23.18550
C 33.88650 33.88650 21.40200
C 32.99475 32.99475 22.29375
C 32.99475 34.77825 24.07725
C 34.77825 32.99475 24.07725
C 34.77825 34.77825 22.29375
C 32.10300 32.10300 24.96900
C 32.10300 33.88650 26.75250
C 33.88650 32.10300 26.75250
C 33.88650 33.88650 24.96900
C 32.99475 32.99475 25.86075
C 32.99475 34.77825 27.64425
C 34.77825 32.99475 27.64425
C 34.77825 34.77825 25.86075
C 32.10300 32.10300 28.53600
C 32.10300 33.88650 30.31950
C 33.88650 32.10300 30.31950
C 33.88650 33.88650 28.53600
C 32.99475 32.99475 29.42775
C 32.99475 34.77825 31.21125
C 34.77825 32.99475 31.21125
C 34.77825 34.77825 29.42775
C 32.10300 32.10300 32.10300
C 32.10300 33.88650 33.88650
C 33.88650 32.10300 33.88650
C 33.88650 33.88650 32.10300
C 32.99475 32.99475 32.99475
C 32.99475 34.77825 34.77825
C 34.77825 32.99475 34.77825
C 34.77825 34.77825 32.99475
