127 

Ni    2.09001   2.09001   0.00000   0.014811171445825   0.014811171695143   0.000505863771285
Ni    4.18002   4.18002   0.00000   0.000309373203656   0.000309373489087   0.000309139370259
Ni    6.27004   6.27004   0.00000  -0.014185699311932  -0.014185699059204   0.000116987279506
Ni    2.09001  -0.00000   2.09001   0.016819231348365   0.000565855137140   0.014047325959032
Ni    4.18002   2.09001   2.09001   0.001762743222360   0.000712389803925   0.000732009882010
Ni    6.27004   4.18002   2.09001   0.000258808461630  -0.000930943927782   0.000475441796321
Ni    8.36005   6.27004   2.09001   0.000279987840490  -0.017590348808548   0.015420345629645
Ni    4.18002   0.00000   4.18002   0.000309370977047   0.000309389339774   0.000309167991895
Ni    6.27004   2.09001   4.18002   0.000241929668749   0.000483114978599  -0.000866189352065
Ni    8.36005   4.18002   4.18002   0.000310441021489   0.000310431299286   0.000310222563423
Ni   10.45006   6.27004   4.18002   0.000380876983490   0.000141249248054   0.001490020825791
Ni    6.27004   0.00000   6.27004  -0.016193787786364   0.000056865349953  -0.013422268270412
Ni    8.36005   2.09001   6.27004   0.000334914057625   0.018206375175032  -0.014804810992009
Ni   10.45006   4.18002   6.27004   0.000363922042594   0.001555216551118   0.000148556586342
Ni   12.54007   6.27004   6.27004  -0.001140506761879  -0.000088284439924  -0.000108310887593
Ni    0.00000   2.09001   2.09001   0.000565854845226   0.016819231649986   0.014047326005005
Ni    2.09001   4.18002   2.09001   0.000712389493966   0.001762743525641   0.000732009886223
Ni    4.18002   6.27004   2.09001  -0.000930944229156   0.000258808776942   0.000475441800379
Ni    6.27004   8.36005   2.09001  -0.017590349123255   0.000279988113910   0.015420345656084
Ni    2.09001   2.09001   4.18002   0.000768662763946   0.000768663073818   0.001699386065380
Ni    4.18002   4.18002   4.18002   0.000352107018616   0.000352107310401   0.000349975294001
Ni    6.27004   6.27004   4.18002  -0.000029092551058  -0.000029092239232   0.001435483626432
Ni    8.36005   8.36005   4.18002   0.000187548394843   0.000187548691421   0.008759298451037
Ni    4.18002   2.09001   6.27004  -0.000863153105421   0.000448855191853   0.000235975342038
Ni    6.27004   4.18002   6.27004   0.000054534324375   0.001430939842650   0.000013818150768
Ni    8.36005   6.27004   6.27004   0.000279228865244   0.001079145757738   0.001161614109758
Ni   10.45006   8.36005   6.27004  -0.000685283694250   0.000277517998116   0.001296949361728
Ni    6.27004   2.09001   8.36005  -0.015518647652008   0.016134605975565   0.000306683969806
Ni    8.36005   4.18002   8.36005   0.000222340175716   0.009245090113459   0.000243171337644
Ni   10.45006   6.27004   8.36005  -0.000735138860860   0.001357906990275   0.000310558243917
Ni   12.54007   8.36005   8.36005  -0.008617394594474   0.000403656604362   0.000382226525928
Ni    0.00000   4.18002   4.18002   0.000309389047679   0.000309371278933   0.000309167997514
Ni    2.09001   6.27004   4.18002   0.000483114660188   0.000241929995620  -0.000866189343625
Ni    4.18002   8.36005   4.18002   0.000310431006516   0.000310441322199   0.000310222591203
Ni    6.27004  10.45006   4.18002   0.000141248918109   0.000380877298580   0.001490020821964
Ni    2.09001   4.18002   6.27004   0.000448854879545  -0.000863152797178   0.000235975337396
Ni    4.18002   6.27004   6.27004   0.001430939534324   0.000054534657656   0.000013818167517
Ni    6.27004   8.36005   6.27004   0.001079145442502   0.000279229183510   0.001161614098406
Ni    8.36005  10.45006   6.27004   0.000277517687376  -0.000685283381299   0.001296949356409
Ni    4.18002   4.18002   8.36005   0.000310435399356   0.000310435703747   0.000310166048991
Ni    6.27004   6.27004   8.36005   0.001183237523949   0.001183237837349   0.000285103065749
Ni    8.36005   8.36005   8.36005   0.000311147063101   0.000311147319216   0.000310888985512
Ni   10.45006  10.45006   8.36005  -0.000556885439250  -0.000556885131775   0.000338680745388
Ni    6.27004   4.18002  10.45006   0.000175588830745   0.001487411433077   0.000386319337073
Ni    8.36005   6.27004  10.45006   0.000344106958118   0.001308069786654  -0.000674598859783
Ni   10.45006   8.36005  10.45006  -0.000452819562520   0.000345106271289  -0.000535689663433
Ni   12.54007  10.45006  10.45006  -0.000807346138621   0.000567819383291   0.000608119301043
Ni    0.00000   6.27004   6.27004   0.000056865057543  -0.016193787478624  -0.013422268219212
Ni    2.09001   8.36005   6.27004   0.018206374864210   0.000334914332623  -0.014804810968636
Ni    4.18002  10.45006   6.27004   0.001555216241305   0.000363922348860   0.000148556592875
Ni    6.27004  12.54007   6.27004  -0.000088284765366  -0.001140506453880  -0.000108310890953
Ni    2.09001   6.27004   8.36005   0.016134605631755  -0.015518647303973   0.000306683971340
Ni    4.18002   8.36005   8.36005   0.009245089777174   0.000222340471903   0.000243171326639
Ni    6.27004  10.45006   8.36005   0.001357906663968  -0.000735138542827   0.000310558242367
Ni    8.36005  12.54007   8.36005   0.000403656308400  -0.008617394258180   0.000382226536430
Ni    4.18002   6.27004  10.45006   0.001487411133726   0.000175589152132   0.000386319338985
Ni    6.27004   8.36005  10.45006   0.001308069469531   0.000344107267606  -0.000674598852912
Ni    8.36005  10.45006  10.45006   0.000345105955620  -0.000452819257150  -0.000535689655287
Ni   10.45006  12.54007  10.45006   0.000567819065803  -0.000807345835172   0.000608119291322
Ni    6.27004   6.27004  12.54007  -0.000144617748998  -0.000144617430757  -0.001077523484487
Ni    8.36005   8.36005  12.54007   0.000438441415748   0.000438441712179  -0.008131906304598
Ni   10.45006  10.45006  12.54007   0.000651532866341   0.000651533169288  -0.000812278459089
Ni   12.54007  12.54007  12.54007   0.000271407630939   0.000271407922695   0.000273119397750
O    2.09001   2.09001   2.09001  -0.002147461932978  -0.002147462227411  -0.001727703212086
O    4.18002   4.18002   2.09001  -0.000028566922641  -0.000028567229509  -0.000106683395123
O    6.27004   6.27004   2.09001   0.002288678624975   0.002288678337171  -0.001464894431745
O    8.36005   8.36005   2.09001  -0.001006824875152  -0.001006825090262  -0.033386588716032
O    4.18002   2.09001   4.18002  -0.000051839131840  -0.000130180202305  -0.000032557895587
O    6.27004   4.18002   4.18002   0.000209051831746   0.000122278024032   0.000108988749281
O    8.36005   6.27004   4.18002   0.000267955747296  -0.000503274889243  -0.002661232989560
O   10.45006   8.36005   4.18002   0.000980198840502  -0.000037157454210  -0.000881874514613
O    6.27004   2.09001   6.27004   0.002226232815461  -0.001862719615048   0.001826232146201
O    8.36005   4.18002   6.27004   0.000303924702564  -0.003156344296825  -0.000027676134598
O   10.45006   6.27004   6.27004   0.000749664244354  -0.000253358608740  -0.000193853139316
O   12.54007   8.36005   6.27004   0.001034223774135   0.000231589410870  -0.000157631671394
O    8.36005   2.09001   8.36005  -0.000981284014018  -0.040027628871748  -0.000865518514407
O   10.45006   4.18002   8.36005   0.000355590402168  -0.000974272288377  -0.000071531136858
O   12.54007   6.27004   8.36005   0.001104084508708  -0.000221669098661   0.000223951557023
O   14.63008   8.36005   8.36005   0.040165954588351   0.001173768771330   0.001058726541861
O    2.09001   4.18002   4.18002  -0.000130179898494  -0.000051839428405  -0.000032557897581
O    4.18002   6.27004   4.18002   0.000122278320809   0.000209051524275   0.000108988738975
O    6.27004   8.36005   4.18002  -0.000503274604287   0.000267955417703  -0.002661232995499
O    8.36005  10.45006   4.18002  -0.000037157143717   0.000980198536743  -0.000881874527469
O    4.18002   4.18002   6.27004   0.000101422931791   0.000101422614650   0.000189672139343
O    6.27004   6.27004   6.27004  -0.000406425350251  -0.000406425652096  -0.000363011897544
O    8.36005   8.36005   6.27004   0.001241387381128   0.001241387088520   0.001522471070425
O   10.45006  10.45006   6.27004   0.000345648023340   0.000345647723226  -0.000533481275387
O    6.27004   4.18002   8.36005  -0.000116613042583  -0.002650495673669   0.000273559803435
O    8.36005   6.27004   8.36005   0.000939967036524   0.001674612050384   0.000955324745118
O   10.45006   8.36005   8.36005  -0.001542852138387  -0.000788716814749  -0.000803640480848
O   12.54007  10.45006   8.36005   0.002779686246810   0.000252183505223  -0.000117981352744
O    8.36005   4.18002  10.45006  -0.000079702377017  -0.000904359020189   0.000291894488971
O   10.45006   6.27004  10.45006   0.000388524255221  -0.000616446385202   0.000329395661274
O   12.54007   8.36005  10.45006   0.003285562740696  -0.000148801880960   0.000163612575847
O   14.63008  10.45006  10.45006   0.002002075675307  -0.002094384830126  -0.001694626627689
O    2.09001   6.27004   6.27004  -0.001862719286698   0.002226232483818   0.001826232123802
O    4.18002   8.36005   6.27004  -0.003156343973413   0.000303924399942  -0.000027676151246
O    6.27004  10.45006   6.27004  -0.000253358286664   0.000749663930090  -0.000193853123841
O    8.36005  12.54007   6.27004   0.000231589713329   0.001034223449433  -0.000157631666274
O    4.18002   6.27004   8.36005  -0.002650495356363  -0.000116613335426   0.000273559804686
O    6.27004   8.36005   8.36005   0.001674612352328   0.000939966735016   0.000955324743471
O    8.36005  10.45006   8.36005  -0.000788716504228  -0.001542852444797  -0.000803640476547
O   10.45006  12.54007   8.36005   0.000252183793388   0.002779685927986  -0.000117981355545
O    6.27004   6.27004  10.45006  -0.000210468438269  -0.000210468740313   0.000667024297955
O    8.36005   8.36005  10.45006  -0.001090136865811  -0.001090137155719  -0.001390381420712
O   10.45006  10.45006  10.45006   0.000540681258609   0.000540680956515   0.000497623697188
O   12.54007  12.54007  10.45006   0.000031564863669   0.000031564547719  -0.000054830828387
O    8.36005   6.27004  12.54007   0.000189151162493  -0.000846225763206   0.001012016992731
O   10.45006   8.36005  12.54007   0.000638833625928  -0.000112986497818   0.002790754235706
O   12.54007  10.45006  12.54007   0.000010717509681  -0.000074557789135   0.000024355354138
O   14.63008  12.54007  12.54007   0.000267205106539   0.000184844895339   0.000165914346726
O    2.09001   8.36005   8.36005  -0.040027628611817  -0.000981284306590  -0.000865518507791
O    4.18002  10.45006   8.36005  -0.000974271977370   0.000355590126794  -0.000071531132919
O    6.27004  12.54007   8.36005  -0.000221668818050   0.001104084198629   0.000223951555144
O    8.36005  14.63008   8.36005   0.001173769053514   0.040165954333524   0.001058726529782
O    4.18002   8.36005  10.45006  -0.000904358699320  -0.000079702686161   0.000291894503847
O    6.27004  10.45006  10.45006  -0.000616446068656   0.000388523943426   0.000329395643897
O    8.36005  12.54007  10.45006  -0.000148801572407   0.003285562421595   0.000163612573265
O   10.45006  14.63008  10.45006  -0.002094384507681   0.002002075344546  -0.001694626602958
O    6.27004   8.36005  12.54007  -0.000846225479351   0.000189150831803   0.001012017003633
O    8.36005  10.45006  12.54007  -0.000112986189131   0.000638833322387   0.002790754240075
O   10.45006  12.54007  12.54007  -0.000074557483090   0.000010717212155   0.000024355362439
O   12.54007  14.63008  12.54007   0.000184845191261   0.000267204801122   0.000165914346781
O    8.36005   8.36005  14.63008   0.001199717627102   0.001199717409670   0.033525362580147
O   10.45006  10.45006  14.63008  -0.002156757427003  -0.002156757713701   0.001605239548347
O   12.54007  12.54007  14.63008   0.000161576917521   0.000161576609296   0.000244087339335
O   14.63008  14.63008  14.63008   0.002286839683653   0.002286839389469   0.001868098803598
