3429

Ni -14.63008 -14.63008 -16.72010
Ni -12.54007 -12.54007 -16.72010
Ni -10.45006 -10.45006 -16.72010
Ni -14.63008 -16.72010 -14.63008
Ni -12.54007 -14.63008 -14.63008
Ni -10.45006 -12.54007 -14.63008
Ni -8.36005 -10.45006 -14.63008
Ni -12.54007 -16.72010 -12.54007
Ni -10.45006 -14.63008 -12.54007
Ni -8.36005 -12.54007 -12.54007
Ni -6.27004 -10.45006 -12.54007
Ni -10.45006 -16.72010 -10.45006
Ni -8.36005 -14.63008 -10.45006
Ni -6.27004 -12.54007 -10.45006
Ni -4.18002 -10.45006 -10.45006
Ni -16.72010 -14.63008 -14.63008
Ni -14.63008 -12.54007 -14.63008
Ni -12.54007 -10.45006 -14.63008
Ni -10.45006 -8.36005 -14.63008
Ni -14.63008 -14.63008 -12.54007
Ni -12.54007 -12.54007 -12.54007
Ni -10.45006 -10.45006 -12.54007
Ni -8.36005 -8.36005 -12.54007
Ni -12.54007 -14.63008 -10.45006
Ni -10.45006 -12.54007 -10.45006
Ni -8.36005 -10.45006 -10.45006
Ni -6.27004 -8.36005 -10.45006
Ni -10.45006 -14.63008 -8.36005
Ni -8.36005 -12.54007 -8.36005
Ni -6.27004 -10.45006 -8.36005
Ni -4.18002 -8.36005 -8.36005
Ni -16.72010 -12.54007 -12.54007
Ni -14.63008 -10.45006 -12.54007
Ni -12.54007 -8.36005 -12.54007
Ni -10.45006 -6.27004 -12.54007
Ni -14.63008 -12.54007 -10.45006
Ni -12.54007 -10.45006 -10.45006
Ni -10.45006 -8.36005 -10.45006
Ni -8.36005 -6.27004 -10.45006
Ni -12.54007 -12.54007 -8.36005
Ni -10.45006 -10.45006 -8.36005
Ni -8.36005 -8.36005 -8.36005
Ni -6.27004 -6.27004 -8.36005
Ni -10.45006 -12.54007 -6.27004
Ni -8.36005 -10.45006 -6.27004
Ni -6.27004 -8.36005 -6.27004
Ni -4.18002 -6.27004 -6.27004
Ni -16.72010 -10.45006 -10.45006
Ni -14.63008 -8.36005 -10.45006
Ni -12.54007 -6.27004 -10.45006
Ni -10.45006 -4.18002 -10.45006
Ni -14.63008 -10.45006 -8.36005
Ni -12.54007 -8.36005 -8.36005
Ni -10.45006 -6.27004 -8.36005
Ni -8.36005 -4.18002 -8.36005
Ni -12.54007 -10.45006 -6.27004
Ni -10.45006 -8.36005 -6.27004
Ni -8.36005 -6.27004 -6.27004
Ni -6.27004 -4.18002 -6.27004
Ni -10.45006 -10.45006 -4.18002
Ni -8.36005 -8.36005 -4.18002
Ni -6.27004 -6.27004 -4.18002
Ni -4.18002 -4.18002 -4.18002
O -14.63008 -14.63008 -14.63008
O -12.54007 -12.54007 -14.63008
O -10.45006 -10.45006 -14.63008
O -8.36005 -8.36005 -14.63008
O -12.54007 -14.63008 -12.54007
O -10.45006 -12.54007 -12.54007
O -8.36005 -10.45006 -12.54007
O -6.27004 -8.36005 -12.54007
O -10.45006 -14.63008 -10.45006
O -8.36005 -12.54007 -10.45006
O -6.27004 -10.45006 -10.45006
O -4.18002 -8.36005 -10.45006
O -8.36005 -14.63008 -8.36005
O -6.27004 -12.54007 -8.36005
O -4.18002 -10.45006 -8.36005
O -2.09001 -8.36005 -8.36005
O -14.63008 -12.54007 -12.54007
O -12.54007 -10.45006 -12.54007
O -10.45006 -8.36005 -12.54007
O -8.36005 -6.27004 -12.54007
O -12.54007 -12.54007 -10.45006
O -10.45006 -10.45006 -10.45006
O -8.36005 -8.36005 -10.45006
O -6.27004 -6.27004 -10.45006
O -10.45006 -12.54007 -8.36005
O -8.36005 -10.45006 -8.36005
O -6.27004 -8.36005 -8.36005
O -4.18002 -6.27004 -8.36005
O -8.36005 -12.54007 -6.27004
O -6.27004 -10.45006 -6.27004
O -4.18002 -8.36005 -6.27004
O -2.09001 -6.27004 -6.27004
O -14.63008 -10.45006 -10.45006
O -12.54007 -8.36005 -10.45006
O -10.45006 -6.27004 -10.45006
O -8.36005 -4.18002 -10.45006
O -12.54007 -10.45006 -8.36005
O -10.45006 -8.36005 -8.36005
O -8.36005 -6.27004 -8.36005
O -6.27004 -4.18002 -8.36005
O -10.45006 -10.45006 -6.27004
O -8.36005 -8.36005 -6.27004
O -6.27004 -6.27004 -6.27004
O -4.18002 -4.18002 -6.27004
O -8.36005 -10.45006 -4.18002
O -6.27004 -8.36005 -4.18002
O -4.18002 -6.27004 -4.18002
O -2.09001 -4.18002 -4.18002
O -14.63008 -8.36005 -8.36005
O -12.54007 -6.27004 -8.36005
O -10.45006 -4.18002 -8.36005
O -8.36005 -2.09001 -8.36005
O -12.54007 -8.36005 -6.27004
O -10.45006 -6.27004 -6.27004
O -8.36005 -4.18002 -6.27004
O -6.27004 -2.09001 -6.27004
O -10.45006 -8.36005 -4.18002
O -8.36005 -6.27004 -4.18002
O -6.27004 -4.18002 -4.18002
O -4.18002 -2.09001 -4.18002
O -8.36005 -8.36005 -2.09001
O -6.27004 -6.27004 -2.09001
O -4.18002 -4.18002 -2.09001
O -2.09001 -2.09001 -2.09001
Ni -14.63008 -6.27004 -8.36005
Ni -12.54007 -4.18002 -8.36005
Ni -10.45006 -2.09001 -8.36005
Ni -14.63008 -8.36005 -6.27004
Ni -12.54007 -6.27004 -6.27004
Ni -10.45006 -4.18002 -6.27004
Ni -8.36005 -2.09001 -6.27004
Ni -12.54007 -8.36005 -4.18002
Ni -10.45006 -6.27004 -4.18002
Ni -8.36005 -4.18002 -4.18002
Ni -6.27004 -2.09001 -4.18002
Ni -10.45006 -8.36005 -2.09001
Ni -8.36005 -6.27004 -2.09001
Ni -6.27004 -4.18002 -2.09001
Ni -4.18002 -2.09001 -2.09001
Ni -16.72010 -6.27004 -6.27004
Ni -14.63008 -4.18002 -6.27004
Ni -12.54007 -2.09001 -6.27004
Ni -10.45006  0.00000 -6.27004
Ni -14.63008 -6.27004 -4.18002
Ni -12.54007 -4.18002 -4.18002
Ni -10.45006 -2.09001 -4.18002
Ni -8.36005 -0.00000 -4.18002
Ni -12.54007 -6.27004 -2.09001
Ni -10.45006 -4.18002 -2.09001
Ni -8.36005 -2.09001 -2.09001
Ni -6.27004 -0.00000 -2.09001
Ni -10.45006 -6.27004  0.00000
Ni -8.36005 -4.18002 -0.00000
Ni -6.27004 -2.09001 -0.00000
Ni -4.18002  0.00000  0.00000
Ni -16.72010 -4.18002 -4.18002
Ni -14.63008 -2.09001 -4.18002
Ni -12.54007  0.00000 -4.18002
Ni -10.45006  2.09001 -4.18002
Ni -14.63008 -4.18002 -2.09001
Ni -12.54007 -2.09001 -2.09001
Ni -10.45006  0.00000 -2.09001
Ni -8.36005  2.09001 -2.09001
Ni -12.54007 -4.18002  0.00000
Ni -10.45006 -2.09001  0.00000
Ni -8.36005  0.00000  0.00000
Ni -6.27004  2.09001  0.00000
Ni -10.45006 -4.18002  2.09001
Ni -8.36005 -2.09001  2.09001
Ni -6.27004  0.00000  2.09001
Ni -4.18002  2.09001  2.09001
Ni -16.72010 -2.09001 -2.09001
Ni -14.63008  0.00000 -2.09001
Ni -12.54007  2.09001 -2.09001
Ni -10.45006  4.18002 -2.09001
Ni -14.63008 -2.09001  0.00000
Ni -12.54007  0.00000  0.00000
Ni -10.45006  2.09001  0.00000
Ni -8.36005  4.18002  0.00000
Ni -12.54007 -2.09001  2.09001
Ni -10.45006  0.00000  2.09001
Ni -8.36005  2.09001  2.09001
Ni -6.27004  4.18002  2.09001
Ni -10.45006 -2.09001  4.18002
Ni -8.36005  0.00000  4.18002
Ni -6.27004  2.09001  4.18002
Ni -4.18002  4.18002  4.18002
O -14.63008 -6.27004 -6.27004
O -12.54007 -4.18002 -6.27004
O -10.45006 -2.09001 -6.27004
O -8.36005  0.00000 -6.27004
O -12.54007 -6.27004 -4.18002
O -10.45006 -4.18002 -4.18002
O -8.36005 -2.09001 -4.18002
O -6.27004  0.00000 -4.18002
O -10.45006 -6.27004 -2.09001
O -8.36005 -4.18002 -2.09001
O -6.27004 -2.09001 -2.09001
O -4.18002  0.00000 -2.09001
O -8.36005 -6.27004  0.00000
O -6.27004 -4.18002  0.00000
O -4.18002 -2.09001  0.00000
O -2.09001 -0.00000 -0.00000
O -14.63008 -4.18002 -4.18002
O -12.54007 -2.09001 -4.18002
O -10.45006  0.00000 -4.18002
O -8.36005  2.09001 -4.18002
O -12.54007 -4.18002 -2.09001
O -10.45006 -2.09001 -2.09001
O -8.36005  0.00000 -2.09001
O -6.27004  2.09001 -2.09001
O -10.45006 -4.18002  0.00000
O -8.36005 -2.09001  0.00000
O -6.27004  0.00000  0.00000
O -4.18002  2.09001  0.00000
O -8.36005 -4.18002  2.09001
O -6.27004 -2.09001  2.09001
O -4.18002  0.00000  2.09001
O -2.09001  2.09001  2.09001
O -14.63008 -2.09001 -2.09001
O -12.54007  0.00000 -2.09001
O -10.45006  2.09001 -2.09001
O -8.36005  4.18002 -2.09001
O -12.54007 -2.09001  0.00000
O -10.45006  0.00000  0.00000
O -8.36005  2.09001  0.00000
O -6.27004  4.18002  0.00000
O -10.45006 -2.09001  2.09001
O -8.36005  0.00000  2.09001
O -6.27004  2.09001  2.09001
O -4.18002  4.18002  2.09001
O -8.36005 -2.09001  4.18002
O -6.27004  0.00000  4.18002
O -4.18002  2.09001  4.18002
O -2.09001  4.18002  4.18002
O -14.63008  0.00000  0.00000
O -12.54007  2.09001  0.00000
O -10.45006  4.18002  0.00000
O -8.36005  6.27004  0.00000
O -12.54007  0.00000  2.09001
O -10.45006  2.09001  2.09001
O -8.36005  4.18002  2.09001
O -6.27004  6.27004  2.09001
O -10.45006  0.00000  4.18002
O -8.36005  2.09001  4.18002
O -6.27004  4.18002  4.18002
O -4.18002  6.27004  4.18002
O -8.36005  0.00000  6.27004
O -6.27004  2.09001  6.27004
O -4.18002  4.18002  6.27004
O -2.09001  6.27004  6.27004
Ni -14.63008  2.09001  0.00000
Ni -12.54007  4.18002  0.00000
Ni -10.45006  6.27004  0.00000
Ni -14.63008 -0.00000  2.09001
Ni -12.54007  2.09001  2.09001
Ni -10.45006  4.18002  2.09001
Ni -8.36005  6.27004  2.09001
Ni -12.54007  0.00000  4.18002
Ni -10.45006  2.09001  4.18002
Ni -8.36005  4.18002  4.18002
Ni -6.27004  6.27004  4.18002
Ni -10.45006  0.00000  6.27004
Ni -8.36005  2.09001  6.27004
Ni -6.27004  4.18002  6.27004
Ni -4.18002  6.27004  6.27004
Ni -16.72010  2.09001  2.09001
Ni -14.63008  4.18002  2.09001
Ni -12.54007  6.27004  2.09001
Ni -10.45006  8.36005  2.09001
Ni -14.63008  2.09001  4.18002
Ni -12.54007  4.18002  4.18002
Ni -10.45006  6.27004  4.18002
Ni -8.36005  8.36005  4.18002
Ni -12.54007  2.09001  6.27004
Ni -10.45006  4.18002  6.27004
Ni -8.36005  6.27004  6.27004
Ni -6.27004  8.36005  6.27004
Ni -10.45006  2.09001  8.36005
Ni -8.36005  4.18002  8.36005
Ni -6.27004  6.27004  8.36005
Ni -4.18002  8.36005  8.36005
Ni -16.72010  4.18002  4.18002
Ni -14.63008  6.27004  4.18002
Ni -12.54007  8.36005  4.18002
Ni -10.45006 10.45006  4.18002
Ni -14.63008  4.18002  6.27004
Ni -12.54007  6.27004  6.27004
Ni -10.45006  8.36005  6.27004
Ni -8.36005 10.45006  6.27004
Ni -12.54007  4.18002  8.36005
Ni -10.45006  6.27004  8.36005
Ni -8.36005  8.36005  8.36005
Ni -6.27004 10.45006  8.36005
Ni -10.45006  4.18002 10.45006
Ni -8.36005  6.27004 10.45006
Ni -6.27004  8.36005 10.45006
Ni -4.18002 10.45006 10.45006
Ni -16.72010  6.27004  6.27004
Ni -14.63008  8.36005  6.27004
Ni -12.54007 10.45006  6.27004
Ni -10.45006 12.54007  6.27004
Ni -14.63008  6.27004  8.36005
Ni -12.54007  8.36005  8.36005
Ni -10.45006 10.45006  8.36005
Ni -8.36005 12.54007  8.36005
Ni -12.54007  6.27004 10.45006
Ni -10.45006  8.36005 10.45006
Ni -8.36005 10.45006 10.45006
Ni -6.27004 12.54007 10.45006
Ni -10.45006  6.27004 12.54007
Ni -8.36005  8.36005 12.54007
Ni -6.27004 10.45006 12.54007
Ni -4.18002 12.54007 12.54007
O -14.63008  2.09001  2.09001
O -12.54007  4.18002  2.09001
O -10.45006  6.27004  2.09001
O -8.36005  8.36005  2.09001
O -12.54007  2.09001  4.18002
O -10.45006  4.18002  4.18002
O -8.36005  6.27004  4.18002
O -6.27004  8.36005  4.18002
O -10.45006  2.09001  6.27004
O -8.36005  4.18002  6.27004
O -6.27004  6.27004  6.27004
O -4.18002  8.36005  6.27004
O -8.36005  2.09001  8.36005
O -6.27004  4.18002  8.36005
O -4.18002  6.27004  8.36005
O -2.09001  8.36005  8.36005
O -14.63008  4.18002  4.18002
O -12.54007  6.27004  4.18002
O -10.45006  8.36005  4.18002
O -8.36005 10.45006  4.18002
O -12.54007  4.18002  6.27004
O -10.45006  6.27004  6.27004
O -8.36005  8.36005  6.27004
O -6.27004 10.45006  6.27004
O -10.45006  4.18002  8.36005
O -8.36005  6.27004  8.36005
O -6.27004  8.36005  8.36005
O -4.18002 10.45006  8.36005
O -8.36005  4.18002 10.45006
O -6.27004  6.27004 10.45006
O -4.18002  8.36005 10.45006
O -2.09001 10.45006 10.45006
O -14.63008  6.27004  6.27004
O -12.54007  8.36005  6.27004
O -10.45006 10.45006  6.27004
O -8.36005 12.54007  6.27004
O -12.54007  6.27004  8.36005
O -10.45006  8.36005  8.36005
O -8.36005 10.45006  8.36005
O -6.27004 12.54007  8.36005
O -10.45006  6.27004 10.45006
O -8.36005  8.36005 10.45006
O -6.27004 10.45006 10.45006
O -4.18002 12.54007 10.45006
O -8.36005  6.27004 12.54007
O -6.27004  8.36005 12.54007
O -4.18002 10.45006 12.54007
O -2.09001 12.54007 12.54007
O -14.63008  8.36005  8.36005
O -12.54007 10.45006  8.36005
O -10.45006 12.54007  8.36005
O -8.36005 14.63008  8.36005
O -12.54007  8.36005 10.45006
O -10.45006 10.45006 10.45006
O -8.36005 12.54007 10.45006
O -6.27004 14.63008 10.45006
O -10.45006  8.36005 12.54007
O -8.36005 10.45006 12.54007
O -6.27004 12.54007 12.54007
O -4.18002 14.63008 12.54007
O -8.36005  8.36005 14.63008
O -6.27004 10.45006 14.63008
O -4.18002 12.54007 14.63008
O -2.09001 14.63008 14.63008
Ni -6.27004 -14.63008 -8.36005
Ni -4.18002 -12.54007 -8.36005
Ni -2.09001 -10.45006 -8.36005
Ni -6.27004 -16.72010 -6.27004
Ni -4.18002 -14.63008 -6.27004
Ni -2.09001 -12.54007 -6.27004
Ni  0.00000 -10.45006 -6.27004
Ni -4.18002 -16.72010 -4.18002
Ni -2.09001 -14.63008 -4.18002
Ni  0.00000 -12.54007 -4.18002
Ni  2.09001 -10.45006 -4.18002
Ni -2.09001 -16.72010 -2.09001
Ni  0.00000 -14.63008 -2.09001
Ni  2.09001 -12.54007 -2.09001
Ni  4.18002 -10.45006 -2.09001
Ni -8.36005 -14.63008 -6.27004
Ni -6.27004 -12.54007 -6.27004
Ni -4.18002 -10.45006 -6.27004
Ni -2.09001 -8.36005 -6.27004
Ni -6.27004 -14.63008 -4.18002
Ni -4.18002 -12.54007 -4.18002
Ni -2.09001 -10.45006 -4.18002
Ni  0.00000 -8.36005 -4.18002
Ni -4.18002 -14.63008 -2.09001
Ni -2.09001 -12.54007 -2.09001
Ni  0.00000 -10.45006 -2.09001
Ni  2.09001 -8.36005 -2.09001
Ni -2.09001 -14.63008  0.00000
Ni  0.00000 -12.54007 -0.00000
Ni  2.09001 -10.45006 -0.00000
Ni  4.18002 -8.36005  0.00000
Ni -8.36005 -12.54007 -4.18002
Ni -6.27004 -10.45006 -4.18002
Ni -4.18002 -8.36005 -4.18002
Ni -2.09001 -6.27004 -4.18002
Ni -6.27004 -12.54007 -2.09001
Ni -4.18002 -10.45006 -2.09001
Ni -2.09001 -8.36005 -2.09001
Ni  0.00000 -6.27004 -2.09001
Ni -4.18002 -12.54007  0.00000
Ni -2.09001 -10.45006  0.00000
Ni  0.00000 -8.36005  0.00000
Ni  2.09001 -6.27004  0.00000
Ni -2.09001 -12.54007  2.09001
Ni  0.00000 -10.45006  2.09001
Ni  2.09001 -8.36005  2.09001
Ni  4.18002 -6.27004  2.09001
Ni -8.36005 -10.45006 -2.09001
Ni -6.27004 -8.36005 -2.09001
Ni -4.18002 -6.27004 -2.09001
Ni -2.09001 -4.18002 -2.09001
Ni -6.27004 -10.45006  0.00000
Ni -4.18002 -8.36005  0.00000
Ni -2.09001 -6.27004  0.00000
Ni  0.00000 -4.18002  0.00000
Ni -4.18002 -10.45006  2.09001
Ni -2.09001 -8.36005  2.09001
Ni  0.00000 -6.27004  2.09001
Ni  2.09001 -4.18002  2.09001
Ni -2.09001 -10.45006  4.18002
Ni  0.00000 -8.36005  4.18002
Ni  2.09001 -6.27004  4.18002
Ni  4.18002 -4.18002  4.18002
O -6.27004 -14.63008 -6.27004
O -4.18002 -12.54007 -6.27004
O -2.09001 -10.45006 -6.27004
O  0.00000 -8.36005 -6.27004
O -4.18002 -14.63008 -4.18002
O -2.09001 -12.54007 -4.18002
O  0.00000 -10.45006 -4.18002
O  2.09001 -8.36005 -4.18002
O -2.09001 -14.63008 -2.09001
O  0.00000 -12.54007 -2.09001
O  2.09001 -10.45006 -2.09001
O  4.18002 -8.36005 -2.09001
O  0.00000 -14.63008  0.00000
O  2.09001 -12.54007  0.00000
O  4.18002 -10.45006  0.00000
O  6.27004 -8.36005 -0.00000
O -6.27004 -12.54007 -4.18002
O -4.18002 -10.45006 -4.18002
O -2.09001 -8.36005 -4.18002
O  0.00000 -6.27004 -4.18002
O -4.18002 -12.54007 -2.09001
O -2.09001 -10.45006 -2.09001
O  0.00000 -8.36005 -2.09001
O  2.09001 -6.27004 -2.09001
O -2.09001 -12.54007  0.00000
O  0.00000 -10.45006  0.00000
O  2.09001 -8.36005  0.00000
O  4.18002 -6.27004  0.00000
O  0.00000 -12.54007  2.09001
O  2.09001 -10.45006  2.09001
O  4.18002 -8.36005  2.09001
O  6.27004 -6.27004  2.09001
O -6.27004 -10.45006 -2.09001
O -4.18002 -8.36005 -2.09001
O -2.09001 -6.27004 -2.09001
O  0.00000 -4.18002 -2.09001
O -4.18002 -10.45006  0.00000
O -2.09001 -8.36005  0.00000
O  0.00000 -6.27004  0.00000
O  2.09001 -4.18002  0.00000
O -2.09001 -10.45006  2.09001
O  0.00000 -8.36005  2.09001
O  2.09001 -6.27004  2.09001
O  4.18002 -4.18002  2.09001
O  0.00000 -10.45006  4.18002
O  2.09001 -8.36005  4.18002
O  4.18002 -6.27004  4.18002
O  6.27004 -4.18002  4.18002
O -6.27004 -8.36005  0.00000
O -4.18002 -6.27004  0.00000
O -2.09001 -4.18002  0.00000
O  0.00000 -2.09001  0.00000
O -4.18002 -8.36005  2.09001
O -2.09001 -6.27004  2.09001
O  0.00000 -4.18002  2.09001
O  2.09001 -2.09001  2.09001
O -2.09001 -8.36005  4.18002
O  0.00000 -6.27004  4.18002
O  2.09001 -4.18002  4.18002
O  4.18002 -2.09001  4.18002
O  0.00000 -8.36005  6.27004
O  2.09001 -6.27004  6.27004
O  4.18002 -4.18002  6.27004
O  6.27004 -2.09001  6.27004
Ni -6.27004 -6.27004  0.00000
Ni -4.18002 -4.18002  0.00000
Ni -2.09001 -2.09001  0.00000
Ni -6.27004 -8.36005  2.09001
Ni -4.18002 -6.27004  2.09001
Ni -2.09001 -4.18002  2.09001
Ni  0.00000 -2.09001  2.09001
Ni -4.18002 -8.36005  4.18002
Ni -2.09001 -6.27004  4.18002
Ni  0.00000 -4.18002  4.18002
Ni  2.09001 -2.09001  4.18002
Ni -2.09001 -8.36005  6.27004
Ni  0.00000 -6.27004  6.27004
Ni  2.09001 -4.18002  6.27004
Ni  4.18002 -2.09001  6.27004
Ni -8.36005 -6.27004  2.09001
Ni -6.27004 -4.18002  2.09001
Ni -4.18002 -2.09001  2.09001
Ni -2.09001  0.00000  2.09001
Ni -6.27004 -6.27004  4.18002
Ni -4.18002 -4.18002  4.18002
Ni -2.09001 -2.09001  4.18002
Ni  0.00000 -0.00000  4.18002
Ni -4.18002 -6.27004  6.27004
Ni -2.09001 -4.18002  6.27004
Ni  0.00000 -2.09001  6.27004
Ni  2.09001 -0.00000  6.27004
Ni -2.09001 -6.27004  8.36005
Ni  0.00000 -4.18002  8.36005
Ni  2.09001 -2.09001  8.36005
Ni  4.18002  0.00000  8.36005
Ni -8.36005 -4.18002  4.18002
Ni -6.27004 -2.09001  4.18002
Ni -4.18002  0.00000  4.18002
Ni -2.09001  2.09001  4.18002
Ni -6.27004 -4.18002  6.27004
Ni -4.18002 -2.09001  6.27004
Ni -2.09001  0.00000  6.27004
Ni  0.00000  2.09001  6.27004
Ni -4.18002 -4.18002  8.36005
Ni -2.09001 -2.09001  8.36005
Ni  0.00000  0.00000  8.36005
Ni  2.09001  2.09001  8.36005
Ni -2.09001 -4.18002 10.45006
Ni  0.00000 -2.09001 10.45006
Ni  2.09001  0.00000 10.45006
Ni  4.18002  2.09001 10.45006
Ni -8.36005 -2.09001  6.27004
Ni -6.27004  0.00000  6.27004
Ni -4.18002  2.09001  6.27004
Ni -2.09001  4.18002  6.27004
Ni -6.27004 -2.09001  8.36005
Ni -4.18002  0.00000  8.36005
Ni -2.09001  2.09001  8.36005
Ni  0.00000  4.18002  8.36005
Ni -4.18002 -2.09001 10.45006
Ni -2.09001  0.00000 10.45006
Ni  0.00000  2.09001 10.45006
Ni  2.09001  4.18002 10.45006
Ni -2.09001 -2.09001 12.54007
Ni  0.00000  0.00000 12.54007
Ni  2.09001  2.09001 12.54007
Ni  4.18002  4.18002 12.54007
O -6.27004 -6.27004  2.09001
O -4.18002 -4.18002  2.09001
O -2.09001 -2.09001  2.09001
O  0.00000  0.00000  2.09001
O -4.18002 -6.27004  4.18002
O -2.09001 -4.18002  4.18002
O  0.00000 -2.09001  4.18002
O  2.09001  0.00000  4.18002
O -2.09001 -6.27004  6.27004
O  0.00000 -4.18002  6.27004
O  2.09001 -2.09001  6.27004
O  4.18002  0.00000  6.27004
O  0.00000 -6.27004  8.36005
O  2.09001 -4.18002  8.36005
O  4.18002 -2.09001  8.36005
O  6.27004 -0.00000  8.36005
O -6.27004 -4.18002  4.18002
O -4.18002 -2.09001  4.18002
O -2.09001  0.00000  4.18002
O  0.00000  2.09001  4.18002
O -4.18002 -4.18002  6.27004
O -2.09001 -2.09001  6.27004
O  0.00000  0.00000  6.27004
O  2.09001  2.09001  6.27004
O -2.09001 -4.18002  8.36005
O  0.00000 -2.09001  8.36005
O  2.09001  0.00000  8.36005
O  4.18002  2.09001  8.36005
O  0.00000 -4.18002 10.45006
O  2.09001 -2.09001 10.45006
O  4.18002  0.00000 10.45006
O  6.27004  2.09001 10.45006
O -6.27004 -2.09001  6.27004
O -4.18002  0.00000  6.27004
O -2.09001  2.09001  6.27004
O  0.00000  4.18002  6.27004
O -4.18002 -2.09001  8.36005
O -2.09001  0.00000  8.36005
O  0.00000  2.09001  8.36005
O  2.09001  4.18002  8.36005
O -2.09001 -2.09001 10.45006
O  0.00000  0.00000 10.45006
O  2.09001  2.09001 10.45006
O  4.18002  4.18002 10.45006
O  0.00000 -2.09001 12.54007
O  2.09001  0.00000 12.54007
O  4.18002  2.09001 12.54007
O  6.27004  4.18002 12.54007
O -6.27004  0.00000  8.36005
O -4.18002  2.09001  8.36005
O -2.09001  4.18002  8.36005
O  0.00000  6.27004  8.36005
O -4.18002  0.00000 10.45006
O -2.09001  2.09001 10.45006
O  0.00000  4.18002 10.45006
O  2.09001  6.27004 10.45006
O -2.09001  0.00000 12.54007
O  0.00000  2.09001 12.54007
O  2.09001  4.18002 12.54007
O  4.18002  6.27004 12.54007
O  0.00000  0.00000 14.63008
O  2.09001  2.09001 14.63008
O  4.18002  4.18002 14.63008
O  6.27004  6.27004 14.63008
Ni -6.27004  2.09001  8.36005
Ni -4.18002  4.18002  8.36005
Ni -2.09001  6.27004  8.36005
Ni -6.27004 -0.00000 10.45006
Ni -4.18002  2.09001 10.45006
Ni -2.09001  4.18002 10.45006
Ni  0.00000  6.27004 10.45006
Ni -4.18002  0.00000 12.54007
Ni -2.09001  2.09001 12.54007
Ni  0.00000  4.18002 12.54007
Ni  2.09001  6.27004 12.54007
Ni -2.09001  0.00000 14.63008
Ni  0.00000  2.09001 14.63008
Ni  2.09001  4.18002 14.63008
Ni  4.18002  6.27004 14.63008
Ni -8.36005  2.09001 10.45006
Ni -6.27004  4.18002 10.45006
Ni -4.18002  6.27004 10.45006
Ni -2.09001  8.36005 10.45006
Ni -6.27004  2.09001 12.54007
Ni -4.18002  4.18002 12.54007
Ni -2.09001  6.27004 12.54007
Ni  0.00000  8.36005 12.54007
Ni -4.18002  2.09001 14.63008
Ni -2.09001  4.18002 14.63008
Ni  0.00000  6.27004 14.63008
Ni  2.09001  8.36005 14.63008
Ni -2.09001  2.09001 16.72010
Ni  0.00000  4.18002 16.72010
Ni  2.09001  6.27004 16.72010
Ni  4.18002  8.36005 16.72010
Ni -8.36005  4.18002 12.54007
Ni -6.27004  6.27004 12.54007
Ni -4.18002  8.36005 12.54007
Ni -2.09001 10.45006 12.54007
Ni -6.27004  4.18002 14.63008
Ni -4.18002  6.27004 14.63008
Ni -2.09001  8.36005 14.63008
Ni  0.00000 10.45006 14.63008
Ni -4.18002  4.18002 16.72010
Ni -2.09001  6.27004 16.72010
Ni  0.00000  8.36005 16.72010
Ni  2.09001 10.45006 16.72010
Ni -2.09001  4.18002 18.81011
Ni  0.00000  6.27004 18.81011
Ni  2.09001  8.36005 18.81011
Ni  4.18002 10.45006 18.81011
Ni -8.36005  6.27004 14.63008
Ni -6.27004  8.36005 14.63008
Ni -4.18002 10.45006 14.63008
Ni -2.09001 12.54007 14.63008
Ni -6.27004  6.27004 16.72010
Ni -4.18002  8.36005 16.72010
Ni -2.09001 10.45006 16.72010
Ni  0.00000 12.54007 16.72010
Ni -4.18002  6.27004 18.81011
Ni -2.09001  8.36005 18.81011
Ni  0.00000 10.45006 18.81011
Ni  2.09001 12.54007 18.81011
Ni -2.09001  6.27004 20.90012
Ni  0.00000  8.36005 20.90012
Ni  2.09001 10.45006 20.90012
Ni  4.18002 12.54007 20.90012
O -6.27004  2.09001 10.45006
O -4.18002  4.18002 10.45006
O -2.09001  6.27004 10.45006
O  0.00000  8.36005 10.45006
O -4.18002  2.09001 12.54007
O -2.09001  4.18002 12.54007
O  0.00000  6.27004 12.54007
O  2.09001  8.36005 12.54007
O -2.09001  2.09001 14.63008
O  0.00000  4.18002 14.63008
O  2.09001  6.27004 14.63008
O  4.18002  8.36005 14.63008
O  0.00000  2.09001 16.72010
O  2.09001  4.18002 16.72010
O  4.18002  6.27004 16.72010
O  6.27004  8.36005 16.72010
O -6.27004  4.18002 12.54007
O -4.18002  6.27004 12.54007
O -2.09001  8.36005 12.54007
O  0.00000 10.45006 12.54007
O -4.18002  4.18002 14.63008
O -2.09001  6.27004 14.63008
O  0.00000  8.36005 14.63008
O  2.09001 10.45006 14.63008
O -2.09001  4.18002 16.72010
O  0.00000  6.27004 16.72010
O  2.09001  8.36005 16.72010
O  4.18002 10.45006 16.72010
O  0.00000  4.18002 18.81011
O  2.09001  6.27004 18.81011
O  4.18002  8.36005 18.81011
O  6.27004 10.45006 18.81011
O -6.27004  6.27004 14.63008
O -4.18002  8.36005 14.63008
O -2.09001 10.45006 14.63008
O  0.00000 12.54007 14.63008
O -4.18002  6.27004 16.72010
O -2.09001  8.36005 16.72010
O  0.00000 10.45006 16.72010
O  2.09001 12.54007 16.72010
O -2.09001  6.27004 18.81011
O  0.00000  8.36005 18.81011
O  2.09001 10.45006 18.81011
O  4.18002 12.54007 18.81011
O  0.00000  6.27004 20.90012
O  2.09001  8.36005 20.90012
O  4.18002 10.45006 20.90012
O  6.27004 12.54007 20.90012
O -6.27004  8.36005 16.72010
O -4.18002 10.45006 16.72010
O -2.09001 12.54007 16.72010
O  0.00000 14.63008 16.72010
O -4.18002  8.36005 18.81011
O -2.09001 10.45006 18.81011
O  0.00000 12.54007 18.81011
O  2.09001 14.63008 18.81011
O -2.09001  8.36005 20.90012
O  0.00000 10.45006 20.90012
O  2.09001 12.54007 20.90012
O  4.18002 14.63008 20.90012
O  0.00000  8.36005 22.99013
O  2.09001 10.45006 22.99013
O  4.18002 12.54007 22.99013
O  6.27004 14.63008 22.99013
Ni  2.09001 -14.63008  0.00000
Ni  4.18002 -12.54007  0.00000
Ni  6.27004 -10.45006  0.00000
Ni  2.09001 -16.72010  2.09001
Ni  4.18002 -14.63008  2.09001
Ni  6.27004 -12.54007  2.09001
Ni  8.36005 -10.45006  2.09001
Ni  4.18002 -16.72010  4.18002
Ni  6.27004 -14.63008  4.18002
Ni  8.36005 -12.54007  4.18002
Ni 10.45006 -10.45006  4.18002
Ni  6.27004 -16.72010  6.27004
Ni  8.36005 -14.63008  6.27004
Ni 10.45006 -12.54007  6.27004
Ni 12.54007 -10.45006  6.27004
Ni  0.00000 -14.63008  2.09001
Ni  2.09001 -12.54007  2.09001
Ni  4.18002 -10.45006  2.09001
Ni  6.27004 -8.36005  2.09001
Ni  2.09001 -14.63008  4.18002
Ni  4.18002 -12.54007  4.18002
Ni  6.27004 -10.45006  4.18002
Ni  8.36005 -8.36005  4.18002
Ni  4.18002 -14.63008  6.27004
Ni  6.27004 -12.54007  6.27004
Ni  8.36005 -10.45006  6.27004
Ni 10.45006 -8.36005  6.27004
Ni  6.27004 -14.63008  8.36005
Ni  8.36005 -12.54007  8.36005
Ni 10.45006 -10.45006  8.36005
Ni 12.54007 -8.36005  8.36005
Ni  0.00000 -12.54007  4.18002
Ni  2.09001 -10.45006  4.18002
Ni  4.18002 -8.36005  4.18002
Ni  6.27004 -6.27004  4.18002
Ni  2.09001 -12.54007  6.27004
Ni  4.18002 -10.45006  6.27004
Ni  6.27004 -8.36005  6.27004
Ni  8.36005 -6.27004  6.27004
Ni  4.18002 -12.54007  8.36005
Ni  6.27004 -10.45006  8.36005
Ni  8.36005 -8.36005  8.36005
Ni 10.45006 -6.27004  8.36005
Ni  6.27004 -12.54007 10.45006
Ni  8.36005 -10.45006 10.45006
Ni 10.45006 -8.36005 10.45006
Ni 12.54007 -6.27004 10.45006
Ni  0.00000 -10.45006  6.27004
Ni  2.09001 -8.36005  6.27004
Ni  4.18002 -6.27004  6.27004
Ni  6.27004 -4.18002  6.27004
Ni  2.09001 -10.45006  8.36005
Ni  4.18002 -8.36005  8.36005
Ni  6.27004 -6.27004  8.36005
Ni  8.36005 -4.18002  8.36005
Ni  4.18002 -10.45006 10.45006
Ni  6.27004 -8.36005 10.45006
Ni  8.36005 -6.27004 10.45006
Ni 10.45006 -4.18002 10.45006
Ni  6.27004 -10.45006 12.54007
Ni  8.36005 -8.36005 12.54007
Ni 10.45006 -6.27004 12.54007
Ni 12.54007 -4.18002 12.54007
O  2.09001 -14.63008  2.09001
O  4.18002 -12.54007  2.09001
O  6.27004 -10.45006  2.09001
O  8.36005 -8.36005  2.09001
O  4.18002 -14.63008  4.18002
O  6.27004 -12.54007  4.18002
O  8.36005 -10.45006  4.18002
O 10.45006 -8.36005  4.18002
O  6.27004 -14.63008  6.27004
O  8.36005 -12.54007  6.27004
O 10.45006 -10.45006  6.27004
O 12.54007 -8.36005  6.27004
O  8.36005 -14.63008  8.36005
O 10.45006 -12.54007  8.36005
O 12.54007 -10.45006  8.36005
O 14.63008 -8.36005  8.36005
O  2.09001 -12.54007  4.18002
O  4.18002 -10.45006  4.18002
O  6.27004 -8.36005  4.18002
O  8.36005 -6.27004  4.18002
O  4.18002 -12.54007  6.27004
O  6.27004 -10.45006  6.27004
O  8.36005 -8.36005  6.27004
O 10.45006 -6.27004  6.27004
O  6.27004 -12.54007  8.36005
O  8.36005 -10.45006  8.36005
O 10.45006 -8.36005  8.36005
O 12.54007 -6.27004  8.36005
O  8.36005 -12.54007 10.45006
O 10.45006 -10.45006 10.45006
O 12.54007 -8.36005 10.45006
O 14.63008 -6.27004 10.45006
O  2.09001 -10.45006  6.27004
O  4.18002 -8.36005  6.27004
O  6.27004 -6.27004  6.27004
O  8.36005 -4.18002  6.27004
O  4.18002 -10.45006  8.36005
O  6.27004 -8.36005  8.36005
O  8.36005 -6.27004  8.36005
O 10.45006 -4.18002  8.36005
O  6.27004 -10.45006 10.45006
O  8.36005 -8.36005 10.45006
O 10.45006 -6.27004 10.45006
O 12.54007 -4.18002 10.45006
O  8.36005 -10.45006 12.54007
O 10.45006 -8.36005 12.54007
O 12.54007 -6.27004 12.54007
O 14.63008 -4.18002 12.54007
O  2.09001 -8.36005  8.36005
O  4.18002 -6.27004  8.36005
O  6.27004 -4.18002  8.36005
O  8.36005 -2.09001  8.36005
O  4.18002 -8.36005 10.45006
O  6.27004 -6.27004 10.45006
O  8.36005 -4.18002 10.45006
O 10.45006 -2.09001 10.45006
O  6.27004 -8.36005 12.54007
O  8.36005 -6.27004 12.54007
O 10.45006 -4.18002 12.54007
O 12.54007 -2.09001 12.54007
O  8.36005 -8.36005 14.63008
O 10.45006 -6.27004 14.63008
O 12.54007 -4.18002 14.63008
O 14.63008 -2.09001 14.63008
Ni  2.09001 -6.27004  8.36005
Ni  4.18002 -4.18002  8.36005
Ni  6.27004 -2.09001  8.36005
Ni  2.09001 -8.36005 10.45006
Ni  4.18002 -6.27004 10.45006
Ni  6.27004 -4.18002 10.45006
Ni  8.36005 -2.09001 10.45006
Ni  4.18002 -8.36005 12.54007
Ni  6.27004 -6.27004 12.54007
Ni  8.36005 -4.18002 12.54007
Ni 10.45006 -2.09001 12.54007
Ni  6.27004 -8.36005 14.63008
Ni  8.36005 -6.27004 14.63008
Ni 10.45006 -4.18002 14.63008
Ni 12.54007 -2.09001 14.63008
Ni  0.00000 -6.27004 10.45006
Ni  2.09001 -4.18002 10.45006
Ni  4.18002 -2.09001 10.45006
Ni  6.27004  0.00000 10.45006
Ni  2.09001 -6.27004 12.54007
Ni  4.18002 -4.18002 12.54007
Ni  6.27004 -2.09001 12.54007
Ni  8.36005 -0.00000 12.54007
Ni  4.18002 -6.27004 14.63008
Ni  6.27004 -4.18002 14.63008
Ni  8.36005 -2.09001 14.63008
Ni 10.45006 -0.00000 14.63008
Ni  6.27004 -6.27004 16.72010
Ni  8.36005 -4.18002 16.72010
Ni 10.45006 -2.09001 16.72010
Ni 12.54007  0.00000 16.72010
Ni  0.00000 -4.18002 12.54007
Ni  2.09001 -2.09001 12.54007
Ni  4.18002  0.00000 12.54007
Ni  6.27004  2.09001 12.54007
Ni  2.09001 -4.18002 14.63008
Ni  4.18002 -2.09001 14.63008
Ni  6.27004  0.00000 14.63008
Ni  8.36005  2.09001 14.63008
Ni  4.18002 -4.18002 16.72010
Ni  6.27004 -2.09001 16.72010
Ni  8.36005  0.00000 16.72010
Ni 10.45006  2.09001 16.72010
Ni  6.27004 -4.18002 18.81011
Ni  8.36005 -2.09001 18.81011
Ni 10.45006  0.00000 18.81011
Ni 12.54007  2.09001 18.81011
Ni  0.00000 -2.09001 14.63008
Ni  2.09001  0.00000 14.63008
Ni  4.18002  2.09001 14.63008
Ni  6.27004  4.18002 14.63008
Ni  2.09001 -2.09001 16.72010
Ni  4.18002  0.00000 16.72010
Ni  6.27004  2.09001 16.72010
Ni  8.36005  4.18002 16.72010
Ni  4.18002 -2.09001 18.81011
Ni  6.27004  0.00000 18.81011
Ni  8.36005  2.09001 18.81011
Ni 10.45006  4.18002 18.81011
Ni  6.27004 -2.09001 20.90012
Ni  8.36005  0.00000 20.90012
Ni 10.45006  2.09001 20.90012
Ni 12.54007  4.18002 20.90012
O  2.09001 -6.27004 10.45006
O  4.18002 -4.18002 10.45006
O  6.27004 -2.09001 10.45006
O  8.36005  0.00000 10.45006
O  4.18002 -6.27004 12.54007
O  6.27004 -4.18002 12.54007
O  8.36005 -2.09001 12.54007
O 10.45006  0.00000 12.54007
O  6.27004 -6.27004 14.63008
O  8.36005 -4.18002 14.63008
O 10.45006 -2.09001 14.63008
O 12.54007  0.00000 14.63008
O  8.36005 -6.27004 16.72010
O 10.45006 -4.18002 16.72010
O 12.54007 -2.09001 16.72010
O 14.63008 -0.00000 16.72010
O  2.09001 -4.18002 12.54007
O  4.18002 -2.09001 12.54007
O  6.27004  0.00000 12.54007
O  8.36005  2.09001 12.54007
O  4.18002 -4.18002 14.63008
O  6.27004 -2.09001 14.63008
O  8.36005  0.00000 14.63008
O 10.45006  2.09001 14.63008
O  6.27004 -4.18002 16.72010
O  8.36005 -2.09001 16.72010
O 10.45006  0.00000 16.72010
O 12.54007  2.09001 16.72010
O  8.36005 -4.18002 18.81011
O 10.45006 -2.09001 18.81011
O 12.54007  0.00000 18.81011
O 14.63008  2.09001 18.81011
O  2.09001 -2.09001 14.63008
O  4.18002  0.00000 14.63008
O  6.27004  2.09001 14.63008
O  8.36005  4.18002 14.63008
O  4.18002 -2.09001 16.72010
O  6.27004  0.00000 16.72010
O  8.36005  2.09001 16.72010
O 10.45006  4.18002 16.72010
O  6.27004 -2.09001 18.81011
O  8.36005  0.00000 18.81011
O 10.45006  2.09001 18.81011
O 12.54007  4.18002 18.81011
O  8.36005 -2.09001 20.90012
O 10.45006  0.00000 20.90012
O 12.54007  2.09001 20.90012
O 14.63008  4.18002 20.90012
O  2.09001  0.00000 16.72010
O  4.18002  2.09001 16.72010
O  6.27004  4.18002 16.72010
O  8.36005  6.27004 16.72010
O  4.18002  0.00000 18.81011
O  6.27004  2.09001 18.81011
O  8.36005  4.18002 18.81011
O 10.45006  6.27004 18.81011
O  6.27004  0.00000 20.90012
O  8.36005  2.09001 20.90012
O 10.45006  4.18002 20.90012
O 12.54007  6.27004 20.90012
O  8.36005  0.00000 22.99013
O 10.45006  2.09001 22.99013
O 12.54007  4.18002 22.99013
O 14.63008  6.27004 22.99013
Ni  2.09001  2.09001 16.72010
Ni  4.18002  4.18002 16.72010
Ni  6.27004  6.27004 16.72010
Ni  2.09001 -0.00000 18.81011
Ni  4.18002  2.09001 18.81011
Ni  6.27004  4.18002 18.81011
Ni  8.36005  6.27004 18.81011
Ni  4.18002  0.00000 20.90012
Ni  6.27004  2.09001 20.90012
Ni  8.36005  4.18002 20.90012
Ni 10.45006  6.27004 20.90012
Ni  6.27004  0.00000 22.99013
Ni  8.36005  2.09001 22.99013
Ni 10.45006  4.18002 22.99013
Ni 12.54007  6.27004 22.99013
Ni  0.00000  2.09001 18.81011
Ni  2.09001  4.18002 18.81011
Ni  4.18002  6.27004 18.81011
Ni  6.27004  8.36005 18.81011
Ni  2.09001  2.09001 20.90012
Ni  4.18002  4.18002 20.90012
Ni  6.27004  6.27004 20.90012
Ni  8.36005  8.36005 20.90012
Ni  4.18002  2.09001 22.99013
Ni  6.27004  4.18002 22.99013
Ni  8.36005  6.27004 22.99013
Ni 10.45006  8.36005 22.99013
Ni  6.27004  2.09001 25.08014
Ni  8.36005  4.18002 25.08014
Ni 10.45006  6.27004 25.08014
Ni 12.54007  8.36005 25.08014
Ni  0.00000  4.18002 20.90012
Ni  2.09001  6.27004 20.90012
Ni  4.18002  8.36005 20.90012
Ni  6.27004 10.45006 20.90012
Ni  2.09001  4.18002 22.99013
Ni  4.18002  6.27004 22.99013
Ni  6.27004  8.36005 22.99013
Ni  8.36005 10.45006 22.99013
Ni  4.18002  4.18002 25.08014
Ni  6.27004  6.27004 25.08014
Ni  8.36005  8.36005 25.08014
Ni 10.45006 10.45006 25.08014
Ni  6.27004  4.18002 27.17016
Ni  8.36005  6.27004 27.17016
Ni 10.45006  8.36005 27.17016
Ni 12.54007 10.45006 27.17016
Ni  0.00000  6.27004 22.99013
Ni  2.09001  8.36005 22.99013
Ni  4.18002 10.45006 22.99013
Ni  6.27004 12.54007 22.99013
Ni  2.09001  6.27004 25.08014
Ni  4.18002  8.36005 25.08014
Ni  6.27004 10.45006 25.08014
Ni  8.36005 12.54007 25.08014
Ni  4.18002  6.27004 27.17016
Ni  6.27004  8.36005 27.17016
Ni  8.36005 10.45006 27.17016
Ni 10.45006 12.54007 27.17016
Ni  6.27004  6.27004 29.26017
Ni  8.36005  8.36005 29.26017
Ni 10.45006 10.45006 29.26017
Ni 12.54007 12.54007 29.26017
O  2.09001  2.09001 18.81011
O  4.18002  4.18002 18.81011
O  6.27004  6.27004 18.81011
O  8.36005  8.36005 18.81011
O  4.18002  2.09001 20.90012
O  6.27004  4.18002 20.90012
O  8.36005  6.27004 20.90012
O 10.45006  8.36005 20.90012
O  6.27004  2.09001 22.99013
O  8.36005  4.18002 22.99013
O 10.45006  6.27004 22.99013
O 12.54007  8.36005 22.99013
O  8.36005  2.09001 25.08014
O 10.45006  4.18002 25.08014
O 12.54007  6.27004 25.08014
O 14.63008  8.36005 25.08014
O  2.09001  4.18002 20.90012
O  4.18002  6.27004 20.90012
O  6.27004  8.36005 20.90012
O  8.36005 10.45006 20.90012
O  4.18002  4.18002 22.99013
O  6.27004  6.27004 22.99013
O  8.36005  8.36005 22.99013
O 10.45006 10.45006 22.99013
O  6.27004  4.18002 25.08014
O  8.36005  6.27004 25.08014
O 10.45006  8.36005 25.08014
O 12.54007 10.45006 25.08014
O  8.36005  4.18002 27.17016
O 10.45006  6.27004 27.17016
O 12.54007  8.36005 27.17016
O 14.63008 10.45006 27.17016
O  2.09001  6.27004 22.99013
O  4.18002  8.36005 22.99013
O  6.27004 10.45006 22.99013
O  8.36005 12.54007 22.99013
O  4.18002  6.27004 25.08014
O  6.27004  8.36005 25.08014
O  8.36005 10.45006 25.08014
O 10.45006 12.54007 25.08014
O  6.27004  6.27004 27.17016
O  8.36005  8.36005 27.17016
O 10.45006 10.45006 27.17016
O 12.54007 12.54007 27.17016
O  8.36005  6.27004 29.26017
O 10.45006  8.36005 29.26017
O 12.54007 10.45006 29.26017
O 14.63008 12.54007 29.26017
O  2.09001  8.36005 25.08014
O  4.18002 10.45006 25.08014
O  6.27004 12.54007 25.08014
O  8.36005 14.63008 25.08014
O  4.18002  8.36005 27.17016
O  6.27004 10.45006 27.17016
O  8.36005 12.54007 27.17016
O 10.45006 14.63008 27.17016
O  6.27004  8.36005 29.26017
O  8.36005 10.45006 29.26017
O 10.45006 12.54007 29.26017
O 12.54007 14.63008 29.26017
O  8.36005  8.36005 31.35018
O 10.45006 10.45006 31.35018
O 12.54007 12.54007 31.35018
O 14.63008 14.63008 31.35018
Ni -6.27004 -6.27004 -16.72010
Ni -4.18002 -4.18002 -16.72010
Ni -2.09001 -2.09001 -16.72010
Ni -6.27004 -8.36005 -14.63008
Ni -4.18002 -6.27004 -14.63008
Ni -2.09001 -4.18002 -14.63008
Ni  0.00000 -2.09001 -14.63008
Ni -4.18002 -8.36005 -12.54007
Ni -2.09001 -6.27004 -12.54007
Ni  0.00000 -4.18002 -12.54007
Ni  2.09001 -2.09001 -12.54007
Ni -2.09001 -8.36005 -10.45006
Ni  0.00000 -6.27004 -10.45006
Ni  2.09001 -4.18002 -10.45006
Ni  4.18002 -2.09001 -10.45006
Ni -8.36005 -6.27004 -14.63008
Ni -6.27004 -4.18002 -14.63008
Ni -4.18002 -2.09001 -14.63008
Ni -2.09001  0.00000 -14.63008
Ni -6.27004 -6.27004 -12.54007
Ni -4.18002 -4.18002 -12.54007
Ni -2.09001 -2.09001 -12.54007
Ni  0.00000 -0.00000 -12.54007
Ni -4.18002 -6.27004 -10.45006
Ni -2.09001 -4.18002 -10.45006
Ni  0.00000 -2.09001 -10.45006
Ni  2.09001 -0.00000 -10.45006
Ni -2.09001 -6.27004 -8.36005
Ni  0.00000 -4.18002 -8.36005
Ni  2.09001 -2.09001 -8.36005
Ni  4.18002  0.00000 -8.36005
Ni -8.36005 -4.18002 -12.54007
Ni -6.27004 -2.09001 -12.54007
Ni -4.18002  0.00000 -12.54007
Ni -2.09001  2.09001 -12.54007
Ni -6.27004 -4.18002 -10.45006
Ni -4.18002 -2.09001 -10.45006
Ni -2.09001  0.00000 -10.45006
Ni  0.00000  2.09001 -10.45006
Ni -4.18002 -4.18002 -8.36005
Ni -2.09001 -2.09001 -8.36005
Ni  0.00000  0.00000 -8.36005
Ni  2.09001  2.09001 -8.36005
Ni -2.09001 -4.18002 -6.27004
Ni  0.00000 -2.09001 -6.27004
Ni  2.09001  0.00000 -6.27004
Ni  4.18002  2.09001 -6.27004
Ni -8.36005 -2.09001 -10.45006
Ni -6.27004  0.00000 -10.45006
Ni -4.18002  2.09001 -10.45006
Ni -2.09001  4.18002 -10.45006
Ni -6.27004 -2.09001 -8.36005
Ni -4.18002  0.00000 -8.36005
Ni -2.09001  2.09001 -8.36005
Ni  0.00000  4.18002 -8.36005
Ni -4.18002 -2.09001 -6.27004
Ni -2.09001  0.00000 -6.27004
Ni  0.00000  2.09001 -6.27004
Ni  2.09001  4.18002 -6.27004
Ni -2.09001 -2.09001 -4.18002
Ni  0.00000  0.00000 -4.18002
Ni  2.09001  2.09001 -4.18002
Ni  4.18002  4.18002 -4.18002
O -6.27004 -6.27004 -14.63008
O -4.18002 -4.18002 -14.63008
O -2.09001 -2.09001 -14.63008
O  0.00000  0.00000 -14.63008
O -4.18002 -6.27004 -12.54007
O -2.09001 -4.18002 -12.54007
O  0.00000 -2.09001 -12.54007
O  2.09001  0.00000 -12.54007
O -2.09001 -6.27004 -10.45006
O  0.00000 -4.18002 -10.45006
O  2.09001 -2.09001 -10.45006
O  4.18002  0.00000 -10.45006
O  0.00000 -6.27004 -8.36005
O  2.09001 -4.18002 -8.36005
O  4.18002 -2.09001 -8.36005
O  6.27004 -0.00000 -8.36005
O -6.27004 -4.18002 -12.54007
O -4.18002 -2.09001 -12.54007
O -2.09001  0.00000 -12.54007
O  0.00000  2.09001 -12.54007
O -4.18002 -4.18002 -10.45006
O -2.09001 -2.09001 -10.45006
O  0.00000  0.00000 -10.45006
O  2.09001  2.09001 -10.45006
O -2.09001 -4.18002 -8.36005
O  0.00000 -2.09001 -8.36005
O  2.09001  0.00000 -8.36005
O  4.18002  2.09001 -8.36005
O  0.00000 -4.18002 -6.27004
O  2.09001 -2.09001 -6.27004
O  4.18002  0.00000 -6.27004
O  6.27004  2.09001 -6.27004
O -6.27004 -2.09001 -10.45006
O -4.18002  0.00000 -10.45006
O -2.09001  2.09001 -10.45006
O  0.00000  4.18002 -10.45006
O -4.18002 -2.09001 -8.36005
O -2.09001  0.00000 -8.36005
O  0.00000  2.09001 -8.36005
O  2.09001  4.18002 -8.36005
O -2.09001 -2.09001 -6.27004
O  0.00000  0.00000 -6.27004
O  2.09001  2.09001 -6.27004
O  4.18002  4.18002 -6.27004
O  0.00000 -2.09001 -4.18002
O  2.09001  0.00000 -4.18002
O  4.18002  2.09001 -4.18002
O  6.27004  4.18002 -4.18002
O -6.27004  0.00000 -8.36005
O -4.18002  2.09001 -8.36005
O -2.09001  4.18002 -8.36005
O  0.00000  6.27004 -8.36005
O -4.18002  0.00000 -6.27004
O -2.09001  2.09001 -6.27004
O  0.00000  4.18002 -6.27004
O  2.09001  6.27004 -6.27004
O -2.09001  0.00000 -4.18002
O  0.00000  2.09001 -4.18002
O  2.09001  4.18002 -4.18002
O  4.18002  6.27004 -4.18002
O  0.00000  0.00000 -2.09001
O  2.09001  2.09001 -2.09001
O  4.18002  4.18002 -2.09001
O  6.27004  6.27004 -2.09001
Ni -6.27004  2.09001 -8.36005
Ni -4.18002  4.18002 -8.36005
Ni -2.09001  6.27004 -8.36005
Ni -6.27004 -0.00000 -6.27004
Ni -4.18002  2.09001 -6.27004
Ni -2.09001  4.18002 -6.27004
Ni  0.00000  6.27004 -6.27004
Ni -4.18002  0.00000 -4.18002
Ni -2.09001  2.09001 -4.18002
Ni  0.00000  4.18002 -4.18002
Ni  2.09001  6.27004 -4.18002
Ni -2.09001  0.00000 -2.09001
Ni  0.00000  2.09001 -2.09001
Ni  2.09001  4.18002 -2.09001
Ni  4.18002  6.27004 -2.09001
Ni -8.36005  2.09001 -6.27004
Ni -6.27004  4.18002 -6.27004
Ni -4.18002  6.27004 -6.27004
Ni -2.09001  8.36005 -6.27004
Ni -6.27004  2.09001 -4.18002
Ni -4.18002  4.18002 -4.18002
Ni -2.09001  6.27004 -4.18002
Ni  0.00000  8.36005 -4.18002
Ni -4.18002  2.09001 -2.09001
Ni -2.09001  4.18002 -2.09001
Ni  0.00000  6.27004 -2.09001
Ni  2.09001  8.36005 -2.09001
Ni -2.09001  2.09001  0.00000
Ni  0.00000  4.18002 -0.00000
Ni  2.09001  6.27004 -0.00000
Ni  4.18002  8.36005  0.00000
Ni -8.36005  4.18002 -4.18002
Ni -6.27004  6.27004 -4.18002
Ni -4.18002  8.36005 -4.18002
Ni -2.09001 10.45006 -4.18002
Ni -6.27004  4.18002 -2.09001
Ni -4.18002  6.27004 -2.09001
Ni -2.09001  8.36005 -2.09001
Ni  0.00000 10.45006 -2.09001
Ni -4.18002  4.18002  0.00000
Ni -2.09001  6.27004  0.00000
Ni  0.00000  8.36005  0.00000
Ni  2.09001 10.45006  0.00000
Ni -2.09001  4.18002  2.09001
Ni  0.00000  6.27004  2.09001
Ni  2.09001  8.36005  2.09001
Ni  4.18002 10.45006  2.09001
Ni -8.36005  6.27004 -2.09001
Ni -6.27004  8.36005 -2.09001
Ni -4.18002 10.45006 -2.09001
Ni -2.09001 12.54007 -2.09001
Ni -6.27004  6.27004  0.00000
Ni -4.18002  8.36005  0.00000
Ni -2.09001 10.45006  0.00000
Ni  0.00000 12.54007  0.00000
Ni -4.18002  6.27004  2.09001
Ni -2.09001  8.36005  2.09001
Ni  0.00000 10.45006  2.09001
Ni  2.09001 12.54007  2.09001
Ni -2.09001  6.27004  4.18002
Ni  0.00000  8.36005  4.18002
Ni  2.09001 10.45006  4.18002
Ni  4.18002 12.54007  4.18002
O -6.27004  2.09001 -6.27004
O -4.18002  4.18002 -6.27004
O -2.09001  6.27004 -6.27004
O  0.00000  8.36005 -6.27004
O -4.18002  2.09001 -4.18002
O -2.09001  4.18002 -4.18002
O  0.00000  6.27004 -4.18002
O  2.09001  8.36005 -4.18002
O -2.09001  2.09001 -2.09001
O  0.00000  4.18002 -2.09001
O  2.09001  6.27004 -2.09001
O  4.18002  8.36005 -2.09001
O  0.00000  2.09001  0.00000
O  2.09001  4.18002  0.00000
O  4.18002  6.27004  0.00000
O  6.27004  8.36005 -0.00000
O -6.27004  4.18002 -4.18002
O -4.18002  6.27004 -4.18002
O -2.09001  8.36005 -4.18002
O  0.00000 10.45006 -4.18002
O -4.18002  4.18002 -2.09001
O -2.09001  6.27004 -2.09001
O  0.00000  8.36005 -2.09001
O  2.09001 10.45006 -2.09001
O -2.09001  4.18002  0.00000
O  0.00000  6.27004  0.00000
O  2.09001  8.36005  0.00000
O  4.18002 10.45006  0.00000
O  0.00000  4.18002  2.09001
O  2.09001  6.27004  2.09001
O  4.18002  8.36005  2.09001
O  6.27004 10.45006  2.09001
O -6.27004  6.27004 -2.09001
O -4.18002  8.36005 -2.09001
O -2.09001 10.45006 -2.09001
O  0.00000 12.54007 -2.09001
O -4.18002  6.27004  0.00000
O -2.09001  8.36005  0.00000
O  0.00000 10.45006  0.00000
O  2.09001 12.54007  0.00000
O -2.09001  6.27004  2.09001
O  0.00000  8.36005  2.09001
O  2.09001 10.45006  2.09001
O  4.18002 12.54007  2.09001
O  0.00000  6.27004  4.18002
O  2.09001  8.36005  4.18002
O  4.18002 10.45006  4.18002
O  6.27004 12.54007  4.18002
O -6.27004  8.36005  0.00000
O -4.18002 10.45006  0.00000
O -2.09001 12.54007  0.00000
O  0.00000 14.63008  0.00000
O -4.18002  8.36005  2.09001
O -2.09001 10.45006  2.09001
O  0.00000 12.54007  2.09001
O  2.09001 14.63008  2.09001
O -2.09001  8.36005  4.18002
O  0.00000 10.45006  4.18002
O  2.09001 12.54007  4.18002
O  4.18002 14.63008  4.18002
O  0.00000  8.36005  6.27004
O  2.09001 10.45006  6.27004
O  4.18002 12.54007  6.27004
O  6.27004 14.63008  6.27004
Ni -6.27004 10.45006  0.00000
Ni -4.18002 12.54007  0.00000
Ni -2.09001 14.63008  0.00000
Ni -6.27004  8.36005  2.09001
Ni -4.18002 10.45006  2.09001
Ni -2.09001 12.54007  2.09001
Ni  0.00000 14.63008  2.09001
Ni -4.18002  8.36005  4.18002
Ni -2.09001 10.45006  4.18002
Ni  0.00000 12.54007  4.18002
Ni  2.09001 14.63008  4.18002
Ni -2.09001  8.36005  6.27004
Ni  0.00000 10.45006  6.27004
Ni  2.09001 12.54007  6.27004
Ni  4.18002 14.63008  6.27004
Ni -8.36005 10.45006  2.09001
Ni -6.27004 12.54007  2.09001
Ni -4.18002 14.63008  2.09001
Ni -2.09001 16.72010  2.09001
Ni -6.27004 10.45006  4.18002
Ni -4.18002 12.54007  4.18002
Ni -2.09001 14.63008  4.18002
Ni  0.00000 16.72010  4.18002
Ni -4.18002 10.45006  6.27004
Ni -2.09001 12.54007  6.27004
Ni  0.00000 14.63008  6.27004
Ni  2.09001 16.72010  6.27004
Ni -2.09001 10.45006  8.36005
Ni  0.00000 12.54007  8.36005
Ni  2.09001 14.63008  8.36005
Ni  4.18002 16.72010  8.36005
Ni -8.36005 12.54007  4.18002
Ni -6.27004 14.63008  4.18002
Ni -4.18002 16.72010  4.18002
Ni -2.09001 18.81011  4.18002
Ni -6.27004 12.54007  6.27004
Ni -4.18002 14.63008  6.27004
Ni -2.09001 16.72010  6.27004
Ni  0.00000 18.81011  6.27004
Ni -4.18002 12.54007  8.36005
Ni -2.09001 14.63008  8.36005
Ni  0.00000 16.72010  8.36005
Ni  2.09001 18.81011  8.36005
Ni -2.09001 12.54007 10.45006
Ni  0.00000 14.63008 10.45006
Ni  2.09001 16.72010 10.45006
Ni  4.18002 18.81011 10.45006
Ni -8.36005 14.63008  6.27004
Ni -6.27004 16.72010  6.27004
Ni -4.18002 18.81011  6.27004
Ni -2.09001 20.90012  6.27004
Ni -6.27004 14.63008  8.36005
Ni -4.18002 16.72010  8.36005
Ni -2.09001 18.81011  8.36005
Ni  0.00000 20.90012  8.36005
Ni -4.18002 14.63008 10.45006
Ni -2.09001 16.72010 10.45006
Ni  0.00000 18.81011 10.45006
Ni  2.09001 20.90012 10.45006
Ni -2.09001 14.63008 12.54007
Ni  0.00000 16.72010 12.54007
Ni  2.09001 18.81011 12.54007
Ni  4.18002 20.90012 12.54007
O -6.27004 10.45006  2.09001
O -4.18002 12.54007  2.09001
O -2.09001 14.63008  2.09001
O  0.00000 16.72010  2.09001
O -4.18002 10.45006  4.18002
O -2.09001 12.54007  4.18002
O  0.00000 14.63008  4.18002
O  2.09001 16.72010  4.18002
O -2.09001 10.45006  6.27004
O  0.00000 12.54007  6.27004
O  2.09001 14.63008  6.27004
O  4.18002 16.72010  6.27004
O  0.00000 10.45006  8.36005
O  2.09001 12.54007  8.36005
O  4.18002 14.63008  8.36005
O  6.27004 16.72010  8.36005
O -6.27004 12.54007  4.18002
O -4.18002 14.63008  4.18002
O -2.09001 16.72010  4.18002
O  0.00000 18.81011  4.18002
O -4.18002 12.54007  6.27004
O -2.09001 14.63008  6.27004
O  0.00000 16.72010  6.27004
O  2.09001 18.81011  6.27004
O -2.09001 12.54007  8.36005
O  0.00000 14.63008  8.36005
O  2.09001 16.72010  8.36005
O  4.18002 18.81011  8.36005
O  0.00000 12.54007 10.45006
O  2.09001 14.63008 10.45006
O  4.18002 16.72010 10.45006
O  6.27004 18.81011 10.45006
O -6.27004 14.63008  6.27004
O -4.18002 16.72010  6.27004
O -2.09001 18.81011  6.27004
O  0.00000 20.90012  6.27004
O -4.18002 14.63008  8.36005
O -2.09001 16.72010  8.36005
O  0.00000 18.81011  8.36005
O  2.09001 20.90012  8.36005
O -2.09001 14.63008 10.45006
O  0.00000 16.72010 10.45006
O  2.09001 18.81011 10.45006
O  4.18002 20.90012 10.45006
O  0.00000 14.63008 12.54007
O  2.09001 16.72010 12.54007
O  4.18002 18.81011 12.54007
O  6.27004 20.90012 12.54007
O -6.27004 16.72010  8.36005
O -4.18002 18.81011  8.36005
O -2.09001 20.90012  8.36005
O  0.00000 22.99013  8.36005
O -4.18002 16.72010 10.45006
O -2.09001 18.81011 10.45006
O  0.00000 20.90012 10.45006
O  2.09001 22.99013 10.45006
O -2.09001 16.72010 12.54007
O  0.00000 18.81011 12.54007
O  2.09001 20.90012 12.54007
O  4.18002 22.99013 12.54007
O  0.00000 16.72010 14.63008
O  2.09001 18.81011 14.63008
O  4.18002 20.90012 14.63008
O  6.27004 22.99013 14.63008
Ni  2.09001 -6.27004 -8.36005
Ni  4.18002 -4.18002 -8.36005
Ni  6.27004 -2.09001 -8.36005
Ni  2.09001 -8.36005 -6.27004
Ni  4.18002 -6.27004 -6.27004
Ni  6.27004 -4.18002 -6.27004
Ni  8.36005 -2.09001 -6.27004
Ni  4.18002 -8.36005 -4.18002
Ni  6.27004 -6.27004 -4.18002
Ni  8.36005 -4.18002 -4.18002
Ni 10.45006 -2.09001 -4.18002
Ni  6.27004 -8.36005 -2.09001
Ni  8.36005 -6.27004 -2.09001
Ni 10.45006 -4.18002 -2.09001
Ni 12.54007 -2.09001 -2.09001
Ni  0.00000 -6.27004 -6.27004
Ni  2.09001 -4.18002 -6.27004
Ni  4.18002 -2.09001 -6.27004
Ni  6.27004  0.00000 -6.27004
Ni  2.09001 -6.27004 -4.18002
Ni  4.18002 -4.18002 -4.18002
Ni  6.27004 -2.09001 -4.18002
Ni  8.36005 -0.00000 -4.18002
Ni  4.18002 -6.27004 -2.09001
Ni  6.27004 -4.18002 -2.09001
Ni  8.36005 -2.09001 -2.09001
Ni 10.45006 -0.00000 -2.09001
Ni  6.27004 -6.27004  0.00000
Ni  8.36005 -4.18002 -0.00000
Ni 10.45006 -2.09001 -0.00000
Ni 12.54007  0.00000  0.00000
Ni  0.00000 -4.18002 -4.18002
Ni  2.09001 -2.09001 -4.18002
Ni  4.18002  0.00000 -4.18002
Ni  6.27004  2.09001 -4.18002
Ni  2.09001 -4.18002 -2.09001
Ni  4.18002 -2.09001 -2.09001
Ni  6.27004  0.00000 -2.09001
Ni  8.36005  2.09001 -2.09001
Ni  4.18002 -4.18002  0.00000
Ni  6.27004 -2.09001  0.00000
Ni  8.36005  0.00000  0.00000
Ni 10.45006  2.09001  0.00000
Ni  6.27004 -4.18002  2.09001
Ni  8.36005 -2.09001  2.09001
Ni 10.45006  0.00000  2.09001
Ni 12.54007  2.09001  2.09001
Ni  0.00000 -2.09001 -2.09001
Ni  2.09001  0.00000 -2.09001
Ni  4.18002  2.09001 -2.09001
Ni  6.27004  4.18002 -2.09001
Ni  2.09001 -2.09001  0.00000
Ni  4.18002  0.00000  0.00000
Ni  6.27004  2.09001  0.00000
Ni  8.36005  4.18002  0.00000
Ni  4.18002 -2.09001  2.09001
Ni  6.27004  0.00000  2.09001
Ni  8.36005  2.09001  2.09001
Ni 10.45006  4.18002  2.09001
Ni  6.27004 -2.09001  4.18002
Ni  8.36005  0.00000  4.18002
Ni 10.45006  2.09001  4.18002
Ni 12.54007  4.18002  4.18002
O  2.09001 -6.27004 -6.27004
O  4.18002 -4.18002 -6.27004
O  6.27004 -2.09001 -6.27004
O  8.36005  0.00000 -6.27004
O  4.18002 -6.27004 -4.18002
O  6.27004 -4.18002 -4.18002
O  8.36005 -2.09001 -4.18002
O 10.45006  0.00000 -4.18002
O  6.27004 -6.27004 -2.09001
O  8.36005 -4.18002 -2.09001
O 10.45006 -2.09001 -2.09001
O 12.54007  0.00000 -2.09001
O  8.36005 -6.27004  0.00000
O 10.45006 -4.18002  0.00000
O 12.54007 -2.09001  0.00000
O 14.63008 -0.00000 -0.00000
O  2.09001 -4.18002 -4.18002
O  4.18002 -2.09001 -4.18002
O  6.27004  0.00000 -4.18002
O  8.36005  2.09001 -4.18002
O  4.18002 -4.18002 -2.09001
O  6.27004 -2.09001 -2.09001
O  8.36005  0.00000 -2.09001
O 10.45006  2.09001 -2.09001
O  6.27004 -4.18002  0.00000
O  8.36005 -2.09001  0.00000
O 10.45006  0.00000  0.00000
O 12.54007  2.09001  0.00000
O  8.36005 -4.18002  2.09001
O 10.45006 -2.09001  2.09001
O 12.54007  0.00000  2.09001
O 14.63008  2.09001  2.09001
O  2.09001 -2.09001 -2.09001
O  4.18002  0.00000 -2.09001
O  6.27004  2.09001 -2.09001
O  8.36005  4.18002 -2.09001
O  4.18002 -2.09001  0.00000
O  6.27004  0.00000  0.00000
O  8.36005  2.09001  0.00000
O 10.45006  4.18002  0.00000
O  6.27004 -2.09001  2.09001
O  8.36005  0.00000  2.09001
O 10.45006  2.09001  2.09001
O 12.54007  4.18002  2.09001
O  8.36005 -2.09001  4.18002
O 10.45006  0.00000  4.18002
O 12.54007  2.09001  4.18002
O 14.63008  4.18002  4.18002
O  2.09001  0.00000  0.00000
O  4.18002  2.09001  0.00000
O  6.27004  4.18002  0.00000
O  8.36005  6.27004  0.00000
O  4.18002  0.00000  2.09001
O  6.27004  2.09001  2.09001
O  8.36005  4.18002  2.09001
O 10.45006  6.27004  2.09001
O  6.27004  0.00000  4.18002
O  8.36005  2.09001  4.18002
O 10.45006  4.18002  4.18002
O 12.54007  6.27004  4.18002
O  8.36005  0.00000  6.27004
O 10.45006  2.09001  6.27004
O 12.54007  4.18002  6.27004
O 14.63008  6.27004  6.27004
Ni  2.09001  2.09001  0.00000
Ni  4.18002  4.18002  0.00000
Ni  6.27004  6.27004  0.00000
Ni  2.09001 -0.00000  2.09001
Ni  4.18002  2.09001  2.09001
Ni  6.27004  4.18002  2.09001
Ni  8.36005  6.27004  2.09001
Ni  4.18002  0.00000  4.18002
Ni  6.27004  2.09001  4.18002
Ni  8.36005  4.18002  4.18002
Ni 10.45006  6.27004  4.18002
Ni  6.27004  0.00000  6.27004
Ni  8.36005  2.09001  6.27004
Ni 10.45006  4.18002  6.27004
Ni 12.54007  6.27004  6.27004
Ni  0.00000  2.09001  2.09001
Ni  2.09001  4.18002  2.09001
Ni  4.18002  6.27004  2.09001
Ni  6.27004  8.36005  2.09001
Ni  2.09001  2.09001  4.18002
Ni  4.18002  4.18002  4.18002
Ni  6.27004  6.27004  4.18002
Ni  8.36005  8.36005  4.18002
Ni  4.18002  2.09001  6.27004
Ni  6.27004  4.18002  6.27004
Ni  8.36005  6.27004  6.27004
Ni 10.45006  8.36005  6.27004
Ni  6.27004  2.09001  8.36005
Ni  8.36005  4.18002  8.36005
Ni 10.45006  6.27004  8.36005
Ni 12.54007  8.36005  8.36005
Ni  0.00000  4.18002  4.18002
Ni  2.09001  6.27004  4.18002
Ni  4.18002  8.36005  4.18002
Ni  6.27004 10.45006  4.18002
Ni  2.09001  4.18002  6.27004
Ni  4.18002  6.27004  6.27004
Ni  6.27004  8.36005  6.27004
Ni  8.36005 10.45006  6.27004
Ni  4.18002  4.18002  8.36005
Ni  6.27004  6.27004  8.36005
Ni  8.36005  8.36005  8.36005
Ni 10.45006 10.45006  8.36005
Ni  6.27004  4.18002 10.45006
Ni  8.36005  6.27004 10.45006
Ni 10.45006  8.36005 10.45006
Ni 12.54007 10.45006 10.45006
Ni  0.00000  6.27004  6.27004
Ni  2.09001  8.36005  6.27004
Ni  4.18002 10.45006  6.27004
Ni  6.27004 12.54007  6.27004
Ni  2.09001  6.27004  8.36005
Ni  4.18002  8.36005  8.36005
Ni  6.27004 10.45006  8.36005
Ni  8.36005 12.54007  8.36005
Ni  4.18002  6.27004 10.45006
Ni  6.27004  8.36005 10.45006
Ni  8.36005 10.45006 10.45006
Ni 10.45006 12.54007 10.45006
Ni  6.27004  6.27004 12.54007
Ni  8.36005  8.36005 12.54007
Ni 10.45006 10.45006 12.54007
Ni 12.54007 12.54007 12.54007
O  2.09001  2.09001  2.09001
O  4.18002  4.18002  2.09001
O  6.27004  6.27004  2.09001
O  8.36005  8.36005  2.09001
O  4.18002  2.09001  4.18002
O  6.27004  4.18002  4.18002
O  8.36005  6.27004  4.18002
O 10.45006  8.36005  4.18002
O  6.27004  2.09001  6.27004
O  8.36005  4.18002  6.27004
O 10.45006  6.27004  6.27004
O 12.54007  8.36005  6.27004
O  8.36005  2.09001  8.36005
O 10.45006  4.18002  8.36005
O 12.54007  6.27004  8.36005
O 14.63008  8.36005  8.36005
O  2.09001  4.18002  4.18002
O  4.18002  6.27004  4.18002
O  6.27004  8.36005  4.18002
O  8.36005 10.45006  4.18002
O  4.18002  4.18002  6.27004
O  6.27004  6.27004  6.27004
O  8.36005  8.36005  6.27004
O 10.45006 10.45006  6.27004
O  6.27004  4.18002  8.36005
O  8.36005  6.27004  8.36005
O 10.45006  8.36005  8.36005
O 12.54007 10.45006  8.36005
O  8.36005  4.18002 10.45006
O 10.45006  6.27004 10.45006
O 12.54007  8.36005 10.45006
O 14.63008 10.45006 10.45006
O  2.09001  6.27004  6.27004
O  4.18002  8.36005  6.27004
O  6.27004 10.45006  6.27004
O  8.36005 12.54007  6.27004
O  4.18002  6.27004  8.36005
O  6.27004  8.36005  8.36005
O  8.36005 10.45006  8.36005
O 10.45006 12.54007  8.36005
O  6.27004  6.27004 10.45006
O  8.36005  8.36005 10.45006
O 10.45006 10.45006 10.45006
O 12.54007 12.54007 10.45006
O  8.36005  6.27004 12.54007
O 10.45006  8.36005 12.54007
O 12.54007 10.45006 12.54007
O 14.63008 12.54007 12.54007
O  2.09001  8.36005  8.36005
O  4.18002 10.45006  8.36005
O  6.27004 12.54007  8.36005
O  8.36005 14.63008  8.36005
O  4.18002  8.36005 10.45006
O  6.27004 10.45006 10.45006
O  8.36005 12.54007 10.45006
O 10.45006 14.63008 10.45006
O  6.27004  8.36005 12.54007
O  8.36005 10.45006 12.54007
O 10.45006 12.54007 12.54007
O 12.54007 14.63008 12.54007
O  8.36005  8.36005 14.63008
O 10.45006 10.45006 14.63008
O 12.54007 12.54007 14.63008
O 14.63008 14.63008 14.63008
Ni  2.09001 10.45006  8.36005
Ni  4.18002 12.54007  8.36005
Ni  6.27004 14.63008  8.36005
Ni  2.09001  8.36005 10.45006
Ni  4.18002 10.45006 10.45006
Ni  6.27004 12.54007 10.45006
Ni  8.36005 14.63008 10.45006
Ni  4.18002  8.36005 12.54007
Ni  6.27004 10.45006 12.54007
Ni  8.36005 12.54007 12.54007
Ni 10.45006 14.63008 12.54007
Ni  6.27004  8.36005 14.63008
Ni  8.36005 10.45006 14.63008
Ni 10.45006 12.54007 14.63008
Ni 12.54007 14.63008 14.63008
Ni  0.00000 10.45006 10.45006
Ni  2.09001 12.54007 10.45006
Ni  4.18002 14.63008 10.45006
Ni  6.27004 16.72010 10.45006
Ni  2.09001 10.45006 12.54007
Ni  4.18002 12.54007 12.54007
Ni  6.27004 14.63008 12.54007
Ni  8.36005 16.72010 12.54007
Ni  4.18002 10.45006 14.63008
Ni  6.27004 12.54007 14.63008
Ni  8.36005 14.63008 14.63008
Ni 10.45006 16.72010 14.63008
Ni  6.27004 10.45006 16.72010
Ni  8.36005 12.54007 16.72010
Ni 10.45006 14.63008 16.72010
Ni 12.54007 16.72010 16.72010
Ni  0.00000 12.54007 12.54007
Ni  2.09001 14.63008 12.54007
Ni  4.18002 16.72010 12.54007
Ni  6.27004 18.81011 12.54007
Ni  2.09001 12.54007 14.63008
Ni  4.18002 14.63008 14.63008
Ni  6.27004 16.72010 14.63008
Ni  8.36005 18.81011 14.63008
Ni  4.18002 12.54007 16.72010
Ni  6.27004 14.63008 16.72010
Ni  8.36005 16.72010 16.72010
Ni 10.45006 18.81011 16.72010
Ni  6.27004 12.54007 18.81011
Ni  8.36005 14.63008 18.81011
Ni 10.45006 16.72010 18.81011
Ni 12.54007 18.81011 18.81011
Ni  0.00000 14.63008 14.63008
Ni  2.09001 16.72010 14.63008
Ni  4.18002 18.81011 14.63008
Ni  6.27004 20.90012 14.63008
Ni  2.09001 14.63008 16.72010
Ni  4.18002 16.72010 16.72010
Ni  6.27004 18.81011 16.72010
Ni  8.36005 20.90012 16.72010
Ni  4.18002 14.63008 18.81011
Ni  6.27004 16.72010 18.81011
Ni  8.36005 18.81011 18.81011
Ni 10.45006 20.90012 18.81011
Ni  6.27004 14.63008 20.90012
Ni  8.36005 16.72010 20.90012
Ni 10.45006 18.81011 20.90012
Ni 12.54007 20.90012 20.90012
O  2.09001 10.45006 10.45006
O  4.18002 12.54007 10.45006
O  6.27004 14.63008 10.45006
O  8.36005 16.72010 10.45006
O  4.18002 10.45006 12.54007
O  6.27004 12.54007 12.54007
O  8.36005 14.63008 12.54007
O 10.45006 16.72010 12.54007
O  6.27004 10.45006 14.63008
O  8.36005 12.54007 14.63008
O 10.45006 14.63008 14.63008
O 12.54007 16.72010 14.63008
O  8.36005 10.45006 16.72010
O 10.45006 12.54007 16.72010
O 12.54007 14.63008 16.72010
O 14.63008 16.72010 16.72010
O  2.09001 12.54007 12.54007
O  4.18002 14.63008 12.54007
O  6.27004 16.72010 12.54007
O  8.36005 18.81011 12.54007
O  4.18002 12.54007 14.63008
O  6.27004 14.63008 14.63008
O  8.36005 16.72010 14.63008
O 10.45006 18.81011 14.63008
O  6.27004 12.54007 16.72010
O  8.36005 14.63008 16.72010
O 10.45006 16.72010 16.72010
O 12.54007 18.81011 16.72010
O  8.36005 12.54007 18.81011
O 10.45006 14.63008 18.81011
O 12.54007 16.72010 18.81011
O 14.63008 18.81011 18.81011
O  2.09001 14.63008 14.63008
O  4.18002 16.72010 14.63008
O  6.27004 18.81011 14.63008
O  8.36005 20.90012 14.63008
O  4.18002 14.63008 16.72010
O  6.27004 16.72010 16.72010
O  8.36005 18.81011 16.72010
O 10.45006 20.90012 16.72010
O  6.27004 14.63008 18.81011
O  8.36005 16.72010 18.81011
O 10.45006 18.81011 18.81011
O 12.54007 20.90012 18.81011
O  8.36005 14.63008 20.90012
O 10.45006 16.72010 20.90012
O 12.54007 18.81011 20.90012
O 14.63008 20.90012 20.90012
O  2.09001 16.72010 16.72010
O  4.18002 18.81011 16.72010
O  6.27004 20.90012 16.72010
O  8.36005 22.99013 16.72010
O  4.18002 16.72010 18.81011
O  6.27004 18.81011 18.81011
O  8.36005 20.90012 18.81011
O 10.45006 22.99013 18.81011
O  6.27004 16.72010 20.90012
O  8.36005 18.81011 20.90012
O 10.45006 20.90012 20.90012
O 12.54007 22.99013 20.90012
O  8.36005 16.72010 22.99013
O 10.45006 18.81011 22.99013
O 12.54007 20.90012 22.99013
O 14.63008 22.99013 22.99013
Ni 10.45006 -6.27004  0.00000
Ni 12.54007 -4.18002  0.00000
Ni 14.63008 -2.09001  0.00000
Ni 10.45006 -8.36005  2.09001
Ni 12.54007 -6.27004  2.09001
Ni 14.63008 -4.18002  2.09001
Ni 16.72010 -2.09001  2.09001
Ni 12.54007 -8.36005  4.18002
Ni 14.63008 -6.27004  4.18002
Ni 16.72010 -4.18002  4.18002
Ni 18.81011 -2.09001  4.18002
Ni 14.63008 -8.36005  6.27004
Ni 16.72010 -6.27004  6.27004
Ni 18.81011 -4.18002  6.27004
Ni 20.90012 -2.09001  6.27004
Ni  8.36005 -6.27004  2.09001
Ni 10.45006 -4.18002  2.09001
Ni 12.54007 -2.09001  2.09001
Ni 14.63008  0.00000  2.09001
Ni 10.45006 -6.27004  4.18002
Ni 12.54007 -4.18002  4.18002
Ni 14.63008 -2.09001  4.18002
Ni 16.72010 -0.00000  4.18002
Ni 12.54007 -6.27004  6.27004
Ni 14.63008 -4.18002  6.27004
Ni 16.72010 -2.09001  6.27004
Ni 18.81011 -0.00000  6.27004
Ni 14.63008 -6.27004  8.36005
Ni 16.72010 -4.18002  8.36005
Ni 18.81011 -2.09001  8.36005
Ni 20.90012  0.00000  8.36005
Ni  8.36005 -4.18002  4.18002
Ni 10.45006 -2.09001  4.18002
Ni 12.54007  0.00000  4.18002
Ni 14.63008  2.09001  4.18002
Ni 10.45006 -4.18002  6.27004
Ni 12.54007 -2.09001  6.27004
Ni 14.63008  0.00000  6.27004
Ni 16.72010  2.09001  6.27004
Ni 12.54007 -4.18002  8.36005
Ni 14.63008 -2.09001  8.36005
Ni 16.72010  0.00000  8.36005
Ni 18.81011  2.09001  8.36005
Ni 14.63008 -4.18002 10.45006
Ni 16.72010 -2.09001 10.45006
Ni 18.81011  0.00000 10.45006
Ni 20.90012  2.09001 10.45006
Ni  8.36005 -2.09001  6.27004
Ni 10.45006  0.00000  6.27004
Ni 12.54007  2.09001  6.27004
Ni 14.63008  4.18002  6.27004
Ni 10.45006 -2.09001  8.36005
Ni 12.54007  0.00000  8.36005
Ni 14.63008  2.09001  8.36005
Ni 16.72010  4.18002  8.36005
Ni 12.54007 -2.09001 10.45006
Ni 14.63008  0.00000 10.45006
Ni 16.72010  2.09001 10.45006
Ni 18.81011  4.18002 10.45006
Ni 14.63008 -2.09001 12.54007
Ni 16.72010  0.00000 12.54007
Ni 18.81011  2.09001 12.54007
Ni 20.90012  4.18002 12.54007
O 10.45006 -6.27004  2.09001
O 12.54007 -4.18002  2.09001
O 14.63008 -2.09001  2.09001
O 16.72010  0.00000  2.09001
O 12.54007 -6.27004  4.18002
O 14.63008 -4.18002  4.18002
O 16.72010 -2.09001  4.18002
O 18.81011  0.00000  4.18002
O 14.63008 -6.27004  6.27004
O 16.72010 -4.18002  6.27004
O 18.81011 -2.09001  6.27004
O 20.90012  0.00000  6.27004
O 16.72010 -6.27004  8.36005
O 18.81011 -4.18002  8.36005
O 20.90012 -2.09001  8.36005
O 22.99013 -0.00000  8.36005
O 10.45006 -4.18002  4.18002
O 12.54007 -2.09001  4.18002
O 14.63008  0.00000  4.18002
O 16.72010  2.09001  4.18002
O 12.54007 -4.18002  6.27004
O 14.63008 -2.09001  6.27004
O 16.72010  0.00000  6.27004
O 18.81011  2.09001  6.27004
O 14.63008 -4.18002  8.36005
O 16.72010 -2.09001  8.36005
O 18.81011  0.00000  8.36005
O 20.90012  2.09001  8.36005
O 16.72010 -4.18002 10.45006
O 18.81011 -2.09001 10.45006
O 20.90012  0.00000 10.45006
O 22.99013  2.09001 10.45006
O 10.45006 -2.09001  6.27004
O 12.54007  0.00000  6.27004
O 14.63008  2.09001  6.27004
O 16.72010  4.18002  6.27004
O 12.54007 -2.09001  8.36005
O 14.63008  0.00000  8.36005
O 16.72010  2.09001  8.36005
O 18.81011  4.18002  8.36005
O 14.63008 -2.09001 10.45006
O 16.72010  0.00000 10.45006
O 18.81011  2.09001 10.45006
O 20.90012  4.18002 10.45006
O 16.72010 -2.09001 12.54007
O 18.81011  0.00000 12.54007
O 20.90012  2.09001 12.54007
O 22.99013  4.18002 12.54007
O 10.45006  0.00000  8.36005
O 12.54007  2.09001  8.36005
O 14.63008  4.18002  8.36005
O 16.72010  6.27004  8.36005
O 12.54007  0.00000 10.45006
O 14.63008  2.09001 10.45006
O 16.72010  4.18002 10.45006
O 18.81011  6.27004 10.45006
O 14.63008  0.00000 12.54007
O 16.72010  2.09001 12.54007
O 18.81011  4.18002 12.54007
O 20.90012  6.27004 12.54007
O 16.72010  0.00000 14.63008
O 18.81011  2.09001 14.63008
O 20.90012  4.18002 14.63008
O 22.99013  6.27004 14.63008
Ni 10.45006  2.09001  8.36005
Ni 12.54007  4.18002  8.36005
Ni 14.63008  6.27004  8.36005
Ni 10.45006 -0.00000 10.45006
Ni 12.54007  2.09001 10.45006
Ni 14.63008  4.18002 10.45006
Ni 16.72010  6.27004 10.45006
Ni 12.54007  0.00000 12.54007
Ni 14.63008  2.09001 12.54007
Ni 16.72010  4.18002 12.54007
Ni 18.81011  6.27004 12.54007
Ni 14.63008  0.00000 14.63008
Ni 16.72010  2.09001 14.63008
Ni 18.81011  4.18002 14.63008
Ni 20.90012  6.27004 14.63008
Ni  8.36005  2.09001 10.45006
Ni 10.45006  4.18002 10.45006
Ni 12.54007  6.27004 10.45006
Ni 14.63008  8.36005 10.45006
Ni 10.45006  2.09001 12.54007
Ni 12.54007  4.18002 12.54007
Ni 14.63008  6.27004 12.54007
Ni 16.72010  8.36005 12.54007
Ni 12.54007  2.09001 14.63008
Ni 14.63008  4.18002 14.63008
Ni 16.72010  6.27004 14.63008
Ni 18.81011  8.36005 14.63008
Ni 14.63008  2.09001 16.72010
Ni 16.72010  4.18002 16.72010
Ni 18.81011  6.27004 16.72010
Ni 20.90012  8.36005 16.72010
Ni  8.36005  4.18002 12.54007
Ni 10.45006  6.27004 12.54007
Ni 12.54007  8.36005 12.54007
Ni 14.63008 10.45006 12.54007
Ni 10.45006  4.18002 14.63008
Ni 12.54007  6.27004 14.63008
Ni 14.63008  8.36005 14.63008
Ni 16.72010 10.45006 14.63008
Ni 12.54007  4.18002 16.72010
Ni 14.63008  6.27004 16.72010
Ni 16.72010  8.36005 16.72010
Ni 18.81011 10.45006 16.72010
Ni 14.63008  4.18002 18.81011
Ni 16.72010  6.27004 18.81011
Ni 18.81011  8.36005 18.81011
Ni 20.90012 10.45006 18.81011
Ni  8.36005  6.27004 14.63008
Ni 10.45006  8.36005 14.63008
Ni 12.54007 10.45006 14.63008
Ni 14.63008 12.54007 14.63008
Ni 10.45006  6.27004 16.72010
Ni 12.54007  8.36005 16.72010
Ni 14.63008 10.45006 16.72010
Ni 16.72010 12.54007 16.72010
Ni 12.54007  6.27004 18.81011
Ni 14.63008  8.36005 18.81011
Ni 16.72010 10.45006 18.81011
Ni 18.81011 12.54007 18.81011
Ni 14.63008  6.27004 20.90012
Ni 16.72010  8.36005 20.90012
Ni 18.81011 10.45006 20.90012
Ni 20.90012 12.54007 20.90012
O 10.45006  2.09001 10.45006
O 12.54007  4.18002 10.45006
O 14.63008  6.27004 10.45006
O 16.72010  8.36005 10.45006
O 12.54007  2.09001 12.54007
O 14.63008  4.18002 12.54007
O 16.72010  6.27004 12.54007
O 18.81011  8.36005 12.54007
O 14.63008  2.09001 14.63008
O 16.72010  4.18002 14.63008
O 18.81011  6.27004 14.63008
O 20.90012  8.36005 14.63008
O 16.72010  2.09001 16.72010
O 18.81011  4.18002 16.72010
O 20.90012  6.27004 16.72010
O 22.99013  8.36005 16.72010
O 10.45006  4.18002 12.54007
O 12.54007  6.27004 12.54007
O 14.63008  8.36005 12.54007
O 16.72010 10.45006 12.54007
O 12.54007  4.18002 14.63008
O 14.63008  6.27004 14.63008
O 16.72010  8.36005 14.63008
O 18.81011 10.45006 14.63008
O 14.63008  4.18002 16.72010
O 16.72010  6.27004 16.72010
O 18.81011  8.36005 16.72010
O 20.90012 10.45006 16.72010
O 16.72010  4.18002 18.81011
O 18.81011  6.27004 18.81011
O 20.90012  8.36005 18.81011
O 22.99013 10.45006 18.81011
O 10.45006  6.27004 14.63008
O 12.54007  8.36005 14.63008
O 14.63008 10.45006 14.63008
O 16.72010 12.54007 14.63008
O 12.54007  6.27004 16.72010
O 14.63008  8.36005 16.72010
O 16.72010 10.45006 16.72010
O 18.81011 12.54007 16.72010
O 14.63008  6.27004 18.81011
O 16.72010  8.36005 18.81011
O 18.81011 10.45006 18.81011
O 20.90012 12.54007 18.81011
O 16.72010  6.27004 20.90012
O 18.81011  8.36005 20.90012
O 20.90012 10.45006 20.90012
O 22.99013 12.54007 20.90012
O 10.45006  8.36005 16.72010
O 12.54007 10.45006 16.72010
O 14.63008 12.54007 16.72010
O 16.72010 14.63008 16.72010
O 12.54007  8.36005 18.81011
O 14.63008 10.45006 18.81011
O 16.72010 12.54007 18.81011
O 18.81011 14.63008 18.81011
O 14.63008  8.36005 20.90012
O 16.72010 10.45006 20.90012
O 18.81011 12.54007 20.90012
O 20.90012 14.63008 20.90012
O 16.72010  8.36005 22.99013
O 18.81011 10.45006 22.99013
O 20.90012 12.54007 22.99013
O 22.99013 14.63008 22.99013
Ni 10.45006 10.45006 16.72010
Ni 12.54007 12.54007 16.72010
Ni 14.63008 14.63008 16.72010
Ni 10.45006  8.36005 18.81011
Ni 12.54007 10.45006 18.81011
Ni 14.63008 12.54007 18.81011
Ni 16.72010 14.63008 18.81011
Ni 12.54007  8.36005 20.90012
Ni 14.63008 10.45006 20.90012
Ni 16.72010 12.54007 20.90012
Ni 18.81011 14.63008 20.90012
Ni 14.63008  8.36005 22.99013
Ni 16.72010 10.45006 22.99013
Ni 18.81011 12.54007 22.99013
Ni 20.90012 14.63008 22.99013
Ni  8.36005 10.45006 18.81011
Ni 10.45006 12.54007 18.81011
Ni 12.54007 14.63008 18.81011
Ni 14.63008 16.72010 18.81011
Ni 10.45006 10.45006 20.90012
Ni 12.54007 12.54007 20.90012
Ni 14.63008 14.63008 20.90012
Ni 16.72010 16.72010 20.90012
Ni 12.54007 10.45006 22.99013
Ni 14.63008 12.54007 22.99013
Ni 16.72010 14.63008 22.99013
Ni 18.81011 16.72010 22.99013
Ni 14.63008 10.45006 25.08014
Ni 16.72010 12.54007 25.08014
Ni 18.81011 14.63008 25.08014
Ni 20.90012 16.72010 25.08014
Ni  8.36005 12.54007 20.90012
Ni 10.45006 14.63008 20.90012
Ni 12.54007 16.72010 20.90012
Ni 14.63008 18.81011 20.90012
Ni 10.45006 12.54007 22.99013
Ni 12.54007 14.63008 22.99013
Ni 14.63008 16.72010 22.99013
Ni 16.72010 18.81011 22.99013
Ni 12.54007 12.54007 25.08014
Ni 14.63008 14.63008 25.08014
Ni 16.72010 16.72010 25.08014
Ni 18.81011 18.81011 25.08014
Ni 14.63008 12.54007 27.17016
Ni 16.72010 14.63008 27.17016
Ni 18.81011 16.72010 27.17016
Ni 20.90012 18.81011 27.17016
Ni  8.36005 14.63008 22.99013
Ni 10.45006 16.72010 22.99013
Ni 12.54007 18.81011 22.99013
Ni 14.63008 20.90012 22.99013
Ni 10.45006 14.63008 25.08014
Ni 12.54007 16.72010 25.08014
Ni 14.63008 18.81011 25.08014
Ni 16.72010 20.90012 25.08014
Ni 12.54007 14.63008 27.17016
Ni 14.63008 16.72010 27.17016
Ni 16.72010 18.81011 27.17016
Ni 18.81011 20.90012 27.17016
Ni 14.63008 14.63008 29.26017
Ni 16.72010 16.72010 29.26017
Ni 18.81011 18.81011 29.26017
Ni 20.90012 20.90012 29.26017
O 10.45006 10.45006 18.81011
O 12.54007 12.54007 18.81011
O 14.63008 14.63008 18.81011
O 16.72010 16.72010 18.81011
O 12.54007 10.45006 20.90012
O 14.63008 12.54007 20.90012
O 16.72010 14.63008 20.90012
O 18.81011 16.72010 20.90012
O 14.63008 10.45006 22.99013
O 16.72010 12.54007 22.99013
O 18.81011 14.63008 22.99013
O 20.90012 16.72010 22.99013
O 16.72010 10.45006 25.08014
O 18.81011 12.54007 25.08014
O 20.90012 14.63008 25.08014
O 22.99013 16.72010 25.08014
O 10.45006 12.54007 20.90012
O 12.54007 14.63008 20.90012
O 14.63008 16.72010 20.90012
O 16.72010 18.81011 20.90012
O 12.54007 12.54007 22.99013
O 14.63008 14.63008 22.99013
O 16.72010 16.72010 22.99013
O 18.81011 18.81011 22.99013
O 14.63008 12.54007 25.08014
O 16.72010 14.63008 25.08014
O 18.81011 16.72010 25.08014
O 20.90012 18.81011 25.08014
O 16.72010 12.54007 27.17016
O 18.81011 14.63008 27.17016
O 20.90012 16.72010 27.17016
O 22.99013 18.81011 27.17016
O 10.45006 14.63008 22.99013
O 12.54007 16.72010 22.99013
O 14.63008 18.81011 22.99013
O 16.72010 20.90012 22.99013
O 12.54007 14.63008 25.08014
O 14.63008 16.72010 25.08014
O 16.72010 18.81011 25.08014
O 18.81011 20.90012 25.08014
O 14.63008 14.63008 27.17016
O 16.72010 16.72010 27.17016
O 18.81011 18.81011 27.17016
O 20.90012 20.90012 27.17016
O 16.72010 14.63008 29.26017
O 18.81011 16.72010 29.26017
O 20.90012 18.81011 29.26017
O 22.99013 20.90012 29.26017
O 10.45006 16.72010 25.08014
O 12.54007 18.81011 25.08014
O 14.63008 20.90012 25.08014
O 16.72010 22.99013 25.08014
O 12.54007 16.72010 27.17016
O 14.63008 18.81011 27.17016
O 16.72010 20.90012 27.17016
O 18.81011 22.99013 27.17016
O 14.63008 16.72010 29.26017
O 16.72010 18.81011 29.26017
O 18.81011 20.90012 29.26017
O 20.90012 22.99013 29.26017
O 16.72010 16.72010 31.35018
O 18.81011 18.81011 31.35018
O 20.90012 20.90012 31.35018
O 22.99013 22.99013 31.35018
Ni  2.09001  2.09001 -16.72010
Ni  4.18002  4.18002 -16.72010
Ni  6.27004  6.27004 -16.72010
Ni  2.09001 -0.00000 -14.63008
Ni  4.18002  2.09001 -14.63008
Ni  6.27004  4.18002 -14.63008
Ni  8.36005  6.27004 -14.63008
Ni  4.18002  0.00000 -12.54007
Ni  6.27004  2.09001 -12.54007
Ni  8.36005  4.18002 -12.54007
Ni 10.45006  6.27004 -12.54007
Ni  6.27004  0.00000 -10.45006
Ni  8.36005  2.09001 -10.45006
Ni 10.45006  4.18002 -10.45006
Ni 12.54007  6.27004 -10.45006
Ni  0.00000  2.09001 -14.63008
Ni  2.09001  4.18002 -14.63008
Ni  4.18002  6.27004 -14.63008
Ni  6.27004  8.36005 -14.63008
Ni  2.09001  2.09001 -12.54007
Ni  4.18002  4.18002 -12.54007
Ni  6.27004  6.27004 -12.54007
Ni  8.36005  8.36005 -12.54007
Ni  4.18002  2.09001 -10.45006
Ni  6.27004  4.18002 -10.45006
Ni  8.36005  6.27004 -10.45006
Ni 10.45006  8.36005 -10.45006
Ni  6.27004  2.09001 -8.36005
Ni  8.36005  4.18002 -8.36005
Ni 10.45006  6.27004 -8.36005
Ni 12.54007  8.36005 -8.36005
Ni  0.00000  4.18002 -12.54007
Ni  2.09001  6.27004 -12.54007
Ni  4.18002  8.36005 -12.54007
Ni  6.27004 10.45006 -12.54007
Ni  2.09001  4.18002 -10.45006
Ni  4.18002  6.27004 -10.45006
Ni  6.27004  8.36005 -10.45006
Ni  8.36005 10.45006 -10.45006
Ni  4.18002  4.18002 -8.36005
Ni  6.27004  6.27004 -8.36005
Ni  8.36005  8.36005 -8.36005
Ni 10.45006 10.45006 -8.36005
Ni  6.27004  4.18002 -6.27004
Ni  8.36005  6.27004 -6.27004
Ni 10.45006  8.36005 -6.27004
Ni 12.54007 10.45006 -6.27004
Ni  0.00000  6.27004 -10.45006
Ni  2.09001  8.36005 -10.45006
Ni  4.18002 10.45006 -10.45006
Ni  6.27004 12.54007 -10.45006
Ni  2.09001  6.27004 -8.36005
Ni  4.18002  8.36005 -8.36005
Ni  6.27004 10.45006 -8.36005
Ni  8.36005 12.54007 -8.36005
Ni  4.18002  6.27004 -6.27004
Ni  6.27004  8.36005 -6.27004
Ni  8.36005 10.45006 -6.27004
Ni 10.45006 12.54007 -6.27004
Ni  6.27004  6.27004 -4.18002
Ni  8.36005  8.36005 -4.18002
Ni 10.45006 10.45006 -4.18002
Ni 12.54007 12.54007 -4.18002
O  2.09001  2.09001 -14.63008
O  4.18002  4.18002 -14.63008
O  6.27004  6.27004 -14.63008
O  8.36005  8.36005 -14.63008
O  4.18002  2.09001 -12.54007
O  6.27004  4.18002 -12.54007
O  8.36005  6.27004 -12.54007
O 10.45006  8.36005 -12.54007
O  6.27004  2.09001 -10.45006
O  8.36005  4.18002 -10.45006
O 10.45006  6.27004 -10.45006
O 12.54007  8.36005 -10.45006
O  8.36005  2.09001 -8.36005
O 10.45006  4.18002 -8.36005
O 12.54007  6.27004 -8.36005
O 14.63008  8.36005 -8.36005
O  2.09001  4.18002 -12.54007
O  4.18002  6.27004 -12.54007
O  6.27004  8.36005 -12.54007
O  8.36005 10.45006 -12.54007
O  4.18002  4.18002 -10.45006
O  6.27004  6.27004 -10.45006
O  8.36005  8.36005 -10.45006
O 10.45006 10.45006 -10.45006
O  6.27004  4.18002 -8.36005
O  8.36005  6.27004 -8.36005
O 10.45006  8.36005 -8.36005
O 12.54007 10.45006 -8.36005
O  8.36005  4.18002 -6.27004
O 10.45006  6.27004 -6.27004
O 12.54007  8.36005 -6.27004
O 14.63008 10.45006 -6.27004
O  2.09001  6.27004 -10.45006
O  4.18002  8.36005 -10.45006
O  6.27004 10.45006 -10.45006
O  8.36005 12.54007 -10.45006
O  4.18002  6.27004 -8.36005
O  6.27004  8.36005 -8.36005
O  8.36005 10.45006 -8.36005
O 10.45006 12.54007 -8.36005
O  6.27004  6.27004 -6.27004
O  8.36005  8.36005 -6.27004
O 10.45006 10.45006 -6.27004
O 12.54007 12.54007 -6.27004
O  8.36005  6.27004 -4.18002
O 10.45006  8.36005 -4.18002
O 12.54007 10.45006 -4.18002
O 14.63008 12.54007 -4.18002
O  2.09001  8.36005 -8.36005
O  4.18002 10.45006 -8.36005
O  6.27004 12.54007 -8.36005
O  8.36005 14.63008 -8.36005
O  4.18002  8.36005 -6.27004
O  6.27004 10.45006 -6.27004
O  8.36005 12.54007 -6.27004
O 10.45006 14.63008 -6.27004
O  6.27004  8.36005 -4.18002
O  8.36005 10.45006 -4.18002
O 10.45006 12.54007 -4.18002
O 12.54007 14.63008 -4.18002
O  8.36005  8.36005 -2.09001
O 10.45006 10.45006 -2.09001
O 12.54007 12.54007 -2.09001
O 14.63008 14.63008 -2.09001
Ni  2.09001 10.45006 -8.36005
Ni  4.18002 12.54007 -8.36005
Ni  6.27004 14.63008 -8.36005
Ni  2.09001  8.36005 -6.27004
Ni  4.18002 10.45006 -6.27004
Ni  6.27004 12.54007 -6.27004
Ni  8.36005 14.63008 -6.27004
Ni  4.18002  8.36005 -4.18002
Ni  6.27004 10.45006 -4.18002
Ni  8.36005 12.54007 -4.18002
Ni 10.45006 14.63008 -4.18002
Ni  6.27004  8.36005 -2.09001
Ni  8.36005 10.45006 -2.09001
Ni 10.45006 12.54007 -2.09001
Ni 12.54007 14.63008 -2.09001
Ni  0.00000 10.45006 -6.27004
Ni  2.09001 12.54007 -6.27004
Ni  4.18002 14.63008 -6.27004
Ni  6.27004 16.72010 -6.27004
Ni  2.09001 10.45006 -4.18002
Ni  4.18002 12.54007 -4.18002
Ni  6.27004 14.63008 -4.18002
Ni  8.36005 16.72010 -4.18002
Ni  4.18002 10.45006 -2.09001
Ni  6.27004 12.54007 -2.09001
Ni  8.36005 14.63008 -2.09001
Ni 10.45006 16.72010 -2.09001
Ni  6.27004 10.45006  0.00000
Ni  8.36005 12.54007 -0.00000
Ni 10.45006 14.63008 -0.00000
Ni 12.54007 16.72010  0.00000
Ni  0.00000 12.54007 -4.18002
Ni  2.09001 14.63008 -4.18002
Ni  4.18002 16.72010 -4.18002
Ni  6.27004 18.81011 -4.18002
Ni  2.09001 12.54007 -2.09001
Ni  4.18002 14.63008 -2.09001
Ni  6.27004 16.72010 -2.09001
Ni  8.36005 18.81011 -2.09001
Ni  4.18002 12.54007  0.00000
Ni  6.27004 14.63008  0.00000
Ni  8.36005 16.72010  0.00000
Ni 10.45006 18.81011  0.00000
Ni  6.27004 12.54007  2.09001
Ni  8.36005 14.63008  2.09001
Ni 10.45006 16.72010  2.09001
Ni 12.54007 18.81011  2.09001
Ni  0.00000 14.63008 -2.09001
Ni  2.09001 16.72010 -2.09001
Ni  4.18002 18.81011 -2.09001
Ni  6.27004 20.90012 -2.09001
Ni  2.09001 14.63008  0.00000
Ni  4.18002 16.72010  0.00000
Ni  6.27004 18.81011  0.00000
Ni  8.36005 20.90012  0.00000
Ni  4.18002 14.63008  2.09001
Ni  6.27004 16.72010  2.09001
Ni  8.36005 18.81011  2.09001
Ni 10.45006 20.90012  2.09001
Ni  6.27004 14.63008  4.18002
Ni  8.36005 16.72010  4.18002
Ni 10.45006 18.81011  4.18002
Ni 12.54007 20.90012  4.18002
O  2.09001 10.45006 -6.27004
O  4.18002 12.54007 -6.27004
O  6.27004 14.63008 -6.27004
O  8.36005 16.72010 -6.27004
O  4.18002 10.45006 -4.18002
O  6.27004 12.54007 -4.18002
O  8.36005 14.63008 -4.18002
O 10.45006 16.72010 -4.18002
O  6.27004 10.45006 -2.09001
O  8.36005 12.54007 -2.09001
O 10.45006 14.63008 -2.09001
O 12.54007 16.72010 -2.09001
O  8.36005 10.45006  0.00000
O 10.45006 12.54007  0.00000
O 12.54007 14.63008  0.00000
O 14.63008 16.72010 -0.00000
O  2.09001 12.54007 -4.18002
O  4.18002 14.63008 -4.18002
O  6.27004 16.72010 -4.18002
O  8.36005 18.81011 -4.18002
O  4.18002 12.54007 -2.09001
O  6.27004 14.63008 -2.09001
O  8.36005 16.72010 -2.09001
O 10.45006 18.81011 -2.09001
O  6.27004 12.54007  0.00000
O  8.36005 14.63008  0.00000
O 10.45006 16.72010  0.00000
O 12.54007 18.81011  0.00000
O  8.36005 12.54007  2.09001
O 10.45006 14.63008  2.09001
O 12.54007 16.72010  2.09001
O 14.63008 18.81011  2.09001
O  2.09001 14.63008 -2.09001
O  4.18002 16.72010 -2.09001
O  6.27004 18.81011 -2.09001
O  8.36005 20.90012 -2.09001
O  4.18002 14.63008  0.00000
O  6.27004 16.72010  0.00000
O  8.36005 18.81011  0.00000
O 10.45006 20.90012  0.00000
O  6.27004 14.63008  2.09001
O  8.36005 16.72010  2.09001
O 10.45006 18.81011  2.09001
O 12.54007 20.90012  2.09001
O  8.36005 14.63008  4.18002
O 10.45006 16.72010  4.18002
O 12.54007 18.81011  4.18002
O 14.63008 20.90012  4.18002
O  2.09001 16.72010  0.00000
O  4.18002 18.81011  0.00000
O  6.27004 20.90012  0.00000
O  8.36005 22.99013  0.00000
O  4.18002 16.72010  2.09001
O  6.27004 18.81011  2.09001
O  8.36005 20.90012  2.09001
O 10.45006 22.99013  2.09001
O  6.27004 16.72010  4.18002
O  8.36005 18.81011  4.18002
O 10.45006 20.90012  4.18002
O 12.54007 22.99013  4.18002
O  8.36005 16.72010  6.27004
O 10.45006 18.81011  6.27004
O 12.54007 20.90012  6.27004
O 14.63008 22.99013  6.27004
Ni  2.09001 18.81011  0.00000
Ni  4.18002 20.90012  0.00000
Ni  6.27004 22.99013  0.00000
Ni  2.09001 16.72010  2.09001
Ni  4.18002 18.81011  2.09001
Ni  6.27004 20.90012  2.09001
Ni  8.36005 22.99013  2.09001
Ni  4.18002 16.72010  4.18002
Ni  6.27004 18.81011  4.18002
Ni  8.36005 20.90012  4.18002
Ni 10.45006 22.99013  4.18002
Ni  6.27004 16.72010  6.27004
Ni  8.36005 18.81011  6.27004
Ni 10.45006 20.90012  6.27004
Ni 12.54007 22.99013  6.27004
Ni  0.00000 18.81011  2.09001
Ni  2.09001 20.90012  2.09001
Ni  4.18002 22.99013  2.09001
Ni  6.27004 25.08014  2.09001
Ni  2.09001 18.81011  4.18002
Ni  4.18002 20.90012  4.18002
Ni  6.27004 22.99013  4.18002
Ni  8.36005 25.08014  4.18002
Ni  4.18002 18.81011  6.27004
Ni  6.27004 20.90012  6.27004
Ni  8.36005 22.99013  6.27004
Ni 10.45006 25.08014  6.27004
Ni  6.27004 18.81011  8.36005
Ni  8.36005 20.90012  8.36005
Ni 10.45006 22.99013  8.36005
Ni 12.54007 25.08014  8.36005
Ni  0.00000 20.90012  4.18002
Ni  2.09001 22.99013  4.18002
Ni  4.18002 25.08014  4.18002
Ni  6.27004 27.17016  4.18002
Ni  2.09001 20.90012  6.27004
Ni  4.18002 22.99013  6.27004
Ni  6.27004 25.08014  6.27004
Ni  8.36005 27.17016  6.27004
Ni  4.18002 20.90012  8.36005
Ni  6.27004 22.99013  8.36005
Ni  8.36005 25.08014  8.36005
Ni 10.45006 27.17016  8.36005
Ni  6.27004 20.90012 10.45006
Ni  8.36005 22.99013 10.45006
Ni 10.45006 25.08014 10.45006
Ni 12.54007 27.17016 10.45006
Ni  0.00000 22.99013  6.27004
Ni  2.09001 25.08014  6.27004
Ni  4.18002 27.17016  6.27004
Ni  6.27004 29.26017  6.27004
Ni  2.09001 22.99013  8.36005
Ni  4.18002 25.08014  8.36005
Ni  6.27004 27.17016  8.36005
Ni  8.36005 29.26017  8.36005
Ni  4.18002 22.99013 10.45006
Ni  6.27004 25.08014 10.45006
Ni  8.36005 27.17016 10.45006
Ni 10.45006 29.26017 10.45006
Ni  6.27004 22.99013 12.54007
Ni  8.36005 25.08014 12.54007
Ni 10.45006 27.17016 12.54007
Ni 12.54007 29.26017 12.54007
O  2.09001 18.81011  2.09001
O  4.18002 20.90012  2.09001
O  6.27004 22.99013  2.09001
O  8.36005 25.08014  2.09001
O  4.18002 18.81011  4.18002
O  6.27004 20.90012  4.18002
O  8.36005 22.99013  4.18002
O 10.45006 25.08014  4.18002
O  6.27004 18.81011  6.27004
O  8.36005 20.90012  6.27004
O 10.45006 22.99013  6.27004
O 12.54007 25.08014  6.27004
O  8.36005 18.81011  8.36005
O 10.45006 20.90012  8.36005
O 12.54007 22.99013  8.36005
O 14.63008 25.08014  8.36005
O  2.09001 20.90012  4.18002
O  4.18002 22.99013  4.18002
O  6.27004 25.08014  4.18002
O  8.36005 27.17016  4.18002
O  4.18002 20.90012  6.27004
O  6.27004 22.99013  6.27004
O  8.36005 25.08014  6.27004
O 10.45006 27.17016  6.27004
O  6.27004 20.90012  8.36005
O  8.36005 22.99013  8.36005
O 10.45006 25.08014  8.36005
O 12.54007 27.17016  8.36005
O  8.36005 20.90012 10.45006
O 10.45006 22.99013 10.45006
O 12.54007 25.08014 10.45006
O 14.63008 27.17016 10.45006
O  2.09001 22.99013  6.27004
O  4.18002 25.08014  6.27004
O  6.27004 27.17016  6.27004
O  8.36005 29.26017  6.27004
O  4.18002 22.99013  8.36005
O  6.27004 25.08014  8.36005
O  8.36005 27.17016  8.36005
O 10.45006 29.26017  8.36005
O  6.27004 22.99013 10.45006
O  8.36005 25.08014 10.45006
O 10.45006 27.17016 10.45006
O 12.54007 29.26017 10.45006
O  8.36005 22.99013 12.54007
O 10.45006 25.08014 12.54007
O 12.54007 27.17016 12.54007
O 14.63008 29.26017 12.54007
O  2.09001 25.08014  8.36005
O  4.18002 27.17016  8.36005
O  6.27004 29.26017  8.36005
O  8.36005 31.35018  8.36005
O  4.18002 25.08014 10.45006
O  6.27004 27.17016 10.45006
O  8.36005 29.26017 10.45006
O 10.45006 31.35018 10.45006
O  6.27004 25.08014 12.54007
O  8.36005 27.17016 12.54007
O 10.45006 29.26017 12.54007
O 12.54007 31.35018 12.54007
O  8.36005 25.08014 14.63008
O 10.45006 27.17016 14.63008
O 12.54007 29.26017 14.63008
O 14.63008 31.35018 14.63008
Ni 10.45006  2.09001 -8.36005
Ni 12.54007  4.18002 -8.36005
Ni 14.63008  6.27004 -8.36005
Ni 10.45006 -0.00000 -6.27004
Ni 12.54007  2.09001 -6.27004
Ni 14.63008  4.18002 -6.27004
Ni 16.72010  6.27004 -6.27004
Ni 12.54007  0.00000 -4.18002
Ni 14.63008  2.09001 -4.18002
Ni 16.72010  4.18002 -4.18002
Ni 18.81011  6.27004 -4.18002
Ni 14.63008  0.00000 -2.09001
Ni 16.72010  2.09001 -2.09001
Ni 18.81011  4.18002 -2.09001
Ni 20.90012  6.27004 -2.09001
Ni  8.36005  2.09001 -6.27004
Ni 10.45006  4.18002 -6.27004
Ni 12.54007  6.27004 -6.27004
Ni 14.63008  8.36005 -6.27004
Ni 10.45006  2.09001 -4.18002
Ni 12.54007  4.18002 -4.18002
Ni 14.63008  6.27004 -4.18002
Ni 16.72010  8.36005 -4.18002
Ni 12.54007  2.09001 -2.09001
Ni 14.63008  4.18002 -2.09001
Ni 16.72010  6.27004 -2.09001
Ni 18.81011  8.36005 -2.09001
Ni 14.63008  2.09001  0.00000
Ni 16.72010  4.18002 -0.00000
Ni 18.81011  6.27004 -0.00000
Ni 20.90012  8.36005  0.00000
Ni  8.36005  4.18002 -4.18002
Ni 10.45006  6.27004 -4.18002
Ni 12.54007  8.36005 -4.18002
Ni 14.63008 10.45006 -4.18002
Ni 10.45006  4.18002 -2.09001
Ni 12.54007  6.27004 -2.09001
Ni 14.63008  8.36005 -2.09001
Ni 16.72010 10.45006 -2.09001
Ni 12.54007  4.18002  0.00000
Ni 14.63008  6.27004  0.00000
Ni 16.72010  8.36005  0.00000
Ni 18.81011 10.45006  0.00000
Ni 14.63008  4.18002  2.09001
Ni 16.72010  6.27004  2.09001
Ni 18.81011  8.36005  2.09001
Ni 20.90012 10.45006  2.09001
Ni  8.36005  6.27004 -2.09001
Ni 10.45006  8.36005 -2.09001
Ni 12.54007 10.45006 -2.09001
Ni 14.63008 12.54007 -2.09001
Ni 10.45006  6.27004  0.00000
Ni 12.54007  8.36005  0.00000
Ni 14.63008 10.45006  0.00000
Ni 16.72010 12.54007  0.00000
Ni 12.54007  6.27004  2.09001
Ni 14.63008  8.36005  2.09001
Ni 16.72010 10.45006  2.09001
Ni 18.81011 12.54007  2.09001
Ni 14.63008  6.27004  4.18002
Ni 16.72010  8.36005  4.18002
Ni 18.81011 10.45006  4.18002
Ni 20.90012 12.54007  4.18002
O 10.45006  2.09001 -6.27004
O 12.54007  4.18002 -6.27004
O 14.63008  6.27004 -6.27004
O 16.72010  8.36005 -6.27004
O 12.54007  2.09001 -4.18002
O 14.63008  4.18002 -4.18002
O 16.72010  6.27004 -4.18002
O 18.81011  8.36005 -4.18002
O 14.63008  2.09001 -2.09001
O 16.72010  4.18002 -2.09001
O 18.81011  6.27004 -2.09001
O 20.90012  8.36005 -2.09001
O 16.72010  2.09001  0.00000
O 18.81011  4.18002  0.00000
O 20.90012  6.27004  0.00000
O 22.99013  8.36005 -0.00000
O 10.45006  4.18002 -4.18002
O 12.54007  6.27004 -4.18002
O 14.63008  8.36005 -4.18002
O 16.72010 10.45006 -4.18002
O 12.54007  4.18002 -2.09001
O 14.63008  6.27004 -2.09001
O 16.72010  8.36005 -2.09001
O 18.81011 10.45006 -2.09001
O 14.63008  4.18002  0.00000
O 16.72010  6.27004  0.00000
O 18.81011  8.36005  0.00000
O 20.90012 10.45006  0.00000
O 16.72010  4.18002  2.09001
O 18.81011  6.27004  2.09001
O 20.90012  8.36005  2.09001
O 22.99013 10.45006  2.09001
O 10.45006  6.27004 -2.09001
O 12.54007  8.36005 -2.09001
O 14.63008 10.45006 -2.09001
O 16.72010 12.54007 -2.09001
O 12.54007  6.27004  0.00000
O 14.63008  8.36005  0.00000
O 16.72010 10.45006  0.00000
O 18.81011 12.54007  0.00000
O 14.63008  6.27004  2.09001
O 16.72010  8.36005  2.09001
O 18.81011 10.45006  2.09001
O 20.90012 12.54007  2.09001
O 16.72010  6.27004  4.18002
O 18.81011  8.36005  4.18002
O 20.90012 10.45006  4.18002
O 22.99013 12.54007  4.18002
O 10.45006  8.36005  0.00000
O 12.54007 10.45006  0.00000
O 14.63008 12.54007  0.00000
O 16.72010 14.63008  0.00000
O 12.54007  8.36005  2.09001
O 14.63008 10.45006  2.09001
O 16.72010 12.54007  2.09001
O 18.81011 14.63008  2.09001
O 14.63008  8.36005  4.18002
O 16.72010 10.45006  4.18002
O 18.81011 12.54007  4.18002
O 20.90012 14.63008  4.18002
O 16.72010  8.36005  6.27004
O 18.81011 10.45006  6.27004
O 20.90012 12.54007  6.27004
O 22.99013 14.63008  6.27004
Ni 10.45006 10.45006  0.00000
Ni 12.54007 12.54007  0.00000
Ni 14.63008 14.63008  0.00000
Ni 10.45006  8.36005  2.09001
Ni 12.54007 10.45006  2.09001
Ni 14.63008 12.54007  2.09001
Ni 16.72010 14.63008  2.09001
Ni 12.54007  8.36005  4.18002
Ni 14.63008 10.45006  4.18002
Ni 16.72010 12.54007  4.18002
Ni 18.81011 14.63008  4.18002
Ni 14.63008  8.36005  6.27004
Ni 16.72010 10.45006  6.27004
Ni 18.81011 12.54007  6.27004
Ni 20.90012 14.63008  6.27004
Ni  8.36005 10.45006  2.09001
Ni 10.45006 12.54007  2.09001
Ni 12.54007 14.63008  2.09001
Ni 14.63008 16.72010  2.09001
Ni 10.45006 10.45006  4.18002
Ni 12.54007 12.54007  4.18002
Ni 14.63008 14.63008  4.18002
Ni 16.72010 16.72010  4.18002
Ni 12.54007 10.45006  6.27004
Ni 14.63008 12.54007  6.27004
Ni 16.72010 14.63008  6.27004
Ni 18.81011 16.72010  6.27004
Ni 14.63008 10.45006  8.36005
Ni 16.72010 12.54007  8.36005
Ni 18.81011 14.63008  8.36005
Ni 20.90012 16.72010  8.36005
Ni  8.36005 12.54007  4.18002
Ni 10.45006 14.63008  4.18002
Ni 12.54007 16.72010  4.18002
Ni 14.63008 18.81011  4.18002
Ni 10.45006 12.54007  6.27004
Ni 12.54007 14.63008  6.27004
Ni 14.63008 16.72010  6.27004
Ni 16.72010 18.81011  6.27004
Ni 12.54007 12.54007  8.36005
Ni 14.63008 14.63008  8.36005
Ni 16.72010 16.72010  8.36005
Ni 18.81011 18.81011  8.36005
Ni 14.63008 12.54007 10.45006
Ni 16.72010 14.63008 10.45006
Ni 18.81011 16.72010 10.45006
Ni 20.90012 18.81011 10.45006
Ni  8.36005 14.63008  6.27004
Ni 10.45006 16.72010  6.27004
Ni 12.54007 18.81011  6.27004
Ni 14.63008 20.90012  6.27004
Ni 10.45006 14.63008  8.36005
Ni 12.54007 16.72010  8.36005
Ni 14.63008 18.81011  8.36005
Ni 16.72010 20.90012  8.36005
Ni 12.54007 14.63008 10.45006
Ni 14.63008 16.72010 10.45006
Ni 16.72010 18.81011 10.45006
Ni 18.81011 20.90012 10.45006
Ni 14.63008 14.63008 12.54007
Ni 16.72010 16.72010 12.54007
Ni 18.81011 18.81011 12.54007
Ni 20.90012 20.90012 12.54007
O 10.45006 10.45006  2.09001
O 12.54007 12.54007  2.09001
O 14.63008 14.63008  2.09001
O 16.72010 16.72010  2.09001
O 12.54007 10.45006  4.18002
O 14.63008 12.54007  4.18002
O 16.72010 14.63008  4.18002
O 18.81011 16.72010  4.18002
O 14.63008 10.45006  6.27004
O 16.72010 12.54007  6.27004
O 18.81011 14.63008  6.27004
O 20.90012 16.72010  6.27004
O 16.72010 10.45006  8.36005
O 18.81011 12.54007  8.36005
O 20.90012 14.63008  8.36005
O 22.99013 16.72010  8.36005
O 10.45006 12.54007  4.18002
O 12.54007 14.63008  4.18002
O 14.63008 16.72010  4.18002
O 16.72010 18.81011  4.18002
O 12.54007 12.54007  6.27004
O 14.63008 14.63008  6.27004
O 16.72010 16.72010  6.27004
O 18.81011 18.81011  6.27004
O 14.63008 12.54007  8.36005
O 16.72010 14.63008  8.36005
O 18.81011 16.72010  8.36005
O 20.90012 18.81011  8.36005
O 16.72010 12.54007 10.45006
O 18.81011 14.63008 10.45006
O 20.90012 16.72010 10.45006
O 22.99013 18.81011 10.45006
O 10.45006 14.63008  6.27004
O 12.54007 16.72010  6.27004
O 14.63008 18.81011  6.27004
O 16.72010 20.90012  6.27004
O 12.54007 14.63008  8.36005
O 14.63008 16.72010  8.36005
O 16.72010 18.81011  8.36005
O 18.81011 20.90012  8.36005
O 14.63008 14.63008 10.45006
O 16.72010 16.72010 10.45006
O 18.81011 18.81011 10.45006
O 20.90012 20.90012 10.45006
O 16.72010 14.63008 12.54007
O 18.81011 16.72010 12.54007
O 20.90012 18.81011 12.54007
O 22.99013 20.90012 12.54007
O 10.45006 16.72010  8.36005
O 12.54007 18.81011  8.36005
O 14.63008 20.90012  8.36005
O 16.72010 22.99013  8.36005
O 12.54007 16.72010 10.45006
O 14.63008 18.81011 10.45006
O 16.72010 20.90012 10.45006
O 18.81011 22.99013 10.45006
O 14.63008 16.72010 12.54007
O 16.72010 18.81011 12.54007
O 18.81011 20.90012 12.54007
O 20.90012 22.99013 12.54007
O 16.72010 16.72010 14.63008
O 18.81011 18.81011 14.63008
O 20.90012 20.90012 14.63008
O 22.99013 22.99013 14.63008
Ni 10.45006 18.81011  8.36005
Ni 12.54007 20.90012  8.36005
Ni 14.63008 22.99013  8.36005
Ni 10.45006 16.72010 10.45006
Ni 12.54007 18.81011 10.45006
Ni 14.63008 20.90012 10.45006
Ni 16.72010 22.99013 10.45006
Ni 12.54007 16.72010 12.54007
Ni 14.63008 18.81011 12.54007
Ni 16.72010 20.90012 12.54007
Ni 18.81011 22.99013 12.54007
Ni 14.63008 16.72010 14.63008
Ni 16.72010 18.81011 14.63008
Ni 18.81011 20.90012 14.63008
Ni 20.90012 22.99013 14.63008
Ni  8.36005 18.81011 10.45006
Ni 10.45006 20.90012 10.45006
Ni 12.54007 22.99013 10.45006
Ni 14.63008 25.08014 10.45006
Ni 10.45006 18.81011 12.54007
Ni 12.54007 20.90012 12.54007
Ni 14.63008 22.99013 12.54007
Ni 16.72010 25.08014 12.54007
Ni 12.54007 18.81011 14.63008
Ni 14.63008 20.90012 14.63008
Ni 16.72010 22.99013 14.63008
Ni 18.81011 25.08014 14.63008
Ni 14.63008 18.81011 16.72010
Ni 16.72010 20.90012 16.72010
Ni 18.81011 22.99013 16.72010
Ni 20.90012 25.08014 16.72010
Ni  8.36005 20.90012 12.54007
Ni 10.45006 22.99013 12.54007
Ni 12.54007 25.08014 12.54007
Ni 14.63008 27.17016 12.54007
Ni 10.45006 20.90012 14.63008
Ni 12.54007 22.99013 14.63008
Ni 14.63008 25.08014 14.63008
Ni 16.72010 27.17016 14.63008
Ni 12.54007 20.90012 16.72010
Ni 14.63008 22.99013 16.72010
Ni 16.72010 25.08014 16.72010
Ni 18.81011 27.17016 16.72010
Ni 14.63008 20.90012 18.81011
Ni 16.72010 22.99013 18.81011
Ni 18.81011 25.08014 18.81011
Ni 20.90012 27.17016 18.81011
Ni  8.36005 22.99013 14.63008
Ni 10.45006 25.08014 14.63008
Ni 12.54007 27.17016 14.63008
Ni 14.63008 29.26017 14.63008
Ni 10.45006 22.99013 16.72010
Ni 12.54007 25.08014 16.72010
Ni 14.63008 27.17016 16.72010
Ni 16.72010 29.26017 16.72010
Ni 12.54007 22.99013 18.81011
Ni 14.63008 25.08014 18.81011
Ni 16.72010 27.17016 18.81011
Ni 18.81011 29.26017 18.81011
Ni 14.63008 22.99013 20.90012
Ni 16.72010 25.08014 20.90012
Ni 18.81011 27.17016 20.90012
Ni 20.90012 29.26017 20.90012
O 10.45006 18.81011 10.45006
O 12.54007 20.90012 10.45006
O 14.63008 22.99013 10.45006
O 16.72010 25.08014 10.45006
O 12.54007 18.81011 12.54007
O 14.63008 20.90012 12.54007
O 16.72010 22.99013 12.54007
O 18.81011 25.08014 12.54007
O 14.63008 18.81011 14.63008
O 16.72010 20.90012 14.63008
O 18.81011 22.99013 14.63008
O 20.90012 25.08014 14.63008
O 16.72010 18.81011 16.72010
O 18.81011 20.90012 16.72010
O 20.90012 22.99013 16.72010
O 22.99013 25.08014 16.72010
O 10.45006 20.90012 12.54007
O 12.54007 22.99013 12.54007
O 14.63008 25.08014 12.54007
O 16.72010 27.17016 12.54007
O 12.54007 20.90012 14.63008
O 14.63008 22.99013 14.63008
O 16.72010 25.08014 14.63008
O 18.81011 27.17016 14.63008
O 14.63008 20.90012 16.72010
O 16.72010 22.99013 16.72010
O 18.81011 25.08014 16.72010
O 20.90012 27.17016 16.72010
O 16.72010 20.90012 18.81011
O 18.81011 22.99013 18.81011
O 20.90012 25.08014 18.81011
O 22.99013 27.17016 18.81011
O 10.45006 22.99013 14.63008
O 12.54007 25.08014 14.63008
O 14.63008 27.17016 14.63008
O 16.72010 29.26017 14.63008
O 12.54007 22.99013 16.72010
O 14.63008 25.08014 16.72010
O 16.72010 27.17016 16.72010
O 18.81011 29.26017 16.72010
O 14.63008 22.99013 18.81011
O 16.72010 25.08014 18.81011
O 18.81011 27.17016 18.81011
O 20.90012 29.26017 18.81011
O 16.72010 22.99013 20.90012
O 18.81011 25.08014 20.90012
O 20.90012 27.17016 20.90012
O 22.99013 29.26017 20.90012
O 10.45006 25.08014 16.72010
O 12.54007 27.17016 16.72010
O 14.63008 29.26017 16.72010
O 16.72010 31.35018 16.72010
O 12.54007 25.08014 18.81011
O 14.63008 27.17016 18.81011
O 16.72010 29.26017 18.81011
O 18.81011 31.35018 18.81011
O 14.63008 25.08014 20.90012
O 16.72010 27.17016 20.90012
O 18.81011 29.26017 20.90012
O 20.90012 31.35018 20.90012
O 16.72010 25.08014 22.99013
O 18.81011 27.17016 22.99013
O 20.90012 29.26017 22.99013
O 22.99013 31.35018 22.99013
Ni 18.81011  2.09001  0.00000
Ni 20.90012  4.18002  0.00000
Ni 22.99013  6.27004  0.00000
Ni 18.81011 -0.00000  2.09001
Ni 20.90012  2.09001  2.09001
Ni 22.99013  4.18002  2.09001
Ni 25.08014  6.27004  2.09001
Ni 20.90012  0.00000  4.18002
Ni 22.99013  2.09001  4.18002
Ni 25.08014  4.18002  4.18002
Ni 27.17016  6.27004  4.18002
Ni 22.99013  0.00000  6.27004
Ni 25.08014  2.09001  6.27004
Ni 27.17016  4.18002  6.27004
Ni 29.26017  6.27004  6.27004
Ni 16.72010  2.09001  2.09001
Ni 18.81011  4.18002  2.09001
Ni 20.90012  6.27004  2.09001
Ni 22.99013  8.36005  2.09001
Ni 18.81011  2.09001  4.18002
Ni 20.90012  4.18002  4.18002
Ni 22.99013  6.27004  4.18002
Ni 25.08014  8.36005  4.18002
Ni 20.90012  2.09001  6.27004
Ni 22.99013  4.18002  6.27004
Ni 25.08014  6.27004  6.27004
Ni 27.17016  8.36005  6.27004
Ni 22.99013  2.09001  8.36005
Ni 25.08014  4.18002  8.36005
Ni 27.17016  6.27004  8.36005
Ni 29.26017  8.36005  8.36005
Ni 16.72010  4.18002  4.18002
Ni 18.81011  6.27004  4.18002
Ni 20.90012  8.36005  4.18002
Ni 22.99013 10.45006  4.18002
Ni 18.81011  4.18002  6.27004
Ni 20.90012  6.27004  6.27004
Ni 22.99013  8.36005  6.27004
Ni 25.08014 10.45006  6.27004
Ni 20.90012  4.18002  8.36005
Ni 22.99013  6.27004  8.36005
Ni 25.08014  8.36005  8.36005
Ni 27.17016 10.45006  8.36005
Ni 22.99013  4.18002 10.45006
Ni 25.08014  6.27004 10.45006
Ni 27.17016  8.36005 10.45006
Ni 29.26017 10.45006 10.45006
Ni 16.72010  6.27004  6.27004
Ni 18.81011  8.36005  6.27004
Ni 20.90012 10.45006  6.27004
Ni 22.99013 12.54007  6.27004
Ni 18.81011  6.27004  8.36005
Ni 20.90012  8.36005  8.36005
Ni 22.99013 10.45006  8.36005
Ni 25.08014 12.54007  8.36005
Ni 20.90012  6.27004 10.45006
Ni 22.99013  8.36005 10.45006
Ni 25.08014 10.45006 10.45006
Ni 27.17016 12.54007 10.45006
Ni 22.99013  6.27004 12.54007
Ni 25.08014  8.36005 12.54007
Ni 27.17016 10.45006 12.54007
Ni 29.26017 12.54007 12.54007
O 18.81011  2.09001  2.09001
O 20.90012  4.18002  2.09001
O 22.99013  6.27004  2.09001
O 25.08014  8.36005  2.09001
O 20.90012  2.09001  4.18002
O 22.99013  4.18002  4.18002
O 25.08014  6.27004  4.18002
O 27.17016  8.36005  4.18002
O 22.99013  2.09001  6.27004
O 25.08014  4.18002  6.27004
O 27.17016  6.27004  6.27004
O 29.26017  8.36005  6.27004
O 25.08014  2.09001  8.36005
O 27.17016  4.18002  8.36005
O 29.26017  6.27004  8.36005
O 31.35018  8.36005  8.36005
O 18.81011  4.18002  4.18002
O 20.90012  6.27004  4.18002
O 22.99013  8.36005  4.18002
O 25.08014 10.45006  4.18002
O 20.90012  4.18002  6.27004
O 22.99013  6.27004  6.27004
O 25.08014  8.36005  6.27004
O 27.17016 10.45006  6.27004
O 22.99013  4.18002  8.36005
O 25.08014  6.27004  8.36005
O 27.17016  8.36005  8.36005
O 29.26017 10.45006  8.36005
O 25.08014  4.18002 10.45006
O 27.17016  6.27004 10.45006
O 29.26017  8.36005 10.45006
O 31.35018 10.45006 10.45006
O 18.81011  6.27004  6.27004
O 20.90012  8.36005  6.27004
O 22.99013 10.45006  6.27004
O 25.08014 12.54007  6.27004
O 20.90012  6.27004  8.36005
O 22.99013  8.36005  8.36005
O 25.08014 10.45006  8.36005
O 27.17016 12.54007  8.36005
O 22.99013  6.27004 10.45006
O 25.08014  8.36005 10.45006
O 27.17016 10.45006 10.45006
O 29.26017 12.54007 10.45006
O 25.08014  6.27004 12.54007
O 27.17016  8.36005 12.54007
O 29.26017 10.45006 12.54007
O 31.35018 12.54007 12.54007
O 18.81011  8.36005  8.36005
O 20.90012 10.45006  8.36005
O 22.99013 12.54007  8.36005
O 25.08014 14.63008  8.36005
O 20.90012  8.36005 10.45006
O 22.99013 10.45006 10.45006
O 25.08014 12.54007 10.45006
O 27.17016 14.63008 10.45006
O 22.99013  8.36005 12.54007
O 25.08014 10.45006 12.54007
O 27.17016 12.54007 12.54007
O 29.26017 14.63008 12.54007
O 25.08014  8.36005 14.63008
O 27.17016 10.45006 14.63008
O 29.26017 12.54007 14.63008
O 31.35018 14.63008 14.63008
Ni 18.81011 10.45006  8.36005
Ni 20.90012 12.54007  8.36005
Ni 22.99013 14.63008  8.36005
Ni 18.81011  8.36005 10.45006
Ni 20.90012 10.45006 10.45006
Ni 22.99013 12.54007 10.45006
Ni 25.08014 14.63008 10.45006
Ni 20.90012  8.36005 12.54007
Ni 22.99013 10.45006 12.54007
Ni 25.08014 12.54007 12.54007
Ni 27.17016 14.63008 12.54007
Ni 22.99013  8.36005 14.63008
Ni 25.08014 10.45006 14.63008
Ni 27.17016 12.54007 14.63008
Ni 29.26017 14.63008 14.63008
Ni 16.72010 10.45006 10.45006
Ni 18.81011 12.54007 10.45006
Ni 20.90012 14.63008 10.45006
Ni 22.99013 16.72010 10.45006
Ni 18.81011 10.45006 12.54007
Ni 20.90012 12.54007 12.54007
Ni 22.99013 14.63008 12.54007
Ni 25.08014 16.72010 12.54007
Ni 20.90012 10.45006 14.63008
Ni 22.99013 12.54007 14.63008
Ni 25.08014 14.63008 14.63008
Ni 27.17016 16.72010 14.63008
Ni 22.99013 10.45006 16.72010
Ni 25.08014 12.54007 16.72010
Ni 27.17016 14.63008 16.72010
Ni 29.26017 16.72010 16.72010
Ni 16.72010 12.54007 12.54007
Ni 18.81011 14.63008 12.54007
Ni 20.90012 16.72010 12.54007
Ni 22.99013 18.81011 12.54007
Ni 18.81011 12.54007 14.63008
Ni 20.90012 14.63008 14.63008
Ni 22.99013 16.72010 14.63008
Ni 25.08014 18.81011 14.63008
Ni 20.90012 12.54007 16.72010
Ni 22.99013 14.63008 16.72010
Ni 25.08014 16.72010 16.72010
Ni 27.17016 18.81011 16.72010
Ni 22.99013 12.54007 18.81011
Ni 25.08014 14.63008 18.81011
Ni 27.17016 16.72010 18.81011
Ni 29.26017 18.81011 18.81011
Ni 16.72010 14.63008 14.63008
Ni 18.81011 16.72010 14.63008
Ni 20.90012 18.81011 14.63008
Ni 22.99013 20.90012 14.63008
Ni 18.81011 14.63008 16.72010
Ni 20.90012 16.72010 16.72010
Ni 22.99013 18.81011 16.72010
Ni 25.08014 20.90012 16.72010
Ni 20.90012 14.63008 18.81011
Ni 22.99013 16.72010 18.81011
Ni 25.08014 18.81011 18.81011
Ni 27.17016 20.90012 18.81011
Ni 22.99013 14.63008 20.90012
Ni 25.08014 16.72010 20.90012
Ni 27.17016 18.81011 20.90012
Ni 29.26017 20.90012 20.90012
O 18.81011 10.45006 10.45006
O 20.90012 12.54007 10.45006
O 22.99013 14.63008 10.45006
O 25.08014 16.72010 10.45006
O 20.90012 10.45006 12.54007
O 22.99013 12.54007 12.54007
O 25.08014 14.63008 12.54007
O 27.17016 16.72010 12.54007
O 22.99013 10.45006 14.63008
O 25.08014 12.54007 14.63008
O 27.17016 14.63008 14.63008
O 29.26017 16.72010 14.63008
O 25.08014 10.45006 16.72010
O 27.17016 12.54007 16.72010
O 29.26017 14.63008 16.72010
O 31.35018 16.72010 16.72010
O 18.81011 12.54007 12.54007
O 20.90012 14.63008 12.54007
O 22.99013 16.72010 12.54007
O 25.08014 18.81011 12.54007
O 20.90012 12.54007 14.63008
O 22.99013 14.63008 14.63008
O 25.08014 16.72010 14.63008
O 27.17016 18.81011 14.63008
O 22.99013 12.54007 16.72010
O 25.08014 14.63008 16.72010
O 27.17016 16.72010 16.72010
O 29.26017 18.81011 16.72010
O 25.08014 12.54007 18.81011
O 27.17016 14.63008 18.81011
O 29.26017 16.72010 18.81011
O 31.35018 18.81011 18.81011
O 18.81011 14.63008 14.63008
O 20.90012 16.72010 14.63008
O 22.99013 18.81011 14.63008
O 25.08014 20.90012 14.63008
O 20.90012 14.63008 16.72010
O 22.99013 16.72010 16.72010
O 25.08014 18.81011 16.72010
O 27.17016 20.90012 16.72010
O 22.99013 14.63008 18.81011
O 25.08014 16.72010 18.81011
O 27.17016 18.81011 18.81011
O 29.26017 20.90012 18.81011
O 25.08014 14.63008 20.90012
O 27.17016 16.72010 20.90012
O 29.26017 18.81011 20.90012
O 31.35018 20.90012 20.90012
O 18.81011 16.72010 16.72010
O 20.90012 18.81011 16.72010
O 22.99013 20.90012 16.72010
O 25.08014 22.99013 16.72010
O 20.90012 16.72010 18.81011
O 22.99013 18.81011 18.81011
O 25.08014 20.90012 18.81011
O 27.17016 22.99013 18.81011
O 22.99013 16.72010 20.90012
O 25.08014 18.81011 20.90012
O 27.17016 20.90012 20.90012
O 29.26017 22.99013 20.90012
O 25.08014 16.72010 22.99013
O 27.17016 18.81011 22.99013
O 29.26017 20.90012 22.99013
O 31.35018 22.99013 22.99013
Ni 18.81011 18.81011 16.72010
Ni 20.90012 20.90012 16.72010
Ni 22.99013 22.99013 16.72010
Ni 18.81011 16.72010 18.81011
Ni 20.90012 18.81011 18.81011
Ni 22.99013 20.90012 18.81011
Ni 25.08014 22.99013 18.81011
Ni 20.90012 16.72010 20.90012
Ni 22.99013 18.81011 20.90012
Ni 25.08014 20.90012 20.90012
Ni 27.17016 22.99013 20.90012
Ni 22.99013 16.72010 22.99013
Ni 25.08014 18.81011 22.99013
Ni 27.17016 20.90012 22.99013
Ni 29.26017 22.99013 22.99013
Ni 16.72010 18.81011 18.81011
Ni 18.81011 20.90012 18.81011
Ni 20.90012 22.99013 18.81011
Ni 22.99013 25.08014 18.81011
Ni 18.81011 18.81011 20.90012
Ni 20.90012 20.90012 20.90012
Ni 22.99013 22.99013 20.90012
Ni 25.08014 25.08014 20.90012
Ni 20.90012 18.81011 22.99013
Ni 22.99013 20.90012 22.99013
Ni 25.08014 22.99013 22.99013
Ni 27.17016 25.08014 22.99013
Ni 22.99013 18.81011 25.08014
Ni 25.08014 20.90012 25.08014
Ni 27.17016 22.99013 25.08014
Ni 29.26017 25.08014 25.08014
Ni 16.72010 20.90012 20.90012
Ni 18.81011 22.99013 20.90012
Ni 20.90012 25.08014 20.90012
Ni 22.99013 27.17016 20.90012
Ni 18.81011 20.90012 22.99013
Ni 20.90012 22.99013 22.99013
Ni 22.99013 25.08014 22.99013
Ni 25.08014 27.17016 22.99013
Ni 20.90012 20.90012 25.08014
Ni 22.99013 22.99013 25.08014
Ni 25.08014 25.08014 25.08014
Ni 27.17016 27.17016 25.08014
Ni 22.99013 20.90012 27.17016
Ni 25.08014 22.99013 27.17016
Ni 27.17016 25.08014 27.17016
Ni 29.26017 27.17016 27.17016
Ni 16.72010 22.99013 22.99013
Ni 18.81011 25.08014 22.99013
Ni 20.90012 27.17016 22.99013
Ni 22.99013 29.26017 22.99013
Ni 18.81011 22.99013 25.08014
Ni 20.90012 25.08014 25.08014
Ni 22.99013 27.17016 25.08014
Ni 25.08014 29.26017 25.08014
Ni 20.90012 22.99013 27.17016
Ni 22.99013 25.08014 27.17016
Ni 25.08014 27.17016 27.17016
Ni 27.17016 29.26017 27.17016
Ni 22.99013 22.99013 29.26017
Ni 25.08014 25.08014 29.26017
Ni 27.17016 27.17016 29.26017
Ni 29.26017 29.26017 29.26017
O 18.81011 18.81011 18.81011
O 20.90012 20.90012 18.81011
O 22.99013 22.99013 18.81011
O 25.08014 25.08014 18.81011
O 20.90012 18.81011 20.90012
O 22.99013 20.90012 20.90012
O 25.08014 22.99013 20.90012
O 27.17016 25.08014 20.90012
O 22.99013 18.81011 22.99013
O 25.08014 20.90012 22.99013
O 27.17016 22.99013 22.99013
O 29.26017 25.08014 22.99013
O 25.08014 18.81011 25.08014
O 27.17016 20.90012 25.08014
O 29.26017 22.99013 25.08014
O 31.35018 25.08014 25.08014
O 18.81011 20.90012 20.90012
O 20.90012 22.99013 20.90012
O 22.99013 25.08014 20.90012
O 25.08014 27.17016 20.90012
O 20.90012 20.90012 22.99013
O 22.99013 22.99013 22.99013
O 25.08014 25.08014 22.99013
O 27.17016 27.17016 22.99013
O 22.99013 20.90012 25.08014
O 25.08014 22.99013 25.08014
O 27.17016 25.08014 25.08014
O 29.26017 27.17016 25.08014
O 25.08014 20.90012 27.17016
O 27.17016 22.99013 27.17016
O 29.26017 25.08014 27.17016
O 31.35018 27.17016 27.17016
O 18.81011 22.99013 22.99013
O 20.90012 25.08014 22.99013
O 22.99013 27.17016 22.99013
O 25.08014 29.26017 22.99013
O 20.90012 22.99013 25.08014
O 22.99013 25.08014 25.08014
O 25.08014 27.17016 25.08014
O 27.17016 29.26017 25.08014
O 22.99013 22.99013 27.17016
O 25.08014 25.08014 27.17016
O 27.17016 27.17016 27.17016
O 29.26017 29.26017 27.17016
O 25.08014 22.99013 29.26017
O 27.17016 25.08014 29.26017
O 29.26017 27.17016 29.26017
O 31.35018 29.26017 29.26017
O 18.81011 25.08014 25.08014
O 20.90012 27.17016 25.08014
O 22.99013 29.26017 25.08014
O 25.08014 31.35018 25.08014
O 20.90012 25.08014 27.17016
O 22.99013 27.17016 27.17016
O 25.08014 29.26017 27.17016
O 27.17016 31.35018 27.17016
O 22.99013 25.08014 29.26017
O 25.08014 27.17016 29.26017
O 27.17016 29.26017 29.26017
O 29.26017 31.35018 29.26017
O 25.08014 25.08014 31.35018
O 27.17016 27.17016 31.35018
O 29.26017 29.26017 31.35018
O 31.35018 31.35018 31.35018
