64 

C   -1.44864   0.00000   0.01287  -0.006732772667194   0.000000000000006  -0.000445927607439
C   -0.72389   1.25322   0.01287  -0.002459015384170   0.005436053361850  -0.001032949670673
C    0.72389   1.25322   0.01287   0.002459015409345   0.005436053395327  -0.001032949659399
C    1.44864   0.00000   0.01287   0.006732772748536  -0.000000000000039  -0.000445927582592
C    0.72389  -1.25322   0.01287   0.002459015409340  -0.005436053395293  -0.001032949659373
C   -0.72389  -1.25322   0.01287  -0.002459015384189  -0.005436053361861  -0.001032949670659
C   -1.47760   0.00000   3.40000  -0.005369628509440   0.000000000000014   0.001649906056361
C   -0.73888   1.28095   3.40000  -0.002704054796308   0.005239521285755   0.000776537032511
C    0.73888   1.28095   3.40000   0.002704054852890   0.005239521317362   0.000776537028497
C    1.47760   0.00000   3.40000   0.005369628621058  -0.000000000000042   0.001649906044673
C    0.73888  -1.28095   3.40000   0.002704054852859  -0.005239521317311   0.000776537028479
C   -0.73888  -1.28095   3.40000  -0.002704054796261  -0.005239521285779   0.000776537032561
C   -1.44864   0.00000   6.78713   0.013270402783784   0.000000000000016   0.000009931646505
C   -0.72389   1.25322   6.78713   0.006481711713437  -0.011620258669326  -0.000015065733952
C    0.72389   1.25322   6.78713  -0.006481711646868  -0.011620258642017  -0.000015065732668
C    1.44864   0.00000   6.78713  -0.013270402666857  -0.000000000000048   0.000009931648959
C    0.72389  -1.25322   6.78713  -0.006481711646884   0.011620258642052  -0.000015065732693
C   -0.72389  -1.25322   6.78713   0.006481711713432   0.011620258669309  -0.000015065733928
C   -1.44864   0.00000  10.17426   0.014732880633049   0.000000000000018  -0.001453473091343
C   -0.72389   1.25322  10.17426   0.007353059690436  -0.012832964517344  -0.000528232085133
C    0.72389   1.25322  10.17426  -0.007353059638203  -0.012832964487388  -0.000528232082314
C    1.44864   0.00000  10.17426  -0.014732880529040  -0.000000000000018  -0.001453473082250
C    0.72389  -1.25322  10.17426  -0.007353059638196   0.012832964487406  -0.000528232082287
C   -0.72389  -1.25322  10.17426   0.007353059690428   0.012832964517321  -0.000528232085148
C   -1.47760   0.00000  13.56139  -0.045015561660804   0.000000000000021   0.001070235895882
C   -0.73888   1.28095  13.56139  -0.022471814033987   0.040679163961024   0.001716577803006
C    0.73888   1.28095  13.56139   0.022471814061832   0.040679163996071   0.001716577789205
C    1.47760   0.00000  13.56139   0.045015561747735  -0.000000000000027   0.001070235867442
C    0.73888  -1.28095  13.56139   0.022471814061835  -0.040679163996029   0.001716577789216
C   -0.73888  -1.28095  13.56139  -0.022471814033960  -0.040679163961049   0.001716577803024
H   -2.56672   0.00000   0.01287  -0.016833096962231   0.000000000000002  -0.000659160482858
H    2.56672   0.00000   0.01287   0.016833096922583   0.000000000000006  -0.000659160501113
H   -1.28314   2.22168   0.01287  -0.008492692979915   0.014638140323686  -0.000694361506938
H    1.28314   2.22168   0.01287   0.008492692968801   0.014638140307388  -0.000694361516292
H    1.28314  -2.22168   0.01287   0.008492692968798  -0.014638140307395  -0.000694361516314
H   -1.28314  -2.22168   0.01287  -0.008492692979909  -0.014638140323680  -0.000694361506927
H   -2.59820   0.00000   3.40000  -0.017802273225734  -0.000000000000008   0.000020673206526
H    2.59820   0.00000   3.40000   0.017802273179616  -0.000000000000001   0.000020673208747
H   -1.30055   2.25086   3.40000  -0.009008763732026   0.015477343323861   0.000031297924043
H    1.30055   2.25086   3.40000   0.009008763721274   0.015477343303516   0.000031297925072
H    1.30055  -2.25086   3.40000   0.009008763721275  -0.015477343303521   0.000031297925084
H   -1.30055  -2.25086   3.40000  -0.009008763732029  -0.015477343323860   0.000031297924045
H   -2.56672   0.00000   6.78713  -0.016216450784881  -0.000000000000003   0.000059161912554
H    2.56672   0.00000   6.78713   0.016216450744981   0.000000000000000   0.000059161912127
H   -1.28314   2.22168   6.78713  -0.008165061359339   0.014072948817188   0.000060243789787
H    1.28314   2.22168   6.78713   0.008165061351361   0.014072948798969   0.000060243789520
H    1.28314  -2.22168   6.78713   0.008165061351373  -0.014072948798982   0.000060243789519
H   -1.28314  -2.22168   6.78713  -0.008165061359333  -0.014072948817181   0.000060243789795
H   -2.56672   0.00000  10.17426  -0.015983798787045  -0.000000000000003  -0.000080783663406
H    2.56672   0.00000  10.17426   0.015983798740197  -0.000000000000000  -0.000080783665062
H   -1.28314   2.22168  10.17426  -0.008056324480298   0.013881440779091  -0.000096436371324
H    1.28314   2.22168  10.17426   0.008056324470546   0.013881440757768  -0.000096436372084
H    1.28314  -2.22168  10.17426   0.008056324470551  -0.013881440757773  -0.000096436372077
H   -1.28314  -2.22168  10.17426  -0.008056324480302  -0.013881440779080  -0.000096436371322
H   -2.56672   0.00000  13.56139   0.000761295176988  -0.000000000000003   0.000939784982067
H    2.56672   0.00000  13.56139  -0.000761295219515  -0.000000000000003   0.000939785003075
H   -1.28314   2.22168  13.56139   0.001151847103045  -0.001990595733947   0.000952607604521
H    1.28314   2.22168  13.56139  -0.001151847115563  -0.001990595751368   0.000952607615253
H    1.28314  -2.22168  13.56139  -0.001151847115554   0.001990595751346   0.000952607615269
H   -1.28314  -2.22168  13.56139   0.001151847103040   0.001990595733957   0.000952607604520
V    0.00000   0.00000   1.70752  -0.000000000129599   0.000000000000184  -0.005799552832357
V    0.00000   0.00000   5.09248  -0.000000000195952  -0.000000000000463   0.005422373121826
V    0.00000   0.00000   8.47961  -0.000000000184844   0.000000000000295   0.000222021957165
V    0.00000   0.00000  11.86654  -0.000000000127395   0.000000000000013  -0.006721087123798
