63 

Pt   -3.92000  -3.92000  -3.92000  -0.019815557427027  -0.019815557428328  -0.019822084762471
Pt   -1.96000  -1.96000  -3.92000   0.002103406429673   0.002103406449035   0.020370471172027
Pt   -3.92000  -1.96000  -1.96000   0.020370478848020   0.002094052339722   0.002094043635098
Pt   -1.96000  -3.92000  -1.96000   0.002094052335580   0.020370478852951   0.002094043651465
Pt   -3.92000  -3.92000   0.00000  -0.008209809056981  -0.008209809070197   0.000000000000419
Pt   -1.96000  -1.96000   0.00000   0.001121229814303   0.001121229823256  -0.000000000000482
Pt   -3.92000  -1.96000   1.96000   0.020370478847977   0.002094052339353  -0.002094043635229
Pt   -1.96000  -3.92000   1.96000   0.002094052335061   0.020370478852567  -0.002094043651494
Pt   -3.92000  -3.92000   3.92000  -0.019815557426829  -0.019815557428456   0.019822084762265
Pt   -1.96000  -1.96000   3.92000   0.002103406430984   0.002103406450485  -0.020370471171345
Pt   -3.92000   0.00000  -3.92000  -0.008218741776072   0.000000000000026  -0.008196742007480
Pt   -1.96000   1.96000  -3.92000   0.002103406429772  -0.002103406449405   0.020370471171842
Pt   -3.92000   1.96000  -1.96000   0.020370478848034  -0.002094052340063   0.002094043635382
Pt   -1.96000   0.00000  -1.96000   0.001139949384581   0.000000000000074   0.001139943462641
Pt   -3.92000   0.00000   0.00000   0.004719515060273   0.000000000000310  -0.000000000000087
Pt   -1.96000   1.96000   0.00000   0.001121229814381  -0.001121229823739  -0.000000000000062
Pt   -3.92000   1.96000   1.96000   0.020370478847949  -0.002094052339467  -0.002094043635268
Pt   -1.96000   0.00000   1.96000   0.001139949386286   0.000000000000372  -0.001139943461028
Pt   -3.92000   0.00000   3.92000  -0.008218741776420   0.000000000000043   0.008196742007572
Pt   -1.96000   1.96000   3.92000   0.002103406431108  -0.002103406450627  -0.020370471171473
Pt   -3.92000   3.92000  -3.92000  -0.019815557427390   0.019815557428335  -0.019822084762933
Pt   -1.96000   3.92000  -1.96000   0.002094052335562  -0.020370478853079   0.002094043651671
Pt   -3.92000   3.92000   0.00000  -0.008209809057471   0.008209809069615   0.000000000000452
Pt   -1.96000   3.92000   1.96000   0.002094052335100  -0.020370478853065  -0.002094043651497
Pt   -3.92000   3.92000   3.92000  -0.019815557427084   0.019815557428015   0.019822084762301
Pt    0.00000  -3.92000  -3.92000   0.000000000043359  -0.008218741749618  -0.008196741969800
Pt    1.96000  -1.96000  -3.92000  -0.002103406431375   0.002103406411245   0.020370471152373
Pt    0.00000  -1.96000  -1.96000  -0.000000000000762   0.001139949386883   0.001139943458200
Pt    1.96000  -3.92000  -1.96000  -0.002094052338291   0.020370478833511   0.002094043612382
Pt    0.00000  -3.92000   0.00000   0.000000000008723   0.004719515038587   0.000000000000068
Pt    1.96000  -1.96000   0.00000  -0.001121229820535   0.001121229810395  -0.000000000000606
Pt    0.00000  -1.96000   1.96000  -0.000000000001012   0.001139949388595  -0.001139943456729
Pt    1.96000  -3.92000   1.96000  -0.002094052337498   0.020370478833141  -0.002094043612272
Pt    0.00000  -3.92000   3.92000   0.000000000043220  -0.008218741750201   0.008196741969935
Pt    1.96000  -1.96000   3.92000  -0.002103406432423   0.002103406412730  -0.020370471151478
Pt    0.00000   0.00000  -3.92000   0.000000000009960   0.000000000000380   0.004675541889952
Pt    1.96000   1.96000  -3.92000  -0.002103406431517  -0.002103406411618   0.020370471152103
Pt    0.00000   1.96000  -1.96000  -0.000000000000690  -0.001139949387451   0.001139943458207
Pt    1.96000   0.00000  -1.96000  -0.001139949389484   0.000000000000041   0.001139943452856
Pt    0.00000   0.00000   0.00000  -0.000000000051108   0.000000000000715  -0.000000000001636
Pt    1.96000   1.96000   0.00000  -0.001121229820520  -0.001121229810935  -0.000000000000201
Pt    0.00000   1.96000   1.96000  -0.000000000000834  -0.001139949389121  -0.001139943456729
Pt    1.96000   0.00000   1.96000  -0.001139949391075   0.000000000000445  -0.001139943451187
Pt    0.00000   0.00000   3.92000   0.000000000009736   0.000000000000161  -0.004675541890961
Pt    1.96000   1.96000   3.92000  -0.002103406432757  -0.002103406412933  -0.020370471151663
Pt    0.00000   3.92000  -3.92000   0.000000000043287   0.008218741749021  -0.008196741970226
Pt    1.96000   3.92000  -1.96000  -0.002094052338333  -0.020370478833639   0.002094043612449
Pt    0.00000   3.92000   0.00000   0.000000000008808  -0.004719515039269  -0.000000000000207
Pt    1.96000   3.92000   1.96000  -0.002094052337765  -0.020370478833653  -0.002094043612179
Pt    0.00000   3.92000   3.92000   0.000000000043329   0.008218741749689   0.008196741970454
Pt    3.92000  -3.92000  -3.92000   0.019815557413058  -0.019815557407232  -0.019822084740665
Pt    3.92000  -1.96000  -1.96000  -0.020370478832445   0.002094052333466   0.002094043628806
Pt    3.92000  -3.92000   0.00000   0.008209809008537  -0.008209808989828   0.000000000000406
Pt    3.92000  -1.96000   1.96000  -0.020370478832232   0.002094052332986  -0.002094043628642
Pt    3.92000  -3.92000   3.92000   0.019815557412781  -0.019815557406877   0.019822084740146
Pt    3.92000   0.00000  -3.92000   0.008218741726618  -0.000000000000007  -0.008196741930059
Pt    3.92000   1.96000  -1.96000  -0.020370478832303  -0.002094052333775   0.002094043628987
Pt    3.92000   0.00000   0.00000  -0.004719515010990   0.000000000000210  -0.000000000000159
Pt    3.92000   1.96000   1.96000  -0.020370478832232  -0.002094052333232  -0.002094043628667
Pt    3.92000   0.00000   3.92000   0.008218741727307   0.000000000000068   0.008196741930351
Pt    3.92000   3.92000  -3.92000   0.019815557413392   0.019815557407026  -0.019822084740935
Pt    3.92000   3.92000   0.00000   0.008209809009091   0.008209808989274   0.000000000000518
Pt    3.92000   3.92000   3.92000   0.019815557412973   0.019815557406592   0.019822084740338
