40 

C    2.58239   0.08226   0.27598   0.006248591010633  -0.005090743030790   0.015420563624523
C    2.37330  -1.13864   1.19405  -0.001758807782427  -0.002601561214658  -0.000310748434071
C    1.02528  -1.04630   1.91581   0.002541677993489  -0.007826964678079   0.002332017369397
O    1.49476   0.41741  -0.55103   0.002430455831423   0.028139504104054   0.022375210110316
O    2.73737   1.29041   0.95988   0.006429054823490  -0.007605938454502  -0.007538529430636
C    3.78664  -0.21820  -0.66960  -0.019677994730881  -0.000678694577575   0.011543091340702
C   -0.09455  -0.88099   0.85298   0.004179592691314  -0.001754294362675  -0.002539838786643
O    0.81881  -2.14230   2.76961  -0.002096437365731  -0.010419950864011  -0.024904311890728
C    0.18986   0.40643   0.03230   0.014333941786677  -0.004089829255325   0.000045247995771
O    3.64303  -0.76598  -1.88783  -0.000515189386444   0.006152225219002   0.005044991095052
N   -1.43959  -0.76323   1.47317   0.001368326341821   0.028694946277202   0.006386497511246
C   -0.79483   0.55542  -1.16478   0.001607696616429  -0.011704798448744  -0.011747246904716
C   -2.20147  -1.93362   1.78598  -0.017097548456664  -0.024464795872574   0.009510291752020
C   -0.69904   1.97017  -1.81690   0.006349171713939   0.015839405252013   0.005514037279373
O   -0.49217  -0.47384  -2.08676  -0.019685813635248   0.013811333387524  -0.012961169085678
C   -3.38021  -1.73494   2.70334   0.004439087480273  -0.003092967582555  -0.003064670598778
C   -1.69226   2.08487  -3.00129  -0.007188923331818   0.013079211716136  -0.009199574952199
O   -1.04367   2.90345  -0.81217   0.008028517426799   0.019355896683394  -0.019941506730023
O   -1.33030   3.22988  -3.73491  -0.025008877558729  -0.008912102125441  -0.013826660775167
H    2.42517  -2.06889   0.59160   0.002380992475555  -0.003386361233881  -0.001256168190671
H    3.20054  -1.20643   1.92821   0.003346154494519  -0.001877375268033   0.003490944940684
H    1.02645  -0.19369   2.63649  -0.000225675456053   0.000645998697975   0.011696637664051
H    3.58152   1.28733   1.39261  -0.032647925730461  -0.001261312680064  -0.016639603264467
O    4.95226  -0.03351  -0.38856  -0.013155758363184  -0.015328034626634  -0.036364226882029
H   -0.10202  -1.76681   0.16665   0.002277137930164  -0.009441728840150  -0.008467506056188
H    0.73518  -2.92164   2.23173   0.005313956863247   0.027049135106358   0.016645950584683
H    0.10755   1.30400   0.69482   0.003572670699828   0.007520696311368   0.005534011039067
H    2.72513  -0.85076  -2.11919   0.039177395753252   0.001109549110377   0.008093180700423
H   -1.47148  -0.06566   2.18654   0.003177162467224  -0.017394169291056  -0.014053171988298
H   -1.83652   0.40001  -0.78638  -0.008355090714540  -0.006023357017765  -0.001834766377495
O   -1.91764  -2.99969   1.26146   0.000019136125883   0.021005854052598   0.004745118698678
H    0.34577   2.15463  -2.17050   0.008901826815519   0.004648549646526   0.001238541551819
H   -0.99769  -0.29067  -2.87199   0.013789318080391  -0.000552925584065   0.021805411475905
H   -4.03439  -0.92721   2.34840  -0.000893371718436  -0.002221937571696  -0.000037818039760
H   -3.98961  -2.64557   2.77728  -0.004373479066387   0.000551531907514   0.002687730498413
H   -3.04806  -1.47747   3.71824  -0.001166646886210  -0.001627006715509  -0.001016220823896
H   -1.62782   1.18453  -3.65064   0.000454691980329  -0.000961208552754   0.001074118594442
H   -2.73748   2.15752  -2.64091  -0.003518692873312   0.001867182972215  -0.004769847608685
H   -0.81495   3.75581  -1.15734  -0.006468250704099  -0.030645134064299   0.010395081765834
H   -2.00525   3.36192  -4.38635   0.021935309852215  -0.008746799592117   0.024040477452552
