64 

C   -0.00000  -0.00000  -0.00000  -0.000000000036369  -0.000000000000373  -0.000000000000087
C   -0.00000   1.78350   1.78350  -0.000000000034522  -0.000000000000797  -0.000000000000505
C    1.78350  -0.00000   1.78350  -0.000000000035397  -0.000000000000208  -0.000000000000124
C    1.78350   1.78350  -0.00000  -0.000000000035023  -0.000000000000793   0.000000000000345
C    0.89175   0.89175   0.89175  -0.000000000034877   0.000000000000355   0.000000000001523
C    0.89175   2.67525   2.67525  -0.000000000035108  -0.000000000000733   0.000000000000347
C    2.67525   0.89175   2.67525  -0.000000000034377   0.000000000000018  -0.000000000000029
C    2.67525   2.67525   0.89175  -0.000000000035600   0.000000000000485   0.000000000000054
C   -0.00000  -0.00000   3.56700  -0.000000000035391   0.000000000000690  -0.000000000000246
C   -0.00000   1.78350   5.35050  -0.000000000035886   0.000000000000525  -0.000000000001934
C    1.78350  -0.00000   5.35050  -0.000000000035094  -0.000000000000404  -0.000000000000327
C    1.78350   1.78350   3.56700  -0.000000000036231   0.000000000000390  -0.000000000000608
C    0.89175   0.89175   4.45875  -0.000000000036483   0.000000000001202  -0.000000000000718
C    0.89175   2.67525   6.24225  -0.000000000034484   0.000000000000882  -0.000000000000645
C    2.67525   0.89175   6.24225  -0.000000000035434   0.000000000000352   0.000000000000365
C    2.67525   2.67525   4.45875  -0.000000000035353   0.000000000000078   0.000000000000029
C   -0.00000   3.56700  -0.00000  -0.000000000035666   0.000000000000223   0.000000000000836
C   -0.00000   5.35050   1.78350  -0.000000000034704  -0.000000000000816  -0.000000000000183
C    1.78350   3.56700   1.78350  -0.000000000034633  -0.000000000000065  -0.000000000000237
C    1.78350   5.35050  -0.00000  -0.000000000035316  -0.000000000000062   0.000000000000310
C    0.89175   4.45875   0.89175  -0.000000000035416   0.000000000001345   0.000000000001381
C    0.89175   6.24225   2.67525  -0.000000000035300   0.000000000000444  -0.000000000000908
C    2.67525   4.45875   2.67525  -0.000000000034676   0.000000000000679   0.000000000000393
C    2.67525   6.24225   0.89175  -0.000000000034679   0.000000000000222   0.000000000001066
C   -0.00000   3.56700   3.56700  -0.000000000034725   0.000000000000050   0.000000000000268
C   -0.00000   5.35050   5.35050  -0.000000000035401  -0.000000000000439   0.000000000000077
C    1.78350   3.56700   5.35050  -0.000000000035621  -0.000000000000252   0.000000000000111
C    1.78350   5.35050   3.56700  -0.000000000035146   0.000000000000303   0.000000000000195
C    0.89175   4.45875   4.45875  -0.000000000035092  -0.000000000000056   0.000000000000104
C    0.89175   6.24225   6.24225  -0.000000000034354  -0.000000000000499  -0.000000000000047
C    2.67525   4.45875   6.24225  -0.000000000036102   0.000000000000013   0.000000000000240
C    2.67525   6.24225   4.45875  -0.000000000036955  -0.000000000000503   0.000000000000154
C    3.56700  -0.00000  -0.00000  -0.000000000035578  -0.000000000000178   0.000000000000594
C    3.56700   1.78350   1.78350  -0.000000000034545  -0.000000000001096   0.000000000001288
C    5.35050  -0.00000   1.78350  -0.000000000036288   0.000000000000407   0.000000000000130
C    5.35050   1.78350  -0.00000  -0.000000000036246   0.000000000000761  -0.000000000000518
C    4.45875   0.89175   0.89175  -0.000000000035641  -0.000000000000542   0.000000000000985
C    4.45875   2.67525   2.67525  -0.000000000035342  -0.000000000001720  -0.000000000000276
C    6.24225   0.89175   2.67525  -0.000000000036042  -0.000000000000512  -0.000000000000469
C    6.24225   2.67525   0.89175  -0.000000000036914  -0.000000000000152   0.000000000000118
C    3.56700  -0.00000   3.56700  -0.000000000034826  -0.000000000000108  -0.000000000001096
C    3.56700   1.78350   5.35050  -0.000000000035060   0.000000000000098   0.000000000000126
C    5.35050  -0.00000   5.35050  -0.000000000036400   0.000000000000292  -0.000000000000033
C    5.35050   1.78350   3.56700  -0.000000000035972  -0.000000000000955  -0.000000000000104
C    4.45875   0.89175   4.45875  -0.000000000035372   0.000000000000267  -0.000000000000005
C    4.45875   2.67525   6.24225  -0.000000000034869  -0.000000000000685  -0.000000000000491
C    6.24225   0.89175   6.24225  -0.000000000036313   0.000000000000373   0.000000000000419
C    6.24225   2.67525   4.45875  -0.000000000035058  -0.000000000000326  -0.000000000000138
C    3.56700   3.56700  -0.00000  -0.000000000035627  -0.000000000000375  -0.000000000000323
C    3.56700   5.35050   1.78350  -0.000000000035504   0.000000000000794   0.000000000000492
C    5.35050   3.56700   1.78350  -0.000000000035238   0.000000000000028  -0.000000000000287
C    5.35050   5.35050  -0.00000  -0.000000000035467   0.000000000001037   0.000000000000677
C    4.45875   4.45875   0.89175  -0.000000000034644  -0.000000000000123   0.000000000000364
C    4.45875   6.24225   2.67525  -0.000000000035967   0.000000000000337   0.000000000000546
C    6.24225   4.45875   2.67525  -0.000000000035261  -0.000000000000503  -0.000000000000294
C    6.24225   6.24225   0.89175  -0.000000000035819   0.000000000000191  -0.000000000000263
C    3.56700   3.56700   3.56700  -0.000000000036266  -0.000000000000118   0.000000000000533
C    3.56700   5.35050   5.35050  -0.000000000035899  -0.000000000000699  -0.000000000000088
C    5.35050   3.56700   5.35050  -0.000000000036051  -0.000000000000025   0.000000000000395
C    5.35050   5.35050   3.56700  -0.000000000036303   0.000000000000469   0.000000000000615
C    4.45875   4.45875   4.45875  -0.000000000035881  -0.000000000000249   0.000000000000094
C    4.45875   6.24225   6.24225  -0.000000000034772   0.000000000000947   0.000000000000829
C    6.24225   4.45875   6.24225  -0.000000000035895   0.000000000000035   0.000000000000118
C    6.24225   6.24225   4.45875  -0.000000000036068   0.000000000000243  -0.000000000000226
