CRYSTAL
PRIMVEC
  16.293000   0.000000   0.000000
   0.000000  16.293000   0.000000
   0.000000   0.000000  16.293000
PRIMCOORD
 216 1
Si     7.289E-01     6.789E-01     6.789E-01    -5.260E-12    -1.588E-11    -6.778E-10
Si     3.394E+00     6.789E-01     3.394E+00     3.506E-11     2.335E-11    -4.313E-10
Si     6.789E-01     3.394E+00     3.394E+00    -1.765E-11     3.644E-11     8.341E-10
Si     3.394E+00     3.394E+00     6.789E-01     1.224E-10    -5.154E-11     1.515E-10
Si     4.752E+00     2.037E+00     2.037E+00     3.654E-11    -2.666E-11     2.507E-10
Si     4.752E+00     4.752E+00     4.752E+00    -4.754E-11    -5.011E-11    -2.083E-13
Si     2.037E+00     2.037E+00     4.752E+00    -2.491E-11    -1.121E-11    -8.243E-10
Si     2.037E+00     4.752E+00     2.037E+00    -2.502E-11     5.512E-11     1.239E-10
Si     6.789E-01     6.789E-01     6.110E+00    -6.107E-11    -9.060E-11     2.879E-10
Si     3.394E+00     6.789E-01     8.825E+00    -1.173E-10    -5.916E-11     3.598E-10
Si     6.789E-01     3.394E+00     8.825E+00     1.919E-11    -1.316E-11    -1.020E-10
Si     3.394E+00     3.394E+00     6.110E+00     3.503E-12     7.377E-11    -2.150E-10
Si     4.752E+00     2.037E+00     7.468E+00     1.138E-10     2.739E-11     4.590E-11
Si     4.752E+00     4.752E+00     1.018E+01    -6.145E-12     6.336E-11    -1.333E-11
Si     2.037E+00     2.037E+00     1.018E+01    -1.600E-11     8.578E-11     2.738E-11
Si     2.037E+00     4.752E+00     7.468E+00    -3.122E-11    -5.181E-11     8.915E-10
Si     6.789E-01     6.789E-01     1.154E+01    -4.981E-11     4.627E-11    -9.496E-10
Si     3.394E+00     6.789E-01     1.426E+01     3.074E-11     9.223E-11    -3.913E-10
Si     6.789E-01     3.394E+00     1.426E+01     7.055E-13     3.021E-11     6.160E-12
Si     3.394E+00     3.394E+00     1.154E+01    -5.860E-12     3.451E-12     1.991E-11
Si     4.752E+00     2.037E+00     1.290E+01    -6.164E-11     1.519E-10     9.381E-10
Si     4.752E+00     4.752E+00     1.561E+01     2.766E-11    -6.622E-11    -7.446E-10
Si     2.037E+00     2.037E+00     1.561E+01    -1.830E-11     2.619E-11     1.397E-10
Si     2.037E+00     4.752E+00     1.290E+01     5.245E-11    -3.272E-11     1.884E-10
Si     6.789E-01     6.110E+00     6.789E-01    -6.760E-11    -1.076E-10     3.422E-10
Si     3.394E+00     6.110E+00     3.394E+00     2.763E-11    -5.254E-11     4.605E-10
Si     6.789E-01     8.825E+00     3.394E+00     1.650E-11     3.744E-11     3.003E-10
Si     3.394E+00     8.825E+00     6.789E-01    -2.640E-11     3.133E-11    -2.307E-10
Si     4.752E+00     7.468E+00     2.037E+00     2.424E-11     1.548E-10    -7.104E-10
Si     4.752E+00     1.018E+01     4.752E+00    -7.339E-11    -4.471E-11    -1.464E-11
Si     2.037E+00     7.468E+00     4.752E+00     8.927E-11    -3.781E-11    -7.003E-10
Si     2.037E+00     1.018E+01     2.037E+00    -4.861E-11    -7.384E-11     2.654E-10
Si     6.789E-01     6.110E+00     6.110E+00    -9.960E-12    -3.238E-11     2.753E-11
Si     3.394E+00     6.110E+00     8.825E+00     1.081E-10     6.999E-11    -1.319E-10
Si     6.789E-01     8.825E+00     8.825E+00    -2.783E-11     3.589E-11     2.745E-10
Si     3.394E+00     8.825E+00     6.110E+00    -4.070E-11    -1.305E-10    -5.869E-10
Si     4.752E+00     7.468E+00     7.468E+00     1.124E-10     8.257E-11    -2.039E-11
Si     4.752E+00     1.018E+01     1.018E+01    -3.339E-11    -3.775E-11    -1.896E-10
Si     2.037E+00     7.468E+00     1.018E+01    -4.580E-11    -1.095E-10    -3.391E-10
Si     2.037E+00     1.018E+01     7.468E+00     5.051E-11     7.935E-11    -8.203E-11
Si     6.789E-01     6.110E+00     1.154E+01    -2.095E-11     3.249E-11    -2.668E-10
Si     3.394E+00     6.110E+00     1.426E+01    -2.980E-11    -3.308E-11    -2.059E-10
Si     6.789E-01     8.825E+00     1.426E+01    -3.864E-11     5.840E-11     3.947E-10
Si     3.394E+00     8.825E+00     1.154E+01     4.366E-11    -4.574E-11    -2.937E-10
Si     4.752E+00     7.468E+00     1.290E+01    -1.483E-12     8.958E-11    -9.548E-10
Si     4.752E+00     1.018E+01     1.561E+01    -3.367E-12    -1.036E-10    -4.020E-10
Si     2.037E+00     7.468E+00     1.561E+01     5.373E-11     6.839E-11     7.362E-10
Si     2.037E+00     1.018E+01     1.290E+01    -2.552E-11    -2.853E-11    -1.944E-10
Si     6.789E-01     1.154E+01     6.789E-01    -1.257E-10     6.402E-11     3.547E-11
Si     3.394E+00     1.154E+01     3.394E+00     2.496E-11     1.346E-12    -1.459E-11
Si     6.789E-01     1.426E+01     3.394E+00     1.711E-11     4.449E-12     1.872E-10
Si     3.394E+00     1.426E+01     6.789E-01    -1.175E-11    -5.978E-11     6.213E-10
Si     4.752E+00     1.290E+01     2.037E+00     5.831E-11    -1.112E-10     3.388E-10
Si     4.752E+00     1.561E+01     4.752E+00     7.222E-11    -6.653E-11    -7.623E-10
Si     2.037E+00     1.290E+01     4.752E+00     1.627E-11    -1.202E-11    -5.628E-10
Si     2.037E+00     1.561E+01     2.037E+00    -3.522E-11     3.500E-11     8.759E-10
Si     6.789E-01     1.154E+01     6.110E+00    -3.539E-11    -5.295E-11     1.318E-10
Si     3.394E+00     1.154E+01     8.825E+00    -1.131E-10     9.735E-11     3.073E-10
Si     6.789E-01     1.426E+01     8.825E+00     7.677E-11    -9.454E-11     1.290E-10
Si     3.394E+00     1.426E+01     6.110E+00    -1.916E-11    -2.398E-11     9.964E-10
Si     4.752E+00     1.290E+01     7.468E+00    -4.516E-11     7.392E-11     9.527E-11
Si     4.752E+00     1.561E+01     1.018E+01    -8.762E-11     7.231E-11    -7.432E-10
Si     2.037E+00     1.290E+01     1.018E+01     1.776E-10    -1.941E-11     1.335E-10
Si     2.037E+00     1.561E+01     7.468E+00     8.320E-11     1.298E-10    -3.722E-10
Si     6.789E-01     1.154E+01     1.154E+01    -4.621E-11     1.297E-11    -2.413E-10
Si     3.394E+00     1.154E+01     1.426E+01    -6.286E-11     3.011E-11     1.012E-10
Si     6.789E-01     1.426E+01     1.426E+01    -2.574E-11     3.255E-11    -6.678E-10
Si     3.394E+00     1.426E+01     1.154E+01     3.034E-11    -7.930E-11    -4.489E-10
Si     4.752E+00     1.290E+01     1.290E+01    -4.369E-11     3.477E-11    -6.283E-10
Si     4.752E+00     1.561E+01     1.561E+01    -4.118E-12    -7.782E-11    -2.599E-10
Si     2.037E+00     1.290E+01     1.561E+01     6.830E-11    -8.477E-12    -1.149E-10
Si     2.037E+00     1.561E+01     1.290E+01     2.281E-11    -2.618E-11     9.555E-10
Si     6.110E+00     6.789E-01     6.789E-01     8.590E-11     2.676E-11     4.202E-10
Si     8.825E+00     6.789E-01     3.394E+00    -2.084E-10     9.942E-12    -5.033E-10
Si     6.110E+00     3.394E+00     3.394E+00    -2.188E-11     1.076E-10    -8.455E-10
Si     8.825E+00     3.394E+00     6.789E-01    -7.498E-11     2.641E-11     2.427E-10
Si     1.018E+01     2.037E+00     2.037E+00     3.423E-11    -2.670E-11     3.311E-10
Si     1.018E+01     4.752E+00     4.752E+00    -1.076E-10    -1.287E-10    -3.046E-10
Si     7.468E+00     2.037E+00     4.752E+00    -7.998E-13    -1.167E-10     1.618E-10
Si     7.468E+00     4.752E+00     2.037E+00    -2.114E-11    -9.352E-11     4.240E-10
Si     6.110E+00     6.789E-01     6.110E+00     5.460E-13     5.820E-11    -6.236E-11
Si     8.825E+00     6.789E-01     8.825E+00    -6.378E-12    -1.920E-10     1.692E-10
Si     6.110E+00     3.394E+00     8.825E+00    -3.594E-11     1.072E-11    -1.113E-09
Si     8.825E+00     3.394E+00     6.110E+00     1.605E-10     1.587E-10     7.976E-10
Si     1.018E+01     2.037E+00     7.468E+00    -3.412E-12     2.987E-11    -8.834E-10
Si     1.018E+01     4.752E+00     1.018E+01    -3.591E-11     4.876E-11     6.414E-10
Si     7.468E+00     2.037E+00     1.018E+01     1.168E-10     7.627E-12     5.226E-10
Si     7.468E+00     4.752E+00     7.468E+00     8.387E-11    -1.054E-10     3.147E-11
Si     6.110E+00     6.789E-01     1.154E+01    -8.684E-11    -8.279E-11    -6.048E-11
Si     8.825E+00     6.789E-01     1.426E+01     3.303E-11     1.181E-11     4.653E-11
Si     6.110E+00     3.394E+00     1.426E+01     8.642E-12    -3.976E-11    -1.624E-10
Si     8.825E+00     3.394E+00     1.154E+01     1.276E-11    -7.101E-12     4.446E-11
Si     1.018E+01     2.037E+00     1.290E+01     7.486E-12     2.660E-11    -1.487E-10
Si     1.018E+01     4.752E+00     1.561E+01     8.622E-11    -5.746E-11     2.607E-10
Si     7.468E+00     2.037E+00     1.561E+01     6.222E-12    -7.504E-12    -5.761E-10
Si     7.468E+00     4.752E+00     1.290E+01     2.770E-11     1.385E-10    -5.038E-10
Si     6.110E+00     6.110E+00     6.789E-01    -6.806E-11     5.187E-11     1.486E-10
Si     8.825E+00     6.110E+00     3.394E+00    -1.080E-10    -7.717E-11    -4.158E-10
Si     6.110E+00     8.825E+00     3.394E+00     1.226E-10     2.175E-10     1.369E-10
Si     8.825E+00     8.825E+00     6.789E-01     8.305E-11     1.301E-10     2.905E-10
Si     1.018E+01     7.468E+00     2.037E+00    -4.614E-11     9.425E-12     2.304E-10
Si     1.018E+01     1.018E+01     4.752E+00     1.728E-11     7.065E-11     6.613E-10
Si     7.468E+00     7.468E+00     4.752E+00     5.233E-11    -6.676E-11    -9.304E-10
Si     7.468E+00     1.018E+01     2.037E+00     5.792E-12    -1.012E-11    -2.114E-10
Si     6.110E+00     6.110E+00     6.110E+00    -1.947E-11     4.630E-11    -1.726E-11
Si     8.825E+00     6.110E+00     8.825E+00    -3.473E-11     4.230E-12    -4.669E-10
Si     6.110E+00     8.825E+00     8.825E+00     5.076E-12     3.729E-11     6.485E-10
Si     8.825E+00     8.825E+00     6.110E+00    -3.090E-11    -1.172E-10     3.075E-10
Si     1.018E+01     7.468E+00     7.468E+00     1.138E-10     6.149E-11    -1.653E-10
Si     1.018E+01     1.018E+01     1.018E+01     9.032E-11    -7.463E-11     4.660E-10
Si     7.468E+00     7.468E+00     1.018E+01    -1.002E-10     3.624E-11     4.688E-10
Si     7.468E+00     1.018E+01     7.468E+00     8.200E-12    -8.846E-12    -1.204E-10
Si     6.110E+00     6.110E+00     1.154E+01     9.995E-11    -1.858E-10    -8.512E-11
Si     8.825E+00     6.110E+00     1.426E+01    -9.965E-11     1.352E-10     2.634E-11
Si     6.110E+00     8.825E+00     1.426E+01     7.853E-11    -7.567E-11    -1.473E-10
Si     8.825E+00     8.825E+00     1.154E+01    -1.190E-10    -4.670E-11    -5.540E-10
Si     1.018E+01     7.468E+00     1.290E+01    -1.325E-10    -2.483E-11    -1.158E-10
Si     1.018E+01     1.018E+01     1.561E+01    -4.208E-11    -1.780E-10    -3.582E-11
Si     7.468E+00     7.468E+00     1.561E+01     1.825E-11     5.146E-11    -9.604E-10
Si     7.468E+00     1.018E+01     1.290E+01     4.844E-11     6.172E-11     3.243E-10
Si     6.110E+00     1.154E+01     6.789E-01    -6.688E-11     6.019E-11     2.239E-10
Si     8.825E+00     1.154E+01     3.394E+00     4.777E-11    -8.445E-11    -1.048E-10
Si     6.110E+00     1.426E+01     3.394E+00    -5.849E-11     4.349E-11     2.880E-10
Si     8.825E+00     1.426E+01     6.789E-01     1.823E-10    -6.807E-11     1.511E-09
Si     1.018E+01     1.290E+01     2.037E+00     8.174E-11     4.870E-11     2.410E-10
Si     1.018E+01     1.561E+01     4.752E+00     3.201E-11    -1.585E-10     9.893E-10
Si     7.468E+00     1.290E+01     4.752E+00    -5.612E-11     1.148E-10    -4.726E-10
Si     7.468E+00     1.561E+01     2.037E+00    -3.239E-11     2.278E-11     7.835E-11
Si     6.110E+00     1.154E+01     6.110E+00     1.263E-10    -1.959E-10     9.296E-11
Si     8.825E+00     1.154E+01     8.825E+00    -2.685E-11     1.571E-10     3.974E-10
Si     6.110E+00     1.426E+01     8.825E+00    -8.615E-12    -1.452E-10     4.631E-10
Si     8.825E+00     1.426E+01     6.110E+00    -3.469E-11    -5.251E-11     4.856E-10
Si     1.018E+01     1.290E+01     7.468E+00     3.432E-11     1.513E-11     4.293E-10
Si     1.018E+01     1.561E+01     1.018E+01     5.330E-11     2.868E-12     4.270E-10
Si     7.468E+00     1.290E+01     1.018E+01     5.852E-11    -3.002E-11    -5.203E-10
Si     7.468E+00     1.561E+01     7.468E+00    -9.210E-11     1.372E-10    -4.742E-10
Si     6.110E+00     1.154E+01     1.154E+01     6.639E-11     9.127E-11     3.416E-10
Si     8.825E+00     1.154E+01     1.426E+01    -5.718E-11    -1.190E-11    -2.066E-10
Si     6.110E+00     1.426E+01     1.426E+01     2.633E-11    -4.400E-11     7.621E-10
Si     8.825E+00     1.426E+01     1.154E+01     5.110E-11     1.173E-10    -1.299E-10
Si     1.018E+01     1.290E+01     1.290E+01    -1.556E-10    -8.957E-11    -1.597E-09
Si     1.018E+01     1.561E+01     1.561E+01    -1.436E-10     1.192E-11     6.481E-10
Si     7.468E+00     1.290E+01     1.561E+01    -8.017E-11     6.108E-11     1.281E-11
Si     7.468E+00     1.561E+01     1.290E+01    -1.344E-11     2.042E-11    -5.906E-10
Si     1.154E+01     6.789E-01     6.789E-01     8.915E-11    -1.493E-12    -1.435E-11
Si     1.426E+01     6.789E-01     3.394E+00    -2.116E-11     1.023E-11     5.996E-10
Si     1.154E+01     3.394E+00     3.394E+00    -8.832E-12    -1.982E-11    -1.288E-10
Si     1.426E+01     3.394E+00     6.789E-01    -9.012E-12     2.642E-11     1.017E-10
Si     1.561E+01     2.037E+00     2.037E+00     9.735E-12    -1.353E-12     2.646E-10
Si     1.561E+01     4.752E+00     4.752E+00     3.914E-11    -4.814E-11     1.845E-10
Si     1.290E+01     2.037E+00     4.752E+00     1.842E-10    -5.398E-11     3.821E-11
Si     1.290E+01     4.752E+00     2.037E+00     5.307E-13     1.383E-10     5.396E-10
Si     1.154E+01     6.789E-01     6.110E+00     5.872E-11     1.974E-11    -2.286E-10
Si     1.426E+01     6.789E-01     8.825E+00     2.751E-12    -6.653E-11     9.478E-10
Si     1.154E+01     3.394E+00     8.825E+00    -7.849E-11    -6.440E-11    -2.661E-10
Si     1.426E+01     3.394E+00     6.110E+00    -7.672E-11     7.363E-11    -8.953E-10
Si     1.561E+01     2.037E+00     7.468E+00     1.316E-10     1.891E-11     4.852E-10
Si     1.561E+01     4.752E+00     1.018E+01    -6.211E-11    -5.032E-11    -1.792E-10
Si     1.290E+01     2.037E+00     1.018E+01    -8.910E-12     1.844E-10    -3.551E-12
Si     1.290E+01     4.752E+00     7.468E+00     2.106E-11    -2.743E-11    -1.090E-10
Si     1.154E+01     6.789E-01     1.154E+01     8.664E-11    -1.307E-10    -2.255E-10
Si     1.426E+01     6.789E-01     1.426E+01    -5.993E-11     5.728E-11     2.220E-11
Si     1.154E+01     3.394E+00     1.426E+01    -3.394E-11    -1.833E-11     2.450E-10
Si     1.426E+01     3.394E+00     1.154E+01     3.581E-11     4.287E-11     8.128E-10
Si     1.561E+01     2.037E+00     1.290E+01    -5.734E-12    -1.332E-10    -6.839E-11
Si     1.561E+01     4.752E+00     1.561E+01    -3.452E-11     1.878E-11     6.515E-10
Si     1.290E+01     2.037E+00     1.561E+01    -1.153E-11    -4.731E-11    -6.408E-10
Si     1.290E+01     4.752E+00     1.290E+01     1.098E-10     1.297E-10     2.638E-11
Si     1.154E+01     6.110E+00     6.789E-01    -6.955E-11     3.745E-11     6.249E-10
Si     1.426E+01     6.110E+00     3.394E+00    -2.216E-11    -1.045E-11     3.790E-10
Si     1.154E+01     8.825E+00     3.394E+00    -5.201E-11     9.089E-11    -3.202E-10
Si     1.426E+01     8.825E+00     6.789E-01     6.781E-11     3.388E-11    -5.555E-10
Si     1.561E+01     7.468E+00     2.037E+00     1.986E-12    -2.202E-11     1.357E-12
Si     1.561E+01     1.018E+01     4.752E+00    -1.868E-12    -9.285E-11     3.254E-10
Si     1.290E+01     7.468E+00     4.752E+00     1.314E-11     5.157E-11     6.709E-10
Si     1.290E+01     1.018E+01     2.037E+00    -1.396E-11    -7.691E-11    -1.430E-10
Si     1.154E+01     6.110E+00     6.110E+00     5.180E-11    -6.275E-12     5.951E-10
Si     1.426E+01     6.110E+00     8.825E+00    -5.004E-12    -4.845E-11    -5.302E-10
Si     1.154E+01     8.825E+00     8.825E+00    -6.280E-11    -5.601E-11    -1.731E-10
Si     1.426E+01     8.825E+00     6.110E+00     8.140E-11     1.806E-10    -1.563E-10
Si     1.561E+01     7.468E+00     7.468E+00    -1.481E-12    -8.258E-11     4.562E-10
Si     1.561E+01     1.018E+01     1.018E+01    -7.301E-11    -2.663E-11     8.162E-10
Si     1.290E+01     7.468E+00     1.018E+01     1.026E-10     1.288E-10     1.289E-10
Si     1.290E+01     1.018E+01     7.468E+00    -7.426E-11     5.764E-11    -1.778E-10
Si     1.154E+01     6.110E+00     1.154E+01    -6.628E-12    -1.113E-10    -9.728E-10
Si     1.426E+01     6.110E+00     1.426E+01    -4.631E-11    -4.693E-11    -1.031E-09
Si     1.154E+01     8.825E+00     1.426E+01     1.240E-10     1.160E-10     2.466E-10
Si     1.426E+01     8.825E+00     1.154E+01    -1.224E-10    -1.394E-10    -1.273E-10
Si     1.561E+01     7.468E+00     1.290E+01     1.245E-11    -1.394E-11    -2.735E-10
Si     1.561E+01     1.018E+01     1.561E+01    -5.109E-11     1.191E-11    -1.174E-10
Si     1.290E+01     7.468E+00     1.561E+01     6.320E-11    -1.027E-10    -4.547E-10
Si     1.290E+01     1.018E+01     1.290E+01     5.805E-11     5.760E-11     3.233E-10
Si     1.154E+01     1.154E+01     6.789E-01    -2.068E-11     3.912E-12     5.201E-10
Si     1.426E+01     1.154E+01     3.394E+00     7.463E-11    -3.485E-11     1.001E-09
Si     1.154E+01     1.426E+01     3.394E+00    -1.000E-10    -5.753E-11     4.448E-10
Si     1.426E+01     1.426E+01     6.789E-01    -8.339E-11     4.412E-11     5.593E-11
Si     1.561E+01     1.290E+01     2.037E+00     1.007E-10    -3.386E-11    -3.509E-12
Si     1.561E+01     1.561E+01     4.752E+00    -7.986E-11     8.026E-13     4.744E-11
Si     1.290E+01     1.290E+01     4.752E+00    -3.487E-11     1.302E-10    -8.343E-10
Si     1.290E+01     1.561E+01     2.037E+00    -5.419E-11    -8.653E-12    -4.870E-10
Si     1.154E+01     1.154E+01     6.110E+00    -6.280E-11    -7.288E-11    -3.076E-10
Si     1.426E+01     1.154E+01     8.825E+00     4.865E-11    -9.156E-11    -5.187E-10
Si     1.154E+01     1.426E+01     8.825E+00    -6.127E-11     1.933E-10     3.684E-11
Si     1.426E+01     1.426E+01     6.110E+00    -3.310E-11    -3.258E-11    -1.734E-10
Si     1.561E+01     1.290E+01     7.468E+00    -4.734E-11     2.189E-10     1.430E-09
Si     1.561E+01     1.561E+01     1.018E+01    -5.254E-11     4.052E-12    -6.560E-10
Si     1.290E+01     1.290E+01     1.018E+01    -9.143E-11    -6.236E-11    -8.287E-10
Si     1.290E+01     1.561E+01     7.468E+00    -4.723E-12    -4.513E-11    -5.458E-11
Si     1.154E+01     1.154E+01     1.154E+01     3.389E-11     9.968E-11     5.720E-10
Si     1.426E+01     1.154E+01     1.426E+01     2.577E-11    -1.179E-11     3.723E-10
Si     1.154E+01     1.426E+01     1.426E+01     4.034E-12    -9.058E-12     5.317E-10
Si     1.426E+01     1.426E+01     1.154E+01     6.156E-11    -8.533E-11     8.620E-11
Si     1.561E+01     1.290E+01     1.290E+01     2.321E-11     3.558E-11    -5.735E-10
Si     1.561E+01     1.561E+01     1.561E+01     1.778E-11     3.221E-11     1.772E-10
Si     1.290E+01     1.290E+01     1.561E+01     7.542E-13    -4.242E-11    -7.332E-10
Si     1.290E+01     1.561E+01     1.290E+01     8.632E-11    -1.429E-10    -9.943E-10
