216 

Si    0.67888   0.67888   0.67888   0.000008999706962   0.000008999706927   0.000008981271635
Si    3.39437   0.67888   3.39437  -0.000008999707037   0.000008999706992  -0.000008981271718
Si    0.67888   3.39437   3.39437   0.000008999706951  -0.000008999706967  -0.000008981271639
Si    3.39437   3.39437   0.67888  -0.000008999707052  -0.000008999707047   0.000008981271694
Si    4.75213   2.03662   2.03662   0.000007115123023  -0.000000000000031  -0.000000000000001
Si    4.75213   4.75213   4.75213   0.000008153982238   0.000008153982388   0.000008157473719
Si    2.03662   2.03662   4.75213  -0.000000000000060   0.000000000000067   0.000007121901881
Si    2.03662   4.75213   2.03662  -0.000000000000061   0.000007115123086   0.000000000000080
Si    0.67888   0.67888   6.10987   0.000002866728783   0.000002866728870   0.000000874880761
Si    3.39437   0.67888   8.82538  -0.000008153982431   0.000008153982380   0.000008157473745
Si    0.67888   3.39437   8.82538   0.000008153982292  -0.000008153982324   0.000008157473681
Si    3.39437   3.39437   6.10987  -0.000002866728914  -0.000002866728764   0.000000874880744
Si    4.75213   2.03662   7.46762   0.000002884640325   0.000000879957716  -0.000002880198995
Si    4.75213   4.75213  10.18313   0.000002866728723   0.000002866728804  -0.000000874880823
Si    2.03662   2.03662  10.18313  -0.000000000000056   0.000000000000004   0.000000000000023
Si    2.03662   4.75213   7.46762   0.000000879957610   0.000002884640453  -0.000002880199040
Si    0.67888   0.67888  11.54087   0.000008153982300   0.000008153982295  -0.000008157473662
Si    3.39437   0.67888  14.25638  -0.000002866728903   0.000002866728737  -0.000000874880751
Si    0.67888   3.39437  14.25638   0.000002866728776  -0.000002866728894  -0.000000874880769
Si    3.39437   3.39437  11.54087  -0.000008153982436  -0.000008153982416  -0.000008157473746
Si    4.75213   2.03662  12.89863   0.000002884640312  -0.000000879957740   0.000002880199016
Si    4.75213   4.75213  15.61412   0.000008999706892   0.000008999706965  -0.000008981271595
Si    2.03662   2.03662  15.61412  -0.000000000000059  -0.000000000000089  -0.000007121901884
Si    2.03662   4.75213  12.89863  -0.000000879957741   0.000002884640380   0.000002880198976
Si    0.67888   6.10987   0.67888   0.000002884640369   0.000000879957675   0.000002880199029
Si    3.39437   6.10987   3.39437  -0.000002884640496   0.000000879957678  -0.000002880198927
Si    0.67888   8.82538   3.39437   0.000008153982284   0.000008153982345  -0.000008157473693
Si    3.39437   8.82538   0.67888  -0.000008153982399   0.000008153982413   0.000008157473774
Si    4.75213   7.46762   2.03662   0.000002866728761  -0.000002866728809   0.000000874880825
Si    4.75213  10.18313   4.75213   0.000002884640338  -0.000000879957713   0.000002880198930
Si    2.03662   7.46762   4.75213   0.000000879957627  -0.000002884640457   0.000002880199003
Si    2.03662  10.18313   2.03662  -0.000000000000028   0.000000000000016   0.000000000000005
Si    0.67888   6.10987   6.10987   0.000007115123042   0.000000000000004  -0.000000000000028
Si    3.39437   6.10987   8.82538  -0.000002884640536  -0.000000879957669   0.000002880198906
Si    0.67888   8.82538   8.82538   0.000008999706929   0.000008999706970   0.000008981271612
Si    3.39437   8.82538   6.10987  -0.000002866728912   0.000002866728770  -0.000000874880815
Si    4.75213   7.46762   7.46762   0.000008153982239  -0.000008153982379  -0.000008157473808
Si    4.75213  10.18313  10.18313   0.000007115123013   0.000000000000019  -0.000000000000007
Si    2.03662   7.46762  10.18313  -0.000000000000070  -0.000007115123100  -0.000000000000083
Si    2.03662  10.18313   7.46762  -0.000000000000085  -0.000000000000065  -0.000007121901946
Si    0.67888   6.10987  11.54087   0.000002884640348  -0.000000879957685  -0.000002880199027
Si    3.39437   6.10987  14.25638  -0.000007115123199  -0.000000000000008   0.000000000000039
Si    0.67888   8.82538  14.25638   0.000002866728775   0.000002866728906   0.000000874880799
Si    3.39437   8.82538  11.54087  -0.000008999707085   0.000008999707025  -0.000008981271670
Si    4.75213   7.46762  12.89863   0.000008999706899  -0.000008999706955   0.000008981271679
Si    4.75213  10.18313  15.61412   0.000002884640352   0.000000879957733  -0.000002880198922
Si    2.03662   7.46762  15.61412  -0.000000879957721  -0.000002884640387  -0.000002880198921
Si    2.03662  10.18313  12.89863  -0.000000000000085   0.000000000000083   0.000007121901953
Si    0.67888  11.54087   0.67888   0.000008153982293  -0.000008153982310   0.000008157473693
Si    3.39437  11.54087   3.39437  -0.000008153982407  -0.000008153982373  -0.000008157473773
Si    0.67888  14.25638   3.39437   0.000002884640377  -0.000000879957680  -0.000002880199043
Si    3.39437  14.25638   0.67888  -0.000002884640487  -0.000000879957673   0.000002880198924
Si    4.75213  12.89863   2.03662   0.000002866728761   0.000002866728835  -0.000000874880839
Si    4.75213  15.61412   4.75213   0.000008999706884  -0.000008999706966   0.000008981271593
Si    2.03662  12.89863   4.75213  -0.000000879957736   0.000002884640400   0.000002880198916
Si    2.03662  15.61412   2.03662  -0.000000000000051  -0.000007115123106  -0.000000000000076
Si    0.67888  11.54087   6.10987   0.000002866728762  -0.000002866728878  -0.000000874880794
Si    3.39437  11.54087   8.82538  -0.000008999707074  -0.000008999707005   0.000008981271665
Si    0.67888  14.25638   8.82538   0.000002884640371   0.000000879957667   0.000002880199028
Si    3.39437  14.25638   6.10987  -0.000007115123198  -0.000000000000004  -0.000000000000042
Si    4.75213  12.89863   7.46762   0.000008999706874   0.000008999706966  -0.000008981271676
Si    4.75213  15.61412  10.18313   0.000002866728722  -0.000002866728813   0.000000874880846
Si    2.03662  12.89863  10.18313  -0.000000000000094   0.000007115123109   0.000000000000080
Si    2.03662  15.61412   7.46762  -0.000000879957743  -0.000002884640396  -0.000002880198983
Si    0.67888  11.54087  11.54087   0.000008999706938  -0.000008999706939  -0.000008981271609
Si    3.39437  11.54087  14.25638  -0.000002866728898  -0.000002866728739   0.000000874880819
Si    0.67888  14.25638  14.25638   0.000007115123028   0.000000000000005   0.000000000000023
Si    3.39437  14.25638  11.54087  -0.000002884640510   0.000000879957681  -0.000002880198885
Si    4.75213  12.89863  12.89863   0.000008153982236   0.000008153982409   0.000008157473811
Si    4.75213  15.61412  15.61412   0.000008153982242  -0.000008153982395  -0.000008157473722
Si    2.03662  12.89863  15.61412   0.000000879957632   0.000002884640478  -0.000002880198989
Si    2.03662  15.61412  12.89863   0.000000879957615  -0.000002884640451   0.000002880199049
Si    6.10987   0.67888   0.67888   0.000000879957599   0.000002884640381   0.000002880198983
Si    8.82538   0.67888   3.39437   0.000008153982264   0.000008153982374  -0.000008157473822
Si    6.10987   3.39437   3.39437   0.000000879957599  -0.000002884640426  -0.000002880198994
Si    8.82538   3.39437   0.67888   0.000008153982279  -0.000008153982407   0.000008157473801
Si   10.18313   2.03662   2.03662  -0.000000000000102  -0.000000000000025  -0.000000000000009
Si   10.18313   4.75213   4.75213  -0.000000879957677   0.000002884640457   0.000002880198976
Si    7.46762   2.03662   4.75213  -0.000002884640512   0.000000879957710   0.000002880198920
Si    7.46762   4.75213   2.03662  -0.000002866728913   0.000002866728820   0.000000874880829
Si    6.10987   0.67888   6.10987  -0.000000000000116   0.000007115123144  -0.000000000000044
Si    8.82538   0.67888   8.82538   0.000008999706919   0.000008999707033   0.000008981271715
Si    6.10987   3.39437   8.82538  -0.000000879957781  -0.000002884640414   0.000002880198943
Si    8.82538   3.39437   6.10987   0.000002866728766  -0.000002866728793  -0.000000874880799
Si   10.18313   2.03662   7.46762  -0.000000000000028   0.000000000000059  -0.000007121901914
Si   10.18313   4.75213  10.18313  -0.000000000000012   0.000007115123053  -0.000000000000055
Si    7.46762   2.03662  10.18313  -0.000007115123172  -0.000000000000012   0.000000000000021
Si    7.46762   4.75213   7.46762  -0.000008153982414   0.000008153982361  -0.000008157473770
Si    6.10987   0.67888  11.54087  -0.000000879957768   0.000002884640385  -0.000002880198946
Si    8.82538   0.67888  14.25638   0.000002866728750   0.000002866728768   0.000000874880802
Si    6.10987   3.39437  14.25638  -0.000000000000099  -0.000007115123180   0.000000000000023
Si    8.82538   3.39437  11.54087   0.000008999706906  -0.000008999707063  -0.000008981271692
Si   10.18313   2.03662  12.89863  -0.000000000000033  -0.000000000000075   0.000007121901914
Si   10.18313   4.75213  15.61412   0.000000879957635   0.000002884640403  -0.000002880198924
Si    7.46762   2.03662  15.61412  -0.000002884640519  -0.000000879957750  -0.000002880198922
Si    7.46762   4.75213  12.89863  -0.000008999707072   0.000008999706934   0.000008981271659
Si    6.10987   6.10987   0.67888  -0.000000000000089   0.000000000000010   0.000007121901988
Si    8.82538   6.10987   3.39437   0.000002884640364  -0.000000879957628  -0.000002880198970
Si    6.10987   8.82538   3.39437  -0.000000879957739   0.000002884640415  -0.000002880198977
Si    8.82538   8.82538   0.67888   0.000008999706915   0.000008999707064   0.000008981271749
Si   10.18313   7.46762   2.03662  -0.000000000000037  -0.000007115123038   0.000000000000049
Si   10.18313  10.18313   4.75213  -0.000000000000034  -0.000000000000048   0.000007121901847
Si    7.46762   7.46762   4.75213  -0.000008153982412  -0.000008153982331   0.000008157473685
Si    7.46762  10.18313   2.03662  -0.000007115123147   0.000000000000017   0.000000000000002
Si    6.10987   6.10987   6.10987  -0.000000000000120   0.000000000000010  -0.000000000000039
Si    8.82538   6.10987   8.82538   0.000002884640381   0.000000879957676   0.000002880198927
Si    6.10987   8.82538   8.82538   0.000000879957610   0.000002884640414   0.000002880198940
Si    8.82538   8.82538   6.10987   0.000002866728777   0.000002866728823   0.000000874880715
Si   10.18313   7.46762   7.46762  -0.000000879957669  -0.000002884640425  -0.000002880199043
Si   10.18313  10.18313  10.18313  -0.000000000000058   0.000000000000016   0.000000000000004
Si    7.46762   7.46762  10.18313  -0.000002866728898  -0.000002866728811  -0.000000874880845
Si    7.46762  10.18313   7.46762  -0.000002884640485  -0.000000879957722  -0.000002880199012
Si    6.10987   6.10987  11.54087  -0.000000000000092  -0.000000000000006  -0.000007121901950
Si    8.82538   6.10987  14.25638   0.000007115123055   0.000000000000009   0.000000000000051
Si    6.10987   8.82538  14.25638  -0.000000000000073   0.000007115123187   0.000000000000058
Si    8.82538   8.82538  11.54087   0.000008153982315   0.000008153982412  -0.000008157473744
Si   10.18313   7.46762  12.89863   0.000000879957661  -0.000002884640355   0.000002880198993
Si   10.18313  10.18313  15.61412  -0.000000000000032   0.000000000000091  -0.000007121901842
Si    7.46762   7.46762  15.61412  -0.000008999707074  -0.000008999706914  -0.000008981271571
Si    7.46762  10.18313  12.89863  -0.000002884640487   0.000000879957737   0.000002880199030
Si    6.10987  11.54087   0.67888  -0.000000879957747  -0.000002884640379   0.000002880198962
Si    8.82538  11.54087   3.39437   0.000008999706912  -0.000008999707042  -0.000008981271762
Si    6.10987  14.25638   3.39437  -0.000000000000085  -0.000000000000017  -0.000007121902014
Si    8.82538  14.25638   0.67888   0.000002884640361   0.000000879957643   0.000002880198954
Si   10.18313  12.89863   2.03662  -0.000000000000045   0.000007115123053  -0.000000000000069
Si   10.18313  15.61412   4.75213   0.000000879957641  -0.000002884640407   0.000002880198912
Si    7.46762  12.89863   4.75213  -0.000008999707077   0.000008999706930   0.000008981271554
Si    7.46762  15.61412   2.03662  -0.000002866728910  -0.000002866728848  -0.000000874880839
Si    6.10987  11.54087   6.10987  -0.000000000000078  -0.000007115123151  -0.000000000000064
Si    8.82538  11.54087   8.82538   0.000008153982297  -0.000008153982399   0.000008157473761
Si    6.10987  14.25638   8.82538  -0.000000000000092  -0.000000000000004   0.000007121901953
Si    8.82538  14.25638   6.10987   0.000007115123051  -0.000000000000023  -0.000000000000053
Si   10.18313  12.89863   7.46762   0.000000879957648   0.000002884640374  -0.000002880198976
Si   10.18313  15.61412  10.18313  -0.000000000000023  -0.000007115123082   0.000000000000078
Si    7.46762  12.89863  10.18313  -0.000002866728894   0.000002866728816   0.000000874880846
Si    7.46762  15.61412   7.46762  -0.000008999707085  -0.000008999706944  -0.000008981271651
Si    6.10987  11.54087  11.54087   0.000000879957625  -0.000002884640375  -0.000002880198931
Si    8.82538  11.54087  14.25638   0.000002866728768  -0.000002866728789  -0.000000874880702
Si    6.10987  14.25638  14.25638  -0.000000000000110  -0.000000000000006   0.000000000000057
Si    8.82538  14.25638  11.54087   0.000002884640371  -0.000000879957667  -0.000002880198913
Si   10.18313  12.89863  12.89863  -0.000000879957674   0.000002884640442   0.000002880199047
Si   10.18313  15.61412  15.61412  -0.000000879957690  -0.000002884640472  -0.000002880198964
Si    7.46762  12.89863  15.61412  -0.000008153982419   0.000008153982372  -0.000008157473682
Si    7.46762  15.61412  12.89863  -0.000008153982417  -0.000008153982379   0.000008157473779
Si   11.54087   0.67888   0.67888  -0.000008153982374   0.000008153982280   0.000008157473689
Si   14.25638   0.67888   3.39437  -0.000000879957644   0.000002884640398  -0.000002880199010
Si   11.54087   3.39437   3.39437  -0.000008153982370  -0.000008153982305  -0.000008157473693
Si   14.25638   3.39437   0.67888  -0.000000879957647  -0.000002884640448   0.000002880199003
Si   15.61412   2.03662   2.03662  -0.000007115123079  -0.000000000000006  -0.000000000000009
Si   15.61412   4.75213   4.75213  -0.000008999707020   0.000008999707044   0.000008981271709
Si   12.89863   2.03662   4.75213   0.000002884640409  -0.000000879957604   0.000002880198975
Si   12.89863   4.75213   2.03662   0.000002866728799   0.000002866728875  -0.000000874880705
Si   11.54087   0.67888   6.10987  -0.000002866728829   0.000002866728878  -0.000000874880789
Si   14.25638   0.67888   8.82538   0.000000879957675   0.000002884640436   0.000002880199000
Si   11.54087   3.39437   8.82538  -0.000008999707007  -0.000008999706956   0.000008981271638
Si   14.25638   3.39437   6.10987   0.000000000000002  -0.000007115122999  -0.000000000000005
Si   15.61412   2.03662   7.46762  -0.000002884640421  -0.000000879957611  -0.000002880198992
Si   15.61412   4.75213  10.18313  -0.000002866728839   0.000002866728838   0.000000874880714
Si   12.89863   2.03662  10.18313   0.000007115123115   0.000000000000003   0.000000000000009
Si   12.89863   4.75213   7.46762   0.000008999707020   0.000008999707039  -0.000008981271727
Si   11.54087   0.67888  11.54087  -0.000008999707021   0.000008999706946  -0.000008981271619
Si   14.25638   0.67888  14.25638   0.000000000000012   0.000007115122988   0.000000000000008
Si   11.54087   3.39437  14.25638  -0.000002866728834  -0.000002866728903   0.000000874880789
Si   14.25638   3.39437  11.54087   0.000000879957671  -0.000002884640452  -0.000002880198997
Si   15.61412   2.03662  12.89863  -0.000002884640427   0.000000879957596   0.000002880199002
Si   15.61412   4.75213  15.61412  -0.000008153982364   0.000008153982333  -0.000008157473702
Si   12.89863   2.03662  15.61412   0.000002884640408   0.000000879957587  -0.000002880198995
Si   12.89863   4.75213  12.89863   0.000008153982379   0.000008153982333   0.000008157473715
Si   11.54087   6.10987   0.67888  -0.000002884640459  -0.000000879957634   0.000002880199054
Si   14.25638   6.10987   3.39437  -0.000000000000015   0.000000000000029  -0.000007121901822
Si   11.54087   8.82538   3.39437  -0.000008999707044   0.000008999706984  -0.000008981271665
Si   14.25638   8.82538   0.67888   0.000000879957616   0.000002884640476   0.000002880199020
Si   15.61412   7.46762   2.03662  -0.000002866728842  -0.000002866728826  -0.000000874880697
Si   15.61412  10.18313   4.75213  -0.000002884640435   0.000000879957617   0.000002880198971
Si   12.89863   7.46762   4.75213   0.000008999707003  -0.000008999707021   0.000008981271694
Si   12.89863  10.18313   2.03662   0.000007115123071   0.000000000000015   0.000000000000005
Si   11.54087   6.10987   6.10987  -0.000007115123099   0.000000000000033  -0.000000000000033
Si   14.25638   6.10987   8.82538  -0.000000000000012  -0.000000000000006   0.000007121901810
Si   11.54087   8.82538   8.82538  -0.000008153982358   0.000008153982331   0.000008157473655
Si   14.25638   8.82538   6.10987  -0.000000000000016   0.000007115123022  -0.000000000000042
Si   15.61412   7.46762   7.46762  -0.000008999707020  -0.000008999707041  -0.000008981271745
Si   15.61412  10.18313  10.18313  -0.000007115123104   0.000000000000012  -0.000000000000017
Si   12.89863   7.46762  10.18313   0.000002866728815  -0.000002866728848   0.000000874880701
Si   12.89863  10.18313   7.46762   0.000002884640409   0.000000879957608  -0.000002880199043
Si   11.54087   6.10987  11.54087  -0.000002884640401   0.000000879957664  -0.000002880199028
Si   14.25638   6.10987  14.25638  -0.000000000000002   0.000000000000011   0.000000000000007
Si   11.54087   8.82538  14.25638  -0.000002866728843   0.000002866728914  -0.000000874880729
Si   14.25638   8.82538  11.54087  -0.000000879957661   0.000002884640454  -0.000002880198978
Si   15.61412   7.46762  12.89863  -0.000008153982377  -0.000008153982350   0.000008157473740
Si   15.61412  10.18313  15.61412  -0.000002884640434  -0.000000879957589  -0.000002880198965
Si   12.89863   7.46762  15.61412   0.000008153982348  -0.000008153982320  -0.000008157473667
Si   12.89863  10.18313  12.89863   0.000002884640409  -0.000000879957581   0.000002880199034
Si   11.54087  11.54087   0.67888  -0.000008999707057  -0.000008999706961   0.000008981271656
Si   14.25638  11.54087   3.39437   0.000000879957644  -0.000002884640443  -0.000002880199021
Si   11.54087  14.25638   3.39437  -0.000002884640442   0.000000879957645  -0.000002880199079
Si   14.25638  14.25638   0.67888  -0.000000000000022  -0.000000000000024   0.000007121901830
Si   15.61412  12.89863   2.03662  -0.000002866728849   0.000002866728849   0.000000874880702
Si   15.61412  15.61412   4.75213  -0.000008153982355  -0.000008153982347   0.000008157473673
Si   12.89863  12.89863   4.75213   0.000008153982358   0.000008153982299   0.000008157473664
Si   12.89863  15.61412   2.03662   0.000002866728806  -0.000002866728882   0.000000874880700
Si   11.54087  11.54087   6.10987  -0.000002866728822  -0.000002866728910   0.000000874880726
Si   14.25638  11.54087   8.82538  -0.000000879957654  -0.000002884640443   0.000002880198983
Si   11.54087  14.25638   8.82538  -0.000002884640395  -0.000000879957687   0.000002880199045
Si   14.25638  14.25638   6.10987   0.000000000000015  -0.000000000000022  -0.000000000000027
Si   15.61412  12.89863   7.46762  -0.000008153982369   0.000008153982340  -0.000008157473737
Si   15.61412  15.61412  10.18313  -0.000002866728839  -0.000002866728842  -0.000000874880685
Si   12.89863  12.89863  10.18313   0.000002866728810   0.000002866728864  -0.000000874880692
Si   12.89863  15.61412   7.46762   0.000008153982360  -0.000008153982342  -0.000008157473720
Si   11.54087  11.54087  11.54087  -0.000008153982351  -0.000008153982316  -0.000008157473659
Si   14.25638  11.54087  14.25638  -0.000000000000022  -0.000007115122990   0.000000000000029
Si   11.54087  14.25638  14.25638  -0.000007115123097  -0.000000000000019   0.000000000000044
Si   14.25638  14.25638  11.54087  -0.000000000000005   0.000000000000003  -0.000007121901808
Si   15.61412  12.89863  12.89863  -0.000008999707027   0.000008999707042   0.000008981271745
Si   15.61412  15.61412  15.61412  -0.000008999706995  -0.000008999707054  -0.000008981271685
Si   12.89863  12.89863  15.61412   0.000008999706971   0.000008999707029  -0.000008981271683
Si   12.89863  15.61412  12.89863   0.000008999707004  -0.000008999707051   0.000008981271738
