216 

Si    0.72888   0.67888   0.67888   0.013554452310508   0.000001990642992   0.000001990766670
Si    3.39437   0.67888   3.39437  -0.000199990053102   0.000120264729752  -0.000193514416516
Si    0.67888   3.39437   3.39437   0.000422774774841  -0.000114170472907  -0.000114504528079
Si    3.39437   3.39437   0.67888  -0.000200042605335  -0.000193659300351   0.000120664629784
Si    4.75213   2.03662   2.03662   0.000010573400757   0.000025269067020   0.000025400483759
Si    4.75213   4.75213   4.75213   0.000016293675717   0.000007131080427   0.000007121689782
Si    2.03662   2.03662   4.75213   0.000033542251375  -0.000036257035478   0.000033866714232
Si    2.03662   4.75213   2.03662   0.000033457049778   0.000033946121328  -0.000036346253916
Si    0.67888   0.67888   6.10987  -0.000019085082834   0.000002861002865   0.000000653035684
Si    3.39437   0.67888   8.82538  -0.000020012153261   0.000008154464491   0.000008156479264
Si    0.67888   3.39437   8.82538  -0.000003688287288  -0.000008033174607   0.000011483730801
Si    3.39437   3.39437   6.10987  -0.000019401051351   0.000022372338647  -0.000003060522785
Si    4.75213   2.03662   7.46762   0.000001034448324  -0.000009021100475  -0.000000596537299
Si    4.75213   4.75213  10.18313   0.000002565737484  -0.000017228282179  -0.000003758682735
Si    2.03662   2.03662  10.18313   0.000015281518769   0.000001235478888   0.000002273373508
Si    2.03662   4.75213   7.46762   0.000012656326188  -0.000007457284957   0.000008757474007
Si    0.67888   0.67888  11.54087  -0.000013795331841   0.000008181441551  -0.000007934171618
Si    3.39437   0.67888  14.25638  -0.000194039308472  -0.000108274606471   0.000183818816664
Si    0.67888   3.39437  14.25638   0.000422019465305   0.000108390743625  -0.000112502200101
Si    3.39437   3.39437  11.54087  -0.000024786488314   0.000017866101873   0.000003898414216
Si    4.75213   2.03662  12.89863  -0.000016027696750   0.000051354668644   0.000024940585904
Si    4.75213   4.75213  15.61412  -0.000009865946497  -0.000013068142888  -0.000061114650735
Si    2.03662   2.03662  15.61412  -0.003371499481934  -0.002473717099496   0.002466598713327
Si    2.03662   4.75213  12.89863  -0.000177685188907   0.000054526641913  -0.000048805081179
Si    0.67888   6.10987   0.67888  -0.000018924377941   0.000000662484592   0.000002868424822
Si    3.39437   6.10987   3.39437  -0.000019465287149  -0.000003059860434   0.000022347617536
Si    0.67888   8.82538   3.39437  -0.000003744036597   0.000011457016904  -0.000008032063585
Si    3.39437   8.82538   0.67888  -0.000019972908410   0.000008152953719   0.000008157704975
Si    4.75213   7.46762   2.03662   0.000001048596145  -0.000000599611074  -0.000009040451729
Si    4.75213  10.18313   4.75213   0.000002690074560  -0.000003774767958  -0.000017207948280
Si    2.03662   7.46762   4.75213   0.000012644290471   0.000008752730875  -0.000007407528641
Si    2.03662  10.18313   2.03662   0.000015290871866   0.000002252546527   0.000001448279164
Si    0.67888   6.10987   6.10987   0.000108631692541  -0.000020937794715  -0.000020956309298
Si    3.39437   6.10987   8.82538  -0.000007164059756   0.000014916582960   0.000006023786207
Si    0.67888   8.82538   8.82538   0.000118913891130   0.000008999692833   0.000008981320695
Si    3.39437   8.82538   6.10987  -0.000007156052407   0.000006014444787   0.000014921535070
Si    4.75213   7.46762   7.46762   0.000009618930559  -0.000012782477610  -0.000012791428704
Si    4.75213  10.18313  10.18313   0.000008580630905   0.000004629393114   0.000004634855112
Si    2.03662   7.46762  10.18313  -0.000063035336216  -0.000005493970333  -0.000001644710684
Si    2.03662  10.18313   7.46762  -0.000063035431457  -0.000001624169335  -0.000005480112800
Si    0.67888   6.10987  11.54087   0.000106103000184   0.000019950399865  -0.000023732740114
Si    3.39437   6.10987  14.25638  -0.000023729864624  -0.000012047538807  -0.000025910644215
Si    0.67888   8.82538  14.25638  -0.000009029084203  -0.000000436040774   0.000000750360693
Si    3.39437   8.82538  11.54087  -0.000013287573432   0.000005852091773  -0.000024778494456
Si    4.75213   7.46762  12.89863   0.000008801776595  -0.000006105450307   0.000029070986735
Si    4.75213  10.18313  15.61412   0.000001066969006  -0.000001387700290   0.000007033752671
Si    2.03662   7.46762  15.61412   0.000014411957626  -0.000005137366056  -0.000004327556753
Si    2.03662  10.18313  12.89863   0.000011764082768  -0.000011636352302   0.000017410584391
Si    0.67888  11.54087   0.67888  -0.000013664195661  -0.000007934912125   0.000008173187308
Si    3.39437  11.54087   3.39437  -0.000024776994076   0.000003897517386   0.000017747382641
Si    0.67888  14.25638   3.39437   0.000422041078542  -0.000112160513465   0.000108725143995
Si    3.39437  14.25638   0.67888  -0.000194100268225   0.000183941106288  -0.000108679233023
Si    4.75213  12.89863   2.03662  -0.000016001919860   0.000024932911130   0.000051242603013
Si    4.75213  15.61412   4.75213  -0.000009910687224  -0.000061250046074  -0.000013080631566
Si    2.03662  12.89863   4.75213  -0.000177685307835  -0.000048767303043   0.000054554167254
Si    2.03662  15.61412   2.03662  -0.003371497020720   0.002466482616561  -0.002473841141330
Si    0.67888  11.54087   6.10987   0.000106084663614  -0.000023696578132   0.000019978310555
Si    3.39437  11.54087   8.82538  -0.000013277758239  -0.000024797038463   0.000005837795193
Si    0.67888  14.25638   8.82538  -0.000008955658240   0.000000759730917  -0.000000445822101
Si    3.39437  14.25638   6.10987  -0.000023736135968  -0.000026028958189  -0.000012051840920
Si    4.75213  12.89863   7.46762   0.000008695763917   0.000029096003991  -0.000006098120053
Si    4.75213  15.61412  10.18313   0.000001017788509   0.000007032554947  -0.000001409257104
Si    2.03662  12.89863  10.18313   0.000011776149400   0.000017457999587  -0.000011636669755
Si    2.03662  15.61412   7.46762   0.000014402256644  -0.000004119861598  -0.000005153855807
Si    0.67888  11.54087  11.54087   0.000110515005526   0.000011941469137   0.000011978388557
Si    3.39437  11.54087  14.25638  -0.000019437278120   0.000001068617315  -0.000024352265921
Si    0.67888  14.25638  14.25638   0.000420831256071   0.000105077398801   0.000105428398487
Si    3.39437  14.25638  11.54087  -0.000019409685361  -0.000024356286975   0.000001050645803
Si    4.75213  12.89863  12.89863   0.000016294747052   0.000009175096053   0.000009191003299
Si    4.75213  15.61412  15.61412   0.000011539818258  -0.000033386594447  -0.000033521775459
Si    2.03662  12.89863  15.61412   0.000034355782105  -0.000023932309010   0.000033472268178
Si    2.03662  15.61412  12.89863   0.000034438920449   0.000033378778882  -0.000023849198586
Si    6.10987   0.67888   0.67888  -0.000005158869820   0.000002872317717   0.000002868710524
Si    8.82538   0.67888   3.39437   0.000005832452211   0.000004819346070  -0.000008021911317
Si    6.10987   3.39437   3.39437   0.000002262135455  -0.000015118991929  -0.000015112980211
Si    8.82538   3.39437   0.67888   0.000005857000570  -0.000008017936031   0.000004833584992
Si   10.18313   2.03662   2.03662   0.000000019653116   0.000002239747016   0.000002253430166
Si   10.18313   4.75213   4.75213  -0.000001024335491   0.000000059025360   0.000000045047965
Si    7.46762   2.03662   4.75213   0.000000523130939   0.000012655378142   0.000004996513559
Si    7.46762   4.75213   2.03662   0.000000534072773   0.000004986260082   0.000012657658183
Si    6.10987   0.67888   6.10987  -0.000000627734926   0.000028679787444  -0.000012289387542
Si    8.82538   0.67888   8.82538   0.000010652294210   0.000009002674761   0.000008981074066
Si    6.10987   3.39437   8.82538   0.000000207285293   0.000012736750623   0.000001214351486
Si    8.82538   3.39437   6.10987   0.000004795253243  -0.000006103979220   0.000000743353533
Si   10.18313   2.03662   7.46762  -0.000004936045364  -0.000001186358369  -0.000007873300374
Si   10.18313   4.75213  10.18313   0.000002552748941   0.000011796079388  -0.000005326761671
Si    7.46762   2.03662  10.18313  -0.000012411757457   0.000002251232427  -0.000000343529526
Si    7.46762   4.75213   7.46762  -0.000005574676707   0.000003643772137  -0.000013450901460
Si    6.10987   0.67888  11.54087  -0.000001506852662  -0.000018674767997   0.000009407664799
Si    8.82538   0.67888  14.25638   0.000000544977480   0.000006201686428   0.000000738991779
Si    6.10987   3.39437  14.25638   0.000001632255844  -0.000011264011096   0.000004141746878
Si    8.82538   3.39437  11.54087   0.000011108694692  -0.000005886200139  -0.000007353100732
Si   10.18313   2.03662  12.89863   0.000003291927518  -0.000011538410387   0.000009485395617
Si   10.18313   4.75213  15.61412   0.000004164488965   0.000000518030081   0.000008664723919
Si    7.46762   2.03662  15.61412  -0.000002636471368  -0.000003256175445  -0.000000492618374
Si    7.46762   4.75213  12.89863  -0.000009076923993   0.000011936161389   0.000006035509953
Si    6.10987   6.10987   0.67888  -0.000000744648720  -0.000012300322097   0.000028679564094
Si    8.82538   6.10987   3.39437   0.000004813875359   0.000000745568060  -0.000006109983654
Si    6.10987   8.82538   3.39437   0.000000198092889   0.000001217994744   0.000012732367045
Si    8.82538   8.82538   0.67888   0.000010607155451   0.000008999519966   0.000008984182411
Si   10.18313   7.46762   2.03662  -0.000004929812818  -0.000007884318851  -0.000001191220863
Si   10.18313  10.18313   4.75213   0.000002559548931  -0.000005328792026   0.000011808061713
Si    7.46762   7.46762   4.75213  -0.000005567307788  -0.000013448570062   0.000003642294521
Si    7.46762  10.18313   2.03662  -0.000012402146096  -0.000000360745325   0.000002257536662
Si    6.10987   6.10987   6.10987  -0.000002075812554   0.000003403392747   0.000003406618900
Si    8.82538   6.10987   8.82538   0.000001051409725   0.000000856641476   0.000002880545040
Si    6.10987   8.82538   8.82538  -0.000000936070839   0.000002884074298   0.000002879643581
Si    8.82538   8.82538   6.10987   0.000001031562378   0.000002857627464   0.000000851429808
Si   10.18313   7.46762   7.46762  -0.000000947570733  -0.000002693050657  -0.000002704385892
Si   10.18313  10.18313  10.18313  -0.000000067746052  -0.000000191048858  -0.000000175317139
Si    7.46762   7.46762  10.18313  -0.000002917271480  -0.000003045175891  -0.000000712027686
Si    7.46762  10.18313   7.46762  -0.000002935128076  -0.000000701111466  -0.000003042574789
Si    6.10987   6.10987  11.54087  -0.000001922750653   0.000003523279714  -0.000010631187313
Si    8.82538   6.10987  14.25638   0.000009221796737  -0.000001636338556  -0.000003106314361
Si    6.10987   8.82538  14.25638   0.000001078451597   0.000008783195858  -0.000015613738708
Si    8.82538   8.82538  11.54087   0.000006318694426   0.000008163115007  -0.000008134269670
Si   10.18313   7.46762  12.89863   0.000003438805976   0.000002444603038  -0.000001806006945
Si   10.18313  10.18313  15.61412  -0.000004929587023   0.000000768913996  -0.000005935618208
Si    7.46762   7.46762  15.61412  -0.000014290331675  -0.000008640470952  -0.000011242372749
Si    7.46762  10.18313  12.89863  -0.000000297699433   0.000006173301465   0.000007396501655
Si    6.10987  11.54087   0.67888  -0.000001623565724   0.000009414311841  -0.000018673044891
Si    8.82538  11.54087   3.39437   0.000011107953927  -0.000007364130458  -0.000005874807224
Si    6.10987  14.25638   3.39437   0.000001632469762   0.000004148890004  -0.000011263508972
Si    8.82538  14.25638   0.67888   0.000000587371088   0.000000743616594   0.000006204545203
Si   10.18313  12.89863   2.03662   0.000003285760618   0.000009483029303  -0.000011547273438
Si   10.18313  15.61412   4.75213   0.000004170861003   0.000008651424432   0.000000517974151
Si    7.46762  12.89863   4.75213  -0.000009077042062   0.000006062154587   0.000011925921402
Si    7.46762  15.61412   2.03662  -0.000002618431531  -0.000000492900581  -0.000003264737426
Si    6.10987  11.54087   6.10987  -0.000001922660136  -0.000010638706085   0.000003509091255
Si    8.82538  11.54087   8.82538   0.000006320619441  -0.000008130933729   0.000008157183987
Si    6.10987  14.25638   8.82538   0.000001087597068  -0.000015622465056   0.000008789116050
Si    8.82538  14.25638   6.10987   0.000009222532778  -0.000003113307865  -0.000001628938219
Si   10.18313  12.89863   7.46762   0.000003432037838  -0.000001796348024   0.000002446986402
Si   10.18313  15.61412  10.18313  -0.000004935710359  -0.000005933565456   0.000000751150612
Si    7.46762  12.89863  10.18313  -0.000000287055483   0.000007378024714   0.000006167022801
Si    7.46762  15.61412   7.46762  -0.000014299982563  -0.000011254357665  -0.000008639192157
Si    6.10987  11.54087  11.54087  -0.000001196348191  -0.000006287891793  -0.000006286650105
Si    8.82538  11.54087  14.25638   0.000004794310611  -0.000004491352156   0.000002352866542
Si    6.10987  14.25638  14.25638   0.000001391250382   0.000012228487743   0.000012226871118
Si    8.82538  14.25638  11.54087   0.000004811511534   0.000002355203210  -0.000004497518273
Si   10.18313  12.89863  12.89863  -0.000001021484934   0.000005714745802   0.000005719864605
Si   10.18313  15.61412  15.61412  -0.000000859140639  -0.000005123806946  -0.000005132954860
Si    7.46762  12.89863  15.61412  -0.000004752694260   0.000006034251382  -0.000019940658154
Si    7.46762  15.61412  12.89863  -0.000004745888248  -0.000019929830285   0.000006041011316
Si   11.54087   0.67888   0.67888  -0.000013899575648   0.000008144070242   0.000008147528272
Si   14.25638   0.67888   3.39437  -0.000183757482985   0.000108388837093   0.000174871144310
Si   11.54087   3.39437   3.39437  -0.000007172421497  -0.000003904766323  -0.000003914453024
Si   14.25638   3.39437   0.67888  -0.000183804097159   0.000174969705281   0.000108790109938
Si   15.61412   2.03662   2.03662  -0.003224256440127   0.002172625305316   0.002172765713444
Si   15.61412   4.75213   4.75213  -0.000181686151316  -0.000042204536715  -0.000042263618827
Si   12.89863   2.03662   4.75213  -0.000013466917079  -0.000051769089277   0.000022759909562
Si   12.89863   4.75213   2.03662  -0.000013428985720   0.000022746581421  -0.000051651242470
Si   11.54087   0.67888   6.10987  -0.000002778632317   0.000023141134003   0.000010923653974
Si   14.25638   0.67888   8.82538  -0.000011239953810   0.000002885478381   0.000002879373263
Si   11.54087   3.39437   8.82538  -0.000008044351430  -0.000024953635606   0.000007405286759
Si   14.25638   3.39437   6.10987  -0.000016564448680  -0.000032762733401   0.000012368036063
Si   15.61412   2.03662   7.46762   0.000012501785401  -0.000002320268971  -0.000000523227564
Si   15.61412   4.75213  10.18313   0.000008549607999   0.000013130495261   0.000012535097100
Si   12.89863   2.03662  10.18313   0.000005492654117   0.000010582022452   0.000002198489373
Si   12.89863   4.75213   7.46762   0.000008743335730   0.000029202048384  -0.000011881494471
Si   11.54087   0.67888  11.54087  -0.000008909459438  -0.000011269609661  -0.000020775698341
Si   14.25638   0.67888  14.25638  -0.000182933012580  -0.000098281730586  -0.000177788412547
Si   11.54087   3.39437  14.25638  -0.000001405138081   0.000009310825513  -0.000011301017856
Si   14.25638   3.39437  11.54087  -0.000015776645609  -0.000029183058709  -0.000007307920800
Si   15.61412   2.03662  12.89863   0.000028279181923   0.000039291162687   0.000027480868652
Si   15.61412   4.75213  15.61412   0.000022872498356  -0.000016587778997  -0.000046631016312
Si   12.89863   2.03662  15.61412   0.000007077439136  -0.000025095660885   0.000023270891133
Si   12.89863   4.75213  12.89863   0.000016292989262   0.000009337120972   0.000006967705020
Si   11.54087   6.10987   0.67888  -0.000002904390614   0.000010930411054   0.000023148057721
Si   14.25638   6.10987   3.39437  -0.000016554192456   0.000012362293040  -0.000032667254462
Si   11.54087   8.82538   3.39437  -0.000008054251422   0.000007423174923  -0.000024929193079
Si   14.25638   8.82538   0.67888  -0.000011204146498   0.000002883843189   0.000002881061329
Si   15.61412   7.46762   2.03662   0.000012544626180  -0.000000532260968  -0.000002546492132
Si   15.61412  10.18313   4.75213   0.000008518188716   0.000012539408104   0.000013096203593
Si   12.89863   7.46762   4.75213   0.000008846851478  -0.000011912099609   0.000029178768413
Si   12.89863  10.18313   2.03662   0.000005522824959   0.000002180944329   0.000010591396849
Si   11.54087   6.10987   6.10987  -0.000009112359094  -0.000003445010364  -0.000003430319305
Si   14.25638   6.10987   8.82538  -0.000004090614202  -0.000015753591660   0.000010297194581
Si   11.54087   8.82538   8.82538  -0.000009906101362   0.000008153522627   0.000008157006379
Si   14.25638   8.82538   6.10987  -0.000004098623071   0.000010294922270  -0.000015754798297
Si   15.61412   7.46762   7.46762  -0.000071653793168  -0.000010789309273  -0.000010792598459
Si   15.61412  10.18313  10.18313  -0.000069762724563   0.000001786391823   0.000001807987876
Si   12.89863   7.46762  10.18313   0.000004184939541   0.000001695932817  -0.000003694808907
Si   12.89863  10.18313   7.46762   0.000004202822035  -0.000003684188425   0.000001688004817
Si   11.54087   6.10987  11.54087  -0.000004807724345  -0.000002648282653   0.000000649964179
Si   14.25638   6.10987  14.25638  -0.000016700941510   0.000004431567781   0.000026304268472
Si   11.54087   8.82538  14.25638  -0.000001920851848   0.000004442985801   0.000015071956127
Si   14.25638   8.82538  11.54087  -0.000004978440423  -0.000000294068128   0.000012872804107
Si   15.61412   7.46762  12.89863   0.000003248551957  -0.000019813250559  -0.000002058475298
Si   15.61412  10.18313  15.61412   0.000012527886736  -0.000003216727148  -0.000001213304477
Si   12.89863   7.46762  15.61412   0.000006558644325  -0.000010332536632  -0.000018749897401
Si   12.89863  10.18313  12.89863   0.000002739211022   0.000002036302340  -0.000017315597215
Si   11.54087  11.54087   0.67888  -0.000009017198773  -0.000020806052447  -0.000011281420260
Si   14.25638  11.54087   3.39437  -0.000015819732889  -0.000007317132425  -0.000029177893067
Si   11.54087  14.25638   3.39437  -0.000001423084093  -0.000011295738803   0.000009297518171
Si   14.25638  14.25638   0.67888  -0.000182972040943  -0.000177892226869  -0.000098680696233
Si   15.61412  12.89863   2.03662   0.000028150675907   0.000027556136880   0.000039376817738
Si   15.61412  15.61412   4.75213   0.000023018187065  -0.000046542672020  -0.000016495883341
Si   12.89863  12.89863   4.75213   0.000016292571876   0.000006968858939   0.000009345562609
Si   12.89863  15.61412   2.03662   0.000007060225598   0.000023162705625  -0.000025222822987
Si   11.54087  11.54087   6.10987  -0.000004789795971   0.000000660591607  -0.000002656186749
Si   14.25638  11.54087   8.82538  -0.000004970314686   0.000012867153706  -0.000000294030831
Si   11.54087  14.25638   8.82538  -0.000001928918045   0.000015072957508   0.000004455872617
Si   14.25638  14.25638   6.10987  -0.000016659717372   0.000026304188273   0.000004427036012
Si   15.61412  12.89863   7.46762   0.000003262102201  -0.000002109471028  -0.000019817482818
Si   15.61412  15.61412  10.18313   0.000012522282735  -0.000001431014021  -0.000003234060865
Si   12.89863  12.89863  10.18313   0.000002618436022  -0.000017333310059   0.000002029363783
Si   12.89863  15.61412   7.46762   0.000006527965060  -0.000018737055588  -0.000010353692488
Si   11.54087  11.54087  11.54087  -0.000010149169138  -0.000004709644930  -0.000004727811231
Si   14.25638  11.54087  14.25638  -0.000016561753773  -0.000019475845207   0.000025546597446
Si   11.54087  14.25638  14.25638  -0.000006141266426  -0.000004256680032  -0.000004250392394
Si   14.25638  14.25638  11.54087  -0.000016569761227   0.000025650557514  -0.000019488585924
Si   15.61412  12.89863  12.89863  -0.000181690399423   0.000060224264684   0.000060247025460
Si   15.61412  15.61412  15.61412  -0.003226191355918  -0.002181521594361  -0.002181649277714
Si   12.89863  12.89863  15.61412  -0.000007268629513  -0.000010866023349   0.000041758407536
Si   12.89863  15.61412  12.89863  -0.000007324485701   0.000041852306517  -0.000010884030576
