64 

B   -0.11787  -0.11787  -0.11787   0.000026493555905   0.000026497169711   0.000026526835655
C   -0.05194   1.79543   1.79543   0.000012115450625  -0.000003934239836  -0.000003915366016
C    1.79543  -0.05194   1.79543  -0.000003903718713   0.000012111638524  -0.000003919447543
C    1.79543   1.79543  -0.05194  -0.000003920384287  -0.000003927277828   0.000012173330136
B    1.00962   1.00962   1.00962  -0.000026499933580  -0.000026481782931  -0.000026531250866
C    0.89202   2.68372   2.68372  -0.000011922121323  -0.000000194598457  -0.000000215240215
C    2.68372   0.89202   2.68372  -0.000000202016887  -0.000011918847798  -0.000000209215876
C    2.68372   2.68372   0.89202  -0.000000216570191  -0.000000214638481  -0.000011934558925
C    0.00142   0.00142   3.56662   0.000004621213818   0.000004615591044  -0.000001694462453
C   -0.00420   1.79577   5.33953  -0.000003159929534  -0.000004974097960   0.000017104827491
C    1.79577  -0.00420   5.33953  -0.000004981715914  -0.000003165063131   0.000017076070708
C    1.78139   1.78139   3.56508   0.000017565213378   0.000017563366425  -0.000019557214447
C    0.89033   0.89033   4.45913  -0.000004617311562  -0.000004617150346   0.000001709608780
C    0.89595   2.68622   6.22998   0.000003149210108  -0.000017087622062   0.000004957826620
C    2.68622   0.89595   6.22998  -0.000017093840067   0.000003145971629   0.000004972122836
C    2.67549   2.67549   4.45736  -0.000018401638662  -0.000018404592535   0.000002779374972
C    0.00142   3.56662   0.00142   0.000004628374773  -0.000001737783002   0.000004606861869
C   -0.00420   5.33953   1.79577  -0.000003164428574   0.000017090514222  -0.000004969834462
C    1.78139   3.56508   1.78139   0.000017588535620  -0.000019579025566   0.000017581448735
C    1.79577   5.33953  -0.00420  -0.000004981268527   0.000017073454832  -0.000003150870566
C    0.89033   4.45913   0.89033  -0.000004627721983   0.000001729408540  -0.000004604186665
C    0.89595   6.22998   2.68622   0.000003147717712   0.000004966500525  -0.000017084993379
C    2.67549   4.45736   2.67549  -0.000018440252239   0.000002774638720  -0.000018407211235
C    2.68622   6.22998   0.89595  -0.000017081592255   0.000004967675710   0.000003155127079
C   -0.00491   3.56882   3.56882   0.000022225281673   0.000009655737502   0.000009675111239
C   -0.00027   5.34203   5.34203   0.000011923220110   0.000000188457172   0.000000204400141
C    1.78298   3.57121   5.34437   0.000004237819546   0.000016068290007   0.000015831835949
C    1.78298   5.34437   3.57121   0.000004256518467   0.000015854499424   0.000016075754063
C    0.89666   4.45693   4.45693  -0.000022222296726  -0.000009655723945  -0.000009669945327
C    0.94369   6.23032   6.23032  -0.000012112014192   0.000003928296320   0.000003926336615
C    2.68138   4.45454   6.24277  -0.000015808581519  -0.000016082912305  -0.000004290112888
C    2.68138   6.24277   4.45454  -0.000015841776885  -0.000004264491487  -0.000016080381416
C    3.56662   0.00142   0.00142  -0.000001725080782   0.000004643461204   0.000004595122978
C    3.56508   1.78139   1.78139  -0.000019585505787   0.000017576184022   0.000017567946584
C    5.33953  -0.00420   1.79577   0.000017086444713  -0.000003149516304  -0.000004956326686
C    5.33953   1.79577  -0.00420   0.000017071751745  -0.000004965267088  -0.000003148504948
C    4.45913   0.89033   0.89033   0.000001723100847  -0.000004639350773  -0.000004605560563
C    4.45736   2.67549   2.67549   0.000002803549321  -0.000018439938375  -0.000018408649647
C    6.22998   0.89595   2.68622   0.000004976823767   0.000003154239983  -0.000017101179450
C    6.22998   2.68622   0.89595   0.000004971790607  -0.000017064436628   0.000003146831076
C    3.56882  -0.00491   3.56882   0.000009658011304   0.000022228696643   0.000009673288987
C    3.57121   1.78298   5.34437   0.000016082292058   0.000004251062471   0.000015835664444
C    5.34203  -0.00027   5.34203   0.000000197542623   0.000011919551144   0.000000211798754
C    5.34437   1.78298   3.57121   0.000015838144861   0.000004270752295   0.000016108651228
C    4.45693   0.89666   4.45693  -0.000009652471735  -0.000022227042722  -0.000009679581267
C    4.45454   2.68138   6.24277  -0.000016094834456  -0.000015809369772  -0.000004298498829
C    6.23032   0.94369   6.23032   0.000003928897513  -0.000012130515575   0.000003924072071
C    6.24277   2.68138   4.45454  -0.000004263332675  -0.000015843622028  -0.000016106523180
C    3.56882   3.56882  -0.00491   0.000009661346580   0.000009651469692   0.000022282853386
C    3.57121   5.34437   1.78298   0.000016072979321   0.000015804919779   0.000004304276004
C    5.34437   3.57121   1.78298   0.000015816404955   0.000016088490460   0.000004310143554
C    5.34203   5.34203  -0.00027   0.000000207578404   0.000000204117583   0.000011925991983
C    4.45693   4.45693   0.89666  -0.000009660750358  -0.000009647389589  -0.000022285298058
C    4.45454   6.24277   2.68138  -0.000016061553166  -0.000004233261392  -0.000015838513646
C    6.24277   4.45454   2.68138  -0.000004247133099  -0.000016064019337  -0.000015845473533
C    6.23032   6.23032   0.94369   0.000003946764441   0.000003925155486  -0.000012163092822
C    3.56559   3.56559   3.56559   0.000003757791709   0.000003760594165   0.000003732586809
C    3.56839   5.35026   5.35026  -0.000002784475121   0.000018441756187   0.000018398533053
C    5.35026   3.56839   5.35026   0.000018445407027  -0.000002787158729   0.000018398738449
C    5.35026   5.35026   3.56839   0.000018400023801   0.000018388805657  -0.000002764397670
C    4.46016   4.46016   4.46016  -0.000003771181356  -0.000003752468767  -0.000003736363471
C    4.46067   6.24436   6.24436   0.000019578252127  -0.000017583369019  -0.000017575140933
C    6.24436   4.46067   6.24436  -0.000017580792874   0.000019579038568  -0.000017570023590
C    6.24436   6.24436   4.46067  -0.000017557291540  -0.000017554548957   0.000019551610000
