148 

Mn    7.22202  -0.31174   2.14560   0.003555074885736   0.001774265162577   0.030604946708840
Mn    8.97124  -1.43748   4.04840  -0.001774326034693   0.003555085275060  -0.030604915935692
Mn    8.34776   1.43748   4.04840   0.001774312933533  -0.003555103769201  -0.030604937899953
Mn   10.09698   0.31174   2.14560  -0.003555133666196  -0.001774290150082   0.030604980712102
Mn    4.49774  -0.80187   2.14312   0.018212390206182  -0.009060929097813   0.003567000368222
Mn    9.46137  -4.16176   4.05088   0.009060918380462   0.018212510986283  -0.003566993013333
Mn    7.85763   4.16176   4.05088  -0.009060945123628  -0.018212441186326  -0.003566946466620
Mn   12.82126   0.80187   2.14312  -0.018212500385218   0.009060965506845   0.003566967680323
Mn    6.21232  -3.38586   3.35591   0.011596287463795  -0.005639277730745  -0.037044983561722
Mn   12.04536  -2.44718   2.83809   0.005639342117861   0.011596237615656   0.037045016366452
Mn    5.27363   2.44718   2.83809  -0.005639513347794  -0.011596397750610   0.037044959262408
Mn   11.10667   3.38586   3.35591  -0.011596224813219   0.005639325545542  -0.037044947891097
O    7.46795  -0.26325   4.02982   0.019110586434567   0.001855945012996  -0.010754587267135
O    8.92275  -1.19155   2.16418  -0.001855931278716   0.019110574323220   0.010754588700528
O    8.39625   1.19155   2.16418   0.001855925729803  -0.019110556169320   0.010754588515719
O    9.85105   0.26325   4.02982  -0.019110582503708  -0.001855931190341  -0.010754576791618
O    6.09282  -1.80810   2.31656  -0.000742340120565   0.015946739776854   0.001750807010510
O   10.46760  -2.56668   3.87744  -0.015946729675554  -0.000742356498704  -0.001750811513675
O    6.85140   2.56668   3.87744   0.015946821539222   0.000742348605671  -0.001750771145378
O   11.22618   1.80810   2.31656   0.000742358574566  -0.015946728299057   0.001750805736124
O    5.65465   0.67198   2.27444   0.006030770491761  -0.011642761026764  -0.003978244780669
O    7.98752  -3.00485   3.91956   0.011642731067138   0.006030700322342   0.003978252218620
O    9.33148   3.00485   3.91956  -0.011642730225731  -0.006030706638317   0.003978241889951
O   11.66435  -0.67198   2.27444  -0.006030709796137   0.011642737458354  -0.003978259861860
O    7.18219  -0.37409   0.23537  -0.064921423050342  -0.010768202239734  -0.030294891592364
O    9.03359  -1.47731   5.95863   0.010768189366795  -0.064921432155325   0.030294893536196
O    8.28541   1.47731   5.95863  -0.010768187254912   0.064921407936254   0.030294871288448
O   10.13681   0.37409   0.23537   0.064921419186807   0.010768212756343  -0.030294888559843
O    4.97229  -0.79494  -0.05451   0.071494349502753   0.011262188536209  -0.033074111117070
O    9.45444  -3.68722   6.24851  -0.011262188537442   0.071494345656816   0.033074111881902
O    7.86456   3.68722   6.24851   0.011262207945512  -0.071494359172243   0.033074111071992
O   12.34671   0.79494  -0.05451  -0.071494342231582  -0.011262188186699  -0.033074113882290
O    4.08728  -0.90405   4.28873   0.044898438950087  -0.065574043487987   0.083923747928629
O    9.56355  -4.57222   1.90527   0.065574053687553   0.044898438594648  -0.083923738962634
O    7.75545   4.57222   1.90527  -0.065573775662677  -0.044898207770396  -0.083923355016927
O   13.23172   0.90405   4.28873  -0.044898437661368   0.065574065372035   0.083923736813543
O    5.36543  -2.51645   5.11005  -0.074568245045424   0.109783094099357   0.022196296059205
O   11.17595  -3.29407   1.08395  -0.109783103630041  -0.074568243237878  -0.022196306494434
O    6.14305   3.29407   1.08395   0.109784127138090   0.074568859801766  -0.022196461778238
O   11.95357   2.51645   5.11005   0.074568255589279  -0.109783106159695   0.022196296190052
O    2.92345   0.27710   1.87430  -0.006851906133774   0.067213062038790  -0.010801274274089
O    8.38240  -5.73605   4.31970  -0.067213114464553  -0.006851914182436   0.010801277551168
O    8.93660   5.73605   4.31970   0.067213115230119   0.006851914228607   0.010801262286443
O   14.39555  -0.27710   1.87430   0.006851909321185  -0.067213115245615  -0.010801268789823
O    6.25389  -5.07966   4.37668   0.116687843073589  -0.102707763907443   0.026174104557130
O   13.73916  -2.40561   1.81732   0.102707779966310   0.116687845760081  -0.026174119213785
O    3.57984   2.40561   1.81732  -0.102707667844000  -0.116687851550635  -0.026174065958787
O   11.06511   5.07966   4.37668  -0.116687855636484   0.102707771980249   0.026174112900814
O    3.34603  -2.32248   1.80245   0.014881516893905  -0.080474862114882   0.027400292949930
O   10.98198  -5.31347   4.39155   0.080474858423399   0.014881517065058  -0.027400310741305
O    6.33702   5.31347   4.39155  -0.080474847927541  -0.014881524941007  -0.027400301582717
O   13.97297   2.32248   1.80245  -0.014881520049996   0.080474866179668   0.027400304557026
O    4.36785  -3.98857   2.82942  -0.140454586454802   0.067376323361896  -0.079993867160771
O   12.64807  -4.29165   3.36458  -0.067376327155757  -0.140454599063429   0.079993872964919
O    4.67093   4.29165   3.36458   0.067376348490639   0.140454562662617   0.079993877011549
O   12.95115   3.98857   2.82942   0.140454581030688  -0.067376331382104  -0.079993870077428
O    6.82195  -4.56529   1.62902  -0.008005457074259   0.026871413032955  -0.057143359548433
O   13.22479  -1.83755   4.56498  -0.026871411721646  -0.008005451430486   0.057143357086483
O    4.09421   1.83755   4.56498   0.026871438415636   0.008005473681808   0.057143308176613
O   10.49705   4.56529   1.62902   0.008005449871103  -0.026871409756070  -0.057143356243207
C    6.14651  -0.63561  -0.49180   0.009417171466872   0.008110818826825   0.056715771523260
C    9.29511  -2.51299   6.68580  -0.008110824716470   0.009417179307166  -0.056715769468857
C    8.02389   2.51299   6.68580   0.008110817359537  -0.009417156327165  -0.056715762281022
C   11.17249   0.63561  -0.49180  -0.009417172786812  -0.008110820765186   0.056715770012975
C    6.42015  -0.77936  -1.95854  -0.162975368436009   0.051917495733541  -0.088632378905363
C    9.43886  -2.23935   8.15254  -0.051917499343209  -0.162975371915051   0.088632379509047
C    7.88014   2.23935   8.15254   0.051917493845118   0.162975367092261   0.088632378788226
C   10.89885   0.77936  -1.95854   0.162975370157532  -0.051917494180939  -0.088632375930830
C    4.67786  -1.49809   5.21783   0.040065449914717   0.011834062062273  -0.063771858507845
C   10.15759  -3.98164   0.97617  -0.011834059762189   0.040065445036092   0.063771856576549
C    7.16141   3.98164   0.97617   0.011832477837772  -0.040066236787753   0.063771773884845
C   12.64114   1.49809   5.21783  -0.040065441481906  -0.011834052890051  -0.063771853355641
C    4.60512  -0.95601   6.62386   0.042186143328344  -0.046508651013525   0.148745916666358
C    9.61551  -4.05438  -0.42986   0.046508653416778   0.042186143463799  -0.148745918136193
C    7.70349   4.05438  -0.42986  -0.046508510954572  -0.042186125662784  -0.148745978921038
C   12.71388   0.95601   6.62386  -0.042186137966511   0.046508653048526   0.148745916747623
C    2.73294   1.53793   1.68105   0.089681493949785   0.055808959507397   0.027669685510785
C    7.12157  -5.92656   4.51295  -0.055808895160419   0.089681423139880  -0.027669664291918
C   10.19743   5.92656   4.51295   0.055808904434204  -0.089681423310404  -0.027669664692894
C   14.58606  -1.53793   1.68105  -0.089681424743795  -0.055808894296611   0.027669668057657
C    1.38379   1.88257   1.20783   0.011671371603243   0.065398564694650   0.030830372800791
C    6.77693  -7.27571   4.98617  -0.065398562554599   0.011671386283800  -0.030830377274370
C   10.54208   7.27571   4.98617   0.065398566323556  -0.011671385714473  -0.030830375126362
C   15.93521  -1.88257   1.20783  -0.011671384198043  -0.065398563848897   0.030830379639208
C    3.43436  -3.51749   2.21250   0.103017934335965   0.030953261579087   0.040589817330702
C   12.17699  -5.22514   3.98150  -0.030953254555158   0.103017937951151  -0.040589822046625
C    5.14201   5.22514   3.98150   0.030953230533224  -0.103017949170548  -0.040589831265178
C   13.88464   3.51749   2.21250  -0.103017939057359  -0.030953257664731   0.040589819692071
C    2.27052  -4.41634   1.84333  -0.160806232772196  -0.119257634925523   0.190261783489224
C   13.07584  -6.38898   4.35067   0.119257634446945  -0.160806232827170  -0.190261780669479
C    4.24315   6.38898   4.35067  -0.119257631742819   0.160806235814724  -0.190261780283838
C   15.04848   4.41634   1.84333   0.160806235602009   0.119257628664865   0.190261780341523
H    7.56840  -4.15656   1.23880  -0.088685223575288  -0.011432667037773  -0.003989258758198
H   12.81606  -1.09110   4.95520   0.011432666810233  -0.088685222402734   0.003989258771513
H    4.50294   1.09110   4.95520  -0.011432665264265   0.088685220887240   0.003989261821795
H    9.75060   4.15656   1.23880   0.088685238449875   0.011432665798981  -0.003989259666156
H    6.28680  -4.32975   0.92910   0.091732965750828  -0.008381078965246   0.065837798040527
H   12.98925  -2.37270   5.26490   0.008381078982540   0.091732964212139  -0.065837796444391
H    4.32975   2.37270   5.26490  -0.008381077969152  -0.091732956975324  -0.065837792468351
H   11.03220   4.32975   0.92910  -0.091732961022843   0.008381078617121   0.065837794259792
H    5.78455  -0.58885  -2.60148   0.175520312477844   0.008302567162407   0.115860311931784
H    9.24835  -2.87495   8.79548  -0.008302567817023   0.175520312404772  -0.115860311299009
H    8.07065   2.87495   8.79548   0.008302567546078  -0.175520312057064  -0.115860312427254
H   11.53445   0.58885  -2.60148  -0.175520312260552  -0.008302567685694   0.115860311783845
H    7.20470  -1.61067  -2.16790   0.026039911905549  -0.022644300839390  -0.009879170207855
H   10.27017  -1.45480   8.36190   0.022644301720306   0.026039912355595   0.009879170442760
H    7.04883   1.45480   8.36190  -0.022644301616638  -0.026039912971110   0.009879169287156
H   10.11430   1.61067  -2.16790  -0.026039910758038   0.022644301552144  -0.009879170232599
H    6.82369   0.13855  -2.27939  -0.057185513907025  -0.042870943246154  -0.011736138207058
H    8.52095  -1.83581   8.47339   0.042870943979867  -0.057185514147798   0.011736137938730
H    8.79805   1.83581   8.47339  -0.042870943151302   0.057185512085375   0.011736139341563
H   10.49531  -0.13855  -2.27939   0.057185513211278   0.042870943738785  -0.011736138897425
H    3.93141  -0.25978   6.56564   0.117385091586332  -0.063462749413602  -0.008026757724595
H    8.91929  -4.72809  -0.37164   0.063462749814961   0.117385091340770   0.008026757102165
H    8.39972   4.72809  -0.37164  -0.063462707679178  -0.117385101458466   0.008026708522332
H   13.38759   0.25978   6.56564  -0.117385091224521   0.063462749889801  -0.008026756774254
H    5.19570  -0.34638   6.19400  -0.157990411849443  -0.105341633860272   0.003690832104779
H    9.00588  -3.46380   0.00000   0.105341633679959  -0.157990409259308  -0.003690831375819
H    8.31312   3.46380   0.00000  -0.105341555500005   0.157990353856477  -0.003690939333438
H   12.12330   0.34638   6.19400   0.157990409007719   0.105341634385242   0.003690831454470
H    4.60685  -1.55871   7.28414  -0.024997996388544   0.159309736303761  -0.176694811466551
H   10.21821  -4.05265  -1.09014  -0.159309736612468  -0.024997995917305   0.176694811007714
H    7.10079   4.05265  -1.09014   0.159309717489453   0.024997997158304   0.176694853510636
H   12.71215   1.55871   7.28414   0.024997996466623  -0.159309737183001  -0.176694811117056
H    0.86595   2.59785   1.59805   0.035071494224472  -0.122368725184039  -0.084674042692651
H    6.06165  -7.79355   4.59595   0.122368723130259   0.035071493173755   0.084674043568115
H   11.25735   7.79355   4.59595  -0.122368725426058  -0.035071493623919   0.084674044177377
H   16.45305  -2.59785   1.59805  -0.035071493598169   0.122368723265035  -0.084674042943699
H    1.14305   2.19951   0.24776  -0.023942388394204  -0.004781212462352   0.065547174081470
H    6.45999  -7.51645   5.94624   0.004781210581636  -0.023942388134417  -0.065547174334871
H   10.85901   7.51645   5.94624  -0.004781211071002   0.023942388158254  -0.065547174092688
H   16.17595  -2.19951   0.24776   0.023942388046676   0.004781211390201   0.065547174897427
H    0.57153   1.21233   1.36268  -0.006530156325417   0.053463187245315  -0.007902735852655
H    7.44717  -8.08797   4.83132  -0.053463186600617  -0.006530152759968   0.007902735473199
H    9.87183   8.08797   4.83132   0.053463187475241   0.006530152761974   0.007902735086651
H   16.74747  -1.21233   1.36268   0.006530154171330  -0.053463186763528  -0.007902735430607
H    2.64981  -5.35157   1.31313   0.013934627222676  -0.038393433451786   0.044403254171444
H   14.01107  -6.00969   4.88087   0.038393433451246   0.013934626996680  -0.044403253330739
H    3.30793   6.00969   4.88087  -0.038393434094034  -0.013934627171114  -0.044403254141503
H   14.66919   5.35157   1.31313  -0.013934626938061   0.038393433842490   0.044403252552886
H    1.52407  -3.82750   2.13074   0.093327838822649  -0.076956479081851   0.050169789690857
H   12.48700  -7.13543   4.06326   0.076956480739285   0.093327838430580  -0.050169789912069
H    4.83200   7.13543   4.06326  -0.076956480456337  -0.093327838624084  -0.050169790952926
H   15.79493   3.82750   2.13074  -0.093327838230477   0.076956480351775   0.050169790447939
H    1.97437  -4.98787   2.41566   0.070454992045565   0.220031553831254  -0.272329246535304
H   13.64737  -6.68513   3.77834  -0.220031553571407   0.070454991304058   0.272329246958965
H    3.67163   6.68513   3.77834   0.220031554183815  -0.070454992521173   0.272329245271010
H   15.34463   4.98787   2.41566  -0.070454990291323  -0.220031554592765  -0.272329246590049
