127 

Ni    2.09001   2.09001   0.00000   0.014811171556210   0.014811171745061   0.000505863817153
Ni    4.18002   4.18002   0.00000   0.000309373194227   0.000309373494436   0.000309139357207
Ni    6.27004   6.27004   0.00000  -0.014185699166307  -0.014185698924997   0.000116987257526
Ni    2.09001  -0.00000   2.09001   0.016819231397481   0.000565855194132   0.014047325974507
Ni    4.18002   2.09001   2.09001   0.001762743289003   0.000712389843911   0.000732009878347
Ni    6.27004   4.18002   2.09001   0.000258808665980  -0.000930943915261   0.000475441736132
Ni    8.36005   6.27004   2.09001   0.000279987855132  -0.017590348894798   0.015420345588623
Ni    4.18002   0.00000   4.18002   0.000309371005894   0.000309389455581   0.000309168144224
Ni    6.27004   2.09001   4.18002   0.000241929795447   0.000483115030939  -0.000866189408556
Ni    8.36005   4.18002   4.18002   0.000310441137837   0.000310431336063   0.000310222635366
Ni   10.45006   6.27004   4.18002   0.000380877099754   0.000141249142251   0.001490020848891
Ni    6.27004   0.00000   6.27004  -0.016193787799676   0.000056865321940  -0.013422268177586
Ni    8.36005   2.09001   6.27004   0.000334914169133   0.018206375107152  -0.014804811126852
Ni   10.45006   4.18002   6.27004   0.000363922239463   0.001555216508090   0.000148556598424
Ni   12.54007   6.27004   6.27004  -0.001140506650148  -0.000088284509411  -0.000108310836744
Ni    0.00000   2.09001   2.09001   0.000565855074743   0.016819231629118   0.014047326080622
Ni    2.09001   4.18002   2.09001   0.000712389592964   0.001762743348852   0.000732009914118
Ni    4.18002   6.27004   2.09001  -0.000930944012799   0.000258808783033   0.000475441697437
Ni    6.27004   8.36005   2.09001  -0.017590349072816   0.000279988041547   0.015420345611726
Ni    2.09001   2.09001   4.18002   0.000768662836360   0.000768663034198   0.001699386014239
Ni    4.18002   4.18002   4.18002   0.000352106902950   0.000352107099878   0.000349975267154
Ni    6.27004   6.27004   4.18002  -0.000029092434035  -0.000029092257103   0.001435483574250
Ni    8.36005   8.36005   4.18002   0.000187548288430   0.000187548737152   0.008759298359084
Ni    4.18002   2.09001   6.27004  -0.000863152965233   0.000448855138924   0.000235975430994
Ni    6.27004   4.18002   6.27004   0.000054534456318   0.001430939902528   0.000013818309902
Ni    8.36005   6.27004   6.27004   0.000279228947362   0.001079145688911   0.001161614024210
Ni   10.45006   8.36005   6.27004  -0.000685283622228   0.000277518012586   0.001296949456532
Ni    6.27004   2.09001   8.36005  -0.015518647540672   0.016134606036921   0.000306683996073
Ni    8.36005   4.18002   8.36005   0.000222340154755   0.009245090025618   0.000243171225281
Ni   10.45006   6.27004   8.36005  -0.000735138735650   0.001357906955360   0.000310558330003
Ni   12.54007   8.36005   8.36005  -0.008617394580614   0.000403656570002   0.000382226522991
Ni    0.00000   4.18002   4.18002   0.000309389231819   0.000309371320004   0.000309168017561
Ni    2.09001   6.27004   4.18002   0.000483114813577   0.000241929970713  -0.000866189321310
Ni    4.18002   8.36005   4.18002   0.000310431056267   0.000310441316056   0.000310222532890
Ni    6.27004  10.45006   4.18002   0.000141249022050   0.000380877291777   0.001490020662853
Ni    2.09001   4.18002   6.27004   0.000448854883537  -0.000863152794207   0.000235975401397
Ni    4.18002   6.27004   6.27004   0.001430939569423   0.000054534540395   0.000013818278603
Ni    6.27004   8.36005   6.27004   0.001079145432369   0.000279229219150   0.001161614103052
Ni    8.36005  10.45006   6.27004   0.000277517857777  -0.000685283424260   0.001296949465037
Ni    4.18002   4.18002   8.36005   0.000310435562465   0.000310435678672   0.000310166067991
Ni    6.27004   6.27004   8.36005   0.001183237612371   0.001183237790322   0.000285103066724
Ni    8.36005   8.36005   8.36005   0.000311147218722   0.000311147370234   0.000310888929428
Ni   10.45006  10.45006   8.36005  -0.000556885344455  -0.000556885100705   0.000338680730488
Ni    6.27004   4.18002  10.45006   0.000175588936727   0.001487411454725   0.000386319404350
Ni    8.36005   6.27004  10.45006   0.000344106834893   0.001308069688905  -0.000674598863252
Ni   10.45006   8.36005  10.45006  -0.000452819486646   0.000345106311111  -0.000535689647387
Ni   12.54007  10.45006  10.45006  -0.000807346164615   0.000567819399355   0.000608119265272
Ni    0.00000   6.27004   6.27004   0.000056865197909  -0.016193787441908  -0.013422268177513
Ni    2.09001   8.36005   6.27004   0.018206374949216   0.000334914318004  -0.014804810943236
Ni    4.18002  10.45006   6.27004   0.001555216338162   0.000363922475732   0.000148556677706
Ni    6.27004  12.54007   6.27004  -0.000088284681700  -0.001140506427348  -0.000108310907664
Ni    2.09001   6.27004   8.36005   0.016134605872193  -0.015518647429307   0.000306683975697
Ni    4.18002   8.36005   8.36005   0.009245089942212   0.000222340466181   0.000243171292716
Ni    6.27004  10.45006   8.36005   0.001357906842002  -0.000735138589729   0.000310558274762
Ni    8.36005  12.54007   8.36005   0.000403656276765  -0.008617394240629   0.000382226641201
Ni    4.18002   6.27004  10.45006   0.001487411212652   0.000175589087057   0.000386319247365
Ni    6.27004   8.36005  10.45006   0.001308069669051   0.000344107273816  -0.000674598757459
Ni    8.36005  10.45006  10.45006   0.000345106004247  -0.000452819215858  -0.000535689645440
Ni   10.45006  12.54007  10.45006   0.000567819157895  -0.000807345880155   0.000608119310203
Ni    6.27004   6.27004  12.54007  -0.000144617472386  -0.000144617382268  -0.001077523449139
Ni    8.36005   8.36005  12.54007   0.000438441451462   0.000438441778837  -0.008131906249865
Ni   10.45006  10.45006  12.54007   0.000651532827456   0.000651533217556  -0.000812278539510
Ni   12.54007  12.54007  12.54007   0.000271407723276   0.000271407871107   0.000273119404180
O    2.09001   2.09001   2.09001  -0.002147461936915  -0.002147462231543  -0.001727703244395
O    4.18002   4.18002   2.09001  -0.000028566917139  -0.000028567130142  -0.000106683430745
O    6.27004   6.27004   2.09001   0.002288678575444   0.002288678245478  -0.001464894446840
O    8.36005   8.36005   2.09001  -0.001006824770070  -0.001006825043418  -0.033386588685568
O    4.18002   2.09001   4.18002  -0.000051839171386  -0.000130180276230  -0.000032557882169
O    6.27004   4.18002   4.18002   0.000209051765246   0.000122277995709   0.000108988778541
O    8.36005   6.27004   4.18002   0.000267955571426  -0.000503274906338  -0.002661233002642
O   10.45006   8.36005   4.18002   0.000980198779867  -0.000037157496577  -0.000881874590054
O    6.27004   2.09001   6.27004   0.002226232614737  -0.001862719601979   0.001826232052012
O    8.36005   4.18002   6.27004   0.000303924624702  -0.003156344240303  -0.000027676130289
O   10.45006   6.27004   6.27004   0.000749664177675  -0.000253358564588  -0.000193853190231
O   12.54007   8.36005   6.27004   0.001034223659374   0.000231589429705  -0.000157631830685
O    8.36005   2.09001   8.36005  -0.000981284228508  -0.040027628765812  -0.000865518458805
O   10.45006   4.18002   8.36005   0.000355590290826  -0.000974272210814  -0.000071531110507
O   12.54007   6.27004   8.36005   0.001104084464542  -0.000221669072453   0.000223951569333
O   14.63008   8.36005   8.36005   0.040165954584649   0.001173768724320   0.001058726586336
O    2.09001   4.18002   4.18002  -0.000130180017079  -0.000051839351542  -0.000032557921240
O    4.18002   6.27004   4.18002   0.000122278342186   0.000209051500353   0.000108988817935
O    6.27004   8.36005   4.18002  -0.000503274661625   0.000267955414062  -0.002661232976288
O    8.36005  10.45006   4.18002  -0.000037157209344   0.000980198566111  -0.000881874606908
O    4.18002   4.18002   6.27004   0.000101422794426   0.000101422757907   0.000189672061682
O    6.27004   6.27004   6.27004  -0.000406425468274  -0.000406425669859  -0.000363011940583
O    8.36005   8.36005   6.27004   0.001241387216095   0.001241387082233   0.001522471083637
O   10.45006  10.45006   6.27004   0.000345647822619   0.000345647643390  -0.000533481245700
O    6.27004   4.18002   8.36005  -0.000116613060821  -0.002650495784612   0.000273559771395
O    8.36005   6.27004   8.36005   0.000939966823181   0.001674612120312   0.000955324765065
O   10.45006   8.36005   8.36005  -0.001542852126602  -0.000788716865161  -0.000803640561955
O   12.54007  10.45006   8.36005   0.002779686209811   0.000252183572656  -0.000117981429054
O    8.36005   4.18002  10.45006  -0.000079702368897  -0.000904358912835   0.000291894504831
O   10.45006   6.27004  10.45006   0.000388524224125  -0.000616446403675   0.000329395645840
O   12.54007   8.36005  10.45006   0.003285562517401  -0.000148801884815   0.000163612702969
O   14.63008  10.45006  10.45006   0.002002075460570  -0.002094384819314  -0.001694626620632
O    2.09001   6.27004   6.27004  -0.001862719356449   0.002226232613408   0.001826232103502
O    4.18002   8.36005   6.27004  -0.003156344171618   0.000303924435263  -0.000027676116857
O    6.27004  10.45006   6.27004  -0.000253358476818   0.000749663976139  -0.000193853115267
O    8.36005  12.54007   6.27004   0.000231589666704   0.001034223486893  -0.000157631686576
O    4.18002   6.27004   8.36005  -0.002650495462164  -0.000116613309262   0.000273559772707
O    6.27004   8.36005   8.36005   0.001674612162119   0.000939966798024   0.000955324712288
O    8.36005  10.45006   8.36005  -0.000788716630133  -0.001542852430573  -0.000803640579875
O   10.45006  12.54007   8.36005   0.000252183774521   0.002779685958924  -0.000117981422988
O    6.27004   6.27004  10.45006  -0.000210468591748  -0.000210468680373   0.000667024295985
O    8.36005   8.36005  10.45006  -0.001090136842481  -0.001090137093463  -0.001390381521510
O   10.45006  10.45006  10.45006   0.000540681196814   0.000540680952638   0.000497623828381
O   12.54007  12.54007  10.45006   0.000031564692545   0.000031564587014  -0.000054830895748
O    8.36005   6.27004  12.54007   0.000189151064749  -0.000846225789963   0.001012017029308
O   10.45006   8.36005  12.54007   0.000638833611195  -0.000112986450392   0.002790754226383
O   12.54007  10.45006  12.54007   0.000010717492323  -0.000074557748103   0.000024355336674
O   14.63008  12.54007  12.54007   0.000267204933641   0.000184844886895   0.000165914377415
O    2.09001   8.36005   8.36005  -0.040027628712823  -0.000981284383462  -0.000865518453357
O    4.18002  10.45006   8.36005  -0.000974272046345   0.000355590122451  -0.000071531116330
O    6.27004  12.54007   8.36005  -0.000221668999154   0.001104084161081   0.000223951526560
O    8.36005  14.63008   8.36005   0.001173768795460   0.040165954384776   0.001058726553619
O    4.18002   8.36005  10.45006  -0.000904358829413  -0.000079702751648   0.000291894513111
O    6.27004  10.45006  10.45006  -0.000616446189190   0.000388523852047   0.000329395697122
O    8.36005  12.54007  10.45006  -0.000148801609051   0.003285562323606   0.000163612436923
O   10.45006  14.63008  10.45006  -0.002094384470774   0.002002075428666  -0.001694626529397
O    6.27004   8.36005  12.54007  -0.000846225550049   0.000189150810280   0.001012016900545
O    8.36005  10.45006  12.54007  -0.000112986210336   0.000638833378241   0.002790754330895
O   10.45006  12.54007  12.54007  -0.000074557472092   0.000010717217857   0.000024355430355
O   12.54007  14.63008  12.54007   0.000184844994938   0.000267204774486   0.000165914311996
O    8.36005   8.36005  14.63008   0.001199717657514   0.001199717377765   0.033525362571792
O   10.45006  10.45006  14.63008  -0.002156757433678  -0.002156757788660   0.001605239589536
O   12.54007  12.54007  14.63008   0.000161576851039   0.000161576566800   0.000244087345606
O   14.63008  14.63008  14.63008   0.002286839668494   0.002286839379086   0.001868098767053
