63 

Pt   -3.92000  -3.92000  -3.92000  -0.019815558082674  -0.019815558325360  -0.019822086426783
Pt   -1.96000  -1.96000  -3.92000   0.002103407323649   0.002103406467950   0.020370469732638
Pt   -3.92000  -1.96000  -1.96000   0.020370478057200   0.002094052510739   0.002094046172606
Pt   -1.96000  -3.92000  -1.96000   0.002094052932514   0.020370478350427   0.002094045866660
Pt   -3.92000  -3.92000   0.00000  -0.008209808550286  -0.008209808419248   0.000000000236471
Pt   -1.96000  -1.96000   0.00000   0.001121228175919   0.001121228285975  -0.000000000094027
Pt   -3.92000  -1.96000   1.96000   0.020370477089981   0.002094052913656  -0.002094046510376
Pt   -1.96000  -3.92000   1.96000   0.002094051986025   0.020370477638833  -0.002094046484669
Pt   -3.92000  -3.92000   3.92000  -0.019815559854305  -0.019815559286653   0.019822086356176
Pt   -1.96000  -1.96000   3.92000   0.002103407148366   0.002103408000782  -0.020370469169092
Pt   -3.92000   0.00000  -3.92000  -0.008218742328299   0.000000000416861  -0.008196742731154
Pt   -1.96000   1.96000  -3.92000   0.002103407966737  -0.002103405605529   0.020370470731178
Pt   -3.92000   1.96000  -1.96000   0.020370478753489  -0.002094052330812   0.002094045056467
Pt   -1.96000   0.00000  -1.96000   0.001139949874273   0.000000000748700   0.001139944270492
Pt   -3.92000   0.00000   0.00000   0.004719514162602  -0.000000000643445   0.000000000304429
Pt   -1.96000   1.96000   0.00000   0.001121229903213  -0.001121229023256  -0.000000000612815
Pt   -3.92000   1.96000   1.96000   0.020370476737111  -0.002094052807551  -0.002094045402356
Pt   -1.96000   0.00000   1.96000   0.001139949401797   0.000000000226670  -0.001139943676343
Pt   -3.92000   0.00000   3.92000  -0.008218742886004   0.000000000482882   0.008196741716897
Pt   -1.96000   1.96000   3.92000   0.002103408706621  -0.002103407040168  -0.020370469685912
Pt   -3.92000   3.92000  -3.92000  -0.019815556140107   0.019815558150275  -0.019822085532195
Pt   -1.96000   3.92000  -1.96000   0.002094053480882  -0.020370478603408   0.002094043595599
Pt   -3.92000   3.92000   0.00000  -0.008209809260971   0.008209809470446   0.000000000068047
Pt   -1.96000   3.92000   1.96000   0.002094053479010  -0.020370477583098  -0.002094044560672
Pt   -3.92000   3.92000   3.92000  -0.019815558608717   0.019815558486148   0.019822085561484
Pt    0.00000  -3.92000  -3.92000  -0.000000000184446  -0.008218742624467  -0.008196742275902
Pt    1.96000  -1.96000  -3.92000  -0.002103406896510   0.002103407513435   0.020370470359805
Pt    0.00000  -1.96000  -1.96000  -0.000000000053403   0.001139949286590   0.001139944142445
Pt    1.96000  -3.92000  -1.96000  -0.002094052743645   0.020370478206542   0.002094044860780
Pt    0.00000  -3.92000   0.00000  -0.000000000580644   0.004719515261655  -0.000000001031758
Pt    1.96000  -1.96000   0.00000  -0.001121228916127   0.001121230143405   0.000000000239243
Pt    0.00000  -1.96000   1.96000   0.000000000483081   0.001139950573404  -0.001139944348694
Pt    1.96000  -3.92000   1.96000  -0.002094051879323   0.020370479069922  -0.002094045492797
Pt    0.00000  -3.92000   3.92000  -0.000000000703686  -0.008218742132231   0.008196742099417
Pt    1.96000  -1.96000   3.92000  -0.002103405550710   0.002103409802086  -0.020370471567842
Pt    0.00000   0.00000  -3.92000   0.000000000777038   0.000000001190963   0.004675541497803
Pt    1.96000   1.96000  -3.92000  -0.002103408230327  -0.002103407274455   0.020370469677272
Pt    0.00000   1.96000  -1.96000  -0.000000000462698  -0.001139948813532   0.001139942364824
Pt    1.96000   0.00000  -1.96000  -0.001139949578694  -0.000000000059202   0.001139943001768
Pt    0.00000   0.00000   0.00000   0.000000000726191   0.000000000623015  -0.000000000227871
Pt    1.96000   1.96000   0.00000  -0.001121230962888  -0.001121231243808   0.000000000194374
Pt    0.00000   1.96000   1.96000   0.000000000262628  -0.001139949866805  -0.001139942064236
Pt    1.96000   0.00000   1.96000  -0.001139948172104   0.000000000010528  -0.001139941668136
Pt    0.00000   0.00000   3.92000   0.000000001759013   0.000000002233268  -0.004675541964502
Pt    1.96000   1.96000   3.92000  -0.002103407644342  -0.002103409173515  -0.020370470311602
Pt    0.00000   3.92000  -3.92000  -0.000000001395977   0.008218741630048  -0.008196742487317
Pt    1.96000   3.92000  -1.96000  -0.002094054522705  -0.020370477978088   0.002094043395044
Pt    0.00000   3.92000   0.00000  -0.000000001164831  -0.004719514851842   0.000000000035958
Pt    1.96000   3.92000   1.96000  -0.002094054193642  -0.020370477741449  -0.002094043665516
Pt    0.00000   3.92000   3.92000   0.000000000053171   0.008218740811247   0.008196742549376
Pt    3.92000  -3.92000  -3.92000   0.019815558705507  -0.019815557436996  -0.019822084945955
Pt    3.92000  -1.96000  -1.96000  -0.020370477196434   0.002094053172443   0.002094044761656
Pt    3.92000  -3.92000   0.00000   0.008209810327752  -0.008209808268101   0.000000000076997
Pt    3.92000  -1.96000   1.96000  -0.020370477550611   0.002094054401433  -0.002094043875844
Pt    3.92000  -3.92000   3.92000   0.019815560889389  -0.019815556702516   0.019822084575982
Pt    3.92000   0.00000  -3.92000   0.008218742330132  -0.000000000139662  -0.008196742810713
Pt    3.92000   1.96000  -1.96000  -0.020370476591535  -0.002094054173800   0.002094043939263
Pt    3.92000   0.00000   0.00000  -0.004719514198626  -0.000000001199304   0.000000001210924
Pt    3.92000   1.96000   1.96000  -0.020370476863730  -0.002094055310363  -0.002094043195773
Pt    3.92000   0.00000   3.92000   0.008218741926039   0.000000000344543   0.008196741224114
Pt    3.92000   3.92000  -3.92000   0.019815558257695   0.019815557007402  -0.019822086309166
Pt    3.92000   3.92000   0.00000   0.008209810718323   0.008209809418186   0.000000000868154
Pt    3.92000   3.92000   3.92000   0.019815559250898   0.019815557255147   0.019822086120965
