40 

C    2.58239   0.08226   0.27598   0.006248591010664  -0.005090743030757   0.015420563624514
C    2.37330  -1.13864   1.19405  -0.001758807782408  -0.002601561214688  -0.000310748434044
C    1.02528  -1.04630   1.91581   0.002541677993517  -0.007826964678104   0.002332017369440
O    1.49476   0.41741  -0.55103   0.002430455831476   0.028139504104054   0.022375210110259
O    2.73737   1.29041   0.95988   0.006429054823502  -0.007605938454485  -0.007538529430637
C    3.78664  -0.21820  -0.66960  -0.019677994730876  -0.000678694577586   0.011543091340653
C   -0.09455  -0.88099   0.85298   0.004179592691289  -0.001754294362697  -0.002539838786654
O    0.81881  -2.14230   2.76961  -0.002096437365714  -0.010419950864012  -0.024904311890690
C    0.18986   0.40643   0.03230   0.014333941786661  -0.004089829255313   0.000045247995789
O    3.64303  -0.76598  -1.88783  -0.000515189386448   0.006152225219000   0.005044991095105
N   -1.43959  -0.76323   1.47317   0.001368326341810   0.028694946277209   0.006386497511253
C   -0.79483   0.55542  -1.16478   0.001607696616384  -0.011704798448798  -0.011747246904755
C   -2.20147  -1.93362   1.78598  -0.017097548456707  -0.024464795872573   0.009510291752026
C   -0.69904   1.97017  -1.81690   0.006349171713941   0.015839405252059   0.005514037279365
O   -0.49217  -0.47384  -2.08676  -0.019685813635256   0.013811333387484  -0.012961169085691
C   -3.38021  -1.73494   2.70334   0.004439087480244  -0.003092967582549  -0.003064670598771
C   -1.69226   2.08487  -3.00129  -0.007188923331840   0.013079211716155  -0.009199574952211
O   -1.04367   2.90345  -0.81217   0.008028517426786   0.019355896683412  -0.019941506730037
O   -1.33030   3.22988  -3.73491  -0.025008877558697  -0.008912102125393  -0.013826660775181
H    2.42517  -2.06889   0.59160   0.002380992475557  -0.003386361233876  -0.001256168190675
H    3.20054  -1.20643   1.92821   0.003346154494518  -0.001877375268034   0.003490944940682
H    1.02645  -0.19369   2.63649  -0.000225675456052   0.000645998697979   0.011696637664054
H    3.58152   1.28733   1.39261  -0.032647925730481  -0.001261312680066  -0.016639603264462
O    4.95226  -0.03351  -0.38856  -0.013155758363219  -0.015328034626630  -0.036364226882015
H   -0.10202  -1.76681   0.16665   0.002277137930164  -0.009441728840165  -0.008467506056201
H    0.73518  -2.92164   2.23173   0.005313956863245   0.027049135106353   0.016645950584690
H    0.10755   1.30400   0.69482   0.003572670699827   0.007520696311365   0.005534011039068
H    2.72513  -0.85076  -2.11919   0.039177395753257   0.001109549110374   0.008093180700418
H   -1.47148  -0.06566   2.18654   0.003177162467222  -0.017394169291051  -0.014053171988290
H   -1.83652   0.40001  -0.78638  -0.008355090714537  -0.006023357017771  -0.001834766377498
O   -1.91764  -2.99969   1.26146   0.000019136125894   0.021005854052557   0.004745118698661
H    0.34577   2.15463  -2.17050   0.008901826815525   0.004648549646528   0.001238541551817
H   -0.99769  -0.29067  -2.87199   0.013789318080389  -0.000552925584065   0.021805411475905
H   -4.03439  -0.92721   2.34840  -0.000893371718432  -0.002221937571700  -0.000037818039763
H   -3.98961  -2.64557   2.77728  -0.004373479066387   0.000551531907517   0.002687730498413
H   -3.04806  -1.47747   3.71824  -0.001166646886207  -0.001627006715510  -0.001016220823892
H   -1.62782   1.18453  -3.65064   0.000454691980329  -0.000961208552760   0.001074118594447
H   -2.73748   2.15752  -2.64091  -0.003518692873326   0.001867182972216  -0.004769847608690
H   -0.81495   3.75581  -1.15734  -0.006468250704098  -0.030645134064297   0.010395081765840
H   -2.00525   3.36192  -4.38635   0.021935309852195  -0.008746799592119   0.024040477452547
