76 

Zr   -0.03585   0.02179   0.03241   0.000016240897929  -0.000003654682986   0.001294247851378
B    1.55801   0.94187   1.72975   0.000019138421119   0.000093258549412  -0.000244768193219
B    1.55799  -0.89816   1.72996   0.000007157283565  -0.000087175122684  -0.000208724558170
Zr    1.55782  -2.73812   0.03239   0.000049828229684   0.000013576293197   0.001283590322351
B    3.15157  -1.81820   1.72973   0.000029714869248   0.000082872025941  -0.000247410691679
B    3.15153  -3.65818   1.72973   0.000017286834695  -0.000083182875710  -0.000247669508312
Zr    1.55769   2.78181   0.03205   0.000026522201912  -0.000011056590072   0.001239044021205
B    3.15148   3.70183   1.72979   0.000015124872183   0.000084944175886  -0.000233536833480
B    3.15146   1.86186   1.72976   0.000000154006812  -0.000092605900094  -0.000237947560980
Zr    3.15113   0.02190   0.03236   0.000012914530346   0.000010243425001   0.001286142378666
B    4.74499   0.94183   1.72994   0.000016702346669   0.000084226426467  -0.000210023623216
B    4.74495  -0.89822   1.72974   0.000000745163321  -0.000096353145098  -0.000243867557965
Zr   -0.03540   0.02184   3.50753   0.000017316605035   0.000016901558177  -0.000051632012762
B    1.55798   0.94181   5.26946   0.000007124130211   0.000098682173322  -0.000090107575673
B    1.55795  -0.89830   5.26954  -0.000004937996301  -0.000101391850237  -0.000075749207502
Zr    1.55812  -2.73818   3.50752   0.000021149214497   0.000017636904477  -0.000053358574979
B    3.15147  -1.81820   5.26946   0.000006155926285   0.000102253194788  -0.000089128977165
B    3.15143  -3.65833   5.26948  -0.000008199608536  -0.000101442959591  -0.000085789374992
Zr    1.55810   2.78186   3.50750   0.000013318882251   0.000010935241920  -0.000055751421646
B    3.15147   3.70184   5.26947   0.000005201471721   0.000099224318948  -0.000087961711634
B    3.15144   1.86172   5.26947  -0.000006140139692  -0.000104279497022  -0.000087179990244
Zr    3.15159   0.02184   3.50751   0.000011604796887   0.000014033496894  -0.000055603550303
B    4.74495   0.94182   5.26954   0.000002955998852   0.000102211151702  -0.000077231552795
B    4.74492  -0.89831   5.26948  -0.000010693770675  -0.000104320235772  -0.000086046152795
Zr   -0.03575   0.02169   7.03620  -0.000046756965367  -0.000000942620402  -0.000369755281891
B    1.55762   0.94171   8.80289   0.000002741754118   0.000100525182017   0.000004237673331
B    1.55761  -0.89842   8.80292  -0.000003866761893  -0.000110265812420   0.000010713400730
Zr    1.55775  -2.73833   7.03619  -0.000044590905008   0.000001530199416  -0.000371652795556
B    3.15111  -1.81832   8.80289   0.000001346049136   0.000102296103761   0.000003950951285
B    3.15109  -3.65845   8.80291  -0.000006642960615  -0.000109034047680   0.000008453202935
Zr    1.55774   2.78171   7.03618  -0.000049179568501  -0.000003209901551  -0.000372090057559
B    3.15111   3.70173   8.80289  -0.000000729262298   0.000099170287768   0.000004430311694
B    3.15110   1.86160   8.80291  -0.000006330917449  -0.000112538353926   0.000008883102535
Zr    3.15124   0.02169   7.03619  -0.000046907909147  -0.000002989743556  -0.000370602320942
B    4.74460   0.94171   8.80291  -0.000002585283524   0.000101409582102   0.000006600579467
B    4.74458  -0.89843   8.80291  -0.000009593083733  -0.000112194113518   0.000008434630643
Zr   -0.03613   0.02167  10.57179   0.000094316013588   0.000010037624689  -0.000000264591421
B    1.55763   0.94169  12.34069   0.000002807109374   0.000100310781829  -0.000003977162456
B    1.55761  -0.89844  12.34067  -0.000003757448089  -0.000110444045988  -0.000010514925809
Zr    1.55737  -2.73835  10.57179   0.000094074083877   0.000012633129694  -0.000000268347599
B    3.15112  -1.81833  12.34069   0.000001400277833   0.000102082945025  -0.000003741146192
B    3.15110  -3.65846  12.34068  -0.000006541871640  -0.000109263667004  -0.000008276786216
Zr    1.55737   2.78169  10.57179   0.000093265704336   0.000008419280245  -0.000000330526890
B    3.15111   3.70171  12.34069  -0.000000644134088   0.000098937577810  -0.000004316534489
B    3.15110   1.86158  12.34068  -0.000006293583631  -0.000112794859636  -0.000008697481634
Zr    3.15086   0.02167  10.57179   0.000093447872580   0.000009834017705  -0.000000368149373
B    4.74460   0.94170  12.34068  -0.000002516935608   0.000101202639279  -0.000006438619962
B    4.74458  -0.89844  12.34068  -0.000009562858574  -0.000112387273434  -0.000008295198374
Zr   -0.03575   0.02167  14.10739  -0.000046348767374  -0.000000496272011   0.000369842492459
B    1.55798   0.94178  15.87413   0.000007316957277   0.000098362498202   0.000090221283268
B    1.55796  -0.89833  15.87404  -0.000004745575714  -0.000101716155695   0.000075833317063
Zr    1.55775  -2.73835  14.10740  -0.000044445981673   0.000001887444488   0.000371668557606
B    3.15147  -1.81823  15.87412   0.000006337756148   0.000101776561674   0.000089295356215
B    3.15144  -3.65836  15.87411  -0.000007865437991  -0.000101777250036   0.000085851898949
Zr    1.55775   2.78169  14.10741  -0.000049245369256  -0.000002968048596   0.000371931236565
B    3.15147   3.70181  15.87412   0.000005579992871   0.000098909811791   0.000088087845712
B    3.15145   1.86169  15.87412  -0.000005972128991  -0.000104689375899   0.000087294507431
Zr    3.15124   0.02166  14.10739  -0.000047172414681  -0.000002766633452   0.000370436652480
B    4.74496   0.94179  15.87405   0.000003242031638   0.000101888664454   0.000077399412332
B    4.74493  -0.89834  15.87411  -0.000010454792212  -0.000104601810600   0.000086111807852
Zr   -0.03540   0.02181  17.63606   0.000016905819026   0.000017093921288   0.000052165966132
B    1.55801   0.94183  19.41384   0.000018905187994   0.000093078915126   0.000244780912538
B    1.55799  -0.89820  19.41363   0.000007277022769  -0.000087803669516   0.000208874593393
Zr    1.55812  -2.73821  17.63606   0.000020273140929   0.000017331212863   0.000053827603463
B    3.15157  -1.81825  19.41386   0.000029680103462   0.000082599673982   0.000247766382265
B    3.15154  -3.65822  19.41385   0.000017319930453  -0.000083583127743   0.000248106715413
Zr    1.55810   2.78182  17.63609   0.000012149187783   0.000010602086175   0.000055999359806
B    3.15149   3.70179  19.41380   0.000015456126569   0.000084469306295   0.000233499178826
B    3.15146   1.86182  19.41382   0.000000279672543  -0.000092546492945   0.000237957443689
Zr    3.15159   0.02181  17.63607   0.000010387510497   0.000014077609635   0.000055866246305
B    4.74500   0.94179  19.41365   0.000017049383282   0.000083951981018   0.000210221075380
B    4.74495  -0.89826  19.41385   0.000000686168926  -0.000096646200426   0.000243864398834
Zr   -0.03585   0.02175  21.11117   0.000015976585956  -0.000003909895174  -0.001295247231671
Zr    1.55782  -2.73816  21.11119   0.000050061876486   0.000013272946757  -0.001284169117775
Zr    1.55769   2.78176  21.11153   0.000026430756510  -0.000011014405228  -0.001239151567009
Zr    3.15113   0.02185  21.11122   0.000012240988915   0.000009425080830  -0.001286693775318
