10368

Si -21.04513 -21.04513 -15.61412
Si -18.32963 -21.04513 -12.89863
Si -21.04513 -18.32963 -12.89863
Si -18.32963 -18.32963 -15.61412
Si -16.97187 -19.68738 -14.25638
Si -16.97187 -16.97187 -11.54087
Si -19.68738 -19.68738 -11.54087
Si -19.68738 -16.97187 -14.25638
Si -21.04513 -21.04513 -10.18313
Si -18.32963 -21.04513 -7.46763
Si -21.04513 -18.32963 -7.46763
Si -18.32963 -18.32963 -10.18313
Si -16.97187 -19.68738 -8.82538
Si -16.97187 -16.97187 -6.10987
Si -19.68738 -19.68738 -6.10987
Si -19.68738 -16.97187 -8.82538
Si -21.04513 -21.04513 -4.75212
Si -18.32963 -21.04513 -2.03662
Si -21.04513 -18.32963 -2.03662
Si -18.32963 -18.32963 -4.75212
Si -16.97187 -19.68738 -3.39438
Si -16.97187 -16.97187 -0.67887
Si -19.68738 -19.68738 -0.67887
Si -19.68738 -16.97187 -3.39438
Si -21.04513 -15.61412 -15.61412
Si -18.32963 -15.61412 -12.89863
Si -21.04513 -12.89862 -12.89863
Si -18.32963 -12.89862 -15.61412
Si -16.97187 -14.25638 -14.25638
Si -16.97187 -11.54087 -11.54087
Si -19.68738 -14.25638 -11.54087
Si -19.68738 -11.54087 -14.25638
Si -21.04513 -15.61412 -10.18313
Si -18.32963 -15.61412 -7.46763
Si -21.04513 -12.89862 -7.46763
Si -18.32963 -12.89862 -10.18313
Si -16.97187 -14.25638 -8.82538
Si -16.97187 -11.54087 -6.10987
Si -19.68738 -14.25638 -6.10987
Si -19.68738 -11.54087 -8.82538
Si -21.04513 -15.61412 -4.75212
Si -18.32963 -15.61412 -2.03662
Si -21.04513 -12.89862 -2.03662
Si -18.32963 -12.89862 -4.75212
Si -16.97187 -14.25638 -3.39438
Si -16.97187 -11.54087 -0.67887
Si -19.68738 -14.25638 -0.67887
Si -19.68738 -11.54087 -3.39438
Si -21.04513 -10.18312 -15.61412
Si -18.32963 -10.18312 -12.89863
Si -21.04513 -7.46762 -12.89863
Si -18.32963 -7.46762 -15.61412
Si -16.97187 -8.82537 -14.25638
Si -16.97187 -6.10987 -11.54087
Si -19.68738 -8.82537 -11.54087
Si -19.68738 -6.10987 -14.25638
Si -21.04513 -10.18312 -10.18313
Si -18.32963 -10.18312 -7.46763
Si -21.04513 -7.46762 -7.46763
Si -18.32963 -7.46762 -10.18313
Si -16.97187 -8.82537 -8.82538
Si -16.97187 -6.10987 -6.10987
Si -19.68738 -8.82537 -6.10987
Si -19.68738 -6.10987 -8.82538
Si -21.04513 -10.18312 -4.75212
Si -18.32963 -10.18312 -2.03662
Si -21.04513 -7.46762 -2.03662
Si -18.32963 -7.46762 -4.75212
Si -16.97187 -8.82537 -3.39438
Si -16.97187 -6.10987 -0.67887
Si -19.68738 -8.82537 -0.67887
Si -19.68738 -6.10987 -3.39438
Si -21.04513 -4.75212 -15.61412
Si -18.32963 -4.75212 -12.89863
Si -21.04513 -2.03662 -12.89863
Si -18.32963 -2.03662 -15.61412
Si -16.97187 -3.39437 -14.25638
Si -16.97187 -0.67888 -11.54087
Si -19.68738 -3.39437 -11.54087
Si -19.68738 -0.67888 -14.25638
Si -21.04513 -4.75212 -10.18313
Si -18.32963 -4.75212 -7.46763
Si -21.04513 -2.03662 -7.46763
Si -18.32963 -2.03662 -10.18313
Si -16.97187 -3.39437 -8.82538
Si -16.97187 -0.67888 -6.10987
Si -19.68738 -3.39437 -6.10987
Si -19.68738 -0.67888 -8.82538
Si -21.04513 -4.75212 -4.75212
Si -18.32963 -4.75212 -2.03662
Si -21.04513 -2.03662 -2.03662
Si -18.32963 -2.03662 -4.75212
Si -16.97187 -3.39437 -3.39438
Si -16.97187 -0.67888 -0.67887
Si -19.68738 -3.39437 -0.67887
Si -19.68738 -0.67888 -3.39438
Si -15.61412 -21.04513 -15.61412
Si -12.89862 -21.04513 -12.89863
Si -15.61412 -18.32963 -12.89863
Si -12.89862 -18.32963 -15.61412
Si -11.54087 -19.68738 -14.25638
Si -11.54087 -16.97187 -11.54087
Si -14.25638 -19.68738 -11.54087
Si -14.25638 -16.97187 -14.25638
Si -15.61412 -21.04513 -10.18313
Si -12.89862 -21.04513 -7.46763
Si -15.61412 -18.32963 -7.46763
Si -12.89862 -18.32963 -10.18313
Si -11.54087 -19.68738 -8.82538
Si -11.54087 -16.97187 -6.10987
Si -14.25638 -19.68738 -6.10987
Si -14.25638 -16.97187 -8.82538
Si -15.61412 -21.04513 -4.75212
Si -12.89862 -21.04513 -2.03662
Si -15.61412 -18.32963 -2.03662
Si -12.89862 -18.32963 -4.75212
Si -11.54087 -19.68738 -3.39438
Si -11.54087 -16.97187 -0.67887
Si -14.25638 -19.68738 -0.67887
Si -14.25638 -16.97187 -3.39438
Si -15.61412 -15.61412 -15.61412
Si -12.89862 -15.61412 -12.89863
Si -15.61412 -12.89862 -12.89863
Si -12.89862 -12.89862 -15.61412
Si -11.54087 -14.25638 -14.25638
Si -11.54087 -11.54087 -11.54087
Si -14.25638 -14.25638 -11.54087
Si -14.25638 -11.54087 -14.25638
Si -15.61412 -15.61412 -10.18313
Si -12.89862 -15.61412 -7.46763
Si -15.61412 -12.89862 -7.46763
Si -12.89862 -12.89862 -10.18313
Si -11.54087 -14.25638 -8.82538
Si -11.54087 -11.54087 -6.10987
Si -14.25638 -14.25638 -6.10987
Si -14.25638 -11.54087 -8.82538
Si -15.61412 -15.61412 -4.75212
Si -12.89862 -15.61412 -2.03662
Si -15.61412 -12.89862 -2.03662
Si -12.89862 -12.89862 -4.75212
Si -11.54087 -14.25638 -3.39438
Si -11.54087 -11.54087 -0.67887
Si -14.25638 -14.25638 -0.67887
Si -14.25638 -11.54087 -3.39438
Si -15.61412 -10.18312 -15.61412
Si -12.89862 -10.18312 -12.89863
Si -15.61412 -7.46762 -12.89863
Si -12.89862 -7.46762 -15.61412
Si -11.54087 -8.82537 -14.25638
Si -11.54087 -6.10987 -11.54087
Si -14.25638 -8.82537 -11.54087
Si -14.25638 -6.10987 -14.25638
Si -15.61412 -10.18312 -10.18313
Si -12.89862 -10.18312 -7.46763
Si -15.61412 -7.46762 -7.46763
Si -12.89862 -7.46762 -10.18313
Si -11.54087 -8.82537 -8.82538
Si -11.54087 -6.10987 -6.10987
Si -14.25638 -8.82537 -6.10987
Si -14.25638 -6.10987 -8.82538
Si -15.61412 -10.18312 -4.75212
Si -12.89862 -10.18312 -2.03662
Si -15.61412 -7.46762 -2.03662
Si -12.89862 -7.46762 -4.75212
Si -11.54087 -8.82537 -3.39438
Si -11.54087 -6.10987 -0.67887
Si -14.25638 -8.82537 -0.67887
Si -14.25638 -6.10987 -3.39438
Si -15.61412 -4.75212 -15.61412
Si -12.89862 -4.75212 -12.89863
Si -15.61412 -2.03662 -12.89863
Si -12.89862 -2.03662 -15.61412
Si -11.54087 -3.39437 -14.25638
Si -11.54087 -0.67888 -11.54087
Si -14.25638 -3.39437 -11.54087
Si -14.25638 -0.67888 -14.25638
Si -15.61412 -4.75212 -10.18313
Si -12.89862 -4.75212 -7.46763
Si -15.61412 -2.03662 -7.46763
Si -12.89862 -2.03662 -10.18313
Si -11.54087 -3.39437 -8.82538
Si -11.54087 -0.67888 -6.10987
Si -14.25638 -3.39437 -6.10987
Si -14.25638 -0.67888 -8.82538
Si -15.61412 -4.75212 -4.75212
Si -12.89862 -4.75212 -2.03662
Si -15.61412 -2.03662 -2.03662
Si -12.89862 -2.03662 -4.75212
Si -11.54087 -3.39437 -3.39438
Si -11.54087 -0.67888 -0.67887
Si -14.25638 -3.39437 -0.67887
Si -14.25638 -0.67888 -3.39438
Si -10.18312 -21.04513 -15.61412
Si -7.46762 -21.04513 -12.89863
Si -10.18312 -18.32963 -12.89863
Si -7.46762 -18.32963 -15.61412
Si -6.10987 -19.68738 -14.25638
Si -6.10987 -16.97187 -11.54087
Si -8.82537 -19.68738 -11.54087
Si -8.82537 -16.97187 -14.25638
Si -10.18312 -21.04513 -10.18313
Si -7.46762 -21.04513 -7.46763
Si -10.18312 -18.32963 -7.46763
Si -7.46762 -18.32963 -10.18313
Si -6.10987 -19.68738 -8.82538
Si -6.10987 -16.97187 -6.10987
Si -8.82537 -19.68738 -6.10987
Si -8.82537 -16.97187 -8.82538
Si -10.18312 -21.04513 -4.75212
Si -7.46762 -21.04513 -2.03662
Si -10.18312 -18.32963 -2.03662
Si -7.46762 -18.32963 -4.75212
Si -6.10987 -19.68738 -3.39438
Si -6.10987 -16.97187 -0.67887
Si -8.82537 -19.68738 -0.67887
Si -8.82537 -16.97187 -3.39438
Si -10.18312 -15.61412 -15.61412
Si -7.46762 -15.61412 -12.89863
Si -10.18312 -12.89862 -12.89863
Si -7.46762 -12.89862 -15.61412
Si -6.10987 -14.25638 -14.25638
Si -6.10987 -11.54087 -11.54087
Si -8.82537 -14.25638 -11.54087
Si -8.82537 -11.54087 -14.25638
Si -10.18312 -15.61412 -10.18313
Si -7.46762 -15.61412 -7.46763
Si -10.18312 -12.89862 -7.46763
Si -7.46762 -12.89862 -10.18313
Si -6.10987 -14.25638 -8.82538
Si -6.10987 -11.54087 -6.10987
Si -8.82537 -14.25638 -6.10987
Si -8.82537 -11.54087 -8.82538
Si -10.18312 -15.61412 -4.75212
Si -7.46762 -15.61412 -2.03662
Si -10.18312 -12.89862 -2.03662
Si -7.46762 -12.89862 -4.75212
Si -6.10987 -14.25638 -3.39438
Si -6.10987 -11.54087 -0.67887
Si -8.82537 -14.25638 -0.67887
Si -8.82537 -11.54087 -3.39438
Si -10.18312 -10.18312 -15.61412
Si -7.46762 -10.18312 -12.89863
Si -10.18312 -7.46762 -12.89863
Si -7.46762 -7.46762 -15.61412
Si -6.10987 -8.82537 -14.25638
Si -6.10987 -6.10987 -11.54087
Si -8.82537 -8.82537 -11.54087
Si -8.82537 -6.10987 -14.25638
Si -10.18312 -10.18312 -10.18313
Si -7.46762 -10.18312 -7.46763
Si -10.18312 -7.46762 -7.46763
Si -7.46762 -7.46762 -10.18313
Si -6.10987 -8.82537 -8.82538
Si -6.10987 -6.10987 -6.10987
Si -8.82537 -8.82537 -6.10987
Si -8.82537 -6.10987 -8.82538
Si -10.18312 -10.18312 -4.75212
Si -7.46762 -10.18312 -2.03662
Si -10.18312 -7.46762 -2.03662
Si -7.46762 -7.46762 -4.75212
Si -6.10987 -8.82537 -3.39438
Si -6.10987 -6.10987 -0.67887
Si -8.82537 -8.82537 -0.67887
Si -8.82537 -6.10987 -3.39438
Si -10.18312 -4.75212 -15.61412
Si -7.46762 -4.75212 -12.89863
Si -10.18312 -2.03662 -12.89863
Si -7.46762 -2.03662 -15.61412
Si -6.10987 -3.39437 -14.25638
Si -6.10987 -0.67888 -11.54087
Si -8.82537 -3.39437 -11.54087
Si -8.82537 -0.67888 -14.25638
Si -10.18312 -4.75212 -10.18313
Si -7.46762 -4.75212 -7.46763
Si -10.18312 -2.03662 -7.46763
Si -7.46762 -2.03662 -10.18313
Si -6.10987 -3.39437 -8.82538
Si -6.10987 -0.67888 -6.10987
Si -8.82537 -3.39437 -6.10987
Si -8.82537 -0.67888 -8.82538
Si -10.18312 -4.75212 -4.75212
Si -7.46762 -4.75212 -2.03662
Si -10.18312 -2.03662 -2.03662
Si -7.46762 -2.03662 -4.75212
Si -6.10987 -3.39437 -3.39438
Si -6.10987 -0.67888 -0.67887
Si -8.82537 -3.39437 -0.67887
Si -8.82537 -0.67888 -3.39438
Si -4.75212 -21.04513 -15.61412
Si -2.03662 -21.04513 -12.89863
Si -4.75212 -18.32963 -12.89863
Si -2.03662 -18.32963 -15.61412
Si -0.67888 -19.68738 -14.25638
Si -0.67888 -16.97187 -11.54087
Si -3.39437 -19.68738 -11.54087
Si -3.39437 -16.97187 -14.25638
Si -4.75212 -21.04513 -10.18313
Si -2.03662 -21.04513 -7.46763
Si -4.75212 -18.32963 -7.46763
Si -2.03662 -18.32963 -10.18313
Si -0.67888 -19.68738 -8.82538
Si -0.67888 -16.97187 -6.10987
Si -3.39437 -19.68738 -6.10987
Si -3.39437 -16.97187 -8.82538
Si -4.75212 -21.04513 -4.75212
Si -2.03662 -21.04513 -2.03662
Si -4.75212 -18.32963 -2.03662
Si -2.03662 -18.32963 -4.75212
Si -0.67888 -19.68738 -3.39438
Si -0.67888 -16.97187 -0.67887
Si -3.39437 -19.68738 -0.67887
Si -3.39437 -16.97187 -3.39438
Si -4.75212 -15.61412 -15.61412
Si -2.03662 -15.61412 -12.89863
Si -4.75212 -12.89862 -12.89863
Si -2.03662 -12.89862 -15.61412
Si -0.67888 -14.25638 -14.25638
Si -0.67888 -11.54087 -11.54087
Si -3.39437 -14.25638 -11.54087
Si -3.39437 -11.54087 -14.25638
Si -4.75212 -15.61412 -10.18313
Si -2.03662 -15.61412 -7.46763
Si -4.75212 -12.89862 -7.46763
Si -2.03662 -12.89862 -10.18313
Si -0.67888 -14.25638 -8.82538
Si -0.67888 -11.54087 -6.10987
Si -3.39437 -14.25638 -6.10987
Si -3.39437 -11.54087 -8.82538
Si -4.75212 -15.61412 -4.75212
Si -2.03662 -15.61412 -2.03662
Si -4.75212 -12.89862 -2.03662
Si -2.03662 -12.89862 -4.75212
Si -0.67888 -14.25638 -3.39438
Si -0.67888 -11.54087 -0.67887
Si -3.39437 -14.25638 -0.67887
Si -3.39437 -11.54087 -3.39438
Si -4.75212 -10.18312 -15.61412
Si -2.03662 -10.18312 -12.89863
Si -4.75212 -7.46762 -12.89863
Si -2.03662 -7.46762 -15.61412
Si -0.67888 -8.82537 -14.25638
Si -0.67888 -6.10987 -11.54087
Si -3.39437 -8.82537 -11.54087
Si -3.39437 -6.10987 -14.25638
Si -4.75212 -10.18312 -10.18313
Si -2.03662 -10.18312 -7.46763
Si -4.75212 -7.46762 -7.46763
Si -2.03662 -7.46762 -10.18313
Si -0.67888 -8.82537 -8.82538
Si -0.67888 -6.10987 -6.10987
Si -3.39437 -8.82537 -6.10987
Si -3.39437 -6.10987 -8.82538
Si -4.75212 -10.18312 -4.75212
Si -2.03662 -10.18312 -2.03662
Si -4.75212 -7.46762 -2.03662
Si -2.03662 -7.46762 -4.75212
Si -0.67888 -8.82537 -3.39438
Si -0.67888 -6.10987 -0.67887
Si -3.39437 -8.82537 -0.67887
Si -3.39437 -6.10987 -3.39438
Si -4.75212 -4.75212 -15.61412
Si -2.03662 -4.75212 -12.89863
Si -4.75212 -2.03662 -12.89863
Si -2.03662 -2.03662 -15.61412
Si -0.67888 -3.39437 -14.25638
Si -0.67888 -0.67888 -11.54087
Si -3.39437 -3.39437 -11.54087
Si -3.39437 -0.67888 -14.25638
Si -4.75212 -4.75212 -10.18313
Si -2.03662 -4.75212 -7.46763
Si -4.75212 -2.03662 -7.46763
Si -2.03662 -2.03662 -10.18313
Si -0.67888 -3.39437 -8.82538
Si -0.67888 -0.67888 -6.10987
Si -3.39437 -3.39437 -6.10987
Si -3.39437 -0.67888 -8.82538
Si -4.75212 -4.75212 -4.75212
Si -2.03662 -4.75212 -2.03662
Si -4.75212 -2.03662 -2.03662
Si -2.03662 -2.03662 -4.75212
Si -0.67888 -3.39437 -3.39438
Si -0.67888 -0.67888 -0.67887
Si -3.39437 -3.39437 -0.67887
Si -3.39437 -0.67888 -3.39438
Si -21.04513 -21.04513  0.67888
Si -18.32963 -21.04513  3.39437
Si -21.04513 -18.32963  3.39437
Si -18.32963 -18.32963  0.67888
Si -16.97187 -19.68738  2.03662
Si -16.97187 -16.97187  4.75213
Si -19.68738 -19.68738  4.75213
Si -19.68738 -16.97187  2.03662
Si -21.04513 -21.04513  6.10987
Si -18.32963 -21.04513  8.82537
Si -21.04513 -18.32963  8.82537
Si -18.32963 -18.32963  6.10987
Si -16.97187 -19.68738  7.46762
Si -16.97187 -16.97187 10.18313
Si -19.68738 -19.68738 10.18313
Si -19.68738 -16.97187  7.46762
Si -21.04513 -21.04513 11.54087
Si -18.32963 -21.04513 14.25638
Si -21.04513 -18.32963 14.25638
Si -18.32963 -18.32963 11.54087
Si -16.97187 -19.68738 12.89862
Si -16.97187 -16.97187 15.61413
Si -19.68738 -19.68738 15.61413
Si -19.68738 -16.97187 12.89862
Si -21.04513 -15.61412  0.67888
Si -18.32963 -15.61412  3.39437
Si -21.04513 -12.89862  3.39437
Si -18.32963 -12.89862  0.67888
Si -16.97187 -14.25638  2.03662
Si -16.97187 -11.54087  4.75213
Si -19.68738 -14.25638  4.75213
Si -19.68738 -11.54087  2.03662
Si -21.04513 -15.61412  6.10987
Si -18.32963 -15.61412  8.82537
Si -21.04513 -12.89862  8.82537
Si -18.32963 -12.89862  6.10987
Si -16.97187 -14.25638  7.46762
Si -16.97187 -11.54087 10.18313
Si -19.68738 -14.25638 10.18313
Si -19.68738 -11.54087  7.46762
Si -21.04513 -15.61412 11.54087
Si -18.32963 -15.61412 14.25638
Si -21.04513 -12.89862 14.25638
Si -18.32963 -12.89862 11.54087
Si -16.97187 -14.25638 12.89862
Si -16.97187 -11.54087 15.61413
Si -19.68738 -14.25638 15.61413
Si -19.68738 -11.54087 12.89862
Si -21.04513 -10.18312  0.67888
Si -18.32963 -10.18312  3.39437
Si -21.04513 -7.46762  3.39437
Si -18.32963 -7.46762  0.67888
Si -16.97187 -8.82537  2.03662
Si -16.97187 -6.10987  4.75213
Si -19.68738 -8.82537  4.75213
Si -19.68738 -6.10987  2.03662
Si -21.04513 -10.18312  6.10987
Si -18.32963 -10.18312  8.82537
Si -21.04513 -7.46762  8.82537
Si -18.32963 -7.46762  6.10987
Si -16.97187 -8.82537  7.46762
Si -16.97187 -6.10987 10.18313
Si -19.68738 -8.82537 10.18313
Si -19.68738 -6.10987  7.46762
Si -21.04513 -10.18312 11.54087
Si -18.32963 -10.18312 14.25638
Si -21.04513 -7.46762 14.25638
Si -18.32963 -7.46762 11.54087
Si -16.97187 -8.82537 12.89862
Si -16.97187 -6.10987 15.61413
Si -19.68738 -8.82537 15.61413
Si -19.68738 -6.10987 12.89862
Si -21.04513 -4.75212  0.67888
Si -18.32963 -4.75212  3.39437
Si -21.04513 -2.03662  3.39437
Si -18.32963 -2.03662  0.67888
Si -16.97187 -3.39437  2.03662
Si -16.97187 -0.67888  4.75213
Si -19.68738 -3.39437  4.75213
Si -19.68738 -0.67888  2.03662
Si -21.04513 -4.75212  6.10987
Si -18.32963 -4.75212  8.82537
Si -21.04513 -2.03662  8.82537
Si -18.32963 -2.03662  6.10987
Si -16.97187 -3.39437  7.46762
Si -16.97187 -0.67888 10.18313
Si -19.68738 -3.39437 10.18313
Si -19.68738 -0.67888  7.46762
Si -21.04513 -4.75212 11.54087
Si -18.32963 -4.75212 14.25638
Si -21.04513 -2.03662 14.25638
Si -18.32963 -2.03662 11.54087
Si -16.97187 -3.39437 12.89862
Si -16.97187 -0.67888 15.61413
Si -19.68738 -3.39437 15.61413
Si -19.68738 -0.67888 12.89862
Si -15.61412 -21.04513  0.67888
Si -12.89862 -21.04513  3.39437
Si -15.61412 -18.32963  3.39437
Si -12.89862 -18.32963  0.67888
Si -11.54087 -19.68738  2.03662
Si -11.54087 -16.97187  4.75213
Si -14.25638 -19.68738  4.75213
Si -14.25638 -16.97187  2.03662
Si -15.61412 -21.04513  6.10987
Si -12.89862 -21.04513  8.82537
Si -15.61412 -18.32963  8.82537
Si -12.89862 -18.32963  6.10987
Si -11.54087 -19.68738  7.46762
Si -11.54087 -16.97187 10.18313
Si -14.25638 -19.68738 10.18313
Si -14.25638 -16.97187  7.46762
Si -15.61412 -21.04513 11.54087
Si -12.89862 -21.04513 14.25638
Si -15.61412 -18.32963 14.25638
Si -12.89862 -18.32963 11.54087
Si -11.54087 -19.68738 12.89862
Si -11.54087 -16.97187 15.61413
Si -14.25638 -19.68738 15.61413
Si -14.25638 -16.97187 12.89862
Si -15.61412 -15.61412  0.67888
Si -12.89862 -15.61412  3.39437
Si -15.61412 -12.89862  3.39437
Si -12.89862 -12.89862  0.67888
Si -11.54087 -14.25638  2.03662
Si -11.54087 -11.54087  4.75213
Si -14.25638 -14.25638  4.75213
Si -14.25638 -11.54087  2.03662
Si -15.61412 -15.61412  6.10987
Si -12.89862 -15.61412  8.82537
Si -15.61412 -12.89862  8.82537
Si -12.89862 -12.89862  6.10987
Si -11.54087 -14.25638  7.46762
Si -11.54087 -11.54087 10.18313
Si -14.25638 -14.25638 10.18313
Si -14.25638 -11.54087  7.46762
Si -15.61412 -15.61412 11.54087
Si -12.89862 -15.61412 14.25638
Si -15.61412 -12.89862 14.25638
Si -12.89862 -12.89862 11.54087
Si -11.54087 -14.25638 12.89862
Si -11.54087 -11.54087 15.61413
Si -14.25638 -14.25638 15.61413
Si -14.25638 -11.54087 12.89862
Si -15.61412 -10.18312  0.67888
Si -12.89862 -10.18312  3.39437
Si -15.61412 -7.46762  3.39437
Si -12.89862 -7.46762  0.67888
Si -11.54087 -8.82537  2.03662
Si -11.54087 -6.10987  4.75213
Si -14.25638 -8.82537  4.75213
Si -14.25638 -6.10987  2.03662
Si -15.61412 -10.18312  6.10987
Si -12.89862 -10.18312  8.82537
Si -15.61412 -7.46762  8.82537
Si -12.89862 -7.46762  6.10987
Si -11.54087 -8.82537  7.46762
Si -11.54087 -6.10987 10.18313
Si -14.25638 -8.82537 10.18313
Si -14.25638 -6.10987  7.46762
Si -15.61412 -10.18312 11.54087
Si -12.89862 -10.18312 14.25638
Si -15.61412 -7.46762 14.25638
Si -12.89862 -7.46762 11.54087
Si -11.54087 -8.82537 12.89862
Si -11.54087 -6.10987 15.61413
Si -14.25638 -8.82537 15.61413
Si -14.25638 -6.10987 12.89862
Si -15.61412 -4.75212  0.67888
Si -12.89862 -4.75212  3.39437
Si -15.61412 -2.03662  3.39437
Si -12.89862 -2.03662  0.67888
Si -11.54087 -3.39437  2.03662
Si -11.54087 -0.67888  4.75213
Si -14.25638 -3.39437  4.75213
Si -14.25638 -0.67888  2.03662
Si -15.61412 -4.75212  6.10987
Si -12.89862 -4.75212  8.82537
Si -15.61412 -2.03662  8.82537
Si -12.89862 -2.03662  6.10987
Si -11.54087 -3.39437  7.46762
Si -11.54087 -0.67888 10.18313
Si -14.25638 -3.39437 10.18313
Si -14.25638 -0.67888  7.46762
Si -15.61412 -4.75212 11.54087
Si -12.89862 -4.75212 14.25638
Si -15.61412 -2.03662 14.25638
Si -12.89862 -2.03662 11.54087
Si -11.54087 -3.39437 12.89862
Si -11.54087 -0.67888 15.61413
Si -14.25638 -3.39437 15.61413
Si -14.25638 -0.67888 12.89862
Si -10.18312 -21.04513  0.67888
Si -7.46762 -21.04513  3.39437
Si -10.18312 -18.32963  3.39437
Si -7.46762 -18.32963  0.67888
Si -6.10987 -19.68738  2.03662
Si -6.10987 -16.97187  4.75213
Si -8.82537 -19.68738  4.75213
Si -8.82537 -16.97187  2.03662
Si -10.18312 -21.04513  6.10987
Si -7.46762 -21.04513  8.82537
Si -10.18312 -18.32963  8.82537
Si -7.46762 -18.32963  6.10987
Si -6.10987 -19.68738  7.46762
Si -6.10987 -16.97187 10.18313
Si -8.82537 -19.68738 10.18313
Si -8.82537 -16.97187  7.46762
Si -10.18312 -21.04513 11.54087
Si -7.46762 -21.04513 14.25638
Si -10.18312 -18.32963 14.25638
Si -7.46762 -18.32963 11.54087
Si -6.10987 -19.68738 12.89862
Si -6.10987 -16.97187 15.61413
Si -8.82537 -19.68738 15.61413
Si -8.82537 -16.97187 12.89862
Si -10.18312 -15.61412  0.67888
Si -7.46762 -15.61412  3.39437
Si -10.18312 -12.89862  3.39437
Si -7.46762 -12.89862  0.67888
Si -6.10987 -14.25638  2.03662
Si -6.10987 -11.54087  4.75213
Si -8.82537 -14.25638  4.75213
Si -8.82537 -11.54087  2.03662
Si -10.18312 -15.61412  6.10987
Si -7.46762 -15.61412  8.82537
Si -10.18312 -12.89862  8.82537
Si -7.46762 -12.89862  6.10987
Si -6.10987 -14.25638  7.46762
Si -6.10987 -11.54087 10.18313
Si -8.82537 -14.25638 10.18313
Si -8.82537 -11.54087  7.46762
Si -10.18312 -15.61412 11.54087
Si -7.46762 -15.61412 14.25638
Si -10.18312 -12.89862 14.25638
Si -7.46762 -12.89862 11.54087
Si -6.10987 -14.25638 12.89862
Si -6.10987 -11.54087 15.61413
Si -8.82537 -14.25638 15.61413
Si -8.82537 -11.54087 12.89862
Si -10.18312 -10.18312  0.67888
Si -7.46762 -10.18312  3.39437
Si -10.18312 -7.46762  3.39437
Si -7.46762 -7.46762  0.67888
Si -6.10987 -8.82537  2.03662
Si -6.10987 -6.10987  4.75213
Si -8.82537 -8.82537  4.75213
Si -8.82537 -6.10987  2.03662
Si -10.18312 -10.18312  6.10987
Si -7.46762 -10.18312  8.82537
Si -10.18312 -7.46762  8.82537
Si -7.46762 -7.46762  6.10987
Si -6.10987 -8.82537  7.46762
Si -6.10987 -6.10987 10.18313
Si -8.82537 -8.82537 10.18313
Si -8.82537 -6.10987  7.46762
Si -10.18312 -10.18312 11.54087
Si -7.46762 -10.18312 14.25638
Si -10.18312 -7.46762 14.25638
Si -7.46762 -7.46762 11.54087
Si -6.10987 -8.82537 12.89862
Si -6.10987 -6.10987 15.61413
Si -8.82537 -8.82537 15.61413
Si -8.82537 -6.10987 12.89862
Si -10.18312 -4.75212  0.67888
Si -7.46762 -4.75212  3.39437
Si -10.18312 -2.03662  3.39437
Si -7.46762 -2.03662  0.67888
Si -6.10987 -3.39437  2.03662
Si -6.10987 -0.67888  4.75213
Si -8.82537 -3.39437  4.75213
Si -8.82537 -0.67888  2.03662
Si -10.18312 -4.75212  6.10987
Si -7.46762 -4.75212  8.82537
Si -10.18312 -2.03662  8.82537
Si -7.46762 -2.03662  6.10987
Si -6.10987 -3.39437  7.46762
Si -6.10987 -0.67888 10.18313
Si -8.82537 -3.39437 10.18313
Si -8.82537 -0.67888  7.46762
Si -10.18312 -4.75212 11.54087
Si -7.46762 -4.75212 14.25638
Si -10.18312 -2.03662 14.25638
Si -7.46762 -2.03662 11.54087
Si -6.10987 -3.39437 12.89862
Si -6.10987 -0.67888 15.61413
Si -8.82537 -3.39437 15.61413
Si -8.82537 -0.67888 12.89862
Si -4.75212 -21.04513  0.67888
Si -2.03662 -21.04513  3.39437
Si -4.75212 -18.32963  3.39437
Si -2.03662 -18.32963  0.67888
Si -0.67888 -19.68738  2.03662
Si -0.67888 -16.97187  4.75213
Si -3.39437 -19.68738  4.75213
Si -3.39437 -16.97187  2.03662
Si -4.75212 -21.04513  6.10987
Si -2.03662 -21.04513  8.82537
Si -4.75212 -18.32963  8.82537
Si -2.03662 -18.32963  6.10987
Si -0.67888 -19.68738  7.46762
Si -0.67888 -16.97187 10.18313
Si -3.39437 -19.68738 10.18313
Si -3.39437 -16.97187  7.46762
Si -4.75212 -21.04513 11.54087
Si -2.03662 -21.04513 14.25638
Si -4.75212 -18.32963 14.25638
Si -2.03662 -18.32963 11.54087
Si -0.67888 -19.68738 12.89862
Si -0.67888 -16.97187 15.61413
Si -3.39437 -19.68738 15.61413
Si -3.39437 -16.97187 12.89862
Si -4.75212 -15.61412  0.67888
Si -2.03662 -15.61412  3.39437
Si -4.75212 -12.89862  3.39437
Si -2.03662 -12.89862  0.67888
Si -0.67888 -14.25638  2.03662
Si -0.67888 -11.54087  4.75213
Si -3.39437 -14.25638  4.75213
Si -3.39437 -11.54087  2.03662
Si -4.75212 -15.61412  6.10987
Si -2.03662 -15.61412  8.82537
Si -4.75212 -12.89862  8.82537
Si -2.03662 -12.89862  6.10987
Si -0.67888 -14.25638  7.46762
Si -0.67888 -11.54087 10.18313
Si -3.39437 -14.25638 10.18313
Si -3.39437 -11.54087  7.46762
Si -4.75212 -15.61412 11.54087
Si -2.03662 -15.61412 14.25638
Si -4.75212 -12.89862 14.25638
Si -2.03662 -12.89862 11.54087
Si -0.67888 -14.25638 12.89862
Si -0.67888 -11.54087 15.61413
Si -3.39437 -14.25638 15.61413
Si -3.39437 -11.54087 12.89862
Si -4.75212 -10.18312  0.67888
Si -2.03662 -10.18312  3.39437
Si -4.75212 -7.46762  3.39437
Si -2.03662 -7.46762  0.67888
Si -0.67888 -8.82537  2.03662
Si -0.67888 -6.10987  4.75213
Si -3.39437 -8.82537  4.75213
Si -3.39437 -6.10987  2.03662
Si -4.75212 -10.18312  6.10987
Si -2.03662 -10.18312  8.82537
Si -4.75212 -7.46762  8.82537
Si -2.03662 -7.46762  6.10987
Si -0.67888 -8.82537  7.46762
Si -0.67888 -6.10987 10.18313
Si -3.39437 -8.82537 10.18313
Si -3.39437 -6.10987  7.46762
Si -4.75212 -10.18312 11.54087
Si -2.03662 -10.18312 14.25638
Si -4.75212 -7.46762 14.25638
Si -2.03662 -7.46762 11.54087
Si -0.67888 -8.82537 12.89862
Si -0.67888 -6.10987 15.61413
Si -3.39437 -8.82537 15.61413
Si -3.39437 -6.10987 12.89862
Si -4.75212 -4.75212  0.67888
Si -2.03662 -4.75212  3.39437
Si -4.75212 -2.03662  3.39437
Si -2.03662 -2.03662  0.67888
Si -0.67888 -3.39437  2.03662
Si -0.67888 -0.67888  4.75213
Si -3.39437 -3.39437  4.75213
Si -3.39437 -0.67888  2.03662
Si -4.75212 -4.75212  6.10987
Si -2.03662 -4.75212  8.82537
Si -4.75212 -2.03662  8.82537
Si -2.03662 -2.03662  6.10987
Si -0.67888 -3.39437  7.46762
Si -0.67888 -0.67888 10.18313
Si -3.39437 -3.39437 10.18313
Si -3.39437 -0.67888  7.46762
Si -4.75212 -4.75212 11.54087
Si -2.03662 -4.75212 14.25638
Si -4.75212 -2.03662 14.25638
Si -2.03662 -2.03662 11.54087
Si -0.67888 -3.39437 12.89862
Si -0.67888 -0.67888 15.61413
Si -3.39437 -3.39437 15.61413
Si -3.39437 -0.67888 12.89862
Si -21.04513 -21.04513 16.97188
Si -18.32963 -21.04513 19.68737
Si -21.04513 -18.32963 19.68737
Si -18.32963 -18.32963 16.97188
Si -16.97187 -19.68738 18.32963
Si -16.97187 -16.97187 21.04513
Si -19.68738 -19.68738 21.04513
Si -19.68738 -16.97187 18.32963
Si -21.04513 -21.04513 22.40287
Si -18.32963 -21.04513 25.11837
Si -21.04513 -18.32963 25.11837
Si -18.32963 -18.32963 22.40287
Si -16.97187 -19.68738 23.76062
Si -16.97187 -16.97187 26.47612
Si -19.68738 -19.68738 26.47612
Si -19.68738 -16.97187 23.76062
Si -21.04513 -21.04513 27.83388
Si -18.32963 -21.04513 30.54938
Si -21.04513 -18.32963 30.54938
Si -18.32963 -18.32963 27.83388
Si -16.97187 -19.68738 29.19162
Si -16.97187 -16.97187 31.90713
Si -19.68738 -19.68738 31.90713
Si -19.68738 -16.97187 29.19162
Si -21.04513 -15.61412 16.97188
Si -18.32963 -15.61412 19.68737
Si -21.04513 -12.89862 19.68737
Si -18.32963 -12.89862 16.97188
Si -16.97187 -14.25638 18.32963
Si -16.97187 -11.54087 21.04513
Si -19.68738 -14.25638 21.04513
Si -19.68738 -11.54087 18.32963
Si -21.04513 -15.61412 22.40287
Si -18.32963 -15.61412 25.11837
Si -21.04513 -12.89862 25.11837
Si -18.32963 -12.89862 22.40287
Si -16.97187 -14.25638 23.76062
Si -16.97187 -11.54087 26.47612
Si -19.68738 -14.25638 26.47612
Si -19.68738 -11.54087 23.76062
Si -21.04513 -15.61412 27.83388
Si -18.32963 -15.61412 30.54938
Si -21.04513 -12.89862 30.54938
Si -18.32963 -12.89862 27.83388
Si -16.97187 -14.25638 29.19162
Si -16.97187 -11.54087 31.90713
Si -19.68738 -14.25638 31.90713
Si -19.68738 -11.54087 29.19162
Si -21.04513 -10.18312 16.97188
Si -18.32963 -10.18312 19.68737
Si -21.04513 -7.46762 19.68737
Si -18.32963 -7.46762 16.97188
Si -16.97187 -8.82537 18.32963
Si -16.97187 -6.10987 21.04513
Si -19.68738 -8.82537 21.04513
Si -19.68738 -6.10987 18.32963
Si -21.04513 -10.18312 22.40287
Si -18.32963 -10.18312 25.11837
Si -21.04513 -7.46762 25.11837
Si -18.32963 -7.46762 22.40287
Si -16.97187 -8.82537 23.76062
Si -16.97187 -6.10987 26.47612
Si -19.68738 -8.82537 26.47612
Si -19.68738 -6.10987 23.76062
Si -21.04513 -10.18312 27.83388
Si -18.32963 -10.18312 30.54938
Si -21.04513 -7.46762 30.54938
Si -18.32963 -7.46762 27.83388
Si -16.97187 -8.82537 29.19162
Si -16.97187 -6.10987 31.90713
Si -19.68738 -8.82537 31.90713
Si -19.68738 -6.10987 29.19162
Si -21.04513 -4.75212 16.97188
Si -18.32963 -4.75212 19.68737
Si -21.04513 -2.03662 19.68737
Si -18.32963 -2.03662 16.97188
Si -16.97187 -3.39437 18.32963
Si -16.97187 -0.67888 21.04513
Si -19.68738 -3.39437 21.04513
Si -19.68738 -0.67888 18.32963
Si -21.04513 -4.75212 22.40287
Si -18.32963 -4.75212 25.11837
Si -21.04513 -2.03662 25.11837
Si -18.32963 -2.03662 22.40287
Si -16.97187 -3.39437 23.76062
Si -16.97187 -0.67888 26.47612
Si -19.68738 -3.39437 26.47612
Si -19.68738 -0.67888 23.76062
Si -21.04513 -4.75212 27.83388
Si -18.32963 -4.75212 30.54938
Si -21.04513 -2.03662 30.54938
Si -18.32963 -2.03662 27.83388
Si -16.97187 -3.39437 29.19162
Si -16.97187 -0.67888 31.90713
Si -19.68738 -3.39437 31.90713
Si -19.68738 -0.67888 29.19162
Si -15.61412 -21.04513 16.97188
Si -12.89862 -21.04513 19.68737
Si -15.61412 -18.32963 19.68737
Si -12.89862 -18.32963 16.97188
Si -11.54087 -19.68738 18.32963
Si -11.54087 -16.97187 21.04513
Si -14.25638 -19.68738 21.04513
Si -14.25638 -16.97187 18.32963
Si -15.61412 -21.04513 22.40287
Si -12.89862 -21.04513 25.11837
Si -15.61412 -18.32963 25.11837
Si -12.89862 -18.32963 22.40287
Si -11.54087 -19.68738 23.76062
Si -11.54087 -16.97187 26.47612
Si -14.25638 -19.68738 26.47612
Si -14.25638 -16.97187 23.76062
Si -15.61412 -21.04513 27.83388
Si -12.89862 -21.04513 30.54938
Si -15.61412 -18.32963 30.54938
Si -12.89862 -18.32963 27.83388
Si -11.54087 -19.68738 29.19162
Si -11.54087 -16.97187 31.90713
Si -14.25638 -19.68738 31.90713
Si -14.25638 -16.97187 29.19162
Si -15.61412 -15.61412 16.97188
Si -12.89862 -15.61412 19.68737
Si -15.61412 -12.89862 19.68737
Si -12.89862 -12.89862 16.97188
Si -11.54087 -14.25638 18.32963
Si -11.54087 -11.54087 21.04513
Si -14.25638 -14.25638 21.04513
Si -14.25638 -11.54087 18.32963
Si -15.61412 -15.61412 22.40287
Si -12.89862 -15.61412 25.11837
Si -15.61412 -12.89862 25.11837
Si -12.89862 -12.89862 22.40287
Si -11.54087 -14.25638 23.76062
Si -11.54087 -11.54087 26.47612
Si -14.25638 -14.25638 26.47612
Si -14.25638 -11.54087 23.76062
Si -15.61412 -15.61412 27.83388
Si -12.89862 -15.61412 30.54938
Si -15.61412 -12.89862 30.54938
Si -12.89862 -12.89862 27.83388
Si -11.54087 -14.25638 29.19162
Si -11.54087 -11.54087 31.90713
Si -14.25638 -14.25638 31.90713
Si -14.25638 -11.54087 29.19162
Si -15.61412 -10.18312 16.97188
Si -12.89862 -10.18312 19.68737
Si -15.61412 -7.46762 19.68737
Si -12.89862 -7.46762 16.97188
Si -11.54087 -8.82537 18.32963
Si -11.54087 -6.10987 21.04513
Si -14.25638 -8.82537 21.04513
Si -14.25638 -6.10987 18.32963
Si -15.61412 -10.18312 22.40287
Si -12.89862 -10.18312 25.11837
Si -15.61412 -7.46762 25.11837
Si -12.89862 -7.46762 22.40287
Si -11.54087 -8.82537 23.76062
Si -11.54087 -6.10987 26.47612
Si -14.25638 -8.82537 26.47612
Si -14.25638 -6.10987 23.76062
Si -15.61412 -10.18312 27.83388
Si -12.89862 -10.18312 30.54938
Si -15.61412 -7.46762 30.54938
Si -12.89862 -7.46762 27.83388
Si -11.54087 -8.82537 29.19162
Si -11.54087 -6.10987 31.90713
Si -14.25638 -8.82537 31.90713
Si -14.25638 -6.10987 29.19162
Si -15.61412 -4.75212 16.97188
Si -12.89862 -4.75212 19.68737
Si -15.61412 -2.03662 19.68737
Si -12.89862 -2.03662 16.97188
Si -11.54087 -3.39437 18.32963
Si -11.54087 -0.67888 21.04513
Si -14.25638 -3.39437 21.04513
Si -14.25638 -0.67888 18.32963
Si -15.61412 -4.75212 22.40287
Si -12.89862 -4.75212 25.11837
Si -15.61412 -2.03662 25.11837
Si -12.89862 -2.03662 22.40287
Si -11.54087 -3.39437 23.76062
Si -11.54087 -0.67888 26.47612
Si -14.25638 -3.39437 26.47612
Si -14.25638 -0.67888 23.76062
Si -15.61412 -4.75212 27.83388
Si -12.89862 -4.75212 30.54938
Si -15.61412 -2.03662 30.54938
Si -12.89862 -2.03662 27.83388
Si -11.54087 -3.39437 29.19162
Si -11.54087 -0.67888 31.90713
Si -14.25638 -3.39437 31.90713
Si -14.25638 -0.67888 29.19162
Si -10.18312 -21.04513 16.97188
Si -7.46762 -21.04513 19.68737
Si -10.18312 -18.32963 19.68737
Si -7.46762 -18.32963 16.97188
Si -6.10987 -19.68738 18.32963
Si -6.10987 -16.97187 21.04513
Si -8.82537 -19.68738 21.04513
Si -8.82537 -16.97187 18.32963
Si -10.18312 -21.04513 22.40287
Si -7.46762 -21.04513 25.11837
Si -10.18312 -18.32963 25.11837
Si -7.46762 -18.32963 22.40287
Si -6.10987 -19.68738 23.76062
Si -6.10987 -16.97187 26.47612
Si -8.82537 -19.68738 26.47612
Si -8.82537 -16.97187 23.76062
Si -10.18312 -21.04513 27.83388
Si -7.46762 -21.04513 30.54938
Si -10.18312 -18.32963 30.54938
Si -7.46762 -18.32963 27.83388
Si -6.10987 -19.68738 29.19162
Si -6.10987 -16.97187 31.90713
Si -8.82537 -19.68738 31.90713
Si -8.82537 -16.97187 29.19162
Si -10.18312 -15.61412 16.97188
Si -7.46762 -15.61412 19.68737
Si -10.18312 -12.89862 19.68737
Si -7.46762 -12.89862 16.97188
Si -6.10987 -14.25638 18.32963
Si -6.10987 -11.54087 21.04513
Si -8.82537 -14.25638 21.04513
Si -8.82537 -11.54087 18.32963
Si -10.18312 -15.61412 22.40287
Si -7.46762 -15.61412 25.11837
Si -10.18312 -12.89862 25.11837
Si -7.46762 -12.89862 22.40287
Si -6.10987 -14.25638 23.76062
Si -6.10987 -11.54087 26.47612
Si -8.82537 -14.25638 26.47612
Si -8.82537 -11.54087 23.76062
Si -10.18312 -15.61412 27.83388
Si -7.46762 -15.61412 30.54938
Si -10.18312 -12.89862 30.54938
Si -7.46762 -12.89862 27.83388
Si -6.10987 -14.25638 29.19162
Si -6.10987 -11.54087 31.90713
Si -8.82537 -14.25638 31.90713
Si -8.82537 -11.54087 29.19162
Si -10.18312 -10.18312 16.97188
Si -7.46762 -10.18312 19.68737
Si -10.18312 -7.46762 19.68737
Si -7.46762 -7.46762 16.97188
Si -6.10987 -8.82537 18.32963
Si -6.10987 -6.10987 21.04513
Si -8.82537 -8.82537 21.04513
Si -8.82537 -6.10987 18.32963
Si -10.18312 -10.18312 22.40287
Si -7.46762 -10.18312 25.11837
Si -10.18312 -7.46762 25.11837
Si -7.46762 -7.46762 22.40287
Si -6.10987 -8.82537 23.76062
Si -6.10987 -6.10987 26.47612
Si -8.82537 -8.82537 26.47612
Si -8.82537 -6.10987 23.76062
Si -10.18312 -10.18312 27.83388
Si -7.46762 -10.18312 30.54938
Si -10.18312 -7.46762 30.54938
Si -7.46762 -7.46762 27.83388
Si -6.10987 -8.82537 29.19162
Si -6.10987 -6.10987 31.90713
Si -8.82537 -8.82537 31.90713
Si -8.82537 -6.10987 29.19162
Si -10.18312 -4.75212 16.97188
Si -7.46762 -4.75212 19.68737
Si -10.18312 -2.03662 19.68737
Si -7.46762 -2.03662 16.97188
Si -6.10987 -3.39437 18.32963
Si -6.10987 -0.67888 21.04513
Si -8.82537 -3.39437 21.04513
Si -8.82537 -0.67888 18.32963
Si -10.18312 -4.75212 22.40287
Si -7.46762 -4.75212 25.11837
Si -10.18312 -2.03662 25.11837
Si -7.46762 -2.03662 22.40287
Si -6.10987 -3.39437 23.76062
Si -6.10987 -0.67888 26.47612
Si -8.82537 -3.39437 26.47612
Si -8.82537 -0.67888 23.76062
Si -10.18312 -4.75212 27.83388
Si -7.46762 -4.75212 30.54938
Si -10.18312 -2.03662 30.54938
Si -7.46762 -2.03662 27.83388
Si -6.10987 -3.39437 29.19162
Si -6.10987 -0.67888 31.90713
Si -8.82537 -3.39437 31.90713
Si -8.82537 -0.67888 29.19162
Si -4.75212 -21.04513 16.97188
Si -2.03662 -21.04513 19.68737
Si -4.75212 -18.32963 19.68737
Si -2.03662 -18.32963 16.97188
Si -0.67888 -19.68738 18.32963
Si -0.67888 -16.97187 21.04513
Si -3.39437 -19.68738 21.04513
Si -3.39437 -16.97187 18.32963
Si -4.75212 -21.04513 22.40287
Si -2.03662 -21.04513 25.11837
Si -4.75212 -18.32963 25.11837
Si -2.03662 -18.32963 22.40287
Si -0.67888 -19.68738 23.76062
Si -0.67888 -16.97187 26.47612
Si -3.39437 -19.68738 26.47612
Si -3.39437 -16.97187 23.76062
Si -4.75212 -21.04513 27.83388
Si -2.03662 -21.04513 30.54938
Si -4.75212 -18.32963 30.54938
Si -2.03662 -18.32963 27.83388
Si -0.67888 -19.68738 29.19162
Si -0.67888 -16.97187 31.90713
Si -3.39437 -19.68738 31.90713
Si -3.39437 -16.97187 29.19162
Si -4.75212 -15.61412 16.97188
Si -2.03662 -15.61412 19.68737
Si -4.75212 -12.89862 19.68737
Si -2.03662 -12.89862 16.97188
Si -0.67888 -14.25638 18.32963
Si -0.67888 -11.54087 21.04513
Si -3.39437 -14.25638 21.04513
Si -3.39437 -11.54087 18.32963
Si -4.75212 -15.61412 22.40287
Si -2.03662 -15.61412 25.11837
Si -4.75212 -12.89862 25.11837
Si -2.03662 -12.89862 22.40287
Si -0.67888 -14.25638 23.76062
Si -0.67888 -11.54087 26.47612
Si -3.39437 -14.25638 26.47612
Si -3.39437 -11.54087 23.76062
Si -4.75212 -15.61412 27.83388
Si -2.03662 -15.61412 30.54938
Si -4.75212 -12.89862 30.54938
Si -2.03662 -12.89862 27.83388
Si -0.67888 -14.25638 29.19162
Si -0.67888 -11.54087 31.90713
Si -3.39437 -14.25638 31.90713
Si -3.39437 -11.54087 29.19162
Si -4.75212 -10.18312 16.97188
Si -2.03662 -10.18312 19.68737
Si -4.75212 -7.46762 19.68737
Si -2.03662 -7.46762 16.97188
Si -0.67888 -8.82537 18.32963
Si -0.67888 -6.10987 21.04513
Si -3.39437 -8.82537 21.04513
Si -3.39437 -6.10987 18.32963
Si -4.75212 -10.18312 22.40287
Si -2.03662 -10.18312 25.11837
Si -4.75212 -7.46762 25.11837
Si -2.03662 -7.46762 22.40287
Si -0.67888 -8.82537 23.76062
Si -0.67888 -6.10987 26.47612
Si -3.39437 -8.82537 26.47612
Si -3.39437 -6.10987 23.76062
Si -4.75212 -10.18312 27.83388
Si -2.03662 -10.18312 30.54938
Si -4.75212 -7.46762 30.54938
Si -2.03662 -7.46762 27.83388
Si -0.67888 -8.82537 29.19162
Si -0.67888 -6.10987 31.90713
Si -3.39437 -8.82537 31.90713
Si -3.39437 -6.10987 29.19162
Si -4.75212 -4.75212 16.97188
Si -2.03662 -4.75212 19.68737
Si -4.75212 -2.03662 19.68737
Si -2.03662 -2.03662 16.97188
Si -0.67888 -3.39437 18.32963
Si -0.67888 -0.67888 21.04513
Si -3.39437 -3.39437 21.04513
Si -3.39437 -0.67888 18.32963
Si -4.75212 -4.75212 22.40287
Si -2.03662 -4.75212 25.11837
Si -4.75212 -2.03662 25.11837
Si -2.03662 -2.03662 22.40287
Si -0.67888 -3.39437 23.76062
Si -0.67888 -0.67888 26.47612
Si -3.39437 -3.39437 26.47612
Si -3.39437 -0.67888 23.76062
Si -4.75212 -4.75212 27.83388
Si -2.03662 -4.75212 30.54938
Si -4.75212 -2.03662 30.54938
Si -2.03662 -2.03662 27.83388
Si -0.67888 -3.39437 29.19162
Si -0.67888 -0.67888 31.90713
Si -3.39437 -3.39437 31.90713
Si -3.39437 -0.67888 29.19162
Si -21.04513  0.67887 -15.61412
Si -18.32963  0.67887 -12.89863
Si -21.04513  3.39437 -12.89863
Si -18.32963  3.39437 -15.61412
Si -16.97187  2.03662 -14.25638
Si -16.97187  4.75212 -11.54087
Si -19.68738  2.03662 -11.54087
Si -19.68738  4.75212 -14.25638
Si -21.04513  0.67887 -10.18313
Si -18.32963  0.67887 -7.46763
Si -21.04513  3.39437 -7.46763
Si -18.32963  3.39437 -10.18313
Si -16.97187  2.03662 -8.82538
Si -16.97187  4.75212 -6.10987
Si -19.68738  2.03662 -6.10987
Si -19.68738  4.75212 -8.82538
Si -21.04513  0.67887 -4.75212
Si -18.32963  0.67887 -2.03662
Si -21.04513  3.39437 -2.03662
Si -18.32963  3.39437 -4.75212
Si -16.97187  2.03662 -3.39438
Si -16.97187  4.75212 -0.67887
Si -19.68738  2.03662 -0.67887
Si -19.68738  4.75212 -3.39438
Si -21.04513  6.10987 -15.61412
Si -18.32963  6.10987 -12.89863
Si -21.04513  8.82537 -12.89863
Si -18.32963  8.82537 -15.61412
Si -16.97187  7.46762 -14.25638
Si -16.97187 10.18313 -11.54087
Si -19.68738  7.46762 -11.54087
Si -19.68738 10.18313 -14.25638
Si -21.04513  6.10987 -10.18313
Si -18.32963  6.10987 -7.46763
Si -21.04513  8.82537 -7.46763
Si -18.32963  8.82537 -10.18313
Si -16.97187  7.46762 -8.82538
Si -16.97187 10.18313 -6.10987
Si -19.68738  7.46762 -6.10987
Si -19.68738 10.18313 -8.82538
Si -21.04513  6.10987 -4.75212
Si -18.32963  6.10987 -2.03662
Si -21.04513  8.82537 -2.03662
Si -18.32963  8.82537 -4.75212
Si -16.97187  7.46762 -3.39438
Si -16.97187 10.18313 -0.67887
Si -19.68738  7.46762 -0.67887
Si -19.68738 10.18313 -3.39438
Si -21.04513 11.54087 -15.61412
Si -18.32963 11.54087 -12.89863
Si -21.04513 14.25638 -12.89863
Si -18.32963 14.25638 -15.61412
Si -16.97187 12.89862 -14.25638
Si -16.97187 15.61413 -11.54087
Si -19.68738 12.89862 -11.54087
Si -19.68738 15.61413 -14.25638
Si -21.04513 11.54087 -10.18313
Si -18.32963 11.54087 -7.46763
Si -21.04513 14.25638 -7.46763
Si -18.32963 14.25638 -10.18313
Si -16.97187 12.89862 -8.82538
Si -16.97187 15.61413 -6.10987
Si -19.68738 12.89862 -6.10987
Si -19.68738 15.61413 -8.82538
Si -21.04513 11.54087 -4.75212
Si -18.32963 11.54087 -2.03662
Si -21.04513 14.25638 -2.03662
Si -18.32963 14.25638 -4.75212
Si -16.97187 12.89862 -3.39438
Si -16.97187 15.61413 -0.67887
Si -19.68738 12.89862 -0.67887
Si -19.68738 15.61413 -3.39438
Si -21.04513 16.97188 -15.61412
Si -18.32963 16.97188 -12.89863
Si -21.04513 19.68738 -12.89863
Si -18.32963 19.68738 -15.61412
Si -16.97187 18.32963 -14.25638
Si -16.97187 21.04512 -11.54087
Si -19.68738 18.32963 -11.54087
Si -19.68738 21.04512 -14.25638
Si -21.04513 16.97188 -10.18313
Si -18.32963 16.97188 -7.46763
Si -21.04513 19.68738 -7.46763
Si -18.32963 19.68738 -10.18313
Si -16.97187 18.32963 -8.82538
Si -16.97187 21.04512 -6.10987
Si -19.68738 18.32963 -6.10987
Si -19.68738 21.04512 -8.82538
Si -21.04513 16.97188 -4.75212
Si -18.32963 16.97188 -2.03662
Si -21.04513 19.68738 -2.03662
Si -18.32963 19.68738 -4.75212
Si -16.97187 18.32963 -3.39438
Si -16.97187 21.04512 -0.67887
Si -19.68738 18.32963 -0.67887
Si -19.68738 21.04512 -3.39438
Si -15.61412  0.67887 -15.61412
Si -12.89862  0.67887 -12.89863
Si -15.61412  3.39437 -12.89863
Si -12.89862  3.39437 -15.61412
Si -11.54087  2.03662 -14.25638
Si -11.54087  4.75212 -11.54087
Si -14.25638  2.03662 -11.54087
Si -14.25638  4.75212 -14.25638
Si -15.61412  0.67887 -10.18313
Si -12.89862  0.67887 -7.46763
Si -15.61412  3.39437 -7.46763
Si -12.89862  3.39437 -10.18313
Si -11.54087  2.03662 -8.82538
Si -11.54087  4.75212 -6.10987
Si -14.25638  2.03662 -6.10987
Si -14.25638  4.75212 -8.82538
Si -15.61412  0.67887 -4.75212
Si -12.89862  0.67887 -2.03662
Si -15.61412  3.39437 -2.03662
Si -12.89862  3.39437 -4.75212
Si -11.54087  2.03662 -3.39438
Si -11.54087  4.75212 -0.67887
Si -14.25638  2.03662 -0.67887
Si -14.25638  4.75212 -3.39438
Si -15.61412  6.10987 -15.61412
Si -12.89862  6.10987 -12.89863
Si -15.61412  8.82537 -12.89863
Si -12.89862  8.82537 -15.61412
Si -11.54087  7.46762 -14.25638
Si -11.54087 10.18313 -11.54087
Si -14.25638  7.46762 -11.54087
Si -14.25638 10.18313 -14.25638
Si -15.61412  6.10987 -10.18313
Si -12.89862  6.10987 -7.46763
Si -15.61412  8.82537 -7.46763
Si -12.89862  8.82537 -10.18313
Si -11.54087  7.46762 -8.82538
Si -11.54087 10.18313 -6.10987
Si -14.25638  7.46762 -6.10987
Si -14.25638 10.18313 -8.82538
Si -15.61412  6.10987 -4.75212
Si -12.89862  6.10987 -2.03662
Si -15.61412  8.82537 -2.03662
Si -12.89862  8.82537 -4.75212
Si -11.54087  7.46762 -3.39438
Si -11.54087 10.18313 -0.67887
Si -14.25638  7.46762 -0.67887
Si -14.25638 10.18313 -3.39438
Si -15.61412 11.54087 -15.61412
Si -12.89862 11.54087 -12.89863
Si -15.61412 14.25638 -12.89863
Si -12.89862 14.25638 -15.61412
Si -11.54087 12.89862 -14.25638
Si -11.54087 15.61413 -11.54087
Si -14.25638 12.89862 -11.54087
Si -14.25638 15.61413 -14.25638
Si -15.61412 11.54087 -10.18313
Si -12.89862 11.54087 -7.46763
Si -15.61412 14.25638 -7.46763
Si -12.89862 14.25638 -10.18313
Si -11.54087 12.89862 -8.82538
Si -11.54087 15.61413 -6.10987
Si -14.25638 12.89862 -6.10987
Si -14.25638 15.61413 -8.82538
Si -15.61412 11.54087 -4.75212
Si -12.89862 11.54087 -2.03662
Si -15.61412 14.25638 -2.03662
Si -12.89862 14.25638 -4.75212
Si -11.54087 12.89862 -3.39438
Si -11.54087 15.61413 -0.67887
Si -14.25638 12.89862 -0.67887
Si -14.25638 15.61413 -3.39438
Si -15.61412 16.97188 -15.61412
Si -12.89862 16.97188 -12.89863
Si -15.61412 19.68738 -12.89863
Si -12.89862 19.68738 -15.61412
Si -11.54087 18.32963 -14.25638
Si -11.54087 21.04512 -11.54087
Si -14.25638 18.32963 -11.54087
Si -14.25638 21.04512 -14.25638
Si -15.61412 16.97188 -10.18313
Si -12.89862 16.97188 -7.46763
Si -15.61412 19.68738 -7.46763
Si -12.89862 19.68738 -10.18313
Si -11.54087 18.32963 -8.82538
Si -11.54087 21.04512 -6.10987
Si -14.25638 18.32963 -6.10987
Si -14.25638 21.04512 -8.82538
Si -15.61412 16.97188 -4.75212
Si -12.89862 16.97188 -2.03662
Si -15.61412 19.68738 -2.03662
Si -12.89862 19.68738 -4.75212
Si -11.54087 18.32963 -3.39438
Si -11.54087 21.04512 -0.67887
Si -14.25638 18.32963 -0.67887
Si -14.25638 21.04512 -3.39438
Si -10.18312  0.67887 -15.61412
Si -7.46762  0.67887 -12.89863
Si -10.18312  3.39437 -12.89863
Si -7.46762  3.39437 -15.61412
Si -6.10987  2.03662 -14.25638
Si -6.10987  4.75212 -11.54087
Si -8.82537  2.03662 -11.54087
Si -8.82537  4.75212 -14.25638
Si -10.18312  0.67887 -10.18313
Si -7.46762  0.67887 -7.46763
Si -10.18312  3.39437 -7.46763
Si -7.46762  3.39437 -10.18313
Si -6.10987  2.03662 -8.82538
Si -6.10987  4.75212 -6.10987
Si -8.82537  2.03662 -6.10987
Si -8.82537  4.75212 -8.82538
Si -10.18312  0.67887 -4.75212
Si -7.46762  0.67887 -2.03662
Si -10.18312  3.39437 -2.03662
Si -7.46762  3.39437 -4.75212
Si -6.10987  2.03662 -3.39438
Si -6.10987  4.75212 -0.67887
Si -8.82537  2.03662 -0.67887
Si -8.82537  4.75212 -3.39438
Si -10.18312  6.10987 -15.61412
Si -7.46762  6.10987 -12.89863
Si -10.18312  8.82537 -12.89863
Si -7.46762  8.82537 -15.61412
Si -6.10987  7.46762 -14.25638
Si -6.10987 10.18313 -11.54087
Si -8.82537  7.46762 -11.54087
Si -8.82537 10.18313 -14.25638
Si -10.18312  6.10987 -10.18313
Si -7.46762  6.10987 -7.46763
Si -10.18312  8.82537 -7.46763
Si -7.46762  8.82537 -10.18313
Si -6.10987  7.46762 -8.82538
Si -6.10987 10.18313 -6.10987
Si -8.82537  7.46762 -6.10987
Si -8.82537 10.18313 -8.82538
Si -10.18312  6.10987 -4.75212
Si -7.46762  6.10987 -2.03662
Si -10.18312  8.82537 -2.03662
Si -7.46762  8.82537 -4.75212
Si -6.10987  7.46762 -3.39438
Si -6.10987 10.18313 -0.67887
Si -8.82537  7.46762 -0.67887
Si -8.82537 10.18313 -3.39438
Si -10.18312 11.54087 -15.61412
Si -7.46762 11.54087 -12.89863
Si -10.18312 14.25638 -12.89863
Si -7.46762 14.25638 -15.61412
Si -6.10987 12.89862 -14.25638
Si -6.10987 15.61413 -11.54087
Si -8.82537 12.89862 -11.54087
Si -8.82537 15.61413 -14.25638
Si -10.18312 11.54087 -10.18313
Si -7.46762 11.54087 -7.46763
Si -10.18312 14.25638 -7.46763
Si -7.46762 14.25638 -10.18313
Si -6.10987 12.89862 -8.82538
Si -6.10987 15.61413 -6.10987
Si -8.82537 12.89862 -6.10987
Si -8.82537 15.61413 -8.82538
Si -10.18312 11.54087 -4.75212
Si -7.46762 11.54087 -2.03662
Si -10.18312 14.25638 -2.03662
Si -7.46762 14.25638 -4.75212
Si -6.10987 12.89862 -3.39438
Si -6.10987 15.61413 -0.67887
Si -8.82537 12.89862 -0.67887
Si -8.82537 15.61413 -3.39438
Si -10.18312 16.97188 -15.61412
Si -7.46762 16.97188 -12.89863
Si -10.18312 19.68738 -12.89863
Si -7.46762 19.68738 -15.61412
Si -6.10987 18.32963 -14.25638
Si -6.10987 21.04512 -11.54087
Si -8.82537 18.32963 -11.54087
Si -8.82537 21.04512 -14.25638
Si -10.18312 16.97188 -10.18313
Si -7.46762 16.97188 -7.46763
Si -10.18312 19.68738 -7.46763
Si -7.46762 19.68738 -10.18313
Si -6.10987 18.32963 -8.82538
Si -6.10987 21.04512 -6.10987
Si -8.82537 18.32963 -6.10987
Si -8.82537 21.04512 -8.82538
Si -10.18312 16.97188 -4.75212
Si -7.46762 16.97188 -2.03662
Si -10.18312 19.68738 -2.03662
Si -7.46762 19.68738 -4.75212
Si -6.10987 18.32963 -3.39438
Si -6.10987 21.04512 -0.67887
Si -8.82537 18.32963 -0.67887
Si -8.82537 21.04512 -3.39438
Si -4.75212  0.67887 -15.61412
Si -2.03662  0.67887 -12.89863
Si -4.75212  3.39437 -12.89863
Si -2.03662  3.39437 -15.61412
Si -0.67888  2.03662 -14.25638
Si -0.67888  4.75212 -11.54087
Si -3.39437  2.03662 -11.54087
Si -3.39437  4.75212 -14.25638
Si -4.75212  0.67887 -10.18313
Si -2.03662  0.67887 -7.46763
Si -4.75212  3.39437 -7.46763
Si -2.03662  3.39437 -10.18313
Si -0.67888  2.03662 -8.82538
Si -0.67888  4.75212 -6.10987
Si -3.39437  2.03662 -6.10987
Si -3.39437  4.75212 -8.82538
Si -4.75212  0.67887 -4.75212
Si -2.03662  0.67887 -2.03662
Si -4.75212  3.39437 -2.03662
Si -2.03662  3.39437 -4.75212
Si -0.67888  2.03662 -3.39438
Si -0.67888  4.75212 -0.67887
Si -3.39437  2.03662 -0.67887
Si -3.39437  4.75212 -3.39438
Si -4.75212  6.10987 -15.61412
Si -2.03662  6.10987 -12.89863
Si -4.75212  8.82537 -12.89863
Si -2.03662  8.82537 -15.61412
Si -0.67888  7.46762 -14.25638
Si -0.67888 10.18313 -11.54087
Si -3.39437  7.46762 -11.54087
Si -3.39437 10.18313 -14.25638
Si -4.75212  6.10987 -10.18313
Si -2.03662  6.10987 -7.46763
Si -4.75212  8.82537 -7.46763
Si -2.03662  8.82537 -10.18313
Si -0.67888  7.46762 -8.82538
Si -0.67888 10.18313 -6.10987
Si -3.39437  7.46762 -6.10987
Si -3.39437 10.18313 -8.82538
Si -4.75212  6.10987 -4.75212
Si -2.03662  6.10987 -2.03662
Si -4.75212  8.82537 -2.03662
Si -2.03662  8.82537 -4.75212
Si -0.67888  7.46762 -3.39438
Si -0.67888 10.18313 -0.67887
Si -3.39437  7.46762 -0.67887
Si -3.39437 10.18313 -3.39438
Si -4.75212 11.54087 -15.61412
Si -2.03662 11.54087 -12.89863
Si -4.75212 14.25638 -12.89863
Si -2.03662 14.25638 -15.61412
Si -0.67888 12.89862 -14.25638
Si -0.67888 15.61413 -11.54087
Si -3.39437 12.89862 -11.54087
Si -3.39437 15.61413 -14.25638
Si -4.75212 11.54087 -10.18313
Si -2.03662 11.54087 -7.46763
Si -4.75212 14.25638 -7.46763
Si -2.03662 14.25638 -10.18313
Si -0.67888 12.89862 -8.82538
Si -0.67888 15.61413 -6.10987
Si -3.39437 12.89862 -6.10987
Si -3.39437 15.61413 -8.82538
Si -4.75212 11.54087 -4.75212
Si -2.03662 11.54087 -2.03662
Si -4.75212 14.25638 -2.03662
Si -2.03662 14.25638 -4.75212
Si -0.67888 12.89862 -3.39438
Si -0.67888 15.61413 -0.67887
Si -3.39437 12.89862 -0.67887
Si -3.39437 15.61413 -3.39438
Si -4.75212 16.97188 -15.61412
Si -2.03662 16.97188 -12.89863
Si -4.75212 19.68738 -12.89863
Si -2.03662 19.68738 -15.61412
Si -0.67888 18.32963 -14.25638
Si -0.67888 21.04512 -11.54087
Si -3.39437 18.32963 -11.54087
Si -3.39437 21.04512 -14.25638
Si -4.75212 16.97188 -10.18313
Si -2.03662 16.97188 -7.46763
Si -4.75212 19.68738 -7.46763
Si -2.03662 19.68738 -10.18313
Si -0.67888 18.32963 -8.82538
Si -0.67888 21.04512 -6.10987
Si -3.39437 18.32963 -6.10987
Si -3.39437 21.04512 -8.82538
Si -4.75212 16.97188 -4.75212
Si -2.03662 16.97188 -2.03662
Si -4.75212 19.68738 -2.03662
Si -2.03662 19.68738 -4.75212
Si -0.67888 18.32963 -3.39438
Si -0.67888 21.04512 -0.67887
Si -3.39437 18.32963 -0.67887
Si -3.39437 21.04512 -3.39438
Si -21.04513  0.67887  0.67888
Si -18.32963  0.67887  3.39437
Si -21.04513  3.39437  3.39437
Si -18.32963  3.39437  0.67888
Si -16.97187  2.03662  2.03662
Si -16.97187  4.75212  4.75213
Si -19.68738  2.03662  4.75213
Si -19.68738  4.75212  2.03662
Si -21.04513  0.67887  6.10987
Si -18.32963  0.67887  8.82537
Si -21.04513  3.39437  8.82537
Si -18.32963  3.39437  6.10987
Si -16.97187  2.03662  7.46762
Si -16.97187  4.75212 10.18313
Si -19.68738  2.03662 10.18313
Si -19.68738  4.75212  7.46762
Si -21.04513  0.67887 11.54087
Si -18.32963  0.67887 14.25638
Si -21.04513  3.39437 14.25638
Si -18.32963  3.39437 11.54087
Si -16.97187  2.03662 12.89862
Si -16.97187  4.75212 15.61413
Si -19.68738  2.03662 15.61413
Si -19.68738  4.75212 12.89862
Si -21.04513  6.10987  0.67888
Si -18.32963  6.10987  3.39437
Si -21.04513  8.82537  3.39437
Si -18.32963  8.82537  0.67888
Si -16.97187  7.46762  2.03662
Si -16.97187 10.18313  4.75213
Si -19.68738  7.46762  4.75213
Si -19.68738 10.18313  2.03662
Si -21.04513  6.10987  6.10987
Si -18.32963  6.10987  8.82537
Si -21.04513  8.82537  8.82537
Si -18.32963  8.82537  6.10987
Si -16.97187  7.46762  7.46762
Si -16.97187 10.18313 10.18313
Si -19.68738  7.46762 10.18313
Si -19.68738 10.18313  7.46762
Si -21.04513  6.10987 11.54087
Si -18.32963  6.10987 14.25638
Si -21.04513  8.82537 14.25638
Si -18.32963  8.82537 11.54087
Si -16.97187  7.46762 12.89862
Si -16.97187 10.18313 15.61413
Si -19.68738  7.46762 15.61413
Si -19.68738 10.18313 12.89862
Si -21.04513 11.54087  0.67888
Si -18.32963 11.54087  3.39437
Si -21.04513 14.25638  3.39437
Si -18.32963 14.25638  0.67888
Si -16.97187 12.89862  2.03662
Si -16.97187 15.61413  4.75213
Si -19.68738 12.89862  4.75213
Si -19.68738 15.61413  2.03662
Si -21.04513 11.54087  6.10987
Si -18.32963 11.54087  8.82537
Si -21.04513 14.25638  8.82537
Si -18.32963 14.25638  6.10987
Si -16.97187 12.89862  7.46762
Si -16.97187 15.61413 10.18313
Si -19.68738 12.89862 10.18313
Si -19.68738 15.61413  7.46762
Si -21.04513 11.54087 11.54087
Si -18.32963 11.54087 14.25638
Si -21.04513 14.25638 14.25638
Si -18.32963 14.25638 11.54087
Si -16.97187 12.89862 12.89862
Si -16.97187 15.61413 15.61413
Si -19.68738 12.89862 15.61413
Si -19.68738 15.61413 12.89862
Si -21.04513 16.97188  0.67888
Si -18.32963 16.97188  3.39437
Si -21.04513 19.68738  3.39437
Si -18.32963 19.68738  0.67888
Si -16.97187 18.32963  2.03662
Si -16.97187 21.04512  4.75213
Si -19.68738 18.32963  4.75213
Si -19.68738 21.04512  2.03662
Si -21.04513 16.97188  6.10987
Si -18.32963 16.97188  8.82537
Si -21.04513 19.68738  8.82537
Si -18.32963 19.68738  6.10987
Si -16.97187 18.32963  7.46762
Si -16.97187 21.04512 10.18313
Si -19.68738 18.32963 10.18313
Si -19.68738 21.04512  7.46762
Si -21.04513 16.97188 11.54087
Si -18.32963 16.97188 14.25638
Si -21.04513 19.68738 14.25638
Si -18.32963 19.68738 11.54087
Si -16.97187 18.32963 12.89862
Si -16.97187 21.04512 15.61413
Si -19.68738 18.32963 15.61413
Si -19.68738 21.04512 12.89862
Si -15.61412  0.67887  0.67888
Si -12.89862  0.67887  3.39437
Si -15.61412  3.39437  3.39437
Si -12.89862  3.39437  0.67888
Si -11.54087  2.03662  2.03662
Si -11.54087  4.75212  4.75213
Si -14.25638  2.03662  4.75213
Si -14.25638  4.75212  2.03662
Si -15.61412  0.67887  6.10987
Si -12.89862  0.67887  8.82537
Si -15.61412  3.39437  8.82537
Si -12.89862  3.39437  6.10987
Si -11.54087  2.03662  7.46762
Si -11.54087  4.75212 10.18313
Si -14.25638  2.03662 10.18313
Si -14.25638  4.75212  7.46762
Si -15.61412  0.67887 11.54087
Si -12.89862  0.67887 14.25638
Si -15.61412  3.39437 14.25638
Si -12.89862  3.39437 11.54087
Si -11.54087  2.03662 12.89862
Si -11.54087  4.75212 15.61413
Si -14.25638  2.03662 15.61413
Si -14.25638  4.75212 12.89862
Si -15.61412  6.10987  0.67888
Si -12.89862  6.10987  3.39437
Si -15.61412  8.82537  3.39437
Si -12.89862  8.82537  0.67888
Si -11.54087  7.46762  2.03662
Si -11.54087 10.18313  4.75213
Si -14.25638  7.46762  4.75213
Si -14.25638 10.18313  2.03662
Si -15.61412  6.10987  6.10987
Si -12.89862  6.10987  8.82537
Si -15.61412  8.82537  8.82537
Si -12.89862  8.82537  6.10987
Si -11.54087  7.46762  7.46762
Si -11.54087 10.18313 10.18313
Si -14.25638  7.46762 10.18313
Si -14.25638 10.18313  7.46762
Si -15.61412  6.10987 11.54087
Si -12.89862  6.10987 14.25638
Si -15.61412  8.82537 14.25638
Si -12.89862  8.82537 11.54087
Si -11.54087  7.46762 12.89862
Si -11.54087 10.18313 15.61413
Si -14.25638  7.46762 15.61413
Si -14.25638 10.18313 12.89862
Si -15.61412 11.54087  0.67888
Si -12.89862 11.54087  3.39437
Si -15.61412 14.25638  3.39437
Si -12.89862 14.25638  0.67888
Si -11.54087 12.89862  2.03662
Si -11.54087 15.61413  4.75213
Si -14.25638 12.89862  4.75213
Si -14.25638 15.61413  2.03662
Si -15.61412 11.54087  6.10987
Si -12.89862 11.54087  8.82537
Si -15.61412 14.25638  8.82537
Si -12.89862 14.25638  6.10987
Si -11.54087 12.89862  7.46762
Si -11.54087 15.61413 10.18313
Si -14.25638 12.89862 10.18313
Si -14.25638 15.61413  7.46762
Si -15.61412 11.54087 11.54087
Si -12.89862 11.54087 14.25638
Si -15.61412 14.25638 14.25638
Si -12.89862 14.25638 11.54087
Si -11.54087 12.89862 12.89862
Si -11.54087 15.61413 15.61413
Si -14.25638 12.89862 15.61413
Si -14.25638 15.61413 12.89862
Si -15.61412 16.97188  0.67888
Si -12.89862 16.97188  3.39437
Si -15.61412 19.68738  3.39437
Si -12.89862 19.68738  0.67888
Si -11.54087 18.32963  2.03662
Si -11.54087 21.04512  4.75213
Si -14.25638 18.32963  4.75213
Si -14.25638 21.04512  2.03662
Si -15.61412 16.97188  6.10987
Si -12.89862 16.97188  8.82537
Si -15.61412 19.68738  8.82537
Si -12.89862 19.68738  6.10987
Si -11.54087 18.32963  7.46762
Si -11.54087 21.04512 10.18313
Si -14.25638 18.32963 10.18313
Si -14.25638 21.04512  7.46762
Si -15.61412 16.97188 11.54087
Si -12.89862 16.97188 14.25638
Si -15.61412 19.68738 14.25638
Si -12.89862 19.68738 11.54087
Si -11.54087 18.32963 12.89862
Si -11.54087 21.04512 15.61413
Si -14.25638 18.32963 15.61413
Si -14.25638 21.04512 12.89862
Si -10.18312  0.67887  0.67888
Si -7.46762  0.67887  3.39437
Si -10.18312  3.39437  3.39437
Si -7.46762  3.39437  0.67888
Si -6.10987  2.03662  2.03662
Si -6.10987  4.75212  4.75213
Si -8.82537  2.03662  4.75213
Si -8.82537  4.75212  2.03662
Si -10.18312  0.67887  6.10987
Si -7.46762  0.67887  8.82537
Si -10.18312  3.39437  8.82537
Si -7.46762  3.39437  6.10987
Si -6.10987  2.03662  7.46762
Si -6.10987  4.75212 10.18313
Si -8.82537  2.03662 10.18313
Si -8.82537  4.75212  7.46762
Si -10.18312  0.67887 11.54087
Si -7.46762  0.67887 14.25638
Si -10.18312  3.39437 14.25638
Si -7.46762  3.39437 11.54087
Si -6.10987  2.03662 12.89862
Si -6.10987  4.75212 15.61413
Si -8.82537  2.03662 15.61413
Si -8.82537  4.75212 12.89862
Si -10.18312  6.10987  0.67888
Si -7.46762  6.10987  3.39437
Si -10.18312  8.82537  3.39437
Si -7.46762  8.82537  0.67888
Si -6.10987  7.46762  2.03662
Si -6.10987 10.18313  4.75213
Si -8.82537  7.46762  4.75213
Si -8.82537 10.18313  2.03662
Si -10.18312  6.10987  6.10987
Si -7.46762  6.10987  8.82537
Si -10.18312  8.82537  8.82537
Si -7.46762  8.82537  6.10987
Si -6.10987  7.46762  7.46762
Si -6.10987 10.18313 10.18313
Si -8.82537  7.46762 10.18313
Si -8.82537 10.18313  7.46762
Si -10.18312  6.10987 11.54087
Si -7.46762  6.10987 14.25638
Si -10.18312  8.82537 14.25638
Si -7.46762  8.82537 11.54087
Si -6.10987  7.46762 12.89862
Si -6.10987 10.18313 15.61413
Si -8.82537  7.46762 15.61413
Si -8.82537 10.18313 12.89862
Si -10.18312 11.54087  0.67888
Si -7.46762 11.54087  3.39437
Si -10.18312 14.25638  3.39437
Si -7.46762 14.25638  0.67888
Si -6.10987 12.89862  2.03662
Si -6.10987 15.61413  4.75213
Si -8.82537 12.89862  4.75213
Si -8.82537 15.61413  2.03662
Si -10.18312 11.54087  6.10987
Si -7.46762 11.54087  8.82537
Si -10.18312 14.25638  8.82537
Si -7.46762 14.25638  6.10987
Si -6.10987 12.89862  7.46762
Si -6.10987 15.61413 10.18313
Si -8.82537 12.89862 10.18313
Si -8.82537 15.61413  7.46762
Si -10.18312 11.54087 11.54087
Si -7.46762 11.54087 14.25638
Si -10.18312 14.25638 14.25638
Si -7.46762 14.25638 11.54087
Si -6.10987 12.89862 12.89862
Si -6.10987 15.61413 15.61413
Si -8.82537 12.89862 15.61413
Si -8.82537 15.61413 12.89862
Si -10.18312 16.97188  0.67888
Si -7.46762 16.97188  3.39437
Si -10.18312 19.68738  3.39437
Si -7.46762 19.68738  0.67888
Si -6.10987 18.32963  2.03662
Si -6.10987 21.04512  4.75213
Si -8.82537 18.32963  4.75213
Si -8.82537 21.04512  2.03662
Si -10.18312 16.97188  6.10987
Si -7.46762 16.97188  8.82537
Si -10.18312 19.68738  8.82537
Si -7.46762 19.68738  6.10987
Si -6.10987 18.32963  7.46762
Si -6.10987 21.04512 10.18313
Si -8.82537 18.32963 10.18313
Si -8.82537 21.04512  7.46762
Si -10.18312 16.97188 11.54087
Si -7.46762 16.97188 14.25638
Si -10.18312 19.68738 14.25638
Si -7.46762 19.68738 11.54087
Si -6.10987 18.32963 12.89862
Si -6.10987 21.04512 15.61413
Si -8.82537 18.32963 15.61413
Si -8.82537 21.04512 12.89862
Si -4.75212  0.67887  0.67888
Si -2.03662  0.67887  3.39437
Si -4.75212  3.39437  3.39437
Si -2.03662  3.39437  0.67888
Si -0.67888  2.03662  2.03662
Si -0.67888  4.75212  4.75213
Si -3.39437  2.03662  4.75213
Si -3.39437  4.75212  2.03662
Si -4.75212  0.67887  6.10987
Si -2.03662  0.67887  8.82537
Si -4.75212  3.39437  8.82537
Si -2.03662  3.39437  6.10987
Si -0.67888  2.03662  7.46762
Si -0.67888  4.75212 10.18313
Si -3.39437  2.03662 10.18313
Si -3.39437  4.75212  7.46762
Si -4.75212  0.67887 11.54087
Si -2.03662  0.67887 14.25638
Si -4.75212  3.39437 14.25638
Si -2.03662  3.39437 11.54087
Si -0.67888  2.03662 12.89862
Si -0.67888  4.75212 15.61413
Si -3.39437  2.03662 15.61413
Si -3.39437  4.75212 12.89862
Si -4.75212  6.10987  0.67888
Si -2.03662  6.10987  3.39437
Si -4.75212  8.82537  3.39437
Si -2.03662  8.82537  0.67888
Si -0.67888  7.46762  2.03662
Si -0.67888 10.18313  4.75213
Si -3.39437  7.46762  4.75213
Si -3.39437 10.18313  2.03662
Si -4.75212  6.10987  6.10987
Si -2.03662  6.10987  8.82537
Si -4.75212  8.82537  8.82537
Si -2.03662  8.82537  6.10987
Si -0.67888  7.46762  7.46762
Si -0.67888 10.18313 10.18313
Si -3.39437  7.46762 10.18313
Si -3.39437 10.18313  7.46762
Si -4.75212  6.10987 11.54087
Si -2.03662  6.10987 14.25638
Si -4.75212  8.82537 14.25638
Si -2.03662  8.82537 11.54087
Si -0.67888  7.46762 12.89862
Si -0.67888 10.18313 15.61413
Si -3.39437  7.46762 15.61413
Si -3.39437 10.18313 12.89862
Si -4.75212 11.54087  0.67888
Si -2.03662 11.54087  3.39437
Si -4.75212 14.25638  3.39437
Si -2.03662 14.25638  0.67888
Si -0.67888 12.89862  2.03662
Si -0.67888 15.61413  4.75213
Si -3.39437 12.89862  4.75213
Si -3.39437 15.61413  2.03662
Si -4.75212 11.54087  6.10987
Si -2.03662 11.54087  8.82537
Si -4.75212 14.25638  8.82537
Si -2.03662 14.25638  6.10987
Si -0.67888 12.89862  7.46762
Si -0.67888 15.61413 10.18313
Si -3.39437 12.89862 10.18313
Si -3.39437 15.61413  7.46762
Si -4.75212 11.54087 11.54087
Si -2.03662 11.54087 14.25638
Si -4.75212 14.25638 14.25638
Si -2.03662 14.25638 11.54087
Si -0.67888 12.89862 12.89862
Si -0.67888 15.61413 15.61413
Si -3.39437 12.89862 15.61413
Si -3.39437 15.61413 12.89862
Si -4.75212 16.97188  0.67888
Si -2.03662 16.97188  3.39437
Si -4.75212 19.68738  3.39437
Si -2.03662 19.68738  0.67888
Si -0.67888 18.32963  2.03662
Si -0.67888 21.04512  4.75213
Si -3.39437 18.32963  4.75213
Si -3.39437 21.04512  2.03662
Si -4.75212 16.97188  6.10987
Si -2.03662 16.97188  8.82537
Si -4.75212 19.68738  8.82537
Si -2.03662 19.68738  6.10987
Si -0.67888 18.32963  7.46762
Si -0.67888 21.04512 10.18313
Si -3.39437 18.32963 10.18313
Si -3.39437 21.04512  7.46762
Si -4.75212 16.97188 11.54087
Si -2.03662 16.97188 14.25638
Si -4.75212 19.68738 14.25638
Si -2.03662 19.68738 11.54087
Si -0.67888 18.32963 12.89862
Si -0.67888 21.04512 15.61413
Si -3.39437 18.32963 15.61413
Si -3.39437 21.04512 12.89862
Si -21.04513  0.67887 16.97188
Si -18.32963  0.67887 19.68737
Si -21.04513  3.39437 19.68737
Si -18.32963  3.39437 16.97188
Si -16.97187  2.03662 18.32963
Si -16.97187  4.75212 21.04513
Si -19.68738  2.03662 21.04513
Si -19.68738  4.75212 18.32963
Si -21.04513  0.67887 22.40287
Si -18.32963  0.67887 25.11837
Si -21.04513  3.39437 25.11837
Si -18.32963  3.39437 22.40287
Si -16.97187  2.03662 23.76062
Si -16.97187  4.75212 26.47612
Si -19.68738  2.03662 26.47612
Si -19.68738  4.75212 23.76062
Si -21.04513  0.67887 27.83388
Si -18.32963  0.67887 30.54938
Si -21.04513  3.39437 30.54938
Si -18.32963  3.39437 27.83388
Si -16.97187  2.03662 29.19162
Si -16.97187  4.75212 31.90713
Si -19.68738  2.03662 31.90713
Si -19.68738  4.75212 29.19162
Si -21.04513  6.10987 16.97188
Si -18.32963  6.10987 19.68737
Si -21.04513  8.82537 19.68737
Si -18.32963  8.82537 16.97188
Si -16.97187  7.46762 18.32963
Si -16.97187 10.18313 21.04513
Si -19.68738  7.46762 21.04513
Si -19.68738 10.18313 18.32963
Si -21.04513  6.10987 22.40287
Si -18.32963  6.10987 25.11837
Si -21.04513  8.82537 25.11837
Si -18.32963  8.82537 22.40287
Si -16.97187  7.46762 23.76062
Si -16.97187 10.18313 26.47612
Si -19.68738  7.46762 26.47612
Si -19.68738 10.18313 23.76062
Si -21.04513  6.10987 27.83388
Si -18.32963  6.10987 30.54938
Si -21.04513  8.82537 30.54938
Si -18.32963  8.82537 27.83388
Si -16.97187  7.46762 29.19162
Si -16.97187 10.18313 31.90713
Si -19.68738  7.46762 31.90713
Si -19.68738 10.18313 29.19162
Si -21.04513 11.54087 16.97188
Si -18.32963 11.54087 19.68737
Si -21.04513 14.25638 19.68737
Si -18.32963 14.25638 16.97188
Si -16.97187 12.89862 18.32963
Si -16.97187 15.61413 21.04513
Si -19.68738 12.89862 21.04513
Si -19.68738 15.61413 18.32963
Si -21.04513 11.54087 22.40287
Si -18.32963 11.54087 25.11837
Si -21.04513 14.25638 25.11837
Si -18.32963 14.25638 22.40287
Si -16.97187 12.89862 23.76062
Si -16.97187 15.61413 26.47612
Si -19.68738 12.89862 26.47612
Si -19.68738 15.61413 23.76062
Si -21.04513 11.54087 27.83388
Si -18.32963 11.54087 30.54938
Si -21.04513 14.25638 30.54938
Si -18.32963 14.25638 27.83388
Si -16.97187 12.89862 29.19162
Si -16.97187 15.61413 31.90713
Si -19.68738 12.89862 31.90713
Si -19.68738 15.61413 29.19162
Si -21.04513 16.97188 16.97188
Si -18.32963 16.97188 19.68737
Si -21.04513 19.68738 19.68737
Si -18.32963 19.68738 16.97188
Si -16.97187 18.32963 18.32963
Si -16.97187 21.04512 21.04513
Si -19.68738 18.32963 21.04513
Si -19.68738 21.04512 18.32963
Si -21.04513 16.97188 22.40287
Si -18.32963 16.97188 25.11837
Si -21.04513 19.68738 25.11837
Si -18.32963 19.68738 22.40287
Si -16.97187 18.32963 23.76062
Si -16.97187 21.04512 26.47612
Si -19.68738 18.32963 26.47612
Si -19.68738 21.04512 23.76062
Si -21.04513 16.97188 27.83388
Si -18.32963 16.97188 30.54938
Si -21.04513 19.68738 30.54938
Si -18.32963 19.68738 27.83388
Si -16.97187 18.32963 29.19162
Si -16.97187 21.04512 31.90713
Si -19.68738 18.32963 31.90713
Si -19.68738 21.04512 29.19162
Si -15.61412  0.67887 16.97188
Si -12.89862  0.67887 19.68737
Si -15.61412  3.39437 19.68737
Si -12.89862  3.39437 16.97188
Si -11.54087  2.03662 18.32963
Si -11.54087  4.75212 21.04513
Si -14.25638  2.03662 21.04513
Si -14.25638  4.75212 18.32963
Si -15.61412  0.67887 22.40287
Si -12.89862  0.67887 25.11837
Si -15.61412  3.39437 25.11837
Si -12.89862  3.39437 22.40287
Si -11.54087  2.03662 23.76062
Si -11.54087  4.75212 26.47612
Si -14.25638  2.03662 26.47612
Si -14.25638  4.75212 23.76062
Si -15.61412  0.67887 27.83388
Si -12.89862  0.67887 30.54938
Si -15.61412  3.39437 30.54938
Si -12.89862  3.39437 27.83388
Si -11.54087  2.03662 29.19162
Si -11.54087  4.75212 31.90713
Si -14.25638  2.03662 31.90713
Si -14.25638  4.75212 29.19162
Si -15.61412  6.10987 16.97188
Si -12.89862  6.10987 19.68737
Si -15.61412  8.82537 19.68737
Si -12.89862  8.82537 16.97188
Si -11.54087  7.46762 18.32963
Si -11.54087 10.18313 21.04513
Si -14.25638  7.46762 21.04513
Si -14.25638 10.18313 18.32963
Si -15.61412  6.10987 22.40287
Si -12.89862  6.10987 25.11837
Si -15.61412  8.82537 25.11837
Si -12.89862  8.82537 22.40287
Si -11.54087  7.46762 23.76062
Si -11.54087 10.18313 26.47612
Si -14.25638  7.46762 26.47612
Si -14.25638 10.18313 23.76062
Si -15.61412  6.10987 27.83388
Si -12.89862  6.10987 30.54938
Si -15.61412  8.82537 30.54938
Si -12.89862  8.82537 27.83388
Si -11.54087  7.46762 29.19162
Si -11.54087 10.18313 31.90713
Si -14.25638  7.46762 31.90713
Si -14.25638 10.18313 29.19162
Si -15.61412 11.54087 16.97188
Si -12.89862 11.54087 19.68737
Si -15.61412 14.25638 19.68737
Si -12.89862 14.25638 16.97188
Si -11.54087 12.89862 18.32963
Si -11.54087 15.61413 21.04513
Si -14.25638 12.89862 21.04513
Si -14.25638 15.61413 18.32963
Si -15.61412 11.54087 22.40287
Si -12.89862 11.54087 25.11837
Si -15.61412 14.25638 25.11837
Si -12.89862 14.25638 22.40287
Si -11.54087 12.89862 23.76062
Si -11.54087 15.61413 26.47612
Si -14.25638 12.89862 26.47612
Si -14.25638 15.61413 23.76062
Si -15.61412 11.54087 27.83388
Si -12.89862 11.54087 30.54938
Si -15.61412 14.25638 30.54938
Si -12.89862 14.25638 27.83388
Si -11.54087 12.89862 29.19162
Si -11.54087 15.61413 31.90713
Si -14.25638 12.89862 31.90713
Si -14.25638 15.61413 29.19162
Si -15.61412 16.97188 16.97188
Si -12.89862 16.97188 19.68737
Si -15.61412 19.68738 19.68737
Si -12.89862 19.68738 16.97188
Si -11.54087 18.32963 18.32963
Si -11.54087 21.04512 21.04513
Si -14.25638 18.32963 21.04513
Si -14.25638 21.04512 18.32963
Si -15.61412 16.97188 22.40287
Si -12.89862 16.97188 25.11837
Si -15.61412 19.68738 25.11837
Si -12.89862 19.68738 22.40287
Si -11.54087 18.32963 23.76062
Si -11.54087 21.04512 26.47612
Si -14.25638 18.32963 26.47612
Si -14.25638 21.04512 23.76062
Si -15.61412 16.97188 27.83388
Si -12.89862 16.97188 30.54938
Si -15.61412 19.68738 30.54938
Si -12.89862 19.68738 27.83388
Si -11.54087 18.32963 29.19162
Si -11.54087 21.04512 31.90713
Si -14.25638 18.32963 31.90713
Si -14.25638 21.04512 29.19162
Si -10.18312  0.67887 16.97188
Si -7.46762  0.67887 19.68737
Si -10.18312  3.39437 19.68737
Si -7.46762  3.39437 16.97188
Si -6.10987  2.03662 18.32963
Si -6.10987  4.75212 21.04513
Si -8.82537  2.03662 21.04513
Si -8.82537  4.75212 18.32963
Si -10.18312  0.67887 22.40287
Si -7.46762  0.67887 25.11837
Si -10.18312  3.39437 25.11837
Si -7.46762  3.39437 22.40287
Si -6.10987  2.03662 23.76062
Si -6.10987  4.75212 26.47612
Si -8.82537  2.03662 26.47612
Si -8.82537  4.75212 23.76062
Si -10.18312  0.67887 27.83388
Si -7.46762  0.67887 30.54938
Si -10.18312  3.39437 30.54938
Si -7.46762  3.39437 27.83388
Si -6.10987  2.03662 29.19162
Si -6.10987  4.75212 31.90713
Si -8.82537  2.03662 31.90713
Si -8.82537  4.75212 29.19162
Si -10.18312  6.10987 16.97188
Si -7.46762  6.10987 19.68737
Si -10.18312  8.82537 19.68737
Si -7.46762  8.82537 16.97188
Si -6.10987  7.46762 18.32963
Si -6.10987 10.18313 21.04513
Si -8.82537  7.46762 21.04513
Si -8.82537 10.18313 18.32963
Si -10.18312  6.10987 22.40287
Si -7.46762  6.10987 25.11837
Si -10.18312  8.82537 25.11837
Si -7.46762  8.82537 22.40287
Si -6.10987  7.46762 23.76062
Si -6.10987 10.18313 26.47612
Si -8.82537  7.46762 26.47612
Si -8.82537 10.18313 23.76062
Si -10.18312  6.10987 27.83388
Si -7.46762  6.10987 30.54938
Si -10.18312  8.82537 30.54938
Si -7.46762  8.82537 27.83388
Si -6.10987  7.46762 29.19162
Si -6.10987 10.18313 31.90713
Si -8.82537  7.46762 31.90713
Si -8.82537 10.18313 29.19162
Si -10.18312 11.54087 16.97188
Si -7.46762 11.54087 19.68737
Si -10.18312 14.25638 19.68737
Si -7.46762 14.25638 16.97188
Si -6.10987 12.89862 18.32963
Si -6.10987 15.61413 21.04513
Si -8.82537 12.89862 21.04513
Si -8.82537 15.61413 18.32963
Si -10.18312 11.54087 22.40287
Si -7.46762 11.54087 25.11837
Si -10.18312 14.25638 25.11837
Si -7.46762 14.25638 22.40287
Si -6.10987 12.89862 23.76062
Si -6.10987 15.61413 26.47612
Si -8.82537 12.89862 26.47612
Si -8.82537 15.61413 23.76062
Si -10.18312 11.54087 27.83388
Si -7.46762 11.54087 30.54938
Si -10.18312 14.25638 30.54938
Si -7.46762 14.25638 27.83388
Si -6.10987 12.89862 29.19162
Si -6.10987 15.61413 31.90713
Si -8.82537 12.89862 31.90713
Si -8.82537 15.61413 29.19162
Si -10.18312 16.97188 16.97188
Si -7.46762 16.97188 19.68737
Si -10.18312 19.68738 19.68737
Si -7.46762 19.68738 16.97188
Si -6.10987 18.32963 18.32963
Si -6.10987 21.04512 21.04513
Si -8.82537 18.32963 21.04513
Si -8.82537 21.04512 18.32963
Si -10.18312 16.97188 22.40287
Si -7.46762 16.97188 25.11837
Si -10.18312 19.68738 25.11837
Si -7.46762 19.68738 22.40287
Si -6.10987 18.32963 23.76062
Si -6.10987 21.04512 26.47612
Si -8.82537 18.32963 26.47612
Si -8.82537 21.04512 23.76062
Si -10.18312 16.97188 27.83388
Si -7.46762 16.97188 30.54938
Si -10.18312 19.68738 30.54938
Si -7.46762 19.68738 27.83388
Si -6.10987 18.32963 29.19162
Si -6.10987 21.04512 31.90713
Si -8.82537 18.32963 31.90713
Si -8.82537 21.04512 29.19162
Si -4.75212  0.67887 16.97188
Si -2.03662  0.67887 19.68737
Si -4.75212  3.39437 19.68737
Si -2.03662  3.39437 16.97188
Si -0.67888  2.03662 18.32963
Si -0.67888  4.75212 21.04513
Si -3.39437  2.03662 21.04513
Si -3.39437  4.75212 18.32963
Si -4.75212  0.67887 22.40287
Si -2.03662  0.67887 25.11837
Si -4.75212  3.39437 25.11837
Si -2.03662  3.39437 22.40287
Si -0.67888  2.03662 23.76062
Si -0.67888  4.75212 26.47612
Si -3.39437  2.03662 26.47612
Si -3.39437  4.75212 23.76062
Si -4.75212  0.67887 27.83388
Si -2.03662  0.67887 30.54938
Si -4.75212  3.39437 30.54938
Si -2.03662  3.39437 27.83388
Si -0.67888  2.03662 29.19162
Si -0.67888  4.75212 31.90713
Si -3.39437  2.03662 31.90713
Si -3.39437  4.75212 29.19162
Si -4.75212  6.10987 16.97188
Si -2.03662  6.10987 19.68737
Si -4.75212  8.82537 19.68737
Si -2.03662  8.82537 16.97188
Si -0.67888  7.46762 18.32963
Si -0.67888 10.18313 21.04513
Si -3.39437  7.46762 21.04513
Si -3.39437 10.18313 18.32963
Si -4.75212  6.10987 22.40287
Si -2.03662  6.10987 25.11837
Si -4.75212  8.82537 25.11837
Si -2.03662  8.82537 22.40287
Si -0.67888  7.46762 23.76062
Si -0.67888 10.18313 26.47612
Si -3.39437  7.46762 26.47612
Si -3.39437 10.18313 23.76062
Si -4.75212  6.10987 27.83388
Si -2.03662  6.10987 30.54938
Si -4.75212  8.82537 30.54938
Si -2.03662  8.82537 27.83388
Si -0.67888  7.46762 29.19162
Si -0.67888 10.18313 31.90713
Si -3.39437  7.46762 31.90713
Si -3.39437 10.18313 29.19162
Si -4.75212 11.54087 16.97188
Si -2.03662 11.54087 19.68737
Si -4.75212 14.25638 19.68737
Si -2.03662 14.25638 16.97188
Si -0.67888 12.89862 18.32963
Si -0.67888 15.61413 21.04513
Si -3.39437 12.89862 21.04513
Si -3.39437 15.61413 18.32963
Si -4.75212 11.54087 22.40287
Si -2.03662 11.54087 25.11837
Si -4.75212 14.25638 25.11837
Si -2.03662 14.25638 22.40287
Si -0.67888 12.89862 23.76062
Si -0.67888 15.61413 26.47612
Si -3.39437 12.89862 26.47612
Si -3.39437 15.61413 23.76062
Si -4.75212 11.54087 27.83388
Si -2.03662 11.54087 30.54938
Si -4.75212 14.25638 30.54938
Si -2.03662 14.25638 27.83388
Si -0.67888 12.89862 29.19162
Si -0.67888 15.61413 31.90713
Si -3.39437 12.89862 31.90713
Si -3.39437 15.61413 29.19162
Si -4.75212 16.97188 16.97188
Si -2.03662 16.97188 19.68737
Si -4.75212 19.68738 19.68737
Si -2.03662 19.68738 16.97188
Si -0.67888 18.32963 18.32963
Si -0.67888 21.04512 21.04513
Si -3.39437 18.32963 21.04513
Si -3.39437 21.04512 18.32963
Si -4.75212 16.97188 22.40287
Si -2.03662 16.97188 25.11837
Si -4.75212 19.68738 25.11837
Si -2.03662 19.68738 22.40287
Si -0.67888 18.32963 23.76062
Si -0.67888 21.04512 26.47612
Si -3.39437 18.32963 26.47612
Si -3.39437 21.04512 23.76062
Si -4.75212 16.97188 27.83388
Si -2.03662 16.97188 30.54938
Si -4.75212 19.68738 30.54938
Si -2.03662 19.68738 27.83388
Si -0.67888 18.32963 29.19162
Si -0.67888 21.04512 31.90713
Si -3.39437 18.32963 31.90713
Si -3.39437 21.04512 29.19162
Si -21.04513 22.40287 -15.61412
Si -18.32963 22.40287 -12.89863
Si -21.04513 25.11837 -12.89863
Si -18.32963 25.11837 -15.61412
Si -16.97187 23.76062 -14.25638
Si -16.97187 26.47612 -11.54087
Si -19.68738 23.76062 -11.54087
Si -19.68738 26.47612 -14.25638
Si -21.04513 22.40287 -10.18313
Si -18.32963 22.40287 -7.46763
Si -21.04513 25.11837 -7.46763
Si -18.32963 25.11837 -10.18313
Si -16.97187 23.76062 -8.82538
Si -16.97187 26.47612 -6.10987
Si -19.68738 23.76062 -6.10987
Si -19.68738 26.47612 -8.82538
Si -21.04513 22.40287 -4.75212
Si -18.32963 22.40287 -2.03662
Si -21.04513 25.11837 -2.03662
Si -18.32963 25.11837 -4.75212
Si -16.97187 23.76062 -3.39438
Si -16.97187 26.47612 -0.67887
Si -19.68738 23.76062 -0.67887
Si -19.68738 26.47612 -3.39438
Si -21.04513 27.83387 -15.61412
Si -18.32963 27.83387 -12.89863
Si -21.04513 30.54938 -12.89863
Si -18.32963 30.54938 -15.61412
Si -16.97187 29.19162 -14.25638
Si -16.97187 31.90712 -11.54087
Si -19.68738 29.19162 -11.54087
Si -19.68738 31.90712 -14.25638
Si -21.04513 27.83387 -10.18313
Si -18.32963 27.83387 -7.46763
Si -21.04513 30.54938 -7.46763
Si -18.32963 30.54938 -10.18313
Si -16.97187 29.19162 -8.82538
Si -16.97187 31.90712 -6.10987
Si -19.68738 29.19162 -6.10987
Si -19.68738 31.90712 -8.82538
Si -21.04513 27.83387 -4.75212
Si -18.32963 27.83387 -2.03662
Si -21.04513 30.54938 -2.03662
Si -18.32963 30.54938 -4.75212
Si -16.97187 29.19162 -3.39438
Si -16.97187 31.90712 -0.67887
Si -19.68738 29.19162 -0.67887
Si -19.68738 31.90712 -3.39438
Si -21.04513 33.26487 -15.61412
Si -18.32963 33.26487 -12.89863
Si -21.04513 35.98037 -12.89863
Si -18.32963 35.98037 -15.61412
Si -16.97187 34.62262 -14.25638
Si -16.97187 37.33813 -11.54087
Si -19.68738 34.62262 -11.54087
Si -19.68738 37.33813 -14.25638
Si -21.04513 33.26487 -10.18313
Si -18.32963 33.26487 -7.46763
Si -21.04513 35.98037 -7.46763
Si -18.32963 35.98037 -10.18313
Si -16.97187 34.62262 -8.82538
Si -16.97187 37.33813 -6.10987
Si -19.68738 34.62262 -6.10987
Si -19.68738 37.33813 -8.82538
Si -21.04513 33.26487 -4.75212
Si -18.32963 33.26487 -2.03662
Si -21.04513 35.98037 -2.03662
Si -18.32963 35.98037 -4.75212
Si -16.97187 34.62262 -3.39438
Si -16.97187 37.33813 -0.67887
Si -19.68738 34.62262 -0.67887
Si -19.68738 37.33813 -3.39438
Si -21.04513 38.69588 -15.61412
Si -18.32963 38.69588 -12.89863
Si -21.04513 41.41138 -12.89863
Si -18.32963 41.41138 -15.61412
Si -16.97187 40.05362 -14.25638
Si -16.97187 42.76913 -11.54087
Si -19.68738 40.05362 -11.54087
Si -19.68738 42.76913 -14.25638
Si -21.04513 38.69588 -10.18313
Si -18.32963 38.69588 -7.46763
Si -21.04513 41.41138 -7.46763
Si -18.32963 41.41138 -10.18313
Si -16.97187 40.05362 -8.82538
Si -16.97187 42.76913 -6.10987
Si -19.68738 40.05362 -6.10987
Si -19.68738 42.76913 -8.82538
Si -21.04513 38.69588 -4.75212
Si -18.32963 38.69588 -2.03662
Si -21.04513 41.41138 -2.03662
Si -18.32963 41.41138 -4.75212
Si -16.97187 40.05362 -3.39438
Si -16.97187 42.76913 -0.67887
Si -19.68738 40.05362 -0.67887
Si -19.68738 42.76913 -3.39438
Si -15.61412 22.40287 -15.61412
Si -12.89862 22.40287 -12.89863
Si -15.61412 25.11837 -12.89863
Si -12.89862 25.11837 -15.61412
Si -11.54087 23.76062 -14.25638
Si -11.54087 26.47612 -11.54087
Si -14.25638 23.76062 -11.54087
Si -14.25638 26.47612 -14.25638
Si -15.61412 22.40287 -10.18313
Si -12.89862 22.40287 -7.46763
Si -15.61412 25.11837 -7.46763
Si -12.89862 25.11837 -10.18313
Si -11.54087 23.76062 -8.82538
Si -11.54087 26.47612 -6.10987
Si -14.25638 23.76062 -6.10987
Si -14.25638 26.47612 -8.82538
Si -15.61412 22.40287 -4.75212
Si -12.89862 22.40287 -2.03662
Si -15.61412 25.11837 -2.03662
Si -12.89862 25.11837 -4.75212
Si -11.54087 23.76062 -3.39438
Si -11.54087 26.47612 -0.67887
Si -14.25638 23.76062 -0.67887
Si -14.25638 26.47612 -3.39438
Si -15.61412 27.83387 -15.61412
Si -12.89862 27.83387 -12.89863
Si -15.61412 30.54938 -12.89863
Si -12.89862 30.54938 -15.61412
Si -11.54087 29.19162 -14.25638
Si -11.54087 31.90712 -11.54087
Si -14.25638 29.19162 -11.54087
Si -14.25638 31.90712 -14.25638
Si -15.61412 27.83387 -10.18313
Si -12.89862 27.83387 -7.46763
Si -15.61412 30.54938 -7.46763
Si -12.89862 30.54938 -10.18313
Si -11.54087 29.19162 -8.82538
Si -11.54087 31.90712 -6.10987
Si -14.25638 29.19162 -6.10987
Si -14.25638 31.90712 -8.82538
Si -15.61412 27.83387 -4.75212
Si -12.89862 27.83387 -2.03662
Si -15.61412 30.54938 -2.03662
Si -12.89862 30.54938 -4.75212
Si -11.54087 29.19162 -3.39438
Si -11.54087 31.90712 -0.67887
Si -14.25638 29.19162 -0.67887
Si -14.25638 31.90712 -3.39438
Si -15.61412 33.26487 -15.61412
Si -12.89862 33.26487 -12.89863
Si -15.61412 35.98037 -12.89863
Si -12.89862 35.98037 -15.61412
Si -11.54087 34.62262 -14.25638
Si -11.54087 37.33813 -11.54087
Si -14.25638 34.62262 -11.54087
Si -14.25638 37.33813 -14.25638
Si -15.61412 33.26487 -10.18313
Si -12.89862 33.26487 -7.46763
Si -15.61412 35.98037 -7.46763
Si -12.89862 35.98037 -10.18313
Si -11.54087 34.62262 -8.82538
Si -11.54087 37.33813 -6.10987
Si -14.25638 34.62262 -6.10987
Si -14.25638 37.33813 -8.82538
Si -15.61412 33.26487 -4.75212
Si -12.89862 33.26487 -2.03662
Si -15.61412 35.98037 -2.03662
Si -12.89862 35.98037 -4.75212
Si -11.54087 34.62262 -3.39438
Si -11.54087 37.33813 -0.67887
Si -14.25638 34.62262 -0.67887
Si -14.25638 37.33813 -3.39438
Si -15.61412 38.69588 -15.61412
Si -12.89862 38.69588 -12.89863
Si -15.61412 41.41138 -12.89863
Si -12.89862 41.41138 -15.61412
Si -11.54087 40.05362 -14.25638
Si -11.54087 42.76913 -11.54087
Si -14.25638 40.05362 -11.54087
Si -14.25638 42.76913 -14.25638
Si -15.61412 38.69588 -10.18313
Si -12.89862 38.69588 -7.46763
Si -15.61412 41.41138 -7.46763
Si -12.89862 41.41138 -10.18313
Si -11.54087 40.05362 -8.82538
Si -11.54087 42.76913 -6.10987
Si -14.25638 40.05362 -6.10987
Si -14.25638 42.76913 -8.82538
Si -15.61412 38.69588 -4.75212
Si -12.89862 38.69588 -2.03662
Si -15.61412 41.41138 -2.03662
Si -12.89862 41.41138 -4.75212
Si -11.54087 40.05362 -3.39438
Si -11.54087 42.76913 -0.67887
Si -14.25638 40.05362 -0.67887
Si -14.25638 42.76913 -3.39438
Si -10.18312 22.40287 -15.61412
Si -7.46762 22.40287 -12.89863
Si -10.18312 25.11837 -12.89863
Si -7.46762 25.11837 -15.61412
Si -6.10987 23.76062 -14.25638
Si -6.10987 26.47612 -11.54087
Si -8.82537 23.76062 -11.54087
Si -8.82537 26.47612 -14.25638
Si -10.18312 22.40287 -10.18313
Si -7.46762 22.40287 -7.46763
Si -10.18312 25.11837 -7.46763
Si -7.46762 25.11837 -10.18313
Si -6.10987 23.76062 -8.82538
Si -6.10987 26.47612 -6.10987
Si -8.82537 23.76062 -6.10987
Si -8.82537 26.47612 -8.82538
Si -10.18312 22.40287 -4.75212
Si -7.46762 22.40287 -2.03662
Si -10.18312 25.11837 -2.03662
Si -7.46762 25.11837 -4.75212
Si -6.10987 23.76062 -3.39438
Si -6.10987 26.47612 -0.67887
Si -8.82537 23.76062 -0.67887
Si -8.82537 26.47612 -3.39438
Si -10.18312 27.83387 -15.61412
Si -7.46762 27.83387 -12.89863
Si -10.18312 30.54938 -12.89863
Si -7.46762 30.54938 -15.61412
Si -6.10987 29.19162 -14.25638
Si -6.10987 31.90712 -11.54087
Si -8.82537 29.19162 -11.54087
Si -8.82537 31.90712 -14.25638
Si -10.18312 27.83387 -10.18313
Si -7.46762 27.83387 -7.46763
Si -10.18312 30.54938 -7.46763
Si -7.46762 30.54938 -10.18313
Si -6.10987 29.19162 -8.82538
Si -6.10987 31.90712 -6.10987
Si -8.82537 29.19162 -6.10987
Si -8.82537 31.90712 -8.82538
Si -10.18312 27.83387 -4.75212
Si -7.46762 27.83387 -2.03662
Si -10.18312 30.54938 -2.03662
Si -7.46762 30.54938 -4.75212
Si -6.10987 29.19162 -3.39438
Si -6.10987 31.90712 -0.67887
Si -8.82537 29.19162 -0.67887
Si -8.82537 31.90712 -3.39438
Si -10.18312 33.26487 -15.61412
Si -7.46762 33.26487 -12.89863
Si -10.18312 35.98037 -12.89863
Si -7.46762 35.98037 -15.61412
Si -6.10987 34.62262 -14.25638
Si -6.10987 37.33813 -11.54087
Si -8.82537 34.62262 -11.54087
Si -8.82537 37.33813 -14.25638
Si -10.18312 33.26487 -10.18313
Si -7.46762 33.26487 -7.46763
Si -10.18312 35.98037 -7.46763
Si -7.46762 35.98037 -10.18313
Si -6.10987 34.62262 -8.82538
Si -6.10987 37.33813 -6.10987
Si -8.82537 34.62262 -6.10987
Si -8.82537 37.33813 -8.82538
Si -10.18312 33.26487 -4.75212
Si -7.46762 33.26487 -2.03662
Si -10.18312 35.98037 -2.03662
Si -7.46762 35.98037 -4.75212
Si -6.10987 34.62262 -3.39438
Si -6.10987 37.33813 -0.67887
Si -8.82537 34.62262 -0.67887
Si -8.82537 37.33813 -3.39438
Si -10.18312 38.69588 -15.61412
Si -7.46762 38.69588 -12.89863
Si -10.18312 41.41138 -12.89863
Si -7.46762 41.41138 -15.61412
Si -6.10987 40.05362 -14.25638
Si -6.10987 42.76913 -11.54087
Si -8.82537 40.05362 -11.54087
Si -8.82537 42.76913 -14.25638
Si -10.18312 38.69588 -10.18313
Si -7.46762 38.69588 -7.46763
Si -10.18312 41.41138 -7.46763
Si -7.46762 41.41138 -10.18313
Si -6.10987 40.05362 -8.82538
Si -6.10987 42.76913 -6.10987
Si -8.82537 40.05362 -6.10987
Si -8.82537 42.76913 -8.82538
Si -10.18312 38.69588 -4.75212
Si -7.46762 38.69588 -2.03662
Si -10.18312 41.41138 -2.03662
Si -7.46762 41.41138 -4.75212
Si -6.10987 40.05362 -3.39438
Si -6.10987 42.76913 -0.67887
Si -8.82537 40.05362 -0.67887
Si -8.82537 42.76913 -3.39438
Si -4.75212 22.40287 -15.61412
Si -2.03662 22.40287 -12.89863
Si -4.75212 25.11837 -12.89863
Si -2.03662 25.11837 -15.61412
Si -0.67888 23.76062 -14.25638
Si -0.67888 26.47612 -11.54087
Si -3.39437 23.76062 -11.54087
Si -3.39437 26.47612 -14.25638
Si -4.75212 22.40287 -10.18313
Si -2.03662 22.40287 -7.46763
Si -4.75212 25.11837 -7.46763
Si -2.03662 25.11837 -10.18313
Si -0.67888 23.76062 -8.82538
Si -0.67888 26.47612 -6.10987
Si -3.39437 23.76062 -6.10987
Si -3.39437 26.47612 -8.82538
Si -4.75212 22.40287 -4.75212
Si -2.03662 22.40287 -2.03662
Si -4.75212 25.11837 -2.03662
Si -2.03662 25.11837 -4.75212
Si -0.67888 23.76062 -3.39438
Si -0.67888 26.47612 -0.67887
Si -3.39437 23.76062 -0.67887
Si -3.39437 26.47612 -3.39438
Si -4.75212 27.83387 -15.61412
Si -2.03662 27.83387 -12.89863
Si -4.75212 30.54938 -12.89863
Si -2.03662 30.54938 -15.61412
Si -0.67888 29.19162 -14.25638
Si -0.67888 31.90712 -11.54087
Si -3.39437 29.19162 -11.54087
Si -3.39437 31.90712 -14.25638
Si -4.75212 27.83387 -10.18313
Si -2.03662 27.83387 -7.46763
Si -4.75212 30.54938 -7.46763
Si -2.03662 30.54938 -10.18313
Si -0.67888 29.19162 -8.82538
Si -0.67888 31.90712 -6.10987
Si -3.39437 29.19162 -6.10987
Si -3.39437 31.90712 -8.82538
Si -4.75212 27.83387 -4.75212
Si -2.03662 27.83387 -2.03662
Si -4.75212 30.54938 -2.03662
Si -2.03662 30.54938 -4.75212
Si -0.67888 29.19162 -3.39438
Si -0.67888 31.90712 -0.67887
Si -3.39437 29.19162 -0.67887
Si -3.39437 31.90712 -3.39438
Si -4.75212 33.26487 -15.61412
Si -2.03662 33.26487 -12.89863
Si -4.75212 35.98037 -12.89863
Si -2.03662 35.98037 -15.61412
Si -0.67888 34.62262 -14.25638
Si -0.67888 37.33813 -11.54087
Si -3.39437 34.62262 -11.54087
Si -3.39437 37.33813 -14.25638
Si -4.75212 33.26487 -10.18313
Si -2.03662 33.26487 -7.46763
Si -4.75212 35.98037 -7.46763
Si -2.03662 35.98037 -10.18313
Si -0.67888 34.62262 -8.82538
Si -0.67888 37.33813 -6.10987
Si -3.39437 34.62262 -6.10987
Si -3.39437 37.33813 -8.82538
Si -4.75212 33.26487 -4.75212
Si -2.03662 33.26487 -2.03662
Si -4.75212 35.98037 -2.03662
Si -2.03662 35.98037 -4.75212
Si -0.67888 34.62262 -3.39438
Si -0.67888 37.33813 -0.67887
Si -3.39437 34.62262 -0.67887
Si -3.39437 37.33813 -3.39438
Si -4.75212 38.69588 -15.61412
Si -2.03662 38.69588 -12.89863
Si -4.75212 41.41138 -12.89863
Si -2.03662 41.41138 -15.61412
Si -0.67888 40.05362 -14.25638
Si -0.67888 42.76913 -11.54087
Si -3.39437 40.05362 -11.54087
Si -3.39437 42.76913 -14.25638
Si -4.75212 38.69588 -10.18313
Si -2.03662 38.69588 -7.46763
Si -4.75212 41.41138 -7.46763
Si -2.03662 41.41138 -10.18313
Si -0.67888 40.05362 -8.82538
Si -0.67888 42.76913 -6.10987
Si -3.39437 40.05362 -6.10987
Si -3.39437 42.76913 -8.82538
Si -4.75212 38.69588 -4.75212
Si -2.03662 38.69588 -2.03662
Si -4.75212 41.41138 -2.03662
Si -2.03662 41.41138 -4.75212
Si -0.67888 40.05362 -3.39438
Si -0.67888 42.76913 -0.67887
Si -3.39437 40.05362 -0.67887
Si -3.39437 42.76913 -3.39438
Si -21.04513 22.40287  0.67888
Si -18.32963 22.40287  3.39437
Si -21.04513 25.11837  3.39437
Si -18.32963 25.11837  0.67888
Si -16.97187 23.76062  2.03662
Si -16.97187 26.47612  4.75213
Si -19.68738 23.76062  4.75213
Si -19.68738 26.47612  2.03662
Si -21.04513 22.40287  6.10987
Si -18.32963 22.40287  8.82537
Si -21.04513 25.11837  8.82537
Si -18.32963 25.11837  6.10987
Si -16.97187 23.76062  7.46762
Si -16.97187 26.47612 10.18313
Si -19.68738 23.76062 10.18313
Si -19.68738 26.47612  7.46762
Si -21.04513 22.40287 11.54087
Si -18.32963 22.40287 14.25638
Si -21.04513 25.11837 14.25638
Si -18.32963 25.11837 11.54087
Si -16.97187 23.76062 12.89862
Si -16.97187 26.47612 15.61413
Si -19.68738 23.76062 15.61413
Si -19.68738 26.47612 12.89862
Si -21.04513 27.83387  0.67888
Si -18.32963 27.83387  3.39437
Si -21.04513 30.54938  3.39437
Si -18.32963 30.54938  0.67888
Si -16.97187 29.19162  2.03662
Si -16.97187 31.90712  4.75213
Si -19.68738 29.19162  4.75213
Si -19.68738 31.90712  2.03662
Si -21.04513 27.83387  6.10987
Si -18.32963 27.83387  8.82537
Si -21.04513 30.54938  8.82537
Si -18.32963 30.54938  6.10987
Si -16.97187 29.19162  7.46762
Si -16.97187 31.90712 10.18313
Si -19.68738 29.19162 10.18313
Si -19.68738 31.90712  7.46762
Si -21.04513 27.83387 11.54087
Si -18.32963 27.83387 14.25638
Si -21.04513 30.54938 14.25638
Si -18.32963 30.54938 11.54087
Si -16.97187 29.19162 12.89862
Si -16.97187 31.90712 15.61413
Si -19.68738 29.19162 15.61413
Si -19.68738 31.90712 12.89862
Si -21.04513 33.26487  0.67888
Si -18.32963 33.26487  3.39437
Si -21.04513 35.98037  3.39437
Si -18.32963 35.98037  0.67888
Si -16.97187 34.62262  2.03662
Si -16.97187 37.33813  4.75213
Si -19.68738 34.62262  4.75213
Si -19.68738 37.33813  2.03662
Si -21.04513 33.26487  6.10987
Si -18.32963 33.26487  8.82537
Si -21.04513 35.98037  8.82537
Si -18.32963 35.98037  6.10987
Si -16.97187 34.62262  7.46762
Si -16.97187 37.33813 10.18313
Si -19.68738 34.62262 10.18313
Si -19.68738 37.33813  7.46762
Si -21.04513 33.26487 11.54087
Si -18.32963 33.26487 14.25638
Si -21.04513 35.98037 14.25638
Si -18.32963 35.98037 11.54087
Si -16.97187 34.62262 12.89862
Si -16.97187 37.33813 15.61413
Si -19.68738 34.62262 15.61413
Si -19.68738 37.33813 12.89862
Si -21.04513 38.69588  0.67888
Si -18.32963 38.69588  3.39437
Si -21.04513 41.41138  3.39437
Si -18.32963 41.41138  0.67888
Si -16.97187 40.05362  2.03662
Si -16.97187 42.76913  4.75213
Si -19.68738 40.05362  4.75213
Si -19.68738 42.76913  2.03662
Si -21.04513 38.69588  6.10987
Si -18.32963 38.69588  8.82537
Si -21.04513 41.41138  8.82537
Si -18.32963 41.41138  6.10987
Si -16.97187 40.05362  7.46762
Si -16.97187 42.76913 10.18313
Si -19.68738 40.05362 10.18313
Si -19.68738 42.76913  7.46762
Si -21.04513 38.69588 11.54087
Si -18.32963 38.69588 14.25638
Si -21.04513 41.41138 14.25638
Si -18.32963 41.41138 11.54087
Si -16.97187 40.05362 12.89862
Si -16.97187 42.76913 15.61413
Si -19.68738 40.05362 15.61413
Si -19.68738 42.76913 12.89862
Si -15.61412 22.40287  0.67888
Si -12.89862 22.40287  3.39437
Si -15.61412 25.11837  3.39437
Si -12.89862 25.11837  0.67888
Si -11.54087 23.76062  2.03662
Si -11.54087 26.47612  4.75213
Si -14.25638 23.76062  4.75213
Si -14.25638 26.47612  2.03662
Si -15.61412 22.40287  6.10987
Si -12.89862 22.40287  8.82537
Si -15.61412 25.11837  8.82537
Si -12.89862 25.11837  6.10987
Si -11.54087 23.76062  7.46762
Si -11.54087 26.47612 10.18313
Si -14.25638 23.76062 10.18313
Si -14.25638 26.47612  7.46762
Si -15.61412 22.40287 11.54087
Si -12.89862 22.40287 14.25638
Si -15.61412 25.11837 14.25638
Si -12.89862 25.11837 11.54087
Si -11.54087 23.76062 12.89862
Si -11.54087 26.47612 15.61413
Si -14.25638 23.76062 15.61413
Si -14.25638 26.47612 12.89862
Si -15.61412 27.83387  0.67888
Si -12.89862 27.83387  3.39437
Si -15.61412 30.54938  3.39437
Si -12.89862 30.54938  0.67888
Si -11.54087 29.19162  2.03662
Si -11.54087 31.90712  4.75213
Si -14.25638 29.19162  4.75213
Si -14.25638 31.90712  2.03662
Si -15.61412 27.83387  6.10987
Si -12.89862 27.83387  8.82537
Si -15.61412 30.54938  8.82537
Si -12.89862 30.54938  6.10987
Si -11.54087 29.19162  7.46762
Si -11.54087 31.90712 10.18313
Si -14.25638 29.19162 10.18313
Si -14.25638 31.90712  7.46762
Si -15.61412 27.83387 11.54087
Si -12.89862 27.83387 14.25638
Si -15.61412 30.54938 14.25638
Si -12.89862 30.54938 11.54087
Si -11.54087 29.19162 12.89862
Si -11.54087 31.90712 15.61413
Si -14.25638 29.19162 15.61413
Si -14.25638 31.90712 12.89862
Si -15.61412 33.26487  0.67888
Si -12.89862 33.26487  3.39437
Si -15.61412 35.98037  3.39437
Si -12.89862 35.98037  0.67888
Si -11.54087 34.62262  2.03662
Si -11.54087 37.33813  4.75213
Si -14.25638 34.62262  4.75213
Si -14.25638 37.33813  2.03662
Si -15.61412 33.26487  6.10987
Si -12.89862 33.26487  8.82537
Si -15.61412 35.98037  8.82537
Si -12.89862 35.98037  6.10987
Si -11.54087 34.62262  7.46762
Si -11.54087 37.33813 10.18313
Si -14.25638 34.62262 10.18313
Si -14.25638 37.33813  7.46762
Si -15.61412 33.26487 11.54087
Si -12.89862 33.26487 14.25638
Si -15.61412 35.98037 14.25638
Si -12.89862 35.98037 11.54087
Si -11.54087 34.62262 12.89862
Si -11.54087 37.33813 15.61413
Si -14.25638 34.62262 15.61413
Si -14.25638 37.33813 12.89862
Si -15.61412 38.69588  0.67888
Si -12.89862 38.69588  3.39437
Si -15.61412 41.41138  3.39437
Si -12.89862 41.41138  0.67888
Si -11.54087 40.05362  2.03662
Si -11.54087 42.76913  4.75213
Si -14.25638 40.05362  4.75213
Si -14.25638 42.76913  2.03662
Si -15.61412 38.69588  6.10987
Si -12.89862 38.69588  8.82537
Si -15.61412 41.41138  8.82537
Si -12.89862 41.41138  6.10987
Si -11.54087 40.05362  7.46762
Si -11.54087 42.76913 10.18313
Si -14.25638 40.05362 10.18313
Si -14.25638 42.76913  7.46762
Si -15.61412 38.69588 11.54087
Si -12.89862 38.69588 14.25638
Si -15.61412 41.41138 14.25638
Si -12.89862 41.41138 11.54087
Si -11.54087 40.05362 12.89862
Si -11.54087 42.76913 15.61413
Si -14.25638 40.05362 15.61413
Si -14.25638 42.76913 12.89862
Si -10.18312 22.40287  0.67888
Si -7.46762 22.40287  3.39437
Si -10.18312 25.11837  3.39437
Si -7.46762 25.11837  0.67888
Si -6.10987 23.76062  2.03662
Si -6.10987 26.47612  4.75213
Si -8.82537 23.76062  4.75213
Si -8.82537 26.47612  2.03662
Si -10.18312 22.40287  6.10987
Si -7.46762 22.40287  8.82537
Si -10.18312 25.11837  8.82537
Si -7.46762 25.11837  6.10987
Si -6.10987 23.76062  7.46762
Si -6.10987 26.47612 10.18313
Si -8.82537 23.76062 10.18313
Si -8.82537 26.47612  7.46762
Si -10.18312 22.40287 11.54087
Si -7.46762 22.40287 14.25638
Si -10.18312 25.11837 14.25638
Si -7.46762 25.11837 11.54087
Si -6.10987 23.76062 12.89862
Si -6.10987 26.47612 15.61413
Si -8.82537 23.76062 15.61413
Si -8.82537 26.47612 12.89862
Si -10.18312 27.83387  0.67888
Si -7.46762 27.83387  3.39437
Si -10.18312 30.54938  3.39437
Si -7.46762 30.54938  0.67888
Si -6.10987 29.19162  2.03662
Si -6.10987 31.90712  4.75213
Si -8.82537 29.19162  4.75213
Si -8.82537 31.90712  2.03662
Si -10.18312 27.83387  6.10987
Si -7.46762 27.83387  8.82537
Si -10.18312 30.54938  8.82537
Si -7.46762 30.54938  6.10987
Si -6.10987 29.19162  7.46762
Si -6.10987 31.90712 10.18313
Si -8.82537 29.19162 10.18313
Si -8.82537 31.90712  7.46762
Si -10.18312 27.83387 11.54087
Si -7.46762 27.83387 14.25638
Si -10.18312 30.54938 14.25638
Si -7.46762 30.54938 11.54087
Si -6.10987 29.19162 12.89862
Si -6.10987 31.90712 15.61413
Si -8.82537 29.19162 15.61413
Si -8.82537 31.90712 12.89862
Si -10.18312 33.26487  0.67888
Si -7.46762 33.26487  3.39437
Si -10.18312 35.98037  3.39437
Si -7.46762 35.98037  0.67888
Si -6.10987 34.62262  2.03662
Si -6.10987 37.33813  4.75213
Si -8.82537 34.62262  4.75213
Si -8.82537 37.33813  2.03662
Si -10.18312 33.26487  6.10987
Si -7.46762 33.26487  8.82537
Si -10.18312 35.98037  8.82537
Si -7.46762 35.98037  6.10987
Si -6.10987 34.62262  7.46762
Si -6.10987 37.33813 10.18313
Si -8.82537 34.62262 10.18313
Si -8.82537 37.33813  7.46762
Si -10.18312 33.26487 11.54087
Si -7.46762 33.26487 14.25638
Si -10.18312 35.98037 14.25638
Si -7.46762 35.98037 11.54087
Si -6.10987 34.62262 12.89862
Si -6.10987 37.33813 15.61413
Si -8.82537 34.62262 15.61413
Si -8.82537 37.33813 12.89862
Si -10.18312 38.69588  0.67888
Si -7.46762 38.69588  3.39437
Si -10.18312 41.41138  3.39437
Si -7.46762 41.41138  0.67888
Si -6.10987 40.05362  2.03662
Si -6.10987 42.76913  4.75213
Si -8.82537 40.05362  4.75213
Si -8.82537 42.76913  2.03662
Si -10.18312 38.69588  6.10987
Si -7.46762 38.69588  8.82537
Si -10.18312 41.41138  8.82537
Si -7.46762 41.41138  6.10987
Si -6.10987 40.05362  7.46762
Si -6.10987 42.76913 10.18313
Si -8.82537 40.05362 10.18313
Si -8.82537 42.76913  7.46762
Si -10.18312 38.69588 11.54087
Si -7.46762 38.69588 14.25638
Si -10.18312 41.41138 14.25638
Si -7.46762 41.41138 11.54087
Si -6.10987 40.05362 12.89862
Si -6.10987 42.76913 15.61413
Si -8.82537 40.05362 15.61413
Si -8.82537 42.76913 12.89862
Si -4.75212 22.40287  0.67888
Si -2.03662 22.40287  3.39437
Si -4.75212 25.11837  3.39437
Si -2.03662 25.11837  0.67888
Si -0.67888 23.76062  2.03662
Si -0.67888 26.47612  4.75213
Si -3.39437 23.76062  4.75213
Si -3.39437 26.47612  2.03662
Si -4.75212 22.40287  6.10987
Si -2.03662 22.40287  8.82537
Si -4.75212 25.11837  8.82537
Si -2.03662 25.11837  6.10987
Si -0.67888 23.76062  7.46762
Si -0.67888 26.47612 10.18313
Si -3.39437 23.76062 10.18313
Si -3.39437 26.47612  7.46762
Si -4.75212 22.40287 11.54087
Si -2.03662 22.40287 14.25638
Si -4.75212 25.11837 14.25638
Si -2.03662 25.11837 11.54087
Si -0.67888 23.76062 12.89862
Si -0.67888 26.47612 15.61413
Si -3.39437 23.76062 15.61413
Si -3.39437 26.47612 12.89862
Si -4.75212 27.83387  0.67888
Si -2.03662 27.83387  3.39437
Si -4.75212 30.54938  3.39437
Si -2.03662 30.54938  0.67888
Si -0.67888 29.19162  2.03662
Si -0.67888 31.90712  4.75213
Si -3.39437 29.19162  4.75213
Si -3.39437 31.90712  2.03662
Si -4.75212 27.83387  6.10987
Si -2.03662 27.83387  8.82537
Si -4.75212 30.54938  8.82537
Si -2.03662 30.54938  6.10987
Si -0.67888 29.19162  7.46762
Si -0.67888 31.90712 10.18313
Si -3.39437 29.19162 10.18313
Si -3.39437 31.90712  7.46762
Si -4.75212 27.83387 11.54087
Si -2.03662 27.83387 14.25638
Si -4.75212 30.54938 14.25638
Si -2.03662 30.54938 11.54087
Si -0.67888 29.19162 12.89862
Si -0.67888 31.90712 15.61413
Si -3.39437 29.19162 15.61413
Si -3.39437 31.90712 12.89862
Si -4.75212 33.26487  0.67888
Si -2.03662 33.26487  3.39437
Si -4.75212 35.98037  3.39437
Si -2.03662 35.98037  0.67888
Si -0.67888 34.62262  2.03662
Si -0.67888 37.33813  4.75213
Si -3.39437 34.62262  4.75213
Si -3.39437 37.33813  2.03662
Si -4.75212 33.26487  6.10987
Si -2.03662 33.26487  8.82537
Si -4.75212 35.98037  8.82537
Si -2.03662 35.98037  6.10987
Si -0.67888 34.62262  7.46762
Si -0.67888 37.33813 10.18313
Si -3.39437 34.62262 10.18313
Si -3.39437 37.33813  7.46762
Si -4.75212 33.26487 11.54087
Si -2.03662 33.26487 14.25638
Si -4.75212 35.98037 14.25638
Si -2.03662 35.98037 11.54087
Si -0.67888 34.62262 12.89862
Si -0.67888 37.33813 15.61413
Si -3.39437 34.62262 15.61413
Si -3.39437 37.33813 12.89862
Si -4.75212 38.69588  0.67888
Si -2.03662 38.69588  3.39437
Si -4.75212 41.41138  3.39437
Si -2.03662 41.41138  0.67888
Si -0.67888 40.05362  2.03662
Si -0.67888 42.76913  4.75213
Si -3.39437 40.05362  4.75213
Si -3.39437 42.76913  2.03662
Si -4.75212 38.69588  6.10987
Si -2.03662 38.69588  8.82537
Si -4.75212 41.41138  8.82537
Si -2.03662 41.41138  6.10987
Si -0.67888 40.05362  7.46762
Si -0.67888 42.76913 10.18313
Si -3.39437 40.05362 10.18313
Si -3.39437 42.76913  7.46762
Si -4.75212 38.69588 11.54087
Si -2.03662 38.69588 14.25638
Si -4.75212 41.41138 14.25638
Si -2.03662 41.41138 11.54087
Si -0.67888 40.05362 12.89862
Si -0.67888 42.76913 15.61413
Si -3.39437 40.05362 15.61413
Si -3.39437 42.76913 12.89862
Si -21.04513 22.40287 16.97188
Si -18.32963 22.40287 19.68737
Si -21.04513 25.11837 19.68737
Si -18.32963 25.11837 16.97188
Si -16.97187 23.76062 18.32963
Si -16.97187 26.47612 21.04513
Si -19.68738 23.76062 21.04513
Si -19.68738 26.47612 18.32963
Si -21.04513 22.40287 22.40287
Si -18.32963 22.40287 25.11837
Si -21.04513 25.11837 25.11837
Si -18.32963 25.11837 22.40287
Si -16.97187 23.76062 23.76062
Si -16.97187 26.47612 26.47612
Si -19.68738 23.76062 26.47612
Si -19.68738 26.47612 23.76062
Si -21.04513 22.40287 27.83388
Si -18.32963 22.40287 30.54938
Si -21.04513 25.11837 30.54938
Si -18.32963 25.11837 27.83388
Si -16.97187 23.76062 29.19162
Si -16.97187 26.47612 31.90713
Si -19.68738 23.76062 31.90713
Si -19.68738 26.47612 29.19162
Si -21.04513 27.83387 16.97188
Si -18.32963 27.83387 19.68737
Si -21.04513 30.54938 19.68737
Si -18.32963 30.54938 16.97188
Si -16.97187 29.19162 18.32963
Si -16.97187 31.90712 21.04513
Si -19.68738 29.19162 21.04513
Si -19.68738 31.90712 18.32963
Si -21.04513 27.83387 22.40287
Si -18.32963 27.83387 25.11837
Si -21.04513 30.54938 25.11837
Si -18.32963 30.54938 22.40287
Si -16.97187 29.19162 23.76062
Si -16.97187 31.90712 26.47612
Si -19.68738 29.19162 26.47612
Si -19.68738 31.90712 23.76062
Si -21.04513 27.83387 27.83388
Si -18.32963 27.83387 30.54938
Si -21.04513 30.54938 30.54938
Si -18.32963 30.54938 27.83388
Si -16.97187 29.19162 29.19162
Si -16.97187 31.90712 31.90713
Si -19.68738 29.19162 31.90713
Si -19.68738 31.90712 29.19162
Si -21.04513 33.26487 16.97188
Si -18.32963 33.26487 19.68737
Si -21.04513 35.98037 19.68737
Si -18.32963 35.98037 16.97188
Si -16.97187 34.62262 18.32963
Si -16.97187 37.33813 21.04513
Si -19.68738 34.62262 21.04513
Si -19.68738 37.33813 18.32963
Si -21.04513 33.26487 22.40287
Si -18.32963 33.26487 25.11837
Si -21.04513 35.98037 25.11837
Si -18.32963 35.98037 22.40287
Si -16.97187 34.62262 23.76062
Si -16.97187 37.33813 26.47612
Si -19.68738 34.62262 26.47612
Si -19.68738 37.33813 23.76062
Si -21.04513 33.26487 27.83388
Si -18.32963 33.26487 30.54938
Si -21.04513 35.98037 30.54938
Si -18.32963 35.98037 27.83388
Si -16.97187 34.62262 29.19162
Si -16.97187 37.33813 31.90713
Si -19.68738 34.62262 31.90713
Si -19.68738 37.33813 29.19162
Si -21.04513 38.69588 16.97188
Si -18.32963 38.69588 19.68737
Si -21.04513 41.41138 19.68737
Si -18.32963 41.41138 16.97188
Si -16.97187 40.05362 18.32963
Si -16.97187 42.76913 21.04513
Si -19.68738 40.05362 21.04513
Si -19.68738 42.76913 18.32963
Si -21.04513 38.69588 22.40287
Si -18.32963 38.69588 25.11837
Si -21.04513 41.41138 25.11837
Si -18.32963 41.41138 22.40287
Si -16.97187 40.05362 23.76062
Si -16.97187 42.76913 26.47612
Si -19.68738 40.05362 26.47612
Si -19.68738 42.76913 23.76062
Si -21.04513 38.69588 27.83388
Si -18.32963 38.69588 30.54938
Si -21.04513 41.41138 30.54938
Si -18.32963 41.41138 27.83388
Si -16.97187 40.05362 29.19162
Si -16.97187 42.76913 31.90713
Si -19.68738 40.05362 31.90713
Si -19.68738 42.76913 29.19162
Si -15.61412 22.40287 16.97188
Si -12.89862 22.40287 19.68737
Si -15.61412 25.11837 19.68737
Si -12.89862 25.11837 16.97188
Si -11.54087 23.76062 18.32963
Si -11.54087 26.47612 21.04513
Si -14.25638 23.76062 21.04513
Si -14.25638 26.47612 18.32963
Si -15.61412 22.40287 22.40287
Si -12.89862 22.40287 25.11837
Si -15.61412 25.11837 25.11837
Si -12.89862 25.11837 22.40287
Si -11.54087 23.76062 23.76062
Si -11.54087 26.47612 26.47612
Si -14.25638 23.76062 26.47612
Si -14.25638 26.47612 23.76062
Si -15.61412 22.40287 27.83388
Si -12.89862 22.40287 30.54938
Si -15.61412 25.11837 30.54938
Si -12.89862 25.11837 27.83388
Si -11.54087 23.76062 29.19162
Si -11.54087 26.47612 31.90713
Si -14.25638 23.76062 31.90713
Si -14.25638 26.47612 29.19162
Si -15.61412 27.83387 16.97188
Si -12.89862 27.83387 19.68737
Si -15.61412 30.54938 19.68737
Si -12.89862 30.54938 16.97188
Si -11.54087 29.19162 18.32963
Si -11.54087 31.90712 21.04513
Si -14.25638 29.19162 21.04513
Si -14.25638 31.90712 18.32963
Si -15.61412 27.83387 22.40287
Si -12.89862 27.83387 25.11837
Si -15.61412 30.54938 25.11837
Si -12.89862 30.54938 22.40287
Si -11.54087 29.19162 23.76062
Si -11.54087 31.90712 26.47612
Si -14.25638 29.19162 26.47612
Si -14.25638 31.90712 23.76062
Si -15.61412 27.83387 27.83388
Si -12.89862 27.83387 30.54938
Si -15.61412 30.54938 30.54938
Si -12.89862 30.54938 27.83388
Si -11.54087 29.19162 29.19162
Si -11.54087 31.90712 31.90713
Si -14.25638 29.19162 31.90713
Si -14.25638 31.90712 29.19162
Si -15.61412 33.26487 16.97188
Si -12.89862 33.26487 19.68737
Si -15.61412 35.98037 19.68737
Si -12.89862 35.98037 16.97188
Si -11.54087 34.62262 18.32963
Si -11.54087 37.33813 21.04513
Si -14.25638 34.62262 21.04513
Si -14.25638 37.33813 18.32963
Si -15.61412 33.26487 22.40287
Si -12.89862 33.26487 25.11837
Si -15.61412 35.98037 25.11837
Si -12.89862 35.98037 22.40287
Si -11.54087 34.62262 23.76062
Si -11.54087 37.33813 26.47612
Si -14.25638 34.62262 26.47612
Si -14.25638 37.33813 23.76062
Si -15.61412 33.26487 27.83388
Si -12.89862 33.26487 30.54938
Si -15.61412 35.98037 30.54938
Si -12.89862 35.98037 27.83388
Si -11.54087 34.62262 29.19162
Si -11.54087 37.33813 31.90713
Si -14.25638 34.62262 31.90713
Si -14.25638 37.33813 29.19162
Si -15.61412 38.69588 16.97188
Si -12.89862 38.69588 19.68737
Si -15.61412 41.41138 19.68737
Si -12.89862 41.41138 16.97188
Si -11.54087 40.05362 18.32963
Si -11.54087 42.76913 21.04513
Si -14.25638 40.05362 21.04513
Si -14.25638 42.76913 18.32963
Si -15.61412 38.69588 22.40287
Si -12.89862 38.69588 25.11837
Si -15.61412 41.41138 25.11837
Si -12.89862 41.41138 22.40287
Si -11.54087 40.05362 23.76062
Si -11.54087 42.76913 26.47612
Si -14.25638 40.05362 26.47612
Si -14.25638 42.76913 23.76062
Si -15.61412 38.69588 27.83388
Si -12.89862 38.69588 30.54938
Si -15.61412 41.41138 30.54938
Si -12.89862 41.41138 27.83388
Si -11.54087 40.05362 29.19162
Si -11.54087 42.76913 31.90713
Si -14.25638 40.05362 31.90713
Si -14.25638 42.76913 29.19162
Si -10.18312 22.40287 16.97188
Si -7.46762 22.40287 19.68737
Si -10.18312 25.11837 19.68737
Si -7.46762 25.11837 16.97188
Si -6.10987 23.76062 18.32963
Si -6.10987 26.47612 21.04513
Si -8.82537 23.76062 21.04513
Si -8.82537 26.47612 18.32963
Si -10.18312 22.40287 22.40287
Si -7.46762 22.40287 25.11837
Si -10.18312 25.11837 25.11837
Si -7.46762 25.11837 22.40287
Si -6.10987 23.76062 23.76062
Si -6.10987 26.47612 26.47612
Si -8.82537 23.76062 26.47612
Si -8.82537 26.47612 23.76062
Si -10.18312 22.40287 27.83388
Si -7.46762 22.40287 30.54938
Si -10.18312 25.11837 30.54938
Si -7.46762 25.11837 27.83388
Si -6.10987 23.76062 29.19162
Si -6.10987 26.47612 31.90713
Si -8.82537 23.76062 31.90713
Si -8.82537 26.47612 29.19162
Si -10.18312 27.83387 16.97188
Si -7.46762 27.83387 19.68737
Si -10.18312 30.54938 19.68737
Si -7.46762 30.54938 16.97188
Si -6.10987 29.19162 18.32963
Si -6.10987 31.90712 21.04513
Si -8.82537 29.19162 21.04513
Si -8.82537 31.90712 18.32963
Si -10.18312 27.83387 22.40287
Si -7.46762 27.83387 25.11837
Si -10.18312 30.54938 25.11837
Si -7.46762 30.54938 22.40287
Si -6.10987 29.19162 23.76062
Si -6.10987 31.90712 26.47612
Si -8.82537 29.19162 26.47612
Si -8.82537 31.90712 23.76062
Si -10.18312 27.83387 27.83388
Si -7.46762 27.83387 30.54938
Si -10.18312 30.54938 30.54938
Si -7.46762 30.54938 27.83388
Si -6.10987 29.19162 29.19162
Si -6.10987 31.90712 31.90713
Si -8.82537 29.19162 31.90713
Si -8.82537 31.90712 29.19162
Si -10.18312 33.26487 16.97188
Si -7.46762 33.26487 19.68737
Si -10.18312 35.98037 19.68737
Si -7.46762 35.98037 16.97188
Si -6.10987 34.62262 18.32963
Si -6.10987 37.33813 21.04513
Si -8.82537 34.62262 21.04513
Si -8.82537 37.33813 18.32963
Si -10.18312 33.26487 22.40287
Si -7.46762 33.26487 25.11837
Si -10.18312 35.98037 25.11837
Si -7.46762 35.98037 22.40287
Si -6.10987 34.62262 23.76062
Si -6.10987 37.33813 26.47612
Si -8.82537 34.62262 26.47612
Si -8.82537 37.33813 23.76062
Si -10.18312 33.26487 27.83388
Si -7.46762 33.26487 30.54938
Si -10.18312 35.98037 30.54938
Si -7.46762 35.98037 27.83388
Si -6.10987 34.62262 29.19162
Si -6.10987 37.33813 31.90713
Si -8.82537 34.62262 31.90713
Si -8.82537 37.33813 29.19162
Si -10.18312 38.69588 16.97188
Si -7.46762 38.69588 19.68737
Si -10.18312 41.41138 19.68737
Si -7.46762 41.41138 16.97188
Si -6.10987 40.05362 18.32963
Si -6.10987 42.76913 21.04513
Si -8.82537 40.05362 21.04513
Si -8.82537 42.76913 18.32963
Si -10.18312 38.69588 22.40287
Si -7.46762 38.69588 25.11837
Si -10.18312 41.41138 25.11837
Si -7.46762 41.41138 22.40287
Si -6.10987 40.05362 23.76062
Si -6.10987 42.76913 26.47612
Si -8.82537 40.05362 26.47612
Si -8.82537 42.76913 23.76062
Si -10.18312 38.69588 27.83388
Si -7.46762 38.69588 30.54938
Si -10.18312 41.41138 30.54938
Si -7.46762 41.41138 27.83388
Si -6.10987 40.05362 29.19162
Si -6.10987 42.76913 31.90713
Si -8.82537 40.05362 31.90713
Si -8.82537 42.76913 29.19162
Si -4.75212 22.40287 16.97188
Si -2.03662 22.40287 19.68737
Si -4.75212 25.11837 19.68737
Si -2.03662 25.11837 16.97188
Si -0.67888 23.76062 18.32963
Si -0.67888 26.47612 21.04513
Si -3.39437 23.76062 21.04513
Si -3.39437 26.47612 18.32963
Si -4.75212 22.40287 22.40287
Si -2.03662 22.40287 25.11837
Si -4.75212 25.11837 25.11837
Si -2.03662 25.11837 22.40287
Si -0.67888 23.76062 23.76062
Si -0.67888 26.47612 26.47612
Si -3.39437 23.76062 26.47612
Si -3.39437 26.47612 23.76062
Si -4.75212 22.40287 27.83388
Si -2.03662 22.40287 30.54938
Si -4.75212 25.11837 30.54938
Si -2.03662 25.11837 27.83388
Si -0.67888 23.76062 29.19162
Si -0.67888 26.47612 31.90713
Si -3.39437 23.76062 31.90713
Si -3.39437 26.47612 29.19162
Si -4.75212 27.83387 16.97188
Si -2.03662 27.83387 19.68737
Si -4.75212 30.54938 19.68737
Si -2.03662 30.54938 16.97188
Si -0.67888 29.19162 18.32963
Si -0.67888 31.90712 21.04513
Si -3.39437 29.19162 21.04513
Si -3.39437 31.90712 18.32963
Si -4.75212 27.83387 22.40287
Si -2.03662 27.83387 25.11837
Si -4.75212 30.54938 25.11837
Si -2.03662 30.54938 22.40287
Si -0.67888 29.19162 23.76062
Si -0.67888 31.90712 26.47612
Si -3.39437 29.19162 26.47612
Si -3.39437 31.90712 23.76062
Si -4.75212 27.83387 27.83388
Si -2.03662 27.83387 30.54938
Si -4.75212 30.54938 30.54938
Si -2.03662 30.54938 27.83388
Si -0.67888 29.19162 29.19162
Si -0.67888 31.90712 31.90713
Si -3.39437 29.19162 31.90713
Si -3.39437 31.90712 29.19162
Si -4.75212 33.26487 16.97188
Si -2.03662 33.26487 19.68737
Si -4.75212 35.98037 19.68737
Si -2.03662 35.98037 16.97188
Si -0.67888 34.62262 18.32963
Si -0.67888 37.33813 21.04513
Si -3.39437 34.62262 21.04513
Si -3.39437 37.33813 18.32963
Si -4.75212 33.26487 22.40287
Si -2.03662 33.26487 25.11837
Si -4.75212 35.98037 25.11837
Si -2.03662 35.98037 22.40287
Si -0.67888 34.62262 23.76062
Si -0.67888 37.33813 26.47612
Si -3.39437 34.62262 26.47612
Si -3.39437 37.33813 23.76062
Si -4.75212 33.26487 27.83388
Si -2.03662 33.26487 30.54938
Si -4.75212 35.98037 30.54938
Si -2.03662 35.98037 27.83388
Si -0.67888 34.62262 29.19162
Si -0.67888 37.33813 31.90713
Si -3.39437 34.62262 31.90713
Si -3.39437 37.33813 29.19162
Si -4.75212 38.69588 16.97188
Si -2.03662 38.69588 19.68737
Si -4.75212 41.41138 19.68737
Si -2.03662 41.41138 16.97188
Si -0.67888 40.05362 18.32963
Si -0.67888 42.76913 21.04513
Si -3.39437 40.05362 21.04513
Si -3.39437 42.76913 18.32963
Si -4.75212 38.69588 22.40287
Si -2.03662 38.69588 25.11837
Si -4.75212 41.41138 25.11837
Si -2.03662 41.41138 22.40287
Si -0.67888 40.05362 23.76062
Si -0.67888 42.76913 26.47612
Si -3.39437 40.05362 26.47612
Si -3.39437 42.76913 23.76062
Si -4.75212 38.69588 27.83388
Si -2.03662 38.69588 30.54938
Si -4.75212 41.41138 30.54938
Si -2.03662 41.41138 27.83388
Si -0.67888 40.05362 29.19162
Si -0.67888 42.76913 31.90713
Si -3.39437 40.05362 31.90713
Si -3.39437 42.76913 29.19162
Si  0.67887 -21.04513 -15.61412
Si  3.39438 -21.04513 -12.89863
Si  0.67887 -18.32963 -12.89863
Si  3.39438 -18.32963 -15.61412
Si  4.75212 -19.68738 -14.25638
Si  4.75212 -16.97187 -11.54087
Si  2.03662 -19.68738 -11.54087
Si  2.03662 -16.97187 -14.25638
Si  0.67887 -21.04513 -10.18313
Si  3.39438 -21.04513 -7.46763
Si  0.67887 -18.32963 -7.46763
Si  3.39438 -18.32963 -10.18313
Si  4.75212 -19.68738 -8.82538
Si  4.75212 -16.97187 -6.10987
Si  2.03662 -19.68738 -6.10987
Si  2.03662 -16.97187 -8.82538
Si  0.67887 -21.04513 -4.75212
Si  3.39438 -21.04513 -2.03662
Si  0.67887 -18.32963 -2.03662
Si  3.39438 -18.32963 -4.75212
Si  4.75212 -19.68738 -3.39438
Si  4.75212 -16.97187 -0.67887
Si  2.03662 -19.68738 -0.67887
Si  2.03662 -16.97187 -3.39438
Si  0.67887 -15.61412 -15.61412
Si  3.39438 -15.61412 -12.89863
Si  0.67887 -12.89862 -12.89863
Si  3.39438 -12.89862 -15.61412
Si  4.75212 -14.25638 -14.25638
Si  4.75212 -11.54087 -11.54087
Si  2.03662 -14.25638 -11.54087
Si  2.03662 -11.54087 -14.25638
Si  0.67887 -15.61412 -10.18313
Si  3.39438 -15.61412 -7.46763
Si  0.67887 -12.89862 -7.46763
Si  3.39438 -12.89862 -10.18313
Si  4.75212 -14.25638 -8.82538
Si  4.75212 -11.54087 -6.10987
Si  2.03662 -14.25638 -6.10987
Si  2.03662 -11.54087 -8.82538
Si  0.67887 -15.61412 -4.75212
Si  3.39438 -15.61412 -2.03662
Si  0.67887 -12.89862 -2.03662
Si  3.39438 -12.89862 -4.75212
Si  4.75212 -14.25638 -3.39438
Si  4.75212 -11.54087 -0.67887
Si  2.03662 -14.25638 -0.67887
Si  2.03662 -11.54087 -3.39438
Si  0.67887 -10.18312 -15.61412
Si  3.39438 -10.18312 -12.89863
Si  0.67887 -7.46762 -12.89863
Si  3.39438 -7.46762 -15.61412
Si  4.75212 -8.82537 -14.25638
Si  4.75212 -6.10987 -11.54087
Si  2.03662 -8.82537 -11.54087
Si  2.03662 -6.10987 -14.25638
Si  0.67887 -10.18312 -10.18313
Si  3.39438 -10.18312 -7.46763
Si  0.67887 -7.46762 -7.46763
Si  3.39438 -7.46762 -10.18313
Si  4.75212 -8.82537 -8.82538
Si  4.75212 -6.10987 -6.10987
Si  2.03662 -8.82537 -6.10987
Si  2.03662 -6.10987 -8.82538
Si  0.67887 -10.18312 -4.75212
Si  3.39438 -10.18312 -2.03662
Si  0.67887 -7.46762 -2.03662
Si  3.39438 -7.46762 -4.75212
Si  4.75212 -8.82537 -3.39438
Si  4.75212 -6.10987 -0.67887
Si  2.03662 -8.82537 -0.67887
Si  2.03662 -6.10987 -3.39438
Si  0.67887 -4.75212 -15.61412
Si  3.39438 -4.75212 -12.89863
Si  0.67887 -2.03662 -12.89863
Si  3.39438 -2.03662 -15.61412
Si  4.75212 -3.39437 -14.25638
Si  4.75212 -0.67888 -11.54087
Si  2.03662 -3.39437 -11.54087
Si  2.03662 -0.67888 -14.25638
Si  0.67887 -4.75212 -10.18313
Si  3.39438 -4.75212 -7.46763
Si  0.67887 -2.03662 -7.46763
Si  3.39438 -2.03662 -10.18313
Si  4.75212 -3.39437 -8.82538
Si  4.75212 -0.67888 -6.10987
Si  2.03662 -3.39437 -6.10987
Si  2.03662 -0.67888 -8.82538
Si  0.67887 -4.75212 -4.75212
Si  3.39438 -4.75212 -2.03662
Si  0.67887 -2.03662 -2.03662
Si  3.39438 -2.03662 -4.75212
Si  4.75212 -3.39437 -3.39438
Si  4.75212 -0.67888 -0.67887
Si  2.03662 -3.39437 -0.67887
Si  2.03662 -0.67888 -3.39438
Si  6.10987 -21.04513 -15.61412
Si  8.82537 -21.04513 -12.89863
Si  6.10987 -18.32963 -12.89863
Si  8.82537 -18.32963 -15.61412
Si 10.18313 -19.68738 -14.25638
Si 10.18313 -16.97187 -11.54087
Si  7.46762 -19.68738 -11.54087
Si  7.46762 -16.97187 -14.25638
Si  6.10987 -21.04513 -10.18313
Si  8.82537 -21.04513 -7.46763
Si  6.10987 -18.32963 -7.46763
Si  8.82537 -18.32963 -10.18313
Si 10.18313 -19.68738 -8.82538
Si 10.18313 -16.97187 -6.10987
Si  7.46762 -19.68738 -6.10987
Si  7.46762 -16.97187 -8.82538
Si  6.10987 -21.04513 -4.75212
Si  8.82537 -21.04513 -2.03662
Si  6.10987 -18.32963 -2.03662
Si  8.82537 -18.32963 -4.75212
Si 10.18313 -19.68738 -3.39438
Si 10.18313 -16.97187 -0.67887
Si  7.46762 -19.68738 -0.67887
Si  7.46762 -16.97187 -3.39438
Si  6.10987 -15.61412 -15.61412
Si  8.82537 -15.61412 -12.89863
Si  6.10987 -12.89862 -12.89863
Si  8.82537 -12.89862 -15.61412
Si 10.18313 -14.25638 -14.25638
Si 10.18313 -11.54087 -11.54087
Si  7.46762 -14.25638 -11.54087
Si  7.46762 -11.54087 -14.25638
Si  6.10987 -15.61412 -10.18313
Si  8.82537 -15.61412 -7.46763
Si  6.10987 -12.89862 -7.46763
Si  8.82537 -12.89862 -10.18313
Si 10.18313 -14.25638 -8.82538
Si 10.18313 -11.54087 -6.10987
Si  7.46762 -14.25638 -6.10987
Si  7.46762 -11.54087 -8.82538
Si  6.10987 -15.61412 -4.75212
Si  8.82537 -15.61412 -2.03662
Si  6.10987 -12.89862 -2.03662
Si  8.82537 -12.89862 -4.75212
Si 10.18313 -14.25638 -3.39438
Si 10.18313 -11.54087 -0.67887
Si  7.46762 -14.25638 -0.67887
Si  7.46762 -11.54087 -3.39438
Si  6.10987 -10.18312 -15.61412
Si  8.82537 -10.18312 -12.89863
Si  6.10987 -7.46762 -12.89863
Si  8.82537 -7.46762 -15.61412
Si 10.18313 -8.82537 -14.25638
Si 10.18313 -6.10987 -11.54087
Si  7.46762 -8.82537 -11.54087
Si  7.46762 -6.10987 -14.25638
Si  6.10987 -10.18312 -10.18313
Si  8.82537 -10.18312 -7.46763
Si  6.10987 -7.46762 -7.46763
Si  8.82537 -7.46762 -10.18313
Si 10.18313 -8.82537 -8.82538
Si 10.18313 -6.10987 -6.10987
Si  7.46762 -8.82537 -6.10987
Si  7.46762 -6.10987 -8.82538
Si  6.10987 -10.18312 -4.75212
Si  8.82537 -10.18312 -2.03662
Si  6.10987 -7.46762 -2.03662
Si  8.82537 -7.46762 -4.75212
Si 10.18313 -8.82537 -3.39438
Si 10.18313 -6.10987 -0.67887
Si  7.46762 -8.82537 -0.67887
Si  7.46762 -6.10987 -3.39438
Si  6.10987 -4.75212 -15.61412
Si  8.82537 -4.75212 -12.89863
Si  6.10987 -2.03662 -12.89863
Si  8.82537 -2.03662 -15.61412
Si 10.18313 -3.39437 -14.25638
Si 10.18313 -0.67888 -11.54087
Si  7.46762 -3.39437 -11.54087
Si  7.46762 -0.67888 -14.25638
Si  6.10987 -4.75212 -10.18313
Si  8.82537 -4.75212 -7.46763
Si  6.10987 -2.03662 -7.46763
Si  8.82537 -2.03662 -10.18313
Si 10.18313 -3.39437 -8.82538
Si 10.18313 -0.67888 -6.10987
Si  7.46762 -3.39437 -6.10987
Si  7.46762 -0.67888 -8.82538
Si  6.10987 -4.75212 -4.75212
Si  8.82537 -4.75212 -2.03662
Si  6.10987 -2.03662 -2.03662
Si  8.82537 -2.03662 -4.75212
Si 10.18313 -3.39437 -3.39438
Si 10.18313 -0.67888 -0.67887
Si  7.46762 -3.39437 -0.67887
Si  7.46762 -0.67888 -3.39438
Si 11.54087 -21.04513 -15.61412
Si 14.25638 -21.04513 -12.89863
Si 11.54087 -18.32963 -12.89863
Si 14.25638 -18.32963 -15.61412
Si 15.61413 -19.68738 -14.25638
Si 15.61413 -16.97187 -11.54087
Si 12.89862 -19.68738 -11.54087
Si 12.89862 -16.97187 -14.25638
Si 11.54087 -21.04513 -10.18313
Si 14.25638 -21.04513 -7.46763
Si 11.54087 -18.32963 -7.46763
Si 14.25638 -18.32963 -10.18313
Si 15.61413 -19.68738 -8.82538
Si 15.61413 -16.97187 -6.10987
Si 12.89862 -19.68738 -6.10987
Si 12.89862 -16.97187 -8.82538
Si 11.54087 -21.04513 -4.75212
Si 14.25638 -21.04513 -2.03662
Si 11.54087 -18.32963 -2.03662
Si 14.25638 -18.32963 -4.75212
Si 15.61413 -19.68738 -3.39438
Si 15.61413 -16.97187 -0.67887
Si 12.89862 -19.68738 -0.67887
Si 12.89862 -16.97187 -3.39438
Si 11.54087 -15.61412 -15.61412
Si 14.25638 -15.61412 -12.89863
Si 11.54087 -12.89862 -12.89863
Si 14.25638 -12.89862 -15.61412
Si 15.61413 -14.25638 -14.25638
Si 15.61413 -11.54087 -11.54087
Si 12.89862 -14.25638 -11.54087
Si 12.89862 -11.54087 -14.25638
Si 11.54087 -15.61412 -10.18313
Si 14.25638 -15.61412 -7.46763
Si 11.54087 -12.89862 -7.46763
Si 14.25638 -12.89862 -10.18313
Si 15.61413 -14.25638 -8.82538
Si 15.61413 -11.54087 -6.10987
Si 12.89862 -14.25638 -6.10987
Si 12.89862 -11.54087 -8.82538
Si 11.54087 -15.61412 -4.75212
Si 14.25638 -15.61412 -2.03662
Si 11.54087 -12.89862 -2.03662
Si 14.25638 -12.89862 -4.75212
Si 15.61413 -14.25638 -3.39438
Si 15.61413 -11.54087 -0.67887
Si 12.89862 -14.25638 -0.67887
Si 12.89862 -11.54087 -3.39438
Si 11.54087 -10.18312 -15.61412
Si 14.25638 -10.18312 -12.89863
Si 11.54087 -7.46762 -12.89863
Si 14.25638 -7.46762 -15.61412
Si 15.61413 -8.82537 -14.25638
Si 15.61413 -6.10987 -11.54087
Si 12.89862 -8.82537 -11.54087
Si 12.89862 -6.10987 -14.25638
Si 11.54087 -10.18312 -10.18313
Si 14.25638 -10.18312 -7.46763
Si 11.54087 -7.46762 -7.46763
Si 14.25638 -7.46762 -10.18313
Si 15.61413 -8.82537 -8.82538
Si 15.61413 -6.10987 -6.10987
Si 12.89862 -8.82537 -6.10987
Si 12.89862 -6.10987 -8.82538
Si 11.54087 -10.18312 -4.75212
Si 14.25638 -10.18312 -2.03662
Si 11.54087 -7.46762 -2.03662
Si 14.25638 -7.46762 -4.75212
Si 15.61413 -8.82537 -3.39438
Si 15.61413 -6.10987 -0.67887
Si 12.89862 -8.82537 -0.67887
Si 12.89862 -6.10987 -3.39438
Si 11.54087 -4.75212 -15.61412
Si 14.25638 -4.75212 -12.89863
Si 11.54087 -2.03662 -12.89863
Si 14.25638 -2.03662 -15.61412
Si 15.61413 -3.39437 -14.25638
Si 15.61413 -0.67888 -11.54087
Si 12.89862 -3.39437 -11.54087
Si 12.89862 -0.67888 -14.25638
Si 11.54087 -4.75212 -10.18313
Si 14.25638 -4.75212 -7.46763
Si 11.54087 -2.03662 -7.46763
Si 14.25638 -2.03662 -10.18313
Si 15.61413 -3.39437 -8.82538
Si 15.61413 -0.67888 -6.10987
Si 12.89862 -3.39437 -6.10987
Si 12.89862 -0.67888 -8.82538
Si 11.54087 -4.75212 -4.75212
Si 14.25638 -4.75212 -2.03662
Si 11.54087 -2.03662 -2.03662
Si 14.25638 -2.03662 -4.75212
Si 15.61413 -3.39437 -3.39438
Si 15.61413 -0.67888 -0.67887
Si 12.89862 -3.39437 -0.67887
Si 12.89862 -0.67888 -3.39438
Si 16.97188 -21.04513 -15.61412
Si 19.68738 -21.04513 -12.89863
Si 16.97188 -18.32963 -12.89863
Si 19.68738 -18.32963 -15.61412
Si 21.04512 -19.68738 -14.25638
Si 21.04512 -16.97187 -11.54087
Si 18.32963 -19.68738 -11.54087
Si 18.32963 -16.97187 -14.25638
Si 16.97188 -21.04513 -10.18313
Si 19.68738 -21.04513 -7.46763
Si 16.97188 -18.32963 -7.46763
Si 19.68738 -18.32963 -10.18313
Si 21.04512 -19.68738 -8.82538
Si 21.04512 -16.97187 -6.10987
Si 18.32963 -19.68738 -6.10987
Si 18.32963 -16.97187 -8.82538
Si 16.97188 -21.04513 -4.75212
Si 19.68738 -21.04513 -2.03662
Si 16.97188 -18.32963 -2.03662
Si 19.68738 -18.32963 -4.75212
Si 21.04512 -19.68738 -3.39438
Si 21.04512 -16.97187 -0.67887
Si 18.32963 -19.68738 -0.67887
Si 18.32963 -16.97187 -3.39438
Si 16.97188 -15.61412 -15.61412
Si 19.68738 -15.61412 -12.89863
Si 16.97188 -12.89862 -12.89863
Si 19.68738 -12.89862 -15.61412
Si 21.04512 -14.25638 -14.25638
Si 21.04512 -11.54087 -11.54087
Si 18.32963 -14.25638 -11.54087
Si 18.32963 -11.54087 -14.25638
Si 16.97188 -15.61412 -10.18313
Si 19.68738 -15.61412 -7.46763
Si 16.97188 -12.89862 -7.46763
Si 19.68738 -12.89862 -10.18313
Si 21.04512 -14.25638 -8.82538
Si 21.04512 -11.54087 -6.10987
Si 18.32963 -14.25638 -6.10987
Si 18.32963 -11.54087 -8.82538
Si 16.97188 -15.61412 -4.75212
Si 19.68738 -15.61412 -2.03662
Si 16.97188 -12.89862 -2.03662
Si 19.68738 -12.89862 -4.75212
Si 21.04512 -14.25638 -3.39438
Si 21.04512 -11.54087 -0.67887
Si 18.32963 -14.25638 -0.67887
Si 18.32963 -11.54087 -3.39438
Si 16.97188 -10.18312 -15.61412
Si 19.68738 -10.18312 -12.89863
Si 16.97188 -7.46762 -12.89863
Si 19.68738 -7.46762 -15.61412
Si 21.04512 -8.82537 -14.25638
Si 21.04512 -6.10987 -11.54087
Si 18.32963 -8.82537 -11.54087
Si 18.32963 -6.10987 -14.25638
Si 16.97188 -10.18312 -10.18313
Si 19.68738 -10.18312 -7.46763
Si 16.97188 -7.46762 -7.46763
Si 19.68738 -7.46762 -10.18313
Si 21.04512 -8.82537 -8.82538
Si 21.04512 -6.10987 -6.10987
Si 18.32963 -8.82537 -6.10987
Si 18.32963 -6.10987 -8.82538
Si 16.97188 -10.18312 -4.75212
Si 19.68738 -10.18312 -2.03662
Si 16.97188 -7.46762 -2.03662
Si 19.68738 -7.46762 -4.75212
Si 21.04512 -8.82537 -3.39438
Si 21.04512 -6.10987 -0.67887
Si 18.32963 -8.82537 -0.67887
Si 18.32963 -6.10987 -3.39438
Si 16.97188 -4.75212 -15.61412
Si 19.68738 -4.75212 -12.89863
Si 16.97188 -2.03662 -12.89863
Si 19.68738 -2.03662 -15.61412
Si 21.04512 -3.39437 -14.25638
Si 21.04512 -0.67888 -11.54087
Si 18.32963 -3.39437 -11.54087
Si 18.32963 -0.67888 -14.25638
Si 16.97188 -4.75212 -10.18313
Si 19.68738 -4.75212 -7.46763
Si 16.97188 -2.03662 -7.46763
Si 19.68738 -2.03662 -10.18313
Si 21.04512 -3.39437 -8.82538
Si 21.04512 -0.67888 -6.10987
Si 18.32963 -3.39437 -6.10987
Si 18.32963 -0.67888 -8.82538
Si 16.97188 -4.75212 -4.75212
Si 19.68738 -4.75212 -2.03662
Si 16.97188 -2.03662 -2.03662
Si 19.68738 -2.03662 -4.75212
Si 21.04512 -3.39437 -3.39438
Si 21.04512 -0.67888 -0.67887
Si 18.32963 -3.39437 -0.67887
Si 18.32963 -0.67888 -3.39438
Si  0.67887 -21.04513  0.67888
Si  3.39438 -21.04513  3.39437
Si  0.67887 -18.32963  3.39437
Si  3.39438 -18.32963  0.67888
Si  4.75212 -19.68738  2.03662
Si  4.75212 -16.97187  4.75213
Si  2.03662 -19.68738  4.75213
Si  2.03662 -16.97187  2.03662
Si  0.67887 -21.04513  6.10987
Si  3.39438 -21.04513  8.82537
Si  0.67887 -18.32963  8.82537
Si  3.39438 -18.32963  6.10987
Si  4.75212 -19.68738  7.46762
Si  4.75212 -16.97187 10.18313
Si  2.03662 -19.68738 10.18313
Si  2.03662 -16.97187  7.46762
Si  0.67887 -21.04513 11.54087
Si  3.39438 -21.04513 14.25638
Si  0.67887 -18.32963 14.25638
Si  3.39438 -18.32963 11.54087
Si  4.75212 -19.68738 12.89862
Si  4.75212 -16.97187 15.61413
Si  2.03662 -19.68738 15.61413
Si  2.03662 -16.97187 12.89862
Si  0.67887 -15.61412  0.67888
Si  3.39438 -15.61412  3.39437
Si  0.67887 -12.89862  3.39437
Si  3.39438 -12.89862  0.67888
Si  4.75212 -14.25638  2.03662
Si  4.75212 -11.54087  4.75213
Si  2.03662 -14.25638  4.75213
Si  2.03662 -11.54087  2.03662
Si  0.67887 -15.61412  6.10987
Si  3.39438 -15.61412  8.82537
Si  0.67887 -12.89862  8.82537
Si  3.39438 -12.89862  6.10987
Si  4.75212 -14.25638  7.46762
Si  4.75212 -11.54087 10.18313
Si  2.03662 -14.25638 10.18313
Si  2.03662 -11.54087  7.46762
Si  0.67887 -15.61412 11.54087
Si  3.39438 -15.61412 14.25638
Si  0.67887 -12.89862 14.25638
Si  3.39438 -12.89862 11.54087
Si  4.75212 -14.25638 12.89862
Si  4.75212 -11.54087 15.61413
Si  2.03662 -14.25638 15.61413
Si  2.03662 -11.54087 12.89862
Si  0.67887 -10.18312  0.67888
Si  3.39438 -10.18312  3.39437
Si  0.67887 -7.46762  3.39437
Si  3.39438 -7.46762  0.67888
Si  4.75212 -8.82537  2.03662
Si  4.75212 -6.10987  4.75213
Si  2.03662 -8.82537  4.75213
Si  2.03662 -6.10987  2.03662
Si  0.67887 -10.18312  6.10987
Si  3.39438 -10.18312  8.82537
Si  0.67887 -7.46762  8.82537
Si  3.39438 -7.46762  6.10987
Si  4.75212 -8.82537  7.46762
Si  4.75212 -6.10987 10.18313
Si  2.03662 -8.82537 10.18313
Si  2.03662 -6.10987  7.46762
Si  0.67887 -10.18312 11.54087
Si  3.39438 -10.18312 14.25638
Si  0.67887 -7.46762 14.25638
Si  3.39438 -7.46762 11.54087
Si  4.75212 -8.82537 12.89862
Si  4.75212 -6.10987 15.61413
Si  2.03662 -8.82537 15.61413
Si  2.03662 -6.10987 12.89862
Si  0.67887 -4.75212  0.67888
Si  3.39438 -4.75212  3.39437
Si  0.67887 -2.03662  3.39437
Si  3.39438 -2.03662  0.67888
Si  4.75212 -3.39437  2.03662
Si  4.75212 -0.67888  4.75213
Si  2.03662 -3.39437  4.75213
Si  2.03662 -0.67888  2.03662
Si  0.67887 -4.75212  6.10987
Si  3.39438 -4.75212  8.82537
Si  0.67887 -2.03662  8.82537
Si  3.39438 -2.03662  6.10987
Si  4.75212 -3.39437  7.46762
Si  4.75212 -0.67888 10.18313
Si  2.03662 -3.39437 10.18313
Si  2.03662 -0.67888  7.46762
Si  0.67887 -4.75212 11.54087
Si  3.39438 -4.75212 14.25638
Si  0.67887 -2.03662 14.25638
Si  3.39438 -2.03662 11.54087
Si  4.75212 -3.39437 12.89862
Si  4.75212 -0.67888 15.61413
Si  2.03662 -3.39437 15.61413
Si  2.03662 -0.67888 12.89862
Si  6.10987 -21.04513  0.67888
Si  8.82537 -21.04513  3.39437
Si  6.10987 -18.32963  3.39437
Si  8.82537 -18.32963  0.67888
Si 10.18313 -19.68738  2.03662
Si 10.18313 -16.97187  4.75213
Si  7.46762 -19.68738  4.75213
Si  7.46762 -16.97187  2.03662
Si  6.10987 -21.04513  6.10987
Si  8.82537 -21.04513  8.82537
Si  6.10987 -18.32963  8.82537
Si  8.82537 -18.32963  6.10987
Si 10.18313 -19.68738  7.46762
Si 10.18313 -16.97187 10.18313
Si  7.46762 -19.68738 10.18313
Si  7.46762 -16.97187  7.46762
Si  6.10987 -21.04513 11.54087
Si  8.82537 -21.04513 14.25638
Si  6.10987 -18.32963 14.25638
Si  8.82537 -18.32963 11.54087
Si 10.18313 -19.68738 12.89862
Si 10.18313 -16.97187 15.61413
Si  7.46762 -19.68738 15.61413
Si  7.46762 -16.97187 12.89862
Si  6.10987 -15.61412  0.67888
Si  8.82537 -15.61412  3.39437
Si  6.10987 -12.89862  3.39437
Si  8.82537 -12.89862  0.67888
Si 10.18313 -14.25638  2.03662
Si 10.18313 -11.54087  4.75213
Si  7.46762 -14.25638  4.75213
Si  7.46762 -11.54087  2.03662
Si  6.10987 -15.61412  6.10987
Si  8.82537 -15.61412  8.82537
Si  6.10987 -12.89862  8.82537
Si  8.82537 -12.89862  6.10987
Si 10.18313 -14.25638  7.46762
Si 10.18313 -11.54087 10.18313
Si  7.46762 -14.25638 10.18313
Si  7.46762 -11.54087  7.46762
Si  6.10987 -15.61412 11.54087
Si  8.82537 -15.61412 14.25638
Si  6.10987 -12.89862 14.25638
Si  8.82537 -12.89862 11.54087
Si 10.18313 -14.25638 12.89862
Si 10.18313 -11.54087 15.61413
Si  7.46762 -14.25638 15.61413
Si  7.46762 -11.54087 12.89862
Si  6.10987 -10.18312  0.67888
Si  8.82537 -10.18312  3.39437
Si  6.10987 -7.46762  3.39437
Si  8.82537 -7.46762  0.67888
Si 10.18313 -8.82537  2.03662
Si 10.18313 -6.10987  4.75213
Si  7.46762 -8.82537  4.75213
Si  7.46762 -6.10987  2.03662
Si  6.10987 -10.18312  6.10987
Si  8.82537 -10.18312  8.82537
Si  6.10987 -7.46762  8.82537
Si  8.82537 -7.46762  6.10987
Si 10.18313 -8.82537  7.46762
Si 10.18313 -6.10987 10.18313
Si  7.46762 -8.82537 10.18313
Si  7.46762 -6.10987  7.46762
Si  6.10987 -10.18312 11.54087
Si  8.82537 -10.18312 14.25638
Si  6.10987 -7.46762 14.25638
Si  8.82537 -7.46762 11.54087
Si 10.18313 -8.82537 12.89862
Si 10.18313 -6.10987 15.61413
Si  7.46762 -8.82537 15.61413
Si  7.46762 -6.10987 12.89862
Si  6.10987 -4.75212  0.67888
Si  8.82537 -4.75212  3.39437
Si  6.10987 -2.03662  3.39437
Si  8.82537 -2.03662  0.67888
Si 10.18313 -3.39437  2.03662
Si 10.18313 -0.67888  4.75213
Si  7.46762 -3.39437  4.75213
Si  7.46762 -0.67888  2.03662
Si  6.10987 -4.75212  6.10987
Si  8.82537 -4.75212  8.82537
Si  6.10987 -2.03662  8.82537
Si  8.82537 -2.03662  6.10987
Si 10.18313 -3.39437  7.46762
Si 10.18313 -0.67888 10.18313
Si  7.46762 -3.39437 10.18313
Si  7.46762 -0.67888  7.46762
Si  6.10987 -4.75212 11.54087
Si  8.82537 -4.75212 14.25638
Si  6.10987 -2.03662 14.25638
Si  8.82537 -2.03662 11.54087
Si 10.18313 -3.39437 12.89862
Si 10.18313 -0.67888 15.61413
Si  7.46762 -3.39437 15.61413
Si  7.46762 -0.67888 12.89862
Si 11.54087 -21.04513  0.67888
Si 14.25638 -21.04513  3.39437
Si 11.54087 -18.32963  3.39437
Si 14.25638 -18.32963  0.67888
Si 15.61413 -19.68738  2.03662
Si 15.61413 -16.97187  4.75213
Si 12.89862 -19.68738  4.75213
Si 12.89862 -16.97187  2.03662
Si 11.54087 -21.04513  6.10987
Si 14.25638 -21.04513  8.82537
Si 11.54087 -18.32963  8.82537
Si 14.25638 -18.32963  6.10987
Si 15.61413 -19.68738  7.46762
Si 15.61413 -16.97187 10.18313
Si 12.89862 -19.68738 10.18313
Si 12.89862 -16.97187  7.46762
Si 11.54087 -21.04513 11.54087
Si 14.25638 -21.04513 14.25638
Si 11.54087 -18.32963 14.25638
Si 14.25638 -18.32963 11.54087
Si 15.61413 -19.68738 12.89862
Si 15.61413 -16.97187 15.61413
Si 12.89862 -19.68738 15.61413
Si 12.89862 -16.97187 12.89862
Si 11.54087 -15.61412  0.67888
Si 14.25638 -15.61412  3.39437
Si 11.54087 -12.89862  3.39437
Si 14.25638 -12.89862  0.67888
Si 15.61413 -14.25638  2.03662
Si 15.61413 -11.54087  4.75213
Si 12.89862 -14.25638  4.75213
Si 12.89862 -11.54087  2.03662
Si 11.54087 -15.61412  6.10987
Si 14.25638 -15.61412  8.82537
Si 11.54087 -12.89862  8.82537
Si 14.25638 -12.89862  6.10987
Si 15.61413 -14.25638  7.46762
Si 15.61413 -11.54087 10.18313
Si 12.89862 -14.25638 10.18313
Si 12.89862 -11.54087  7.46762
Si 11.54087 -15.61412 11.54087
Si 14.25638 -15.61412 14.25638
Si 11.54087 -12.89862 14.25638
Si 14.25638 -12.89862 11.54087
Si 15.61413 -14.25638 12.89862
Si 15.61413 -11.54087 15.61413
Si 12.89862 -14.25638 15.61413
Si 12.89862 -11.54087 12.89862
Si 11.54087 -10.18312  0.67888
Si 14.25638 -10.18312  3.39437
Si 11.54087 -7.46762  3.39437
Si 14.25638 -7.46762  0.67888
Si 15.61413 -8.82537  2.03662
Si 15.61413 -6.10987  4.75213
Si 12.89862 -8.82537  4.75213
Si 12.89862 -6.10987  2.03662
Si 11.54087 -10.18312  6.10987
Si 14.25638 -10.18312  8.82537
Si 11.54087 -7.46762  8.82537
Si 14.25638 -7.46762  6.10987
Si 15.61413 -8.82537  7.46762
Si 15.61413 -6.10987 10.18313
Si 12.89862 -8.82537 10.18313
Si 12.89862 -6.10987  7.46762
Si 11.54087 -10.18312 11.54087
Si 14.25638 -10.18312 14.25638
Si 11.54087 -7.46762 14.25638
Si 14.25638 -7.46762 11.54087
Si 15.61413 -8.82537 12.89862
Si 15.61413 -6.10987 15.61413
Si 12.89862 -8.82537 15.61413
Si 12.89862 -6.10987 12.89862
Si 11.54087 -4.75212  0.67888
Si 14.25638 -4.75212  3.39437
Si 11.54087 -2.03662  3.39437
Si 14.25638 -2.03662  0.67888
Si 15.61413 -3.39437  2.03662
Si 15.61413 -0.67888  4.75213
Si 12.89862 -3.39437  4.75213
Si 12.89862 -0.67888  2.03662
Si 11.54087 -4.75212  6.10987
Si 14.25638 -4.75212  8.82537
Si 11.54087 -2.03662  8.82537
Si 14.25638 -2.03662  6.10987
Si 15.61413 -3.39437  7.46762
Si 15.61413 -0.67888 10.18313
Si 12.89862 -3.39437 10.18313
Si 12.89862 -0.67888  7.46762
Si 11.54087 -4.75212 11.54087
Si 14.25638 -4.75212 14.25638
Si 11.54087 -2.03662 14.25638
Si 14.25638 -2.03662 11.54087
Si 15.61413 -3.39437 12.89862
Si 15.61413 -0.67888 15.61413
Si 12.89862 -3.39437 15.61413
Si 12.89862 -0.67888 12.89862
Si 16.97188 -21.04513  0.67888
Si 19.68738 -21.04513  3.39437
Si 16.97188 -18.32963  3.39437
Si 19.68738 -18.32963  0.67888
Si 21.04512 -19.68738  2.03662
Si 21.04512 -16.97187  4.75213
Si 18.32963 -19.68738  4.75213
Si 18.32963 -16.97187  2.03662
Si 16.97188 -21.04513  6.10987
Si 19.68738 -21.04513  8.82537
Si 16.97188 -18.32963  8.82537
Si 19.68738 -18.32963  6.10987
Si 21.04512 -19.68738  7.46762
Si 21.04512 -16.97187 10.18313
Si 18.32963 -19.68738 10.18313
Si 18.32963 -16.97187  7.46762
Si 16.97188 -21.04513 11.54087
Si 19.68738 -21.04513 14.25638
Si 16.97188 -18.32963 14.25638
Si 19.68738 -18.32963 11.54087
Si 21.04512 -19.68738 12.89862
Si 21.04512 -16.97187 15.61413
Si 18.32963 -19.68738 15.61413
Si 18.32963 -16.97187 12.89862
Si 16.97188 -15.61412  0.67888
Si 19.68738 -15.61412  3.39437
Si 16.97188 -12.89862  3.39437
Si 19.68738 -12.89862  0.67888
Si 21.04512 -14.25638  2.03662
Si 21.04512 -11.54087  4.75213
Si 18.32963 -14.25638  4.75213
Si 18.32963 -11.54087  2.03662
Si 16.97188 -15.61412  6.10987
Si 19.68738 -15.61412  8.82537
Si 16.97188 -12.89862  8.82537
Si 19.68738 -12.89862  6.10987
Si 21.04512 -14.25638  7.46762
Si 21.04512 -11.54087 10.18313
Si 18.32963 -14.25638 10.18313
Si 18.32963 -11.54087  7.46762
Si 16.97188 -15.61412 11.54087
Si 19.68738 -15.61412 14.25638
Si 16.97188 -12.89862 14.25638
Si 19.68738 -12.89862 11.54087
Si 21.04512 -14.25638 12.89862
Si 21.04512 -11.54087 15.61413
Si 18.32963 -14.25638 15.61413
Si 18.32963 -11.54087 12.89862
Si 16.97188 -10.18312  0.67888
Si 19.68738 -10.18312  3.39437
Si 16.97188 -7.46762  3.39437
Si 19.68738 -7.46762  0.67888
Si 21.04512 -8.82537  2.03662
Si 21.04512 -6.10987  4.75213
Si 18.32963 -8.82537  4.75213
Si 18.32963 -6.10987  2.03662
Si 16.97188 -10.18312  6.10987
Si 19.68738 -10.18312  8.82537
Si 16.97188 -7.46762  8.82537
Si 19.68738 -7.46762  6.10987
Si 21.04512 -8.82537  7.46762
Si 21.04512 -6.10987 10.18313
Si 18.32963 -8.82537 10.18313
Si 18.32963 -6.10987  7.46762
Si 16.97188 -10.18312 11.54087
Si 19.68738 -10.18312 14.25638
Si 16.97188 -7.46762 14.25638
Si 19.68738 -7.46762 11.54087
Si 21.04512 -8.82537 12.89862
Si 21.04512 -6.10987 15.61413
Si 18.32963 -8.82537 15.61413
Si 18.32963 -6.10987 12.89862
Si 16.97188 -4.75212  0.67888
Si 19.68738 -4.75212  3.39437
Si 16.97188 -2.03662  3.39437
Si 19.68738 -2.03662  0.67888
Si 21.04512 -3.39437  2.03662
Si 21.04512 -0.67888  4.75213
Si 18.32963 -3.39437  4.75213
Si 18.32963 -0.67888  2.03662
Si 16.97188 -4.75212  6.10987
Si 19.68738 -4.75212  8.82537
Si 16.97188 -2.03662  8.82537
Si 19.68738 -2.03662  6.10987
Si 21.04512 -3.39437  7.46762
Si 21.04512 -0.67888 10.18313
Si 18.32963 -3.39437 10.18313
Si 18.32963 -0.67888  7.46762
Si 16.97188 -4.75212 11.54087
Si 19.68738 -4.75212 14.25638
Si 16.97188 -2.03662 14.25638
Si 19.68738 -2.03662 11.54087
Si 21.04512 -3.39437 12.89862
Si 21.04512 -0.67888 15.61413
Si 18.32963 -3.39437 15.61413
Si 18.32963 -0.67888 12.89862
Si  0.67887 -21.04513 16.97188
Si  3.39438 -21.04513 19.68737
Si  0.67887 -18.32963 19.68737
Si  3.39438 -18.32963 16.97188
Si  4.75212 -19.68738 18.32963
Si  4.75212 -16.97187 21.04513
Si  2.03662 -19.68738 21.04513
Si  2.03662 -16.97187 18.32963
Si  0.67887 -21.04513 22.40287
Si  3.39438 -21.04513 25.11837
Si  0.67887 -18.32963 25.11837
Si  3.39438 -18.32963 22.40287
Si  4.75212 -19.68738 23.76062
Si  4.75212 -16.97187 26.47612
Si  2.03662 -19.68738 26.47612
Si  2.03662 -16.97187 23.76062
Si  0.67887 -21.04513 27.83388
Si  3.39438 -21.04513 30.54938
Si  0.67887 -18.32963 30.54938
Si  3.39438 -18.32963 27.83388
Si  4.75212 -19.68738 29.19162
Si  4.75212 -16.97187 31.90713
Si  2.03662 -19.68738 31.90713
Si  2.03662 -16.97187 29.19162
Si  0.67887 -15.61412 16.97188
Si  3.39438 -15.61412 19.68737
Si  0.67887 -12.89862 19.68737
Si  3.39438 -12.89862 16.97188
Si  4.75212 -14.25638 18.32963
Si  4.75212 -11.54087 21.04513
Si  2.03662 -14.25638 21.04513
Si  2.03662 -11.54087 18.32963
Si  0.67887 -15.61412 22.40287
Si  3.39438 -15.61412 25.11837
Si  0.67887 -12.89862 25.11837
Si  3.39438 -12.89862 22.40287
Si  4.75212 -14.25638 23.76062
Si  4.75212 -11.54087 26.47612
Si  2.03662 -14.25638 26.47612
Si  2.03662 -11.54087 23.76062
Si  0.67887 -15.61412 27.83388
Si  3.39438 -15.61412 30.54938
Si  0.67887 -12.89862 30.54938
Si  3.39438 -12.89862 27.83388
Si  4.75212 -14.25638 29.19162
Si  4.75212 -11.54087 31.90713
Si  2.03662 -14.25638 31.90713
Si  2.03662 -11.54087 29.19162
Si  0.67887 -10.18312 16.97188
Si  3.39438 -10.18312 19.68737
Si  0.67887 -7.46762 19.68737
Si  3.39438 -7.46762 16.97188
Si  4.75212 -8.82537 18.32963
Si  4.75212 -6.10987 21.04513
Si  2.03662 -8.82537 21.04513
Si  2.03662 -6.10987 18.32963
Si  0.67887 -10.18312 22.40287
Si  3.39438 -10.18312 25.11837
Si  0.67887 -7.46762 25.11837
Si  3.39438 -7.46762 22.40287
Si  4.75212 -8.82537 23.76062
Si  4.75212 -6.10987 26.47612
Si  2.03662 -8.82537 26.47612
Si  2.03662 -6.10987 23.76062
Si  0.67887 -10.18312 27.83388
Si  3.39438 -10.18312 30.54938
Si  0.67887 -7.46762 30.54938
Si  3.39438 -7.46762 27.83388
Si  4.75212 -8.82537 29.19162
Si  4.75212 -6.10987 31.90713
Si  2.03662 -8.82537 31.90713
Si  2.03662 -6.10987 29.19162
Si  0.67887 -4.75212 16.97188
Si  3.39438 -4.75212 19.68737
Si  0.67887 -2.03662 19.68737
Si  3.39438 -2.03662 16.97188
Si  4.75212 -3.39437 18.32963
Si  4.75212 -0.67888 21.04513
Si  2.03662 -3.39437 21.04513
Si  2.03662 -0.67888 18.32963
Si  0.67887 -4.75212 22.40287
Si  3.39438 -4.75212 25.11837
Si  0.67887 -2.03662 25.11837
Si  3.39438 -2.03662 22.40287
Si  4.75212 -3.39437 23.76062
Si  4.75212 -0.67888 26.47612
Si  2.03662 -3.39437 26.47612
Si  2.03662 -0.67888 23.76062
Si  0.67887 -4.75212 27.83388
Si  3.39438 -4.75212 30.54938
Si  0.67887 -2.03662 30.54938
Si  3.39438 -2.03662 27.83388
Si  4.75212 -3.39437 29.19162
Si  4.75212 -0.67888 31.90713
Si  2.03662 -3.39437 31.90713
Si  2.03662 -0.67888 29.19162
Si  6.10987 -21.04513 16.97188
Si  8.82537 -21.04513 19.68737
Si  6.10987 -18.32963 19.68737
Si  8.82537 -18.32963 16.97188
Si 10.18313 -19.68738 18.32963
Si 10.18313 -16.97187 21.04513
Si  7.46762 -19.68738 21.04513
Si  7.46762 -16.97187 18.32963
Si  6.10987 -21.04513 22.40287
Si  8.82537 -21.04513 25.11837
Si  6.10987 -18.32963 25.11837
Si  8.82537 -18.32963 22.40287
Si 10.18313 -19.68738 23.76062
Si 10.18313 -16.97187 26.47612
Si  7.46762 -19.68738 26.47612
Si  7.46762 -16.97187 23.76062
Si  6.10987 -21.04513 27.83388
Si  8.82537 -21.04513 30.54938
Si  6.10987 -18.32963 30.54938
Si  8.82537 -18.32963 27.83388
Si 10.18313 -19.68738 29.19162
Si 10.18313 -16.97187 31.90713
Si  7.46762 -19.68738 31.90713
Si  7.46762 -16.97187 29.19162
Si  6.10987 -15.61412 16.97188
Si  8.82537 -15.61412 19.68737
Si  6.10987 -12.89862 19.68737
Si  8.82537 -12.89862 16.97188
Si 10.18313 -14.25638 18.32963
Si 10.18313 -11.54087 21.04513
Si  7.46762 -14.25638 21.04513
Si  7.46762 -11.54087 18.32963
Si  6.10987 -15.61412 22.40287
Si  8.82537 -15.61412 25.11837
Si  6.10987 -12.89862 25.11837
Si  8.82537 -12.89862 22.40287
Si 10.18313 -14.25638 23.76062
Si 10.18313 -11.54087 26.47612
Si  7.46762 -14.25638 26.47612
Si  7.46762 -11.54087 23.76062
Si  6.10987 -15.61412 27.83388
Si  8.82537 -15.61412 30.54938
Si  6.10987 -12.89862 30.54938
Si  8.82537 -12.89862 27.83388
Si 10.18313 -14.25638 29.19162
Si 10.18313 -11.54087 31.90713
Si  7.46762 -14.25638 31.90713
Si  7.46762 -11.54087 29.19162
Si  6.10987 -10.18312 16.97188
Si  8.82537 -10.18312 19.68737
Si  6.10987 -7.46762 19.68737
Si  8.82537 -7.46762 16.97188
Si 10.18313 -8.82537 18.32963
Si 10.18313 -6.10987 21.04513
Si  7.46762 -8.82537 21.04513
Si  7.46762 -6.10987 18.32963
Si  6.10987 -10.18312 22.40287
Si  8.82537 -10.18312 25.11837
Si  6.10987 -7.46762 25.11837
Si  8.82537 -7.46762 22.40287
Si 10.18313 -8.82537 23.76062
Si 10.18313 -6.10987 26.47612
Si  7.46762 -8.82537 26.47612
Si  7.46762 -6.10987 23.76062
Si  6.10987 -10.18312 27.83388
Si  8.82537 -10.18312 30.54938
Si  6.10987 -7.46762 30.54938
Si  8.82537 -7.46762 27.83388
Si 10.18313 -8.82537 29.19162
Si 10.18313 -6.10987 31.90713
Si  7.46762 -8.82537 31.90713
Si  7.46762 -6.10987 29.19162
Si  6.10987 -4.75212 16.97188
Si  8.82537 -4.75212 19.68737
Si  6.10987 -2.03662 19.68737
Si  8.82537 -2.03662 16.97188
Si 10.18313 -3.39437 18.32963
Si 10.18313 -0.67888 21.04513
Si  7.46762 -3.39437 21.04513
Si  7.46762 -0.67888 18.32963
Si  6.10987 -4.75212 22.40287
Si  8.82537 -4.75212 25.11837
Si  6.10987 -2.03662 25.11837
Si  8.82537 -2.03662 22.40287
Si 10.18313 -3.39437 23.76062
Si 10.18313 -0.67888 26.47612
Si  7.46762 -3.39437 26.47612
Si  7.46762 -0.67888 23.76062
Si  6.10987 -4.75212 27.83388
Si  8.82537 -4.75212 30.54938
Si  6.10987 -2.03662 30.54938
Si  8.82537 -2.03662 27.83388
Si 10.18313 -3.39437 29.19162
Si 10.18313 -0.67888 31.90713
Si  7.46762 -3.39437 31.90713
Si  7.46762 -0.67888 29.19162
Si 11.54087 -21.04513 16.97188
Si 14.25638 -21.04513 19.68737
Si 11.54087 -18.32963 19.68737
Si 14.25638 -18.32963 16.97188
Si 15.61413 -19.68738 18.32963
Si 15.61413 -16.97187 21.04513
Si 12.89862 -19.68738 21.04513
Si 12.89862 -16.97187 18.32963
Si 11.54087 -21.04513 22.40287
Si 14.25638 -21.04513 25.11837
Si 11.54087 -18.32963 25.11837
Si 14.25638 -18.32963 22.40287
Si 15.61413 -19.68738 23.76062
Si 15.61413 -16.97187 26.47612
Si 12.89862 -19.68738 26.47612
Si 12.89862 -16.97187 23.76062
Si 11.54087 -21.04513 27.83388
Si 14.25638 -21.04513 30.54938
Si 11.54087 -18.32963 30.54938
Si 14.25638 -18.32963 27.83388
Si 15.61413 -19.68738 29.19162
Si 15.61413 -16.97187 31.90713
Si 12.89862 -19.68738 31.90713
Si 12.89862 -16.97187 29.19162
Si 11.54087 -15.61412 16.97188
Si 14.25638 -15.61412 19.68737
Si 11.54087 -12.89862 19.68737
Si 14.25638 -12.89862 16.97188
Si 15.61413 -14.25638 18.32963
Si 15.61413 -11.54087 21.04513
Si 12.89862 -14.25638 21.04513
Si 12.89862 -11.54087 18.32963
Si 11.54087 -15.61412 22.40287
Si 14.25638 -15.61412 25.11837
Si 11.54087 -12.89862 25.11837
Si 14.25638 -12.89862 22.40287
Si 15.61413 -14.25638 23.76062
Si 15.61413 -11.54087 26.47612
Si 12.89862 -14.25638 26.47612
Si 12.89862 -11.54087 23.76062
Si 11.54087 -15.61412 27.83388
Si 14.25638 -15.61412 30.54938
Si 11.54087 -12.89862 30.54938
Si 14.25638 -12.89862 27.83388
Si 15.61413 -14.25638 29.19162
Si 15.61413 -11.54087 31.90713
Si 12.89862 -14.25638 31.90713
Si 12.89862 -11.54087 29.19162
Si 11.54087 -10.18312 16.97188
Si 14.25638 -10.18312 19.68737
Si 11.54087 -7.46762 19.68737
Si 14.25638 -7.46762 16.97188
Si 15.61413 -8.82537 18.32963
Si 15.61413 -6.10987 21.04513
Si 12.89862 -8.82537 21.04513
Si 12.89862 -6.10987 18.32963
Si 11.54087 -10.18312 22.40287
Si 14.25638 -10.18312 25.11837
Si 11.54087 -7.46762 25.11837
Si 14.25638 -7.46762 22.40287
Si 15.61413 -8.82537 23.76062
Si 15.61413 -6.10987 26.47612
Si 12.89862 -8.82537 26.47612
Si 12.89862 -6.10987 23.76062
Si 11.54087 -10.18312 27.83388
Si 14.25638 -10.18312 30.54938
Si 11.54087 -7.46762 30.54938
Si 14.25638 -7.46762 27.83388
Si 15.61413 -8.82537 29.19162
Si 15.61413 -6.10987 31.90713
Si 12.89862 -8.82537 31.90713
Si 12.89862 -6.10987 29.19162
Si 11.54087 -4.75212 16.97188
Si 14.25638 -4.75212 19.68737
Si 11.54087 -2.03662 19.68737
Si 14.25638 -2.03662 16.97188
Si 15.61413 -3.39437 18.32963
Si 15.61413 -0.67888 21.04513
Si 12.89862 -3.39437 21.04513
Si 12.89862 -0.67888 18.32963
Si 11.54087 -4.75212 22.40287
Si 14.25638 -4.75212 25.11837
Si 11.54087 -2.03662 25.11837
Si 14.25638 -2.03662 22.40287
Si 15.61413 -3.39437 23.76062
Si 15.61413 -0.67888 26.47612
Si 12.89862 -3.39437 26.47612
Si 12.89862 -0.67888 23.76062
Si 11.54087 -4.75212 27.83388
Si 14.25638 -4.75212 30.54938
Si 11.54087 -2.03662 30.54938
Si 14.25638 -2.03662 27.83388
Si 15.61413 -3.39437 29.19162
Si 15.61413 -0.67888 31.90713
Si 12.89862 -3.39437 31.90713
Si 12.89862 -0.67888 29.19162
Si 16.97188 -21.04513 16.97188
Si 19.68738 -21.04513 19.68737
Si 16.97188 -18.32963 19.68737
Si 19.68738 -18.32963 16.97188
Si 21.04512 -19.68738 18.32963
Si 21.04512 -16.97187 21.04513
Si 18.32963 -19.68738 21.04513
Si 18.32963 -16.97187 18.32963
Si 16.97188 -21.04513 22.40287
Si 19.68738 -21.04513 25.11837
Si 16.97188 -18.32963 25.11837
Si 19.68738 -18.32963 22.40287
Si 21.04512 -19.68738 23.76062
Si 21.04512 -16.97187 26.47612
Si 18.32963 -19.68738 26.47612
Si 18.32963 -16.97187 23.76062
Si 16.97188 -21.04513 27.83388
Si 19.68738 -21.04513 30.54938
Si 16.97188 -18.32963 30.54938
Si 19.68738 -18.32963 27.83388
Si 21.04512 -19.68738 29.19162
Si 21.04512 -16.97187 31.90713
Si 18.32963 -19.68738 31.90713
Si 18.32963 -16.97187 29.19162
Si 16.97188 -15.61412 16.97188
Si 19.68738 -15.61412 19.68737
Si 16.97188 -12.89862 19.68737
Si 19.68738 -12.89862 16.97188
Si 21.04512 -14.25638 18.32963
Si 21.04512 -11.54087 21.04513
Si 18.32963 -14.25638 21.04513
Si 18.32963 -11.54087 18.32963
Si 16.97188 -15.61412 22.40287
Si 19.68738 -15.61412 25.11837
Si 16.97188 -12.89862 25.11837
Si 19.68738 -12.89862 22.40287
Si 21.04512 -14.25638 23.76062
Si 21.04512 -11.54087 26.47612
Si 18.32963 -14.25638 26.47612
Si 18.32963 -11.54087 23.76062
Si 16.97188 -15.61412 27.83388
Si 19.68738 -15.61412 30.54938
Si 16.97188 -12.89862 30.54938
Si 19.68738 -12.89862 27.83388
Si 21.04512 -14.25638 29.19162
Si 21.04512 -11.54087 31.90713
Si 18.32963 -14.25638 31.90713
Si 18.32963 -11.54087 29.19162
Si 16.97188 -10.18312 16.97188
Si 19.68738 -10.18312 19.68737
Si 16.97188 -7.46762 19.68737
Si 19.68738 -7.46762 16.97188
Si 21.04512 -8.82537 18.32963
Si 21.04512 -6.10987 21.04513
Si 18.32963 -8.82537 21.04513
Si 18.32963 -6.10987 18.32963
Si 16.97188 -10.18312 22.40287
Si 19.68738 -10.18312 25.11837
Si 16.97188 -7.46762 25.11837
Si 19.68738 -7.46762 22.40287
Si 21.04512 -8.82537 23.76062
Si 21.04512 -6.10987 26.47612
Si 18.32963 -8.82537 26.47612
Si 18.32963 -6.10987 23.76062
Si 16.97188 -10.18312 27.83388
Si 19.68738 -10.18312 30.54938
Si 16.97188 -7.46762 30.54938
Si 19.68738 -7.46762 27.83388
Si 21.04512 -8.82537 29.19162
Si 21.04512 -6.10987 31.90713
Si 18.32963 -8.82537 31.90713
Si 18.32963 -6.10987 29.19162
Si 16.97188 -4.75212 16.97188
Si 19.68738 -4.75212 19.68737
Si 16.97188 -2.03662 19.68737
Si 19.68738 -2.03662 16.97188
Si 21.04512 -3.39437 18.32963
Si 21.04512 -0.67888 21.04513
Si 18.32963 -3.39437 21.04513
Si 18.32963 -0.67888 18.32963
Si 16.97188 -4.75212 22.40287
Si 19.68738 -4.75212 25.11837
Si 16.97188 -2.03662 25.11837
Si 19.68738 -2.03662 22.40287
Si 21.04512 -3.39437 23.76062
Si 21.04512 -0.67888 26.47612
Si 18.32963 -3.39437 26.47612
Si 18.32963 -0.67888 23.76062
Si 16.97188 -4.75212 27.83388
Si 19.68738 -4.75212 30.54938
Si 16.97188 -2.03662 30.54938
Si 19.68738 -2.03662 27.83388
Si 21.04512 -3.39437 29.19162
Si 21.04512 -0.67888 31.90713
Si 18.32963 -3.39437 31.90713
Si 18.32963 -0.67888 29.19162
Si  0.67887  0.67887 -15.61412
Si  3.39438  0.67887 -12.89863
Si  0.67887  3.39437 -12.89863
Si  3.39438  3.39437 -15.61412
Si  4.75212  2.03662 -14.25638
Si  4.75212  4.75212 -11.54087
Si  2.03662  2.03662 -11.54087
Si  2.03662  4.75212 -14.25638
Si  0.67887  0.67887 -10.18313
Si  3.39438  0.67887 -7.46763
Si  0.67887  3.39437 -7.46763
Si  3.39438  3.39437 -10.18313
Si  4.75212  2.03662 -8.82538
Si  4.75212  4.75212 -6.10987
Si  2.03662  2.03662 -6.10987
Si  2.03662  4.75212 -8.82538
Si  0.67887  0.67887 -4.75212
Si  3.39438  0.67887 -2.03662
Si  0.67887  3.39437 -2.03662
Si  3.39438  3.39437 -4.75212
Si  4.75212  2.03662 -3.39438
Si  4.75212  4.75212 -0.67887
Si  2.03662  2.03662 -0.67887
Si  2.03662  4.75212 -3.39438
Si  0.67887  6.10987 -15.61412
Si  3.39438  6.10987 -12.89863
Si  0.67887  8.82537 -12.89863
Si  3.39438  8.82537 -15.61412
Si  4.75212  7.46762 -14.25638
Si  4.75212 10.18313 -11.54087
Si  2.03662  7.46762 -11.54087
Si  2.03662 10.18313 -14.25638
Si  0.67887  6.10987 -10.18313
Si  3.39438  6.10987 -7.46763
Si  0.67887  8.82537 -7.46763
Si  3.39438  8.82537 -10.18313
Si  4.75212  7.46762 -8.82538
Si  4.75212 10.18313 -6.10987
Si  2.03662  7.46762 -6.10987
Si  2.03662 10.18313 -8.82538
Si  0.67887  6.10987 -4.75212
Si  3.39438  6.10987 -2.03662
Si  0.67887  8.82537 -2.03662
Si  3.39438  8.82537 -4.75212
Si  4.75212  7.46762 -3.39438
Si  4.75212 10.18313 -0.67887
Si  2.03662  7.46762 -0.67887
Si  2.03662 10.18313 -3.39438
Si  0.67887 11.54087 -15.61412
Si  3.39438 11.54087 -12.89863
Si  0.67887 14.25638 -12.89863
Si  3.39438 14.25638 -15.61412
Si  4.75212 12.89862 -14.25638
Si  4.75212 15.61413 -11.54087
Si  2.03662 12.89862 -11.54087
Si  2.03662 15.61413 -14.25638
Si  0.67887 11.54087 -10.18313
Si  3.39438 11.54087 -7.46763
Si  0.67887 14.25638 -7.46763
Si  3.39438 14.25638 -10.18313
Si  4.75212 12.89862 -8.82538
Si  4.75212 15.61413 -6.10987
Si  2.03662 12.89862 -6.10987
Si  2.03662 15.61413 -8.82538
Si  0.67887 11.54087 -4.75212
Si  3.39438 11.54087 -2.03662
Si  0.67887 14.25638 -2.03662
Si  3.39438 14.25638 -4.75212
Si  4.75212 12.89862 -3.39438
Si  4.75212 15.61413 -0.67887
Si  2.03662 12.89862 -0.67887
Si  2.03662 15.61413 -3.39438
Si  0.67887 16.97188 -15.61412
Si  3.39438 16.97188 -12.89863
Si  0.67887 19.68738 -12.89863
Si  3.39438 19.68738 -15.61412
Si  4.75212 18.32963 -14.25638
Si  4.75212 21.04512 -11.54087
Si  2.03662 18.32963 -11.54087
Si  2.03662 21.04512 -14.25638
Si  0.67887 16.97188 -10.18313
Si  3.39438 16.97188 -7.46763
Si  0.67887 19.68738 -7.46763
Si  3.39438 19.68738 -10.18313
Si  4.75212 18.32963 -8.82538
Si  4.75212 21.04512 -6.10987
Si  2.03662 18.32963 -6.10987
Si  2.03662 21.04512 -8.82538
Si  0.67887 16.97188 -4.75212
Si  3.39438 16.97188 -2.03662
Si  0.67887 19.68738 -2.03662
Si  3.39438 19.68738 -4.75212
Si  4.75212 18.32963 -3.39438
Si  4.75212 21.04512 -0.67887
Si  2.03662 18.32963 -0.67887
Si  2.03662 21.04512 -3.39438
Si  6.10987  0.67887 -15.61412
Si  8.82537  0.67887 -12.89863
Si  6.10987  3.39437 -12.89863
Si  8.82537  3.39437 -15.61412
Si 10.18313  2.03662 -14.25638
Si 10.18313  4.75212 -11.54087
Si  7.46762  2.03662 -11.54087
Si  7.46762  4.75212 -14.25638
Si  6.10987  0.67887 -10.18313
Si  8.82537  0.67887 -7.46763
Si  6.10987  3.39437 -7.46763
Si  8.82537  3.39437 -10.18313
Si 10.18313  2.03662 -8.82538
Si 10.18313  4.75212 -6.10987
Si  7.46762  2.03662 -6.10987
Si  7.46762  4.75212 -8.82538
Si  6.10987  0.67887 -4.75212
Si  8.82537  0.67887 -2.03662
Si  6.10987  3.39437 -2.03662
Si  8.82537  3.39437 -4.75212
Si 10.18313  2.03662 -3.39438
Si 10.18313  4.75212 -0.67887
Si  7.46762  2.03662 -0.67887
Si  7.46762  4.75212 -3.39438
Si  6.10987  6.10987 -15.61412
Si  8.82537  6.10987 -12.89863
Si  6.10987  8.82537 -12.89863
Si  8.82537  8.82537 -15.61412
Si 10.18313  7.46762 -14.25638
Si 10.18313 10.18313 -11.54087
Si  7.46762  7.46762 -11.54087
Si  7.46762 10.18313 -14.25638
Si  6.10987  6.10987 -10.18313
Si  8.82537  6.10987 -7.46763
Si  6.10987  8.82537 -7.46763
Si  8.82537  8.82537 -10.18313
Si 10.18313  7.46762 -8.82538
Si 10.18313 10.18313 -6.10987
Si  7.46762  7.46762 -6.10987
Si  7.46762 10.18313 -8.82538
Si  6.10987  6.10987 -4.75212
Si  8.82537  6.10987 -2.03662
Si  6.10987  8.82537 -2.03662
Si  8.82537  8.82537 -4.75212
Si 10.18313  7.46762 -3.39438
Si 10.18313 10.18313 -0.67887
Si  7.46762  7.46762 -0.67887
Si  7.46762 10.18313 -3.39438
Si  6.10987 11.54087 -15.61412
Si  8.82537 11.54087 -12.89863
Si  6.10987 14.25638 -12.89863
Si  8.82537 14.25638 -15.61412
Si 10.18313 12.89862 -14.25638
Si 10.18313 15.61413 -11.54087
Si  7.46762 12.89862 -11.54087
Si  7.46762 15.61413 -14.25638
Si  6.10987 11.54087 -10.18313
Si  8.82537 11.54087 -7.46763
Si  6.10987 14.25638 -7.46763
Si  8.82537 14.25638 -10.18313
Si 10.18313 12.89862 -8.82538
Si 10.18313 15.61413 -6.10987
Si  7.46762 12.89862 -6.10987
Si  7.46762 15.61413 -8.82538
Si  6.10987 11.54087 -4.75212
Si  8.82537 11.54087 -2.03662
Si  6.10987 14.25638 -2.03662
Si  8.82537 14.25638 -4.75212
Si 10.18313 12.89862 -3.39438
Si 10.18313 15.61413 -0.67887
Si  7.46762 12.89862 -0.67887
Si  7.46762 15.61413 -3.39438
Si  6.10987 16.97188 -15.61412
Si  8.82537 16.97188 -12.89863
Si  6.10987 19.68738 -12.89863
Si  8.82537 19.68738 -15.61412
Si 10.18313 18.32963 -14.25638
Si 10.18313 21.04512 -11.54087
Si  7.46762 18.32963 -11.54087
Si  7.46762 21.04512 -14.25638
Si  6.10987 16.97188 -10.18313
Si  8.82537 16.97188 -7.46763
Si  6.10987 19.68738 -7.46763
Si  8.82537 19.68738 -10.18313
Si 10.18313 18.32963 -8.82538
Si 10.18313 21.04512 -6.10987
Si  7.46762 18.32963 -6.10987
Si  7.46762 21.04512 -8.82538
Si  6.10987 16.97188 -4.75212
Si  8.82537 16.97188 -2.03662
Si  6.10987 19.68738 -2.03662
Si  8.82537 19.68738 -4.75212
Si 10.18313 18.32963 -3.39438
Si 10.18313 21.04512 -0.67887
Si  7.46762 18.32963 -0.67887
Si  7.46762 21.04512 -3.39438
Si 11.54087  0.67887 -15.61412
Si 14.25638  0.67887 -12.89863
Si 11.54087  3.39437 -12.89863
Si 14.25638  3.39437 -15.61412
Si 15.61413  2.03662 -14.25638
Si 15.61413  4.75212 -11.54087
Si 12.89862  2.03662 -11.54087
Si 12.89862  4.75212 -14.25638
Si 11.54087  0.67887 -10.18313
Si 14.25638  0.67887 -7.46763
Si 11.54087  3.39437 -7.46763
Si 14.25638  3.39437 -10.18313
Si 15.61413  2.03662 -8.82538
Si 15.61413  4.75212 -6.10987
Si 12.89862  2.03662 -6.10987
Si 12.89862  4.75212 -8.82538
Si 11.54087  0.67887 -4.75212
Si 14.25638  0.67887 -2.03662
Si 11.54087  3.39437 -2.03662
Si 14.25638  3.39437 -4.75212
Si 15.61413  2.03662 -3.39438
Si 15.61413  4.75212 -0.67887
Si 12.89862  2.03662 -0.67887
Si 12.89862  4.75212 -3.39438
Si 11.54087  6.10987 -15.61412
Si 14.25638  6.10987 -12.89863
Si 11.54087  8.82537 -12.89863
Si 14.25638  8.82537 -15.61412
Si 15.61413  7.46762 -14.25638
Si 15.61413 10.18313 -11.54087
Si 12.89862  7.46762 -11.54087
Si 12.89862 10.18313 -14.25638
Si 11.54087  6.10987 -10.18313
Si 14.25638  6.10987 -7.46763
Si 11.54087  8.82537 -7.46763
Si 14.25638  8.82537 -10.18313
Si 15.61413  7.46762 -8.82538
Si 15.61413 10.18313 -6.10987
Si 12.89862  7.46762 -6.10987
Si 12.89862 10.18313 -8.82538
Si 11.54087  6.10987 -4.75212
Si 14.25638  6.10987 -2.03662
Si 11.54087  8.82537 -2.03662
Si 14.25638  8.82537 -4.75212
Si 15.61413  7.46762 -3.39438
Si 15.61413 10.18313 -0.67887
Si 12.89862  7.46762 -0.67887
Si 12.89862 10.18313 -3.39438
Si 11.54087 11.54087 -15.61412
Si 14.25638 11.54087 -12.89863
Si 11.54087 14.25638 -12.89863
Si 14.25638 14.25638 -15.61412
Si 15.61413 12.89862 -14.25638
Si 15.61413 15.61413 -11.54087
Si 12.89862 12.89862 -11.54087
Si 12.89862 15.61413 -14.25638
Si 11.54087 11.54087 -10.18313
Si 14.25638 11.54087 -7.46763
Si 11.54087 14.25638 -7.46763
Si 14.25638 14.25638 -10.18313
Si 15.61413 12.89862 -8.82538
Si 15.61413 15.61413 -6.10987
Si 12.89862 12.89862 -6.10987
Si 12.89862 15.61413 -8.82538
Si 11.54087 11.54087 -4.75212
Si 14.25638 11.54087 -2.03662
Si 11.54087 14.25638 -2.03662
Si 14.25638 14.25638 -4.75212
Si 15.61413 12.89862 -3.39438
Si 15.61413 15.61413 -0.67887
Si 12.89862 12.89862 -0.67887
Si 12.89862 15.61413 -3.39438
Si 11.54087 16.97188 -15.61412
Si 14.25638 16.97188 -12.89863
Si 11.54087 19.68738 -12.89863
Si 14.25638 19.68738 -15.61412
Si 15.61413 18.32963 -14.25638
Si 15.61413 21.04512 -11.54087
Si 12.89862 18.32963 -11.54087
Si 12.89862 21.04512 -14.25638
Si 11.54087 16.97188 -10.18313
Si 14.25638 16.97188 -7.46763
Si 11.54087 19.68738 -7.46763
Si 14.25638 19.68738 -10.18313
Si 15.61413 18.32963 -8.82538
Si 15.61413 21.04512 -6.10987
Si 12.89862 18.32963 -6.10987
Si 12.89862 21.04512 -8.82538
Si 11.54087 16.97188 -4.75212
Si 14.25638 16.97188 -2.03662
Si 11.54087 19.68738 -2.03662
Si 14.25638 19.68738 -4.75212
Si 15.61413 18.32963 -3.39438
Si 15.61413 21.04512 -0.67887
Si 12.89862 18.32963 -0.67887
Si 12.89862 21.04512 -3.39438
Si 16.97188  0.67887 -15.61412
Si 19.68738  0.67887 -12.89863
Si 16.97188  3.39437 -12.89863
Si 19.68738  3.39437 -15.61412
Si 21.04512  2.03662 -14.25638
Si 21.04512  4.75212 -11.54087
Si 18.32963  2.03662 -11.54087
Si 18.32963  4.75212 -14.25638
Si 16.97188  0.67887 -10.18313
Si 19.68738  0.67887 -7.46763
Si 16.97188  3.39437 -7.46763
Si 19.68738  3.39437 -10.18313
Si 21.04512  2.03662 -8.82538
Si 21.04512  4.75212 -6.10987
Si 18.32963  2.03662 -6.10987
Si 18.32963  4.75212 -8.82538
Si 16.97188  0.67887 -4.75212
Si 19.68738  0.67887 -2.03662
Si 16.97188  3.39437 -2.03662
Si 19.68738  3.39437 -4.75212
Si 21.04512  2.03662 -3.39438
Si 21.04512  4.75212 -0.67887
Si 18.32963  2.03662 -0.67887
Si 18.32963  4.75212 -3.39438
Si 16.97188  6.10987 -15.61412
Si 19.68738  6.10987 -12.89863
Si 16.97188  8.82537 -12.89863
Si 19.68738  8.82537 -15.61412
Si 21.04512  7.46762 -14.25638
Si 21.04512 10.18313 -11.54087
Si 18.32963  7.46762 -11.54087
Si 18.32963 10.18313 -14.25638
Si 16.97188  6.10987 -10.18313
Si 19.68738  6.10987 -7.46763
Si 16.97188  8.82537 -7.46763
Si 19.68738  8.82537 -10.18313
Si 21.04512  7.46762 -8.82538
Si 21.04512 10.18313 -6.10987
Si 18.32963  7.46762 -6.10987
Si 18.32963 10.18313 -8.82538
Si 16.97188  6.10987 -4.75212
Si 19.68738  6.10987 -2.03662
Si 16.97188  8.82537 -2.03662
Si 19.68738  8.82537 -4.75212
Si 21.04512  7.46762 -3.39438
Si 21.04512 10.18313 -0.67887
Si 18.32963  7.46762 -0.67887
Si 18.32963 10.18313 -3.39438
Si 16.97188 11.54087 -15.61412
Si 19.68738 11.54087 -12.89863
Si 16.97188 14.25638 -12.89863
Si 19.68738 14.25638 -15.61412
Si 21.04512 12.89862 -14.25638
Si 21.04512 15.61413 -11.54087
Si 18.32963 12.89862 -11.54087
Si 18.32963 15.61413 -14.25638
Si 16.97188 11.54087 -10.18313
Si 19.68738 11.54087 -7.46763
Si 16.97188 14.25638 -7.46763
Si 19.68738 14.25638 -10.18313
Si 21.04512 12.89862 -8.82538
Si 21.04512 15.61413 -6.10987
Si 18.32963 12.89862 -6.10987
Si 18.32963 15.61413 -8.82538
Si 16.97188 11.54087 -4.75212
Si 19.68738 11.54087 -2.03662
Si 16.97188 14.25638 -2.03662
Si 19.68738 14.25638 -4.75212
Si 21.04512 12.89862 -3.39438
Si 21.04512 15.61413 -0.67887
Si 18.32963 12.89862 -0.67887
Si 18.32963 15.61413 -3.39438
Si 16.97188 16.97188 -15.61412
Si 19.68738 16.97188 -12.89863
Si 16.97188 19.68738 -12.89863
Si 19.68738 19.68738 -15.61412
Si 21.04512 18.32963 -14.25638
Si 21.04512 21.04512 -11.54087
Si 18.32963 18.32963 -11.54087
Si 18.32963 21.04512 -14.25638
Si 16.97188 16.97188 -10.18313
Si 19.68738 16.97188 -7.46763
Si 16.97188 19.68738 -7.46763
Si 19.68738 19.68738 -10.18313
Si 21.04512 18.32963 -8.82538
Si 21.04512 21.04512 -6.10987
Si 18.32963 18.32963 -6.10987
Si 18.32963 21.04512 -8.82538
Si 16.97188 16.97188 -4.75212
Si 19.68738 16.97188 -2.03662
Si 16.97188 19.68738 -2.03662
Si 19.68738 19.68738 -4.75212
Si 21.04512 18.32963 -3.39438
Si 21.04512 21.04512 -0.67887
Si 18.32963 18.32963 -0.67887
Si 18.32963 21.04512 -3.39438
Si  0.67887  0.67887  0.67888
Si  3.39438  0.67887  3.39437
Si  0.67887  3.39437  3.39437
Si  3.39438  3.39437  0.67888
Si  4.75212  2.03662  2.03662
Si  4.75212  4.75212  4.75213
Si  2.03662  2.03662  4.75213
Si  2.03662  4.75212  2.03662
Si  0.67887  0.67887  6.10987
Si  3.39438  0.67887  8.82537
Si  0.67887  3.39437  8.82537
Si  3.39438  3.39437  6.10987
Si  4.75212  2.03662  7.46762
Si  4.75212  4.75212 10.18313
Si  2.03662  2.03662 10.18313
Si  2.03662  4.75212  7.46762
Si  0.67887  0.67887 11.54087
Si  3.39438  0.67887 14.25638
Si  0.67887  3.39437 14.25638
Si  3.39438  3.39437 11.54087
Si  4.75212  2.03662 12.89862
Si  4.75212  4.75212 15.61413
Si  2.03662  2.03662 15.61413
Si  2.03662  4.75212 12.89862
Si  0.67887  6.10987  0.67888
Si  3.39438  6.10987  3.39437
Si  0.67887  8.82537  3.39437
Si  3.39438  8.82537  0.67888
Si  4.75212  7.46762  2.03662
Si  4.75212 10.18313  4.75213
Si  2.03662  7.46762  4.75213
Si  2.03662 10.18313  2.03662
Si  0.67887  6.10987  6.10987
Si  3.39438  6.10987  8.82537
Si  0.67887  8.82537  8.82537
Si  3.39438  8.82537  6.10987
Si  4.75212  7.46762  7.46762
Si  4.75212 10.18313 10.18313
Si  2.03662  7.46762 10.18313
Si  2.03662 10.18313  7.46762
Si  0.67887  6.10987 11.54087
Si  3.39438  6.10987 14.25638
Si  0.67887  8.82537 14.25638
Si  3.39438  8.82537 11.54087
Si  4.75212  7.46762 12.89862
Si  4.75212 10.18313 15.61413
Si  2.03662  7.46762 15.61413
Si  2.03662 10.18313 12.89862
Si  0.67887 11.54087  0.67888
Si  3.39438 11.54087  3.39437
Si  0.67887 14.25638  3.39437
Si  3.39438 14.25638  0.67888
Si  4.75212 12.89862  2.03662
Si  4.75212 15.61413  4.75213
Si  2.03662 12.89862  4.75213
Si  2.03662 15.61413  2.03662
Si  0.67887 11.54087  6.10987
Si  3.39438 11.54087  8.82537
Si  0.67887 14.25638  8.82537
Si  3.39438 14.25638  6.10987
Si  4.75212 12.89862  7.46762
Si  4.75212 15.61413 10.18313
Si  2.03662 12.89862 10.18313
Si  2.03662 15.61413  7.46762
Si  0.67887 11.54087 11.54087
Si  3.39438 11.54087 14.25638
Si  0.67887 14.25638 14.25638
Si  3.39438 14.25638 11.54087
Si  4.75212 12.89862 12.89862
Si  4.75212 15.61413 15.61413
Si  2.03662 12.89862 15.61413
Si  2.03662 15.61413 12.89862
Si  0.67887 16.97188  0.67888
Si  3.39438 16.97188  3.39437
Si  0.67887 19.68738  3.39437
Si  3.39438 19.68738  0.67888
Si  4.75212 18.32963  2.03662
Si  4.75212 21.04512  4.75213
Si  2.03662 18.32963  4.75213
Si  2.03662 21.04512  2.03662
Si  0.67887 16.97188  6.10987
Si  3.39438 16.97188  8.82537
Si  0.67887 19.68738  8.82537
Si  3.39438 19.68738  6.10987
Si  4.75212 18.32963  7.46762
Si  4.75212 21.04512 10.18313
Si  2.03662 18.32963 10.18313
Si  2.03662 21.04512  7.46762
Si  0.67887 16.97188 11.54087
Si  3.39438 16.97188 14.25638
Si  0.67887 19.68738 14.25638
Si  3.39438 19.68738 11.54087
Si  4.75212 18.32963 12.89862
Si  4.75212 21.04512 15.61413
Si  2.03662 18.32963 15.61413
Si  2.03662 21.04512 12.89862
Si  6.10987  0.67887  0.67888
Si  8.82537  0.67887  3.39437
Si  6.10987  3.39437  3.39437
Si  8.82537  3.39437  0.67888
Si 10.18313  2.03662  2.03662
Si 10.18313  4.75212  4.75213
Si  7.46762  2.03662  4.75213
Si  7.46762  4.75212  2.03662
Si  6.10987  0.67887  6.10987
Si  8.82537  0.67887  8.82537
Si  6.10987  3.39437  8.82537
Si  8.82537  3.39437  6.10987
Si 10.18313  2.03662  7.46762
Si 10.18313  4.75212 10.18313
Si  7.46762  2.03662 10.18313
Si  7.46762  4.75212  7.46762
Si  6.10987  0.67887 11.54087
Si  8.82537  0.67887 14.25638
Si  6.10987  3.39437 14.25638
Si  8.82537  3.39437 11.54087
Si 10.18313  2.03662 12.89862
Si 10.18313  4.75212 15.61413
Si  7.46762  2.03662 15.61413
Si  7.46762  4.75212 12.89862
Si  6.10987  6.10987  0.67888
Si  8.82537  6.10987  3.39437
Si  6.10987  8.82537  3.39437
Si  8.82537  8.82537  0.67888
Si 10.18313  7.46762  2.03662
Si 10.18313 10.18313  4.75213
Si  7.46762  7.46762  4.75213
Si  7.46762 10.18313  2.03662
Si  6.10987  6.10987  6.10987
Si  8.82537  6.10987  8.82537
Si  6.10987  8.82537  8.82537
Si  8.82537  8.82537  6.10987
Si 10.18313  7.46762  7.46762
Si 10.18313 10.18313 10.18313
Si  7.46762  7.46762 10.18313
Si  7.46762 10.18313  7.46762
Si  6.10987  6.10987 11.54087
Si  8.82537  6.10987 14.25638
Si  6.10987  8.82537 14.25638
Si  8.82537  8.82537 11.54087
Si 10.18313  7.46762 12.89862
Si 10.18313 10.18313 15.61413
Si  7.46762  7.46762 15.61413
Si  7.46762 10.18313 12.89862
Si  6.10987 11.54087  0.67888
Si  8.82537 11.54087  3.39437
Si  6.10987 14.25638  3.39437
Si  8.82537 14.25638  0.67888
Si 10.18313 12.89862  2.03662
Si 10.18313 15.61413  4.75213
Si  7.46762 12.89862  4.75213
Si  7.46762 15.61413  2.03662
Si  6.10987 11.54087  6.10987
Si  8.82537 11.54087  8.82537
Si  6.10987 14.25638  8.82537
Si  8.82537 14.25638  6.10987
Si 10.18313 12.89862  7.46762
Si 10.18313 15.61413 10.18313
Si  7.46762 12.89862 10.18313
Si  7.46762 15.61413  7.46762
Si  6.10987 11.54087 11.54087
Si  8.82537 11.54087 14.25638
Si  6.10987 14.25638 14.25638
Si  8.82537 14.25638 11.54087
Si 10.18313 12.89862 12.89862
Si 10.18313 15.61413 15.61413
Si  7.46762 12.89862 15.61413
Si  7.46762 15.61413 12.89862
Si  6.10987 16.97188  0.67888
Si  8.82537 16.97188  3.39437
Si  6.10987 19.68738  3.39437
Si  8.82537 19.68738  0.67888
Si 10.18313 18.32963  2.03662
Si 10.18313 21.04512  4.75213
Si  7.46762 18.32963  4.75213
Si  7.46762 21.04512  2.03662
Si  6.10987 16.97188  6.10987
Si  8.82537 16.97188  8.82537
Si  6.10987 19.68738  8.82537
Si  8.82537 19.68738  6.10987
Si 10.18313 18.32963  7.46762
Si 10.18313 21.04512 10.18313
Si  7.46762 18.32963 10.18313
Si  7.46762 21.04512  7.46762
Si  6.10987 16.97188 11.54087
Si  8.82537 16.97188 14.25638
Si  6.10987 19.68738 14.25638
Si  8.82537 19.68738 11.54087
Si 10.18313 18.32963 12.89862
Si 10.18313 21.04512 15.61413
Si  7.46762 18.32963 15.61413
Si  7.46762 21.04512 12.89862
Si 11.54087  0.67887  0.67888
Si 14.25638  0.67887  3.39437
Si 11.54087  3.39437  3.39437
Si 14.25638  3.39437  0.67888
Si 15.61413  2.03662  2.03662
Si 15.61413  4.75212  4.75213
Si 12.89862  2.03662  4.75213
Si 12.89862  4.75212  2.03662
Si 11.54087  0.67887  6.10987
Si 14.25638  0.67887  8.82537
Si 11.54087  3.39437  8.82537
Si 14.25638  3.39437  6.10987
Si 15.61413  2.03662  7.46762
Si 15.61413  4.75212 10.18313
Si 12.89862  2.03662 10.18313
Si 12.89862  4.75212  7.46762
Si 11.54087  0.67887 11.54087
Si 14.25638  0.67887 14.25638
Si 11.54087  3.39437 14.25638
Si 14.25638  3.39437 11.54087
Si 15.61413  2.03662 12.89862
Si 15.61413  4.75212 15.61413
Si 12.89862  2.03662 15.61413
Si 12.89862  4.75212 12.89862
Si 11.54087  6.10987  0.67888
Si 14.25638  6.10987  3.39437
Si 11.54087  8.82537  3.39437
Si 14.25638  8.82537  0.67888
Si 15.61413  7.46762  2.03662
Si 15.61413 10.18313  4.75213
Si 12.89862  7.46762  4.75213
Si 12.89862 10.18313  2.03662
Si 11.54087  6.10987  6.10987
Si 14.25638  6.10987  8.82537
Si 11.54087  8.82537  8.82537
Si 14.25638  8.82537  6.10987
Si 15.61413  7.46762  7.46762
Si 15.61413 10.18313 10.18313
Si 12.89862  7.46762 10.18313
Si 12.89862 10.18313  7.46762
Si 11.54087  6.10987 11.54087
Si 14.25638  6.10987 14.25638
Si 11.54087  8.82537 14.25638
Si 14.25638  8.82537 11.54087
Si 15.61413  7.46762 12.89862
Si 15.61413 10.18313 15.61413
Si 12.89862  7.46762 15.61413
Si 12.89862 10.18313 12.89862
Si 11.54087 11.54087  0.67888
Si 14.25638 11.54087  3.39437
Si 11.54087 14.25638  3.39437
Si 14.25638 14.25638  0.67888
Si 15.61413 12.89862  2.03662
Si 15.61413 15.61413  4.75213
Si 12.89862 12.89862  4.75213
Si 12.89862 15.61413  2.03662
Si 11.54087 11.54087  6.10987
Si 14.25638 11.54087  8.82537
Si 11.54087 14.25638  8.82537
Si 14.25638 14.25638  6.10987
Si 15.61413 12.89862  7.46762
Si 15.61413 15.61413 10.18313
Si 12.89862 12.89862 10.18313
Si 12.89862 15.61413  7.46762
Si 11.54087 11.54087 11.54087
Si 14.25638 11.54087 14.25638
Si 11.54087 14.25638 14.25638
Si 14.25638 14.25638 11.54087
Si 15.61413 12.89862 12.89862
Si 15.61413 15.61413 15.61413
Si 12.89862 12.89862 15.61413
Si 12.89862 15.61413 12.89862
Si 11.54087 16.97188  0.67888
Si 14.25638 16.97188  3.39437
Si 11.54087 19.68738  3.39437
Si 14.25638 19.68738  0.67888
Si 15.61413 18.32963  2.03662
Si 15.61413 21.04512  4.75213
Si 12.89862 18.32963  4.75213
Si 12.89862 21.04512  2.03662
Si 11.54087 16.97188  6.10987
Si 14.25638 16.97188  8.82537
Si 11.54087 19.68738  8.82537
Si 14.25638 19.68738  6.10987
Si 15.61413 18.32963  7.46762
Si 15.61413 21.04512 10.18313
Si 12.89862 18.32963 10.18313
Si 12.89862 21.04512  7.46762
Si 11.54087 16.97188 11.54087
Si 14.25638 16.97188 14.25638
Si 11.54087 19.68738 14.25638
Si 14.25638 19.68738 11.54087
Si 15.61413 18.32963 12.89862
Si 15.61413 21.04512 15.61413
Si 12.89862 18.32963 15.61413
Si 12.89862 21.04512 12.89862
Si 16.97188  0.67887  0.67888
Si 19.68738  0.67887  3.39437
Si 16.97188  3.39437  3.39437
Si 19.68738  3.39437  0.67888
Si 21.04512  2.03662  2.03662
Si 21.04512  4.75212  4.75213
Si 18.32963  2.03662  4.75213
Si 18.32963  4.75212  2.03662
Si 16.97188  0.67887  6.10987
Si 19.68738  0.67887  8.82537
Si 16.97188  3.39437  8.82537
Si 19.68738  3.39437  6.10987
Si 21.04512  2.03662  7.46762
Si 21.04512  4.75212 10.18313
Si 18.32963  2.03662 10.18313
Si 18.32963  4.75212  7.46762
Si 16.97188  0.67887 11.54087
Si 19.68738  0.67887 14.25638
Si 16.97188  3.39437 14.25638
Si 19.68738  3.39437 11.54087
Si 21.04512  2.03662 12.89862
Si 21.04512  4.75212 15.61413
Si 18.32963  2.03662 15.61413
Si 18.32963  4.75212 12.89862
Si 16.97188  6.10987  0.67888
Si 19.68738  6.10987  3.39437
Si 16.97188  8.82537  3.39437
Si 19.68738  8.82537  0.67888
Si 21.04512  7.46762  2.03662
Si 21.04512 10.18313  4.75213
Si 18.32963  7.46762  4.75213
Si 18.32963 10.18313  2.03662
Si 16.97188  6.10987  6.10987
Si 19.68738  6.10987  8.82537
Si 16.97188  8.82537  8.82537
Si 19.68738  8.82537  6.10987
Si 21.04512  7.46762  7.46762
Si 21.04512 10.18313 10.18313
Si 18.32963  7.46762 10.18313
Si 18.32963 10.18313  7.46762
Si 16.97188  6.10987 11.54087
Si 19.68738  6.10987 14.25638
Si 16.97188  8.82537 14.25638
Si 19.68738  8.82537 11.54087
Si 21.04512  7.46762 12.89862
Si 21.04512 10.18313 15.61413
Si 18.32963  7.46762 15.61413
Si 18.32963 10.18313 12.89862
Si 16.97188 11.54087  0.67888
Si 19.68738 11.54087  3.39437
Si 16.97188 14.25638  3.39437
Si 19.68738 14.25638  0.67888
Si 21.04512 12.89862  2.03662
Si 21.04512 15.61413  4.75213
Si 18.32963 12.89862  4.75213
Si 18.32963 15.61413  2.03662
Si 16.97188 11.54087  6.10987
Si 19.68738 11.54087  8.82537
Si 16.97188 14.25638  8.82537
Si 19.68738 14.25638  6.10987
Si 21.04512 12.89862  7.46762
Si 21.04512 15.61413 10.18313
Si 18.32963 12.89862 10.18313
Si 18.32963 15.61413  7.46762
Si 16.97188 11.54087 11.54087
Si 19.68738 11.54087 14.25638
Si 16.97188 14.25638 14.25638
Si 19.68738 14.25638 11.54087
Si 21.04512 12.89862 12.89862
Si 21.04512 15.61413 15.61413
Si 18.32963 12.89862 15.61413
Si 18.32963 15.61413 12.89862
Si 16.97188 16.97188  0.67888
Si 19.68738 16.97188  3.39437
Si 16.97188 19.68738  3.39437
Si 19.68738 19.68738  0.67888
Si 21.04512 18.32963  2.03662
Si 21.04512 21.04512  4.75213
Si 18.32963 18.32963  4.75213
Si 18.32963 21.04512  2.03662
Si 16.97188 16.97188  6.10987
Si 19.68738 16.97188  8.82537
Si 16.97188 19.68738  8.82537
Si 19.68738 19.68738  6.10987
Si 21.04512 18.32963  7.46762
Si 21.04512 21.04512 10.18313
Si 18.32963 18.32963 10.18313
Si 18.32963 21.04512  7.46762
Si 16.97188 16.97188 11.54087
Si 19.68738 16.97188 14.25638
Si 16.97188 19.68738 14.25638
Si 19.68738 19.68738 11.54087
Si 21.04512 18.32963 12.89862
Si 21.04512 21.04512 15.61413
Si 18.32963 18.32963 15.61413
Si 18.32963 21.04512 12.89862
Si  0.67887  0.67887 16.97188
Si  3.39438  0.67887 19.68737
Si  0.67887  3.39437 19.68737
Si  3.39438  3.39437 16.97188
Si  4.75212  2.03662 18.32963
Si  4.75212  4.75212 21.04513
Si  2.03662  2.03662 21.04513
Si  2.03662  4.75212 18.32963
Si  0.67887  0.67887 22.40287
Si  3.39438  0.67887 25.11837
Si  0.67887  3.39437 25.11837
Si  3.39438  3.39437 22.40287
Si  4.75212  2.03662 23.76062
Si  4.75212  4.75212 26.47612
Si  2.03662  2.03662 26.47612
Si  2.03662  4.75212 23.76062
Si  0.67887  0.67887 27.83388
Si  3.39438  0.67887 30.54938
Si  0.67887  3.39437 30.54938
Si  3.39438  3.39437 27.83388
Si  4.75212  2.03662 29.19162
Si  4.75212  4.75212 31.90713
Si  2.03662  2.03662 31.90713
Si  2.03662  4.75212 29.19162
Si  0.67887  6.10987 16.97188
Si  3.39438  6.10987 19.68737
Si  0.67887  8.82537 19.68737
Si  3.39438  8.82537 16.97188
Si  4.75212  7.46762 18.32963
Si  4.75212 10.18313 21.04513
Si  2.03662  7.46762 21.04513
Si  2.03662 10.18313 18.32963
Si  0.67887  6.10987 22.40287
Si  3.39438  6.10987 25.11837
Si  0.67887  8.82537 25.11837
Si  3.39438  8.82537 22.40287
Si  4.75212  7.46762 23.76062
Si  4.75212 10.18313 26.47612
Si  2.03662  7.46762 26.47612
Si  2.03662 10.18313 23.76062
Si  0.67887  6.10987 27.83388
Si  3.39438  6.10987 30.54938
Si  0.67887  8.82537 30.54938
Si  3.39438  8.82537 27.83388
Si  4.75212  7.46762 29.19162
Si  4.75212 10.18313 31.90713
Si  2.03662  7.46762 31.90713
Si  2.03662 10.18313 29.19162
Si  0.67887 11.54087 16.97188
Si  3.39438 11.54087 19.68737
Si  0.67887 14.25638 19.68737
Si  3.39438 14.25638 16.97188
Si  4.75212 12.89862 18.32963
Si  4.75212 15.61413 21.04513
Si  2.03662 12.89862 21.04513
Si  2.03662 15.61413 18.32963
Si  0.67887 11.54087 22.40287
Si  3.39438 11.54087 25.11837
Si  0.67887 14.25638 25.11837
Si  3.39438 14.25638 22.40287
Si  4.75212 12.89862 23.76062
Si  4.75212 15.61413 26.47612
Si  2.03662 12.89862 26.47612
Si  2.03662 15.61413 23.76062
Si  0.67887 11.54087 27.83388
Si  3.39438 11.54087 30.54938
Si  0.67887 14.25638 30.54938
Si  3.39438 14.25638 27.83388
Si  4.75212 12.89862 29.19162
Si  4.75212 15.61413 31.90713
Si  2.03662 12.89862 31.90713
Si  2.03662 15.61413 29.19162
Si  0.67887 16.97188 16.97188
Si  3.39438 16.97188 19.68737
Si  0.67887 19.68738 19.68737
Si  3.39438 19.68738 16.97188
Si  4.75212 18.32963 18.32963
Si  4.75212 21.04512 21.04513
Si  2.03662 18.32963 21.04513
Si  2.03662 21.04512 18.32963
Si  0.67887 16.97188 22.40287
Si  3.39438 16.97188 25.11837
Si  0.67887 19.68738 25.11837
Si  3.39438 19.68738 22.40287
Si  4.75212 18.32963 23.76062
Si  4.75212 21.04512 26.47612
Si  2.03662 18.32963 26.47612
Si  2.03662 21.04512 23.76062
Si  0.67887 16.97188 27.83388
Si  3.39438 16.97188 30.54938
Si  0.67887 19.68738 30.54938
Si  3.39438 19.68738 27.83388
Si  4.75212 18.32963 29.19162
Si  4.75212 21.04512 31.90713
Si  2.03662 18.32963 31.90713
Si  2.03662 21.04512 29.19162
Si  6.10987  0.67887 16.97188
Si  8.82537  0.67887 19.68737
Si  6.10987  3.39437 19.68737
Si  8.82537  3.39437 16.97188
Si 10.18313  2.03662 18.32963
Si 10.18313  4.75212 21.04513
Si  7.46762  2.03662 21.04513
Si  7.46762  4.75212 18.32963
Si  6.10987  0.67887 22.40287
Si  8.82537  0.67887 25.11837
Si  6.10987  3.39437 25.11837
Si  8.82537  3.39437 22.40287
Si 10.18313  2.03662 23.76062
Si 10.18313  4.75212 26.47612
Si  7.46762  2.03662 26.47612
Si  7.46762  4.75212 23.76062
Si  6.10987  0.67887 27.83388
Si  8.82537  0.67887 30.54938
Si  6.10987  3.39437 30.54938
Si  8.82537  3.39437 27.83388
Si 10.18313  2.03662 29.19162
Si 10.18313  4.75212 31.90713
Si  7.46762  2.03662 31.90713
Si  7.46762  4.75212 29.19162
Si  6.10987  6.10987 16.97188
Si  8.82537  6.10987 19.68737
Si  6.10987  8.82537 19.68737
Si  8.82537  8.82537 16.97188
Si 10.18313  7.46762 18.32963
Si 10.18313 10.18313 21.04513
Si  7.46762  7.46762 21.04513
Si  7.46762 10.18313 18.32963
Si  6.10987  6.10987 22.40287
Si  8.82537  6.10987 25.11837
Si  6.10987  8.82537 25.11837
Si  8.82537  8.82537 22.40287
Si 10.18313  7.46762 23.76062
Si 10.18313 10.18313 26.47612
Si  7.46762  7.46762 26.47612
Si  7.46762 10.18313 23.76062
Si  6.10987  6.10987 27.83388
Si  8.82537  6.10987 30.54938
Si  6.10987  8.82537 30.54938
Si  8.82537  8.82537 27.83388
Si 10.18313  7.46762 29.19162
Si 10.18313 10.18313 31.90713
Si  7.46762  7.46762 31.90713
Si  7.46762 10.18313 29.19162
Si  6.10987 11.54087 16.97188
Si  8.82537 11.54087 19.68737
Si  6.10987 14.25638 19.68737
Si  8.82537 14.25638 16.97188
Si 10.18313 12.89862 18.32963
Si 10.18313 15.61413 21.04513
Si  7.46762 12.89862 21.04513
Si  7.46762 15.61413 18.32963
Si  6.10987 11.54087 22.40287
Si  8.82537 11.54087 25.11837
Si  6.10987 14.25638 25.11837
Si  8.82537 14.25638 22.40287
Si 10.18313 12.89862 23.76062
Si 10.18313 15.61413 26.47612
Si  7.46762 12.89862 26.47612
Si  7.46762 15.61413 23.76062
Si  6.10987 11.54087 27.83388
Si  8.82537 11.54087 30.54938
Si  6.10987 14.25638 30.54938
Si  8.82537 14.25638 27.83388
Si 10.18313 12.89862 29.19162
Si 10.18313 15.61413 31.90713
Si  7.46762 12.89862 31.90713
Si  7.46762 15.61413 29.19162
Si  6.10987 16.97188 16.97188
Si  8.82537 16.97188 19.68737
Si  6.10987 19.68738 19.68737
Si  8.82537 19.68738 16.97188
Si 10.18313 18.32963 18.32963
Si 10.18313 21.04512 21.04513
Si  7.46762 18.32963 21.04513
Si  7.46762 21.04512 18.32963
Si  6.10987 16.97188 22.40287
Si  8.82537 16.97188 25.11837
Si  6.10987 19.68738 25.11837
Si  8.82537 19.68738 22.40287
Si 10.18313 18.32963 23.76062
Si 10.18313 21.04512 26.47612
Si  7.46762 18.32963 26.47612
Si  7.46762 21.04512 23.76062
Si  6.10987 16.97188 27.83388
Si  8.82537 16.97188 30.54938
Si  6.10987 19.68738 30.54938
Si  8.82537 19.68738 27.83388
Si 10.18313 18.32963 29.19162
Si 10.18313 21.04512 31.90713
Si  7.46762 18.32963 31.90713
Si  7.46762 21.04512 29.19162
Si 11.54087  0.67887 16.97188
Si 14.25638  0.67887 19.68737
Si 11.54087  3.39437 19.68737
Si 14.25638  3.39437 16.97188
Si 15.61413  2.03662 18.32963
Si 15.61413  4.75212 21.04513
Si 12.89862  2.03662 21.04513
Si 12.89862  4.75212 18.32963
Si 11.54087  0.67887 22.40287
Si 14.25638  0.67887 25.11837
Si 11.54087  3.39437 25.11837
Si 14.25638  3.39437 22.40287
Si 15.61413  2.03662 23.76062
Si 15.61413  4.75212 26.47612
Si 12.89862  2.03662 26.47612
Si 12.89862  4.75212 23.76062
Si 11.54087  0.67887 27.83388
Si 14.25638  0.67887 30.54938
Si 11.54087  3.39437 30.54938
Si 14.25638  3.39437 27.83388
Si 15.61413  2.03662 29.19162
Si 15.61413  4.75212 31.90713
Si 12.89862  2.03662 31.90713
Si 12.89862  4.75212 29.19162
Si 11.54087  6.10987 16.97188
Si 14.25638  6.10987 19.68737
Si 11.54087  8.82537 19.68737
Si 14.25638  8.82537 16.97188
Si 15.61413  7.46762 18.32963
Si 15.61413 10.18313 21.04513
Si 12.89862  7.46762 21.04513
Si 12.89862 10.18313 18.32963
Si 11.54087  6.10987 22.40287
Si 14.25638  6.10987 25.11837
Si 11.54087  8.82537 25.11837
Si 14.25638  8.82537 22.40287
Si 15.61413  7.46762 23.76062
Si 15.61413 10.18313 26.47612
Si 12.89862  7.46762 26.47612
Si 12.89862 10.18313 23.76062
Si 11.54087  6.10987 27.83388
Si 14.25638  6.10987 30.54938
Si 11.54087  8.82537 30.54938
Si 14.25638  8.82537 27.83388
Si 15.61413  7.46762 29.19162
Si 15.61413 10.18313 31.90713
Si 12.89862  7.46762 31.90713
Si 12.89862 10.18313 29.19162
Si 11.54087 11.54087 16.97188
Si 14.25638 11.54087 19.68737
Si 11.54087 14.25638 19.68737
Si 14.25638 14.25638 16.97188
Si 15.61413 12.89862 18.32963
Si 15.61413 15.61413 21.04513
Si 12.89862 12.89862 21.04513
Si 12.89862 15.61413 18.32963
Si 11.54087 11.54087 22.40287
Si 14.25638 11.54087 25.11837
Si 11.54087 14.25638 25.11837
Si 14.25638 14.25638 22.40287
Si 15.61413 12.89862 23.76062
Si 15.61413 15.61413 26.47612
Si 12.89862 12.89862 26.47612
Si 12.89862 15.61413 23.76062
Si 11.54087 11.54087 27.83388
Si 14.25638 11.54087 30.54938
Si 11.54087 14.25638 30.54938
Si 14.25638 14.25638 27.83388
Si 15.61413 12.89862 29.19162
Si 15.61413 15.61413 31.90713
Si 12.89862 12.89862 31.90713
Si 12.89862 15.61413 29.19162
Si 11.54087 16.97188 16.97188
Si 14.25638 16.97188 19.68737
Si 11.54087 19.68738 19.68737
Si 14.25638 19.68738 16.97188
Si 15.61413 18.32963 18.32963
Si 15.61413 21.04512 21.04513
Si 12.89862 18.32963 21.04513
Si 12.89862 21.04512 18.32963
Si 11.54087 16.97188 22.40287
Si 14.25638 16.97188 25.11837
Si 11.54087 19.68738 25.11837
Si 14.25638 19.68738 22.40287
Si 15.61413 18.32963 23.76062
Si 15.61413 21.04512 26.47612
Si 12.89862 18.32963 26.47612
Si 12.89862 21.04512 23.76062
Si 11.54087 16.97188 27.83388
Si 14.25638 16.97188 30.54938
Si 11.54087 19.68738 30.54938
Si 14.25638 19.68738 27.83388
Si 15.61413 18.32963 29.19162
Si 15.61413 21.04512 31.90713
Si 12.89862 18.32963 31.90713
Si 12.89862 21.04512 29.19162
Si 16.97188  0.67887 16.97188
Si 19.68738  0.67887 19.68737
Si 16.97188  3.39437 19.68737
Si 19.68738  3.39437 16.97188
Si 21.04512  2.03662 18.32963
Si 21.04512  4.75212 21.04513
Si 18.32963  2.03662 21.04513
Si 18.32963  4.75212 18.32963
Si 16.97188  0.67887 22.40287
Si 19.68738  0.67887 25.11837
Si 16.97188  3.39437 25.11837
Si 19.68738  3.39437 22.40287
Si 21.04512  2.03662 23.76062
Si 21.04512  4.75212 26.47612
Si 18.32963  2.03662 26.47612
Si 18.32963  4.75212 23.76062
Si 16.97188  0.67887 27.83388
Si 19.68738  0.67887 30.54938
Si 16.97188  3.39437 30.54938
Si 19.68738  3.39437 27.83388
Si 21.04512  2.03662 29.19162
Si 21.04512  4.75212 31.90713
Si 18.32963  2.03662 31.90713
Si 18.32963  4.75212 29.19162
Si 16.97188  6.10987 16.97188
Si 19.68738  6.10987 19.68737
Si 16.97188  8.82537 19.68737
Si 19.68738  8.82537 16.97188
Si 21.04512  7.46762 18.32963
Si 21.04512 10.18313 21.04513
Si 18.32963  7.46762 21.04513
Si 18.32963 10.18313 18.32963
Si 16.97188  6.10987 22.40287
Si 19.68738  6.10987 25.11837
Si 16.97188  8.82537 25.11837
Si 19.68738  8.82537 22.40287
Si 21.04512  7.46762 23.76062
Si 21.04512 10.18313 26.47612
Si 18.32963  7.46762 26.47612
Si 18.32963 10.18313 23.76062
Si 16.97188  6.10987 27.83388
Si 19.68738  6.10987 30.54938
Si 16.97188  8.82537 30.54938
Si 19.68738  8.82537 27.83388
Si 21.04512  7.46762 29.19162
Si 21.04512 10.18313 31.90713
Si 18.32963  7.46762 31.90713
Si 18.32963 10.18313 29.19162
Si 16.97188 11.54087 16.97188
Si 19.68738 11.54087 19.68737
Si 16.97188 14.25638 19.68737
Si 19.68738 14.25638 16.97188
Si 21.04512 12.89862 18.32963
Si 21.04512 15.61413 21.04513
Si 18.32963 12.89862 21.04513
Si 18.32963 15.61413 18.32963
Si 16.97188 11.54087 22.40287
Si 19.68738 11.54087 25.11837
Si 16.97188 14.25638 25.11837
Si 19.68738 14.25638 22.40287
Si 21.04512 12.89862 23.76062
Si 21.04512 15.61413 26.47612
Si 18.32963 12.89862 26.47612
Si 18.32963 15.61413 23.76062
Si 16.97188 11.54087 27.83388
Si 19.68738 11.54087 30.54938
Si 16.97188 14.25638 30.54938
Si 19.68738 14.25638 27.83388
Si 21.04512 12.89862 29.19162
Si 21.04512 15.61413 31.90713
Si 18.32963 12.89862 31.90713
Si 18.32963 15.61413 29.19162
Si 16.97188 16.97188 16.97188
Si 19.68738 16.97188 19.68737
Si 16.97188 19.68738 19.68737
Si 19.68738 19.68738 16.97188
Si 21.04512 18.32963 18.32963
Si 21.04512 21.04512 21.04513
Si 18.32963 18.32963 21.04513
Si 18.32963 21.04512 18.32963
Si 16.97188 16.97188 22.40287
Si 19.68738 16.97188 25.11837
Si 16.97188 19.68738 25.11837
Si 19.68738 19.68738 22.40287
Si 21.04512 18.32963 23.76062
Si 21.04512 21.04512 26.47612
Si 18.32963 18.32963 26.47612
Si 18.32963 21.04512 23.76062
Si 16.97188 16.97188 27.83388
Si 19.68738 16.97188 30.54938
Si 16.97188 19.68738 30.54938
Si 19.68738 19.68738 27.83388
Si 21.04512 18.32963 29.19162
Si 21.04512 21.04512 31.90713
Si 18.32963 18.32963 31.90713
Si 18.32963 21.04512 29.19162
Si  0.67887 22.40287 -15.61412
Si  3.39438 22.40287 -12.89863
Si  0.67887 25.11837 -12.89863
Si  3.39438 25.11837 -15.61412
Si  4.75212 23.76062 -14.25638
Si  4.75212 26.47612 -11.54087
Si  2.03662 23.76062 -11.54087
Si  2.03662 26.47612 -14.25638
Si  0.67887 22.40287 -10.18313
Si  3.39438 22.40287 -7.46763
Si  0.67887 25.11837 -7.46763
Si  3.39438 25.11837 -10.18313
Si  4.75212 23.76062 -8.82538
Si  4.75212 26.47612 -6.10987
Si  2.03662 23.76062 -6.10987
Si  2.03662 26.47612 -8.82538
Si  0.67887 22.40287 -4.75212
Si  3.39438 22.40287 -2.03662
Si  0.67887 25.11837 -2.03662
Si  3.39438 25.11837 -4.75212
Si  4.75212 23.76062 -3.39438
Si  4.75212 26.47612 -0.67887
Si  2.03662 23.76062 -0.67887
Si  2.03662 26.47612 -3.39438
Si  0.67887 27.83387 -15.61412
Si  3.39438 27.83387 -12.89863
Si  0.67887 30.54938 -12.89863
Si  3.39438 30.54938 -15.61412
Si  4.75212 29.19162 -14.25638
Si  4.75212 31.90712 -11.54087
Si  2.03662 29.19162 -11.54087
Si  2.03662 31.90712 -14.25638
Si  0.67887 27.83387 -10.18313
Si  3.39438 27.83387 -7.46763
Si  0.67887 30.54938 -7.46763
Si  3.39438 30.54938 -10.18313
Si  4.75212 29.19162 -8.82538
Si  4.75212 31.90712 -6.10987
Si  2.03662 29.19162 -6.10987
Si  2.03662 31.90712 -8.82538
Si  0.67887 27.83387 -4.75212
Si  3.39438 27.83387 -2.03662
Si  0.67887 30.54938 -2.03662
Si  3.39438 30.54938 -4.75212
Si  4.75212 29.19162 -3.39438
Si  4.75212 31.90712 -0.67887
Si  2.03662 29.19162 -0.67887
Si  2.03662 31.90712 -3.39438
Si  0.67887 33.26487 -15.61412
Si  3.39438 33.26487 -12.89863
Si  0.67887 35.98037 -12.89863
Si  3.39438 35.98037 -15.61412
Si  4.75212 34.62262 -14.25638
Si  4.75212 37.33813 -11.54087
Si  2.03662 34.62262 -11.54087
Si  2.03662 37.33813 -14.25638
Si  0.67887 33.26487 -10.18313
Si  3.39438 33.26487 -7.46763
Si  0.67887 35.98037 -7.46763
Si  3.39438 35.98037 -10.18313
Si  4.75212 34.62262 -8.82538
Si  4.75212 37.33813 -6.10987
Si  2.03662 34.62262 -6.10987
Si  2.03662 37.33813 -8.82538
Si  0.67887 33.26487 -4.75212
Si  3.39438 33.26487 -2.03662
Si  0.67887 35.98037 -2.03662
Si  3.39438 35.98037 -4.75212
Si  4.75212 34.62262 -3.39438
Si  4.75212 37.33813 -0.67887
Si  2.03662 34.62262 -0.67887
Si  2.03662 37.33813 -3.39438
Si  0.67887 38.69588 -15.61412
Si  3.39438 38.69588 -12.89863
Si  0.67887 41.41138 -12.89863
Si  3.39438 41.41138 -15.61412
Si  4.75212 40.05362 -14.25638
Si  4.75212 42.76913 -11.54087
Si  2.03662 40.05362 -11.54087
Si  2.03662 42.76913 -14.25638
Si  0.67887 38.69588 -10.18313
Si  3.39438 38.69588 -7.46763
Si  0.67887 41.41138 -7.46763
Si  3.39438 41.41138 -10.18313
Si  4.75212 40.05362 -8.82538
Si  4.75212 42.76913 -6.10987
Si  2.03662 40.05362 -6.10987
Si  2.03662 42.76913 -8.82538
Si  0.67887 38.69588 -4.75212
Si  3.39438 38.69588 -2.03662
Si  0.67887 41.41138 -2.03662
Si  3.39438 41.41138 -4.75212
Si  4.75212 40.05362 -3.39438
Si  4.75212 42.76913 -0.67887
Si  2.03662 40.05362 -0.67887
Si  2.03662 42.76913 -3.39438
Si  6.10987 22.40287 -15.61412
Si  8.82537 22.40287 -12.89863
Si  6.10987 25.11837 -12.89863
Si  8.82537 25.11837 -15.61412
Si 10.18313 23.76062 -14.25638
Si 10.18313 26.47612 -11.54087
Si  7.46762 23.76062 -11.54087
Si  7.46762 26.47612 -14.25638
Si  6.10987 22.40287 -10.18313
Si  8.82537 22.40287 -7.46763
Si  6.10987 25.11837 -7.46763
Si  8.82537 25.11837 -10.18313
Si 10.18313 23.76062 -8.82538
Si 10.18313 26.47612 -6.10987
Si  7.46762 23.76062 -6.10987
Si  7.46762 26.47612 -8.82538
Si  6.10987 22.40287 -4.75212
Si  8.82537 22.40287 -2.03662
Si  6.10987 25.11837 -2.03662
Si  8.82537 25.11837 -4.75212
Si 10.18313 23.76062 -3.39438
Si 10.18313 26.47612 -0.67887
Si  7.46762 23.76062 -0.67887
Si  7.46762 26.47612 -3.39438
Si  6.10987 27.83387 -15.61412
Si  8.82537 27.83387 -12.89863
Si  6.10987 30.54938 -12.89863
Si  8.82537 30.54938 -15.61412
Si 10.18313 29.19162 -14.25638
Si 10.18313 31.90712 -11.54087
Si  7.46762 29.19162 -11.54087
Si  7.46762 31.90712 -14.25638
Si  6.10987 27.83387 -10.18313
Si  8.82537 27.83387 -7.46763
Si  6.10987 30.54938 -7.46763
Si  8.82537 30.54938 -10.18313
Si 10.18313 29.19162 -8.82538
Si 10.18313 31.90712 -6.10987
Si  7.46762 29.19162 -6.10987
Si  7.46762 31.90712 -8.82538
Si  6.10987 27.83387 -4.75212
Si  8.82537 27.83387 -2.03662
Si  6.10987 30.54938 -2.03662
Si  8.82537 30.54938 -4.75212
Si 10.18313 29.19162 -3.39438
Si 10.18313 31.90712 -0.67887
Si  7.46762 29.19162 -0.67887
Si  7.46762 31.90712 -3.39438
Si  6.10987 33.26487 -15.61412
Si  8.82537 33.26487 -12.89863
Si  6.10987 35.98037 -12.89863
Si  8.82537 35.98037 -15.61412
Si 10.18313 34.62262 -14.25638
Si 10.18313 37.33813 -11.54087
Si  7.46762 34.62262 -11.54087
Si  7.46762 37.33813 -14.25638
Si  6.10987 33.26487 -10.18313
Si  8.82537 33.26487 -7.46763
Si  6.10987 35.98037 -7.46763
Si  8.82537 35.98037 -10.18313
Si 10.18313 34.62262 -8.82538
Si 10.18313 37.33813 -6.10987
Si  7.46762 34.62262 -6.10987
Si  7.46762 37.33813 -8.82538
Si  6.10987 33.26487 -4.75212
Si  8.82537 33.26487 -2.03662
Si  6.10987 35.98037 -2.03662
Si  8.82537 35.98037 -4.75212
Si 10.18313 34.62262 -3.39438
Si 10.18313 37.33813 -0.67887
Si  7.46762 34.62262 -0.67887
Si  7.46762 37.33813 -3.39438
Si  6.10987 38.69588 -15.61412
Si  8.82537 38.69588 -12.89863
Si  6.10987 41.41138 -12.89863
Si  8.82537 41.41138 -15.61412
Si 10.18313 40.05362 -14.25638
Si 10.18313 42.76913 -11.54087
Si  7.46762 40.05362 -11.54087
Si  7.46762 42.76913 -14.25638
Si  6.10987 38.69588 -10.18313
Si  8.82537 38.69588 -7.46763
Si  6.10987 41.41138 -7.46763
Si  8.82537 41.41138 -10.18313
Si 10.18313 40.05362 -8.82538
Si 10.18313 42.76913 -6.10987
Si  7.46762 40.05362 -6.10987
Si  7.46762 42.76913 -8.82538
Si  6.10987 38.69588 -4.75212
Si  8.82537 38.69588 -2.03662
Si  6.10987 41.41138 -2.03662
Si  8.82537 41.41138 -4.75212
Si 10.18313 40.05362 -3.39438
Si 10.18313 42.76913 -0.67887
Si  7.46762 40.05362 -0.67887
Si  7.46762 42.76913 -3.39438
Si 11.54087 22.40287 -15.61412
Si 14.25638 22.40287 -12.89863
Si 11.54087 25.11837 -12.89863
Si 14.25638 25.11837 -15.61412
Si 15.61413 23.76062 -14.25638
Si 15.61413 26.47612 -11.54087
Si 12.89862 23.76062 -11.54087
Si 12.89862 26.47612 -14.25638
Si 11.54087 22.40287 -10.18313
Si 14.25638 22.40287 -7.46763
Si 11.54087 25.11837 -7.46763
Si 14.25638 25.11837 -10.18313
Si 15.61413 23.76062 -8.82538
Si 15.61413 26.47612 -6.10987
Si 12.89862 23.76062 -6.10987
Si 12.89862 26.47612 -8.82538
Si 11.54087 22.40287 -4.75212
Si 14.25638 22.40287 -2.03662
Si 11.54087 25.11837 -2.03662
Si 14.25638 25.11837 -4.75212
Si 15.61413 23.76062 -3.39438
Si 15.61413 26.47612 -0.67887
Si 12.89862 23.76062 -0.67887
Si 12.89862 26.47612 -3.39438
Si 11.54087 27.83387 -15.61412
Si 14.25638 27.83387 -12.89863
Si 11.54087 30.54938 -12.89863
Si 14.25638 30.54938 -15.61412
Si 15.61413 29.19162 -14.25638
Si 15.61413 31.90712 -11.54087
Si 12.89862 29.19162 -11.54087
Si 12.89862 31.90712 -14.25638
Si 11.54087 27.83387 -10.18313
Si 14.25638 27.83387 -7.46763
Si 11.54087 30.54938 -7.46763
Si 14.25638 30.54938 -10.18313
Si 15.61413 29.19162 -8.82538
Si 15.61413 31.90712 -6.10987
Si 12.89862 29.19162 -6.10987
Si 12.89862 31.90712 -8.82538
Si 11.54087 27.83387 -4.75212
Si 14.25638 27.83387 -2.03662
Si 11.54087 30.54938 -2.03662
Si 14.25638 30.54938 -4.75212
Si 15.61413 29.19162 -3.39438
Si 15.61413 31.90712 -0.67887
Si 12.89862 29.19162 -0.67887
Si 12.89862 31.90712 -3.39438
Si 11.54087 33.26487 -15.61412
Si 14.25638 33.26487 -12.89863
Si 11.54087 35.98037 -12.89863
Si 14.25638 35.98037 -15.61412
Si 15.61413 34.62262 -14.25638
Si 15.61413 37.33813 -11.54087
Si 12.89862 34.62262 -11.54087
Si 12.89862 37.33813 -14.25638
Si 11.54087 33.26487 -10.18313
Si 14.25638 33.26487 -7.46763
Si 11.54087 35.98037 -7.46763
Si 14.25638 35.98037 -10.18313
Si 15.61413 34.62262 -8.82538
Si 15.61413 37.33813 -6.10987
Si 12.89862 34.62262 -6.10987
Si 12.89862 37.33813 -8.82538
Si 11.54087 33.26487 -4.75212
Si 14.25638 33.26487 -2.03662
Si 11.54087 35.98037 -2.03662
Si 14.25638 35.98037 -4.75212
Si 15.61413 34.62262 -3.39438
Si 15.61413 37.33813 -0.67887
Si 12.89862 34.62262 -0.67887
Si 12.89862 37.33813 -3.39438
Si 11.54087 38.69588 -15.61412
Si 14.25638 38.69588 -12.89863
Si 11.54087 41.41138 -12.89863
Si 14.25638 41.41138 -15.61412
Si 15.61413 40.05362 -14.25638
Si 15.61413 42.76913 -11.54087
Si 12.89862 40.05362 -11.54087
Si 12.89862 42.76913 -14.25638
Si 11.54087 38.69588 -10.18313
Si 14.25638 38.69588 -7.46763
Si 11.54087 41.41138 -7.46763
Si 14.25638 41.41138 -10.18313
Si 15.61413 40.05362 -8.82538
Si 15.61413 42.76913 -6.10987
Si 12.89862 40.05362 -6.10987
Si 12.89862 42.76913 -8.82538
Si 11.54087 38.69588 -4.75212
Si 14.25638 38.69588 -2.03662
Si 11.54087 41.41138 -2.03662
Si 14.25638 41.41138 -4.75212
Si 15.61413 40.05362 -3.39438
Si 15.61413 42.76913 -0.67887
Si 12.89862 40.05362 -0.67887
Si 12.89862 42.76913 -3.39438
Si 16.97188 22.40287 -15.61412
Si 19.68738 22.40287 -12.89863
Si 16.97188 25.11837 -12.89863
Si 19.68738 25.11837 -15.61412
Si 21.04512 23.76062 -14.25638
Si 21.04512 26.47612 -11.54087
Si 18.32963 23.76062 -11.54087
Si 18.32963 26.47612 -14.25638
Si 16.97188 22.40287 -10.18313
Si 19.68738 22.40287 -7.46763
Si 16.97188 25.11837 -7.46763
Si 19.68738 25.11837 -10.18313
Si 21.04512 23.76062 -8.82538
Si 21.04512 26.47612 -6.10987
Si 18.32963 23.76062 -6.10987
Si 18.32963 26.47612 -8.82538
Si 16.97188 22.40287 -4.75212
Si 19.68738 22.40287 -2.03662
Si 16.97188 25.11837 -2.03662
Si 19.68738 25.11837 -4.75212
Si 21.04512 23.76062 -3.39438
Si 21.04512 26.47612 -0.67887
Si 18.32963 23.76062 -0.67887
Si 18.32963 26.47612 -3.39438
Si 16.97188 27.83387 -15.61412
Si 19.68738 27.83387 -12.89863
Si 16.97188 30.54938 -12.89863
Si 19.68738 30.54938 -15.61412
Si 21.04512 29.19162 -14.25638
Si 21.04512 31.90712 -11.54087
Si 18.32963 29.19162 -11.54087
Si 18.32963 31.90712 -14.25638
Si 16.97188 27.83387 -10.18313
Si 19.68738 27.83387 -7.46763
Si 16.97188 30.54938 -7.46763
Si 19.68738 30.54938 -10.18313
Si 21.04512 29.19162 -8.82538
Si 21.04512 31.90712 -6.10987
Si 18.32963 29.19162 -6.10987
Si 18.32963 31.90712 -8.82538
Si 16.97188 27.83387 -4.75212
Si 19.68738 27.83387 -2.03662
Si 16.97188 30.54938 -2.03662
Si 19.68738 30.54938 -4.75212
Si 21.04512 29.19162 -3.39438
Si 21.04512 31.90712 -0.67887
Si 18.32963 29.19162 -0.67887
Si 18.32963 31.90712 -3.39438
Si 16.97188 33.26487 -15.61412
Si 19.68738 33.26487 -12.89863
Si 16.97188 35.98037 -12.89863
Si 19.68738 35.98037 -15.61412
Si 21.04512 34.62262 -14.25638
Si 21.04512 37.33813 -11.54087
Si 18.32963 34.62262 -11.54087
Si 18.32963 37.33813 -14.25638
Si 16.97188 33.26487 -10.18313
Si 19.68738 33.26487 -7.46763
Si 16.97188 35.98037 -7.46763
Si 19.68738 35.98037 -10.18313
Si 21.04512 34.62262 -8.82538
Si 21.04512 37.33813 -6.10987
Si 18.32963 34.62262 -6.10987
Si 18.32963 37.33813 -8.82538
Si 16.97188 33.26487 -4.75212
Si 19.68738 33.26487 -2.03662
Si 16.97188 35.98037 -2.03662
Si 19.68738 35.98037 -4.75212
Si 21.04512 34.62262 -3.39438
Si 21.04512 37.33813 -0.67887
Si 18.32963 34.62262 -0.67887
Si 18.32963 37.33813 -3.39438
Si 16.97188 38.69588 -15.61412
Si 19.68738 38.69588 -12.89863
Si 16.97188 41.41138 -12.89863
Si 19.68738 41.41138 -15.61412
Si 21.04512 40.05362 -14.25638
Si 21.04512 42.76913 -11.54087
Si 18.32963 40.05362 -11.54087
Si 18.32963 42.76913 -14.25638
Si 16.97188 38.69588 -10.18313
Si 19.68738 38.69588 -7.46763
Si 16.97188 41.41138 -7.46763
Si 19.68738 41.41138 -10.18313
Si 21.04512 40.05362 -8.82538
Si 21.04512 42.76913 -6.10987
Si 18.32963 40.05362 -6.10987
Si 18.32963 42.76913 -8.82538
Si 16.97188 38.69588 -4.75212
Si 19.68738 38.69588 -2.03662
Si 16.97188 41.41138 -2.03662
Si 19.68738 41.41138 -4.75212
Si 21.04512 40.05362 -3.39438
Si 21.04512 42.76913 -0.67887
Si 18.32963 40.05362 -0.67887
Si 18.32963 42.76913 -3.39438
Si  0.67887 22.40287  0.67888
Si  3.39438 22.40287  3.39437
Si  0.67887 25.11837  3.39437
Si  3.39438 25.11837  0.67888
Si  4.75212 23.76062  2.03662
Si  4.75212 26.47612  4.75213
Si  2.03662 23.76062  4.75213
Si  2.03662 26.47612  2.03662
Si  0.67887 22.40287  6.10987
Si  3.39438 22.40287  8.82537
Si  0.67887 25.11837  8.82537
Si  3.39438 25.11837  6.10987
Si  4.75212 23.76062  7.46762
Si  4.75212 26.47612 10.18313
Si  2.03662 23.76062 10.18313
Si  2.03662 26.47612  7.46762
Si  0.67887 22.40287 11.54087
Si  3.39438 22.40287 14.25638
Si  0.67887 25.11837 14.25638
Si  3.39438 25.11837 11.54087
Si  4.75212 23.76062 12.89862
Si  4.75212 26.47612 15.61413
Si  2.03662 23.76062 15.61413
Si  2.03662 26.47612 12.89862
Si  0.67887 27.83387  0.67888
Si  3.39438 27.83387  3.39437
Si  0.67887 30.54938  3.39437
Si  3.39438 30.54938  0.67888
Si  4.75212 29.19162  2.03662
Si  4.75212 31.90712  4.75213
Si  2.03662 29.19162  4.75213
Si  2.03662 31.90712  2.03662
Si  0.67887 27.83387  6.10987
Si  3.39438 27.83387  8.82537
Si  0.67887 30.54938  8.82537
Si  3.39438 30.54938  6.10987
Si  4.75212 29.19162  7.46762
Si  4.75212 31.90712 10.18313
Si  2.03662 29.19162 10.18313
Si  2.03662 31.90712  7.46762
Si  0.67887 27.83387 11.54087
Si  3.39438 27.83387 14.25638
Si  0.67887 30.54938 14.25638
Si  3.39438 30.54938 11.54087
Si  4.75212 29.19162 12.89862
Si  4.75212 31.90712 15.61413
Si  2.03662 29.19162 15.61413
Si  2.03662 31.90712 12.89862
Si  0.67887 33.26487  0.67888
Si  3.39438 33.26487  3.39437
Si  0.67887 35.98037  3.39437
Si  3.39438 35.98037  0.67888
Si  4.75212 34.62262  2.03662
Si  4.75212 37.33813  4.75213
Si  2.03662 34.62262  4.75213
Si  2.03662 37.33813  2.03662
Si  0.67887 33.26487  6.10987
Si  3.39438 33.26487  8.82537
Si  0.67887 35.98037  8.82537
Si  3.39438 35.98037  6.10987
Si  4.75212 34.62262  7.46762
Si  4.75212 37.33813 10.18313
Si  2.03662 34.62262 10.18313
Si  2.03662 37.33813  7.46762
Si  0.67887 33.26487 11.54087
Si  3.39438 33.26487 14.25638
Si  0.67887 35.98037 14.25638
Si  3.39438 35.98037 11.54087
Si  4.75212 34.62262 12.89862
Si  4.75212 37.33813 15.61413
Si  2.03662 34.62262 15.61413
Si  2.03662 37.33813 12.89862
Si  0.67887 38.69588  0.67888
Si  3.39438 38.69588  3.39437
Si  0.67887 41.41138  3.39437
Si  3.39438 41.41138  0.67888
Si  4.75212 40.05362  2.03662
Si  4.75212 42.76913  4.75213
Si  2.03662 40.05362  4.75213
Si  2.03662 42.76913  2.03662
Si  0.67887 38.69588  6.10987
Si  3.39438 38.69588  8.82537
Si  0.67887 41.41138  8.82537
Si  3.39438 41.41138  6.10987
Si  4.75212 40.05362  7.46762
Si  4.75212 42.76913 10.18313
Si  2.03662 40.05362 10.18313
Si  2.03662 42.76913  7.46762
Si  0.67887 38.69588 11.54087
Si  3.39438 38.69588 14.25638
Si  0.67887 41.41138 14.25638
Si  3.39438 41.41138 11.54087
Si  4.75212 40.05362 12.89862
Si  4.75212 42.76913 15.61413
Si  2.03662 40.05362 15.61413
Si  2.03662 42.76913 12.89862
Si  6.10987 22.40287  0.67888
Si  8.82537 22.40287  3.39437
Si  6.10987 25.11837  3.39437
Si  8.82537 25.11837  0.67888
Si 10.18313 23.76062  2.03662
Si 10.18313 26.47612  4.75213
Si  7.46762 23.76062  4.75213
Si  7.46762 26.47612  2.03662
Si  6.10987 22.40287  6.10987
Si  8.82537 22.40287  8.82537
Si  6.10987 25.11837  8.82537
Si  8.82537 25.11837  6.10987
Si 10.18313 23.76062  7.46762
Si 10.18313 26.47612 10.18313
Si  7.46762 23.76062 10.18313
Si  7.46762 26.47612  7.46762
Si  6.10987 22.40287 11.54087
Si  8.82537 22.40287 14.25638
Si  6.10987 25.11837 14.25638
Si  8.82537 25.11837 11.54087
Si 10.18313 23.76062 12.89862
Si 10.18313 26.47612 15.61413
Si  7.46762 23.76062 15.61413
Si  7.46762 26.47612 12.89862
Si  6.10987 27.83387  0.67888
Si  8.82537 27.83387  3.39437
Si  6.10987 30.54938  3.39437
Si  8.82537 30.54938  0.67888
Si 10.18313 29.19162  2.03662
Si 10.18313 31.90712  4.75213
Si  7.46762 29.19162  4.75213
Si  7.46762 31.90712  2.03662
Si  6.10987 27.83387  6.10987
Si  8.82537 27.83387  8.82537
Si  6.10987 30.54938  8.82537
Si  8.82537 30.54938  6.10987
Si 10.18313 29.19162  7.46762
Si 10.18313 31.90712 10.18313
Si  7.46762 29.19162 10.18313
Si  7.46762 31.90712  7.46762
Si  6.10987 27.83387 11.54087
Si  8.82537 27.83387 14.25638
Si  6.10987 30.54938 14.25638
Si  8.82537 30.54938 11.54087
Si 10.18313 29.19162 12.89862
Si 10.18313 31.90712 15.61413
Si  7.46762 29.19162 15.61413
Si  7.46762 31.90712 12.89862
Si  6.10987 33.26487  0.67888
Si  8.82537 33.26487  3.39437
Si  6.10987 35.98037  3.39437
Si  8.82537 35.98037  0.67888
Si 10.18313 34.62262  2.03662
Si 10.18313 37.33813  4.75213
Si  7.46762 34.62262  4.75213
Si  7.46762 37.33813  2.03662
Si  6.10987 33.26487  6.10987
Si  8.82537 33.26487  8.82537
Si  6.10987 35.98037  8.82537
Si  8.82537 35.98037  6.10987
Si 10.18313 34.62262  7.46762
Si 10.18313 37.33813 10.18313
Si  7.46762 34.62262 10.18313
Si  7.46762 37.33813  7.46762
Si  6.10987 33.26487 11.54087
Si  8.82537 33.26487 14.25638
Si  6.10987 35.98037 14.25638
Si  8.82537 35.98037 11.54087
Si 10.18313 34.62262 12.89862
Si 10.18313 37.33813 15.61413
Si  7.46762 34.62262 15.61413
Si  7.46762 37.33813 12.89862
Si  6.10987 38.69588  0.67888
Si  8.82537 38.69588  3.39437
Si  6.10987 41.41138  3.39437
Si  8.82537 41.41138  0.67888
Si 10.18313 40.05362  2.03662
Si 10.18313 42.76913  4.75213
Si  7.46762 40.05362  4.75213
Si  7.46762 42.76913  2.03662
Si  6.10987 38.69588  6.10987
Si  8.82537 38.69588  8.82537
Si  6.10987 41.41138  8.82537
Si  8.82537 41.41138  6.10987
Si 10.18313 40.05362  7.46762
Si 10.18313 42.76913 10.18313
Si  7.46762 40.05362 10.18313
Si  7.46762 42.76913  7.46762
Si  6.10987 38.69588 11.54087
Si  8.82537 38.69588 14.25638
Si  6.10987 41.41138 14.25638
Si  8.82537 41.41138 11.54087
Si 10.18313 40.05362 12.89862
Si 10.18313 42.76913 15.61413
Si  7.46762 40.05362 15.61413
Si  7.46762 42.76913 12.89862
Si 11.54087 22.40287  0.67888
Si 14.25638 22.40287  3.39437
Si 11.54087 25.11837  3.39437
Si 14.25638 25.11837  0.67888
Si 15.61413 23.76062  2.03662
Si 15.61413 26.47612  4.75213
Si 12.89862 23.76062  4.75213
Si 12.89862 26.47612  2.03662
Si 11.54087 22.40287  6.10987
Si 14.25638 22.40287  8.82537
Si 11.54087 25.11837  8.82537
Si 14.25638 25.11837  6.10987
Si 15.61413 23.76062  7.46762
Si 15.61413 26.47612 10.18313
Si 12.89862 23.76062 10.18313
Si 12.89862 26.47612  7.46762
Si 11.54087 22.40287 11.54087
Si 14.25638 22.40287 14.25638
Si 11.54087 25.11837 14.25638
Si 14.25638 25.11837 11.54087
Si 15.61413 23.76062 12.89862
Si 15.61413 26.47612 15.61413
Si 12.89862 23.76062 15.61413
Si 12.89862 26.47612 12.89862
Si 11.54087 27.83387  0.67888
Si 14.25638 27.83387  3.39437
Si 11.54087 30.54938  3.39437
Si 14.25638 30.54938  0.67888
Si 15.61413 29.19162  2.03662
Si 15.61413 31.90712  4.75213
Si 12.89862 29.19162  4.75213
Si 12.89862 31.90712  2.03662
Si 11.54087 27.83387  6.10987
Si 14.25638 27.83387  8.82537
Si 11.54087 30.54938  8.82537
Si 14.25638 30.54938  6.10987
Si 15.61413 29.19162  7.46762
Si 15.61413 31.90712 10.18313
Si 12.89862 29.19162 10.18313
Si 12.89862 31.90712  7.46762
Si 11.54087 27.83387 11.54087
Si 14.25638 27.83387 14.25638
Si 11.54087 30.54938 14.25638
Si 14.25638 30.54938 11.54087
Si 15.61413 29.19162 12.89862
Si 15.61413 31.90712 15.61413
Si 12.89862 29.19162 15.61413
Si 12.89862 31.90712 12.89862
Si 11.54087 33.26487  0.67888
Si 14.25638 33.26487  3.39437
Si 11.54087 35.98037  3.39437
Si 14.25638 35.98037  0.67888
Si 15.61413 34.62262  2.03662
Si 15.61413 37.33813  4.75213
Si 12.89862 34.62262  4.75213
Si 12.89862 37.33813  2.03662
Si 11.54087 33.26487  6.10987
Si 14.25638 33.26487  8.82537
Si 11.54087 35.98037  8.82537
Si 14.25638 35.98037  6.10987
Si 15.61413 34.62262  7.46762
Si 15.61413 37.33813 10.18313
Si 12.89862 34.62262 10.18313
Si 12.89862 37.33813  7.46762
Si 11.54087 33.26487 11.54087
Si 14.25638 33.26487 14.25638
Si 11.54087 35.98037 14.25638
Si 14.25638 35.98037 11.54087
Si 15.61413 34.62262 12.89862
Si 15.61413 37.33813 15.61413
Si 12.89862 34.62262 15.61413
Si 12.89862 37.33813 12.89862
Si 11.54087 38.69588  0.67888
Si 14.25638 38.69588  3.39437
Si 11.54087 41.41138  3.39437
Si 14.25638 41.41138  0.67888
Si 15.61413 40.05362  2.03662
Si 15.61413 42.76913  4.75213
Si 12.89862 40.05362  4.75213
Si 12.89862 42.76913  2.03662
Si 11.54087 38.69588  6.10987
Si 14.25638 38.69588  8.82537
Si 11.54087 41.41138  8.82537
Si 14.25638 41.41138  6.10987
Si 15.61413 40.05362  7.46762
Si 15.61413 42.76913 10.18313
Si 12.89862 40.05362 10.18313
Si 12.89862 42.76913  7.46762
Si 11.54087 38.69588 11.54087
Si 14.25638 38.69588 14.25638
Si 11.54087 41.41138 14.25638
Si 14.25638 41.41138 11.54087
Si 15.61413 40.05362 12.89862
Si 15.61413 42.76913 15.61413
Si 12.89862 40.05362 15.61413
Si 12.89862 42.76913 12.89862
Si 16.97188 22.40287  0.67888
Si 19.68738 22.40287  3.39437
Si 16.97188 25.11837  3.39437
Si 19.68738 25.11837  0.67888
Si 21.04512 23.76062  2.03662
Si 21.04512 26.47612  4.75213
Si 18.32963 23.76062  4.75213
Si 18.32963 26.47612  2.03662
Si 16.97188 22.40287  6.10987
Si 19.68738 22.40287  8.82537
Si 16.97188 25.11837  8.82537
Si 19.68738 25.11837  6.10987
Si 21.04512 23.76062  7.46762
Si 21.04512 26.47612 10.18313
Si 18.32963 23.76062 10.18313
Si 18.32963 26.47612  7.46762
Si 16.97188 22.40287 11.54087
Si 19.68738 22.40287 14.25638
Si 16.97188 25.11837 14.25638
Si 19.68738 25.11837 11.54087
Si 21.04512 23.76062 12.89862
Si 21.04512 26.47612 15.61413
Si 18.32963 23.76062 15.61413
Si 18.32963 26.47612 12.89862
Si 16.97188 27.83387  0.67888
Si 19.68738 27.83387  3.39437
Si 16.97188 30.54938  3.39437
Si 19.68738 30.54938  0.67888
Si 21.04512 29.19162  2.03662
Si 21.04512 31.90712  4.75213
Si 18.32963 29.19162  4.75213
Si 18.32963 31.90712  2.03662
Si 16.97188 27.83387  6.10987
Si 19.68738 27.83387  8.82537
Si 16.97188 30.54938  8.82537
Si 19.68738 30.54938  6.10987
Si 21.04512 29.19162  7.46762
Si 21.04512 31.90712 10.18313
Si 18.32963 29.19162 10.18313
Si 18.32963 31.90712  7.46762
Si 16.97188 27.83387 11.54087
Si 19.68738 27.83387 14.25638
Si 16.97188 30.54938 14.25638
Si 19.68738 30.54938 11.54087
Si 21.04512 29.19162 12.89862
Si 21.04512 31.90712 15.61413
Si 18.32963 29.19162 15.61413
Si 18.32963 31.90712 12.89862
Si 16.97188 33.26487  0.67888
Si 19.68738 33.26487  3.39437
Si 16.97188 35.98037  3.39437
Si 19.68738 35.98037  0.67888
Si 21.04512 34.62262  2.03662
Si 21.04512 37.33813  4.75213
Si 18.32963 34.62262  4.75213
Si 18.32963 37.33813  2.03662
Si 16.97188 33.26487  6.10987
Si 19.68738 33.26487  8.82537
Si 16.97188 35.98037  8.82537
Si 19.68738 35.98037  6.10987
Si 21.04512 34.62262  7.46762
Si 21.04512 37.33813 10.18313
Si 18.32963 34.62262 10.18313
Si 18.32963 37.33813  7.46762
Si 16.97188 33.26487 11.54087
Si 19.68738 33.26487 14.25638
Si 16.97188 35.98037 14.25638
Si 19.68738 35.98037 11.54087
Si 21.04512 34.62262 12.89862
Si 21.04512 37.33813 15.61413
Si 18.32963 34.62262 15.61413
Si 18.32963 37.33813 12.89862
Si 16.97188 38.69588  0.67888
Si 19.68738 38.69588  3.39437
Si 16.97188 41.41138  3.39437
Si 19.68738 41.41138  0.67888
Si 21.04512 40.05362  2.03662
Si 21.04512 42.76913  4.75213
Si 18.32963 40.05362  4.75213
Si 18.32963 42.76913  2.03662
Si 16.97188 38.69588  6.10987
Si 19.68738 38.69588  8.82537
Si 16.97188 41.41138  8.82537
Si 19.68738 41.41138  6.10987
Si 21.04512 40.05362  7.46762
Si 21.04512 42.76913 10.18313
Si 18.32963 40.05362 10.18313
Si 18.32963 42.76913  7.46762
Si 16.97188 38.69588 11.54087
Si 19.68738 38.69588 14.25638
Si 16.97188 41.41138 14.25638
Si 19.68738 41.41138 11.54087
Si 21.04512 40.05362 12.89862
Si 21.04512 42.76913 15.61413
Si 18.32963 40.05362 15.61413
Si 18.32963 42.76913 12.89862
Si  0.67887 22.40287 16.97188
Si  3.39438 22.40287 19.68737
Si  0.67887 25.11837 19.68737
Si  3.39438 25.11837 16.97188
Si  4.75212 23.76062 18.32963
Si  4.75212 26.47612 21.04513
Si  2.03662 23.76062 21.04513
Si  2.03662 26.47612 18.32963
Si  0.67887 22.40287 22.40287
Si  3.39438 22.40287 25.11837
Si  0.67887 25.11837 25.11837
Si  3.39438 25.11837 22.40287
Si  4.75212 23.76062 23.76062
Si  4.75212 26.47612 26.47612
Si  2.03662 23.76062 26.47612
Si  2.03662 26.47612 23.76062
Si  0.67887 22.40287 27.83388
Si  3.39438 22.40287 30.54938
Si  0.67887 25.11837 30.54938
Si  3.39438 25.11837 27.83388
Si  4.75212 23.76062 29.19162
Si  4.75212 26.47612 31.90713
Si  2.03662 23.76062 31.90713
Si  2.03662 26.47612 29.19162
Si  0.67887 27.83387 16.97188
Si  3.39438 27.83387 19.68737
Si  0.67887 30.54938 19.68737
Si  3.39438 30.54938 16.97188
Si  4.75212 29.19162 18.32963
Si  4.75212 31.90712 21.04513
Si  2.03662 29.19162 21.04513
Si  2.03662 31.90712 18.32963
Si  0.67887 27.83387 22.40287
Si  3.39438 27.83387 25.11837
Si  0.67887 30.54938 25.11837
Si  3.39438 30.54938 22.40287
Si  4.75212 29.19162 23.76062
Si  4.75212 31.90712 26.47612
Si  2.03662 29.19162 26.47612
Si  2.03662 31.90712 23.76062
Si  0.67887 27.83387 27.83388
Si  3.39438 27.83387 30.54938
Si  0.67887 30.54938 30.54938
Si  3.39438 30.54938 27.83388
Si  4.75212 29.19162 29.19162
Si  4.75212 31.90712 31.90713
Si  2.03662 29.19162 31.90713
Si  2.03662 31.90712 29.19162
Si  0.67887 33.26487 16.97188
Si  3.39438 33.26487 19.68737
Si  0.67887 35.98037 19.68737
Si  3.39438 35.98037 16.97188
Si  4.75212 34.62262 18.32963
Si  4.75212 37.33813 21.04513
Si  2.03662 34.62262 21.04513
Si  2.03662 37.33813 18.32963
Si  0.67887 33.26487 22.40287
Si  3.39438 33.26487 25.11837
Si  0.67887 35.98037 25.11837
Si  3.39438 35.98037 22.40287
Si  4.75212 34.62262 23.76062
Si  4.75212 37.33813 26.47612
Si  2.03662 34.62262 26.47612
Si  2.03662 37.33813 23.76062
Si  0.67887 33.26487 27.83388
Si  3.39438 33.26487 30.54938
Si  0.67887 35.98037 30.54938
Si  3.39438 35.98037 27.83388
Si  4.75212 34.62262 29.19162
Si  4.75212 37.33813 31.90713
Si  2.03662 34.62262 31.90713
Si  2.03662 37.33813 29.19162
Si  0.67887 38.69588 16.97188
Si  3.39438 38.69588 19.68737
Si  0.67887 41.41138 19.68737
Si  3.39438 41.41138 16.97188
Si  4.75212 40.05362 18.32963
Si  4.75212 42.76913 21.04513
Si  2.03662 40.05362 21.04513
Si  2.03662 42.76913 18.32963
Si  0.67887 38.69588 22.40287
Si  3.39438 38.69588 25.11837
Si  0.67887 41.41138 25.11837
Si  3.39438 41.41138 22.40287
Si  4.75212 40.05362 23.76062
Si  4.75212 42.76913 26.47612
Si  2.03662 40.05362 26.47612
Si  2.03662 42.76913 23.76062
Si  0.67887 38.69588 27.83388
Si  3.39438 38.69588 30.54938
Si  0.67887 41.41138 30.54938
Si  3.39438 41.41138 27.83388
Si  4.75212 40.05362 29.19162
Si  4.75212 42.76913 31.90713
Si  2.03662 40.05362 31.90713
Si  2.03662 42.76913 29.19162
Si  6.10987 22.40287 16.97188
Si  8.82537 22.40287 19.68737
Si  6.10987 25.11837 19.68737
Si  8.82537 25.11837 16.97188
Si 10.18313 23.76062 18.32963
Si 10.18313 26.47612 21.04513
Si  7.46762 23.76062 21.04513
Si  7.46762 26.47612 18.32963
Si  6.10987 22.40287 22.40287
Si  8.82537 22.40287 25.11837
Si  6.10987 25.11837 25.11837
Si  8.82537 25.11837 22.40287
Si 10.18313 23.76062 23.76062
Si 10.18313 26.47612 26.47612
Si  7.46762 23.76062 26.47612
Si  7.46762 26.47612 23.76062
Si  6.10987 22.40287 27.83388
Si  8.82537 22.40287 30.54938
Si  6.10987 25.11837 30.54938
Si  8.82537 25.11837 27.83388
Si 10.18313 23.76062 29.19162
Si 10.18313 26.47612 31.90713
Si  7.46762 23.76062 31.90713
Si  7.46762 26.47612 29.19162
Si  6.10987 27.83387 16.97188
Si  8.82537 27.83387 19.68737
Si  6.10987 30.54938 19.68737
Si  8.82537 30.54938 16.97188
Si 10.18313 29.19162 18.32963
Si 10.18313 31.90712 21.04513
Si  7.46762 29.19162 21.04513
Si  7.46762 31.90712 18.32963
Si  6.10987 27.83387 22.40287
Si  8.82537 27.83387 25.11837
Si  6.10987 30.54938 25.11837
Si  8.82537 30.54938 22.40287
Si 10.18313 29.19162 23.76062
Si 10.18313 31.90712 26.47612
Si  7.46762 29.19162 26.47612
Si  7.46762 31.90712 23.76062
Si  6.10987 27.83387 27.83388
Si  8.82537 27.83387 30.54938
Si  6.10987 30.54938 30.54938
Si  8.82537 30.54938 27.83388
Si 10.18313 29.19162 29.19162
Si 10.18313 31.90712 31.90713
Si  7.46762 29.19162 31.90713
Si  7.46762 31.90712 29.19162
Si  6.10987 33.26487 16.97188
Si  8.82537 33.26487 19.68737
Si  6.10987 35.98037 19.68737
Si  8.82537 35.98037 16.97188
Si 10.18313 34.62262 18.32963
Si 10.18313 37.33813 21.04513
Si  7.46762 34.62262 21.04513
Si  7.46762 37.33813 18.32963
Si  6.10987 33.26487 22.40287
Si  8.82537 33.26487 25.11837
Si  6.10987 35.98037 25.11837
Si  8.82537 35.98037 22.40287
Si 10.18313 34.62262 23.76062
Si 10.18313 37.33813 26.47612
Si  7.46762 34.62262 26.47612
Si  7.46762 37.33813 23.76062
Si  6.10987 33.26487 27.83388
Si  8.82537 33.26487 30.54938
Si  6.10987 35.98037 30.54938
Si  8.82537 35.98037 27.83388
Si 10.18313 34.62262 29.19162
Si 10.18313 37.33813 31.90713
Si  7.46762 34.62262 31.90713
Si  7.46762 37.33813 29.19162
Si  6.10987 38.69588 16.97188
Si  8.82537 38.69588 19.68737
Si  6.10987 41.41138 19.68737
Si  8.82537 41.41138 16.97188
Si 10.18313 40.05362 18.32963
Si 10.18313 42.76913 21.04513
Si  7.46762 40.05362 21.04513
Si  7.46762 42.76913 18.32963
Si  6.10987 38.69588 22.40287
Si  8.82537 38.69588 25.11837
Si  6.10987 41.41138 25.11837
Si  8.82537 41.41138 22.40287
Si 10.18313 40.05362 23.76062
Si 10.18313 42.76913 26.47612
Si  7.46762 40.05362 26.47612
Si  7.46762 42.76913 23.76062
Si  6.10987 38.69588 27.83388
Si  8.82537 38.69588 30.54938
Si  6.10987 41.41138 30.54938
Si  8.82537 41.41138 27.83388
Si 10.18313 40.05362 29.19162
Si 10.18313 42.76913 31.90713
Si  7.46762 40.05362 31.90713
Si  7.46762 42.76913 29.19162
Si 11.54087 22.40287 16.97188
Si 14.25638 22.40287 19.68737
Si 11.54087 25.11837 19.68737
Si 14.25638 25.11837 16.97188
Si 15.61413 23.76062 18.32963
Si 15.61413 26.47612 21.04513
Si 12.89862 23.76062 21.04513
Si 12.89862 26.47612 18.32963
Si 11.54087 22.40287 22.40287
Si 14.25638 22.40287 25.11837
Si 11.54087 25.11837 25.11837
Si 14.25638 25.11837 22.40287
Si 15.61413 23.76062 23.76062
Si 15.61413 26.47612 26.47612
Si 12.89862 23.76062 26.47612
Si 12.89862 26.47612 23.76062
Si 11.54087 22.40287 27.83388
Si 14.25638 22.40287 30.54938
Si 11.54087 25.11837 30.54938
Si 14.25638 25.11837 27.83388
Si 15.61413 23.76062 29.19162
Si 15.61413 26.47612 31.90713
Si 12.89862 23.76062 31.90713
Si 12.89862 26.47612 29.19162
Si 11.54087 27.83387 16.97188
Si 14.25638 27.83387 19.68737
Si 11.54087 30.54938 19.68737
Si 14.25638 30.54938 16.97188
Si 15.61413 29.19162 18.32963
Si 15.61413 31.90712 21.04513
Si 12.89862 29.19162 21.04513
Si 12.89862 31.90712 18.32963
Si 11.54087 27.83387 22.40287
Si 14.25638 27.83387 25.11837
Si 11.54087 30.54938 25.11837
Si 14.25638 30.54938 22.40287
Si 15.61413 29.19162 23.76062
Si 15.61413 31.90712 26.47612
Si 12.89862 29.19162 26.47612
Si 12.89862 31.90712 23.76062
Si 11.54087 27.83387 27.83388
Si 14.25638 27.83387 30.54938
Si 11.54087 30.54938 30.54938
Si 14.25638 30.54938 27.83388
Si 15.61413 29.19162 29.19162
Si 15.61413 31.90712 31.90713
Si 12.89862 29.19162 31.90713
Si 12.89862 31.90712 29.19162
Si 11.54087 33.26487 16.97188
Si 14.25638 33.26487 19.68737
Si 11.54087 35.98037 19.68737
Si 14.25638 35.98037 16.97188
Si 15.61413 34.62262 18.32963
Si 15.61413 37.33813 21.04513
Si 12.89862 34.62262 21.04513
Si 12.89862 37.33813 18.32963
Si 11.54087 33.26487 22.40287
Si 14.25638 33.26487 25.11837
Si 11.54087 35.98037 25.11837
Si 14.25638 35.98037 22.40287
Si 15.61413 34.62262 23.76062
Si 15.61413 37.33813 26.47612
Si 12.89862 34.62262 26.47612
Si 12.89862 37.33813 23.76062
Si 11.54087 33.26487 27.83388
Si 14.25638 33.26487 30.54938
Si 11.54087 35.98037 30.54938
Si 14.25638 35.98037 27.83388
Si 15.61413 34.62262 29.19162
Si 15.61413 37.33813 31.90713
Si 12.89862 34.62262 31.90713
Si 12.89862 37.33813 29.19162
Si 11.54087 38.69588 16.97188
Si 14.25638 38.69588 19.68737
Si 11.54087 41.41138 19.68737
Si 14.25638 41.41138 16.97188
Si 15.61413 40.05362 18.32963
Si 15.61413 42.76913 21.04513
Si 12.89862 40.05362 21.04513
Si 12.89862 42.76913 18.32963
Si 11.54087 38.69588 22.40287
Si 14.25638 38.69588 25.11837
Si 11.54087 41.41138 25.11837
Si 14.25638 41.41138 22.40287
Si 15.61413 40.05362 23.76062
Si 15.61413 42.76913 26.47612
Si 12.89862 40.05362 26.47612
Si 12.89862 42.76913 23.76062
Si 11.54087 38.69588 27.83388
Si 14.25638 38.69588 30.54938
Si 11.54087 41.41138 30.54938
Si 14.25638 41.41138 27.83388
Si 15.61413 40.05362 29.19162
Si 15.61413 42.76913 31.90713
Si 12.89862 40.05362 31.90713
Si 12.89862 42.76913 29.19162
Si 16.97188 22.40287 16.97188
Si 19.68738 22.40287 19.68737
Si 16.97188 25.11837 19.68737
Si 19.68738 25.11837 16.97188
Si 21.04512 23.76062 18.32963
Si 21.04512 26.47612 21.04513
Si 18.32963 23.76062 21.04513
Si 18.32963 26.47612 18.32963
Si 16.97188 22.40287 22.40287
Si 19.68738 22.40287 25.11837
Si 16.97188 25.11837 25.11837
Si 19.68738 25.11837 22.40287
Si 21.04512 23.76062 23.76062
Si 21.04512 26.47612 26.47612
Si 18.32963 23.76062 26.47612
Si 18.32963 26.47612 23.76062
Si 16.97188 22.40287 27.83388
Si 19.68738 22.40287 30.54938
Si 16.97188 25.11837 30.54938
Si 19.68738 25.11837 27.83388
Si 21.04512 23.76062 29.19162
Si 21.04512 26.47612 31.90713
Si 18.32963 23.76062 31.90713
Si 18.32963 26.47612 29.19162
Si 16.97188 27.83387 16.97188
Si 19.68738 27.83387 19.68737
Si 16.97188 30.54938 19.68737
Si 19.68738 30.54938 16.97188
Si 21.04512 29.19162 18.32963
Si 21.04512 31.90712 21.04513
Si 18.32963 29.19162 21.04513
Si 18.32963 31.90712 18.32963
Si 16.97188 27.83387 22.40287
Si 19.68738 27.83387 25.11837
Si 16.97188 30.54938 25.11837
Si 19.68738 30.54938 22.40287
Si 21.04512 29.19162 23.76062
Si 21.04512 31.90712 26.47612
Si 18.32963 29.19162 26.47612
Si 18.32963 31.90712 23.76062
Si 16.97188 27.83387 27.83388
Si 19.68738 27.83387 30.54938
Si 16.97188 30.54938 30.54938
Si 19.68738 30.54938 27.83388
Si 21.04512 29.19162 29.19162
Si 21.04512 31.90712 31.90713
Si 18.32963 29.19162 31.90713
Si 18.32963 31.90712 29.19162
Si 16.97188 33.26487 16.97188
Si 19.68738 33.26487 19.68737
Si 16.97188 35.98037 19.68737
Si 19.68738 35.98037 16.97188
Si 21.04512 34.62262 18.32963
Si 21.04512 37.33813 21.04513
Si 18.32963 34.62262 21.04513
Si 18.32963 37.33813 18.32963
Si 16.97188 33.26487 22.40287
Si 19.68738 33.26487 25.11837
Si 16.97188 35.98037 25.11837
Si 19.68738 35.98037 22.40287
Si 21.04512 34.62262 23.76062
Si 21.04512 37.33813 26.47612
Si 18.32963 34.62262 26.47612
Si 18.32963 37.33813 23.76062
Si 16.97188 33.26487 27.83388
Si 19.68738 33.26487 30.54938
Si 16.97188 35.98037 30.54938
Si 19.68738 35.98037 27.83388
Si 21.04512 34.62262 29.19162
Si 21.04512 37.33813 31.90713
Si 18.32963 34.62262 31.90713
Si 18.32963 37.33813 29.19162
Si 16.97188 38.69588 16.97188
Si 19.68738 38.69588 19.68737
Si 16.97188 41.41138 19.68737
Si 19.68738 41.41138 16.97188
Si 21.04512 40.05362 18.32963
Si 21.04512 42.76913 21.04513
Si 18.32963 40.05362 21.04513
Si 18.32963 42.76913 18.32963
Si 16.97188 38.69588 22.40287
Si 19.68738 38.69588 25.11837
Si 16.97188 41.41138 25.11837
Si 19.68738 41.41138 22.40287
Si 21.04512 40.05362 23.76062
Si 21.04512 42.76913 26.47612
Si 18.32963 40.05362 26.47612
Si 18.32963 42.76913 23.76062
Si 16.97188 38.69588 27.83388
Si 19.68738 38.69588 30.54938
Si 16.97188 41.41138 30.54938
Si 19.68738 41.41138 27.83388
Si 21.04512 40.05362 29.19162
Si 21.04512 42.76913 31.90713
Si 18.32963 40.05362 31.90713
Si 18.32963 42.76913 29.19162
Si 22.40287 -21.04513 -15.61412
Si 25.11837 -21.04513 -12.89863
Si 22.40287 -18.32963 -12.89863
Si 25.11837 -18.32963 -15.61412
Si 26.47612 -19.68738 -14.25638
Si 26.47612 -16.97187 -11.54087
Si 23.76062 -19.68738 -11.54087
Si 23.76062 -16.97187 -14.25638
Si 22.40287 -21.04513 -10.18313
Si 25.11837 -21.04513 -7.46763
Si 22.40287 -18.32963 -7.46763
Si 25.11837 -18.32963 -10.18313
Si 26.47612 -19.68738 -8.82538
Si 26.47612 -16.97187 -6.10987
Si 23.76062 -19.68738 -6.10987
Si 23.76062 -16.97187 -8.82538
Si 22.40287 -21.04513 -4.75212
Si 25.11837 -21.04513 -2.03662
Si 22.40287 -18.32963 -2.03662
Si 25.11837 -18.32963 -4.75212
Si 26.47612 -19.68738 -3.39438
Si 26.47612 -16.97187 -0.67887
Si 23.76062 -19.68738 -0.67887
Si 23.76062 -16.97187 -3.39438
Si 22.40287 -15.61412 -15.61412
Si 25.11837 -15.61412 -12.89863
Si 22.40287 -12.89862 -12.89863
Si 25.11837 -12.89862 -15.61412
Si 26.47612 -14.25638 -14.25638
Si 26.47612 -11.54087 -11.54087
Si 23.76062 -14.25638 -11.54087
Si 23.76062 -11.54087 -14.25638
Si 22.40287 -15.61412 -10.18313
Si 25.11837 -15.61412 -7.46763
Si 22.40287 -12.89862 -7.46763
Si 25.11837 -12.89862 -10.18313
Si 26.47612 -14.25638 -8.82538
Si 26.47612 -11.54087 -6.10987
Si 23.76062 -14.25638 -6.10987
Si 23.76062 -11.54087 -8.82538
Si 22.40287 -15.61412 -4.75212
Si 25.11837 -15.61412 -2.03662
Si 22.40287 -12.89862 -2.03662
Si 25.11837 -12.89862 -4.75212
Si 26.47612 -14.25638 -3.39438
Si 26.47612 -11.54087 -0.67887
Si 23.76062 -14.25638 -0.67887
Si 23.76062 -11.54087 -3.39438
Si 22.40287 -10.18312 -15.61412
Si 25.11837 -10.18312 -12.89863
Si 22.40287 -7.46762 -12.89863
Si 25.11837 -7.46762 -15.61412
Si 26.47612 -8.82537 -14.25638
Si 26.47612 -6.10987 -11.54087
Si 23.76062 -8.82537 -11.54087
Si 23.76062 -6.10987 -14.25638
Si 22.40287 -10.18312 -10.18313
Si 25.11837 -10.18312 -7.46763
Si 22.40287 -7.46762 -7.46763
Si 25.11837 -7.46762 -10.18313
Si 26.47612 -8.82537 -8.82538
Si 26.47612 -6.10987 -6.10987
Si 23.76062 -8.82537 -6.10987
Si 23.76062 -6.10987 -8.82538
Si 22.40287 -10.18312 -4.75212
Si 25.11837 -10.18312 -2.03662
Si 22.40287 -7.46762 -2.03662
Si 25.11837 -7.46762 -4.75212
Si 26.47612 -8.82537 -3.39438
Si 26.47612 -6.10987 -0.67887
Si 23.76062 -8.82537 -0.67887
Si 23.76062 -6.10987 -3.39438
Si 22.40287 -4.75212 -15.61412
Si 25.11837 -4.75212 -12.89863
Si 22.40287 -2.03662 -12.89863
Si 25.11837 -2.03662 -15.61412
Si 26.47612 -3.39437 -14.25638
Si 26.47612 -0.67888 -11.54087
Si 23.76062 -3.39437 -11.54087
Si 23.76062 -0.67888 -14.25638
Si 22.40287 -4.75212 -10.18313
Si 25.11837 -4.75212 -7.46763
Si 22.40287 -2.03662 -7.46763
Si 25.11837 -2.03662 -10.18313
Si 26.47612 -3.39437 -8.82538
Si 26.47612 -0.67888 -6.10987
Si 23.76062 -3.39437 -6.10987
Si 23.76062 -0.67888 -8.82538
Si 22.40287 -4.75212 -4.75212
Si 25.11837 -4.75212 -2.03662
Si 22.40287 -2.03662 -2.03662
Si 25.11837 -2.03662 -4.75212
Si 26.47612 -3.39437 -3.39438
Si 26.47612 -0.67888 -0.67887
Si 23.76062 -3.39437 -0.67887
Si 23.76062 -0.67888 -3.39438
Si 27.83387 -21.04513 -15.61412
Si 30.54938 -21.04513 -12.89863
Si 27.83387 -18.32963 -12.89863
Si 30.54938 -18.32963 -15.61412
Si 31.90712 -19.68738 -14.25638
Si 31.90712 -16.97187 -11.54087
Si 29.19162 -19.68738 -11.54087
Si 29.19162 -16.97187 -14.25638
Si 27.83387 -21.04513 -10.18313
Si 30.54938 -21.04513 -7.46763
Si 27.83387 -18.32963 -7.46763
Si 30.54938 -18.32963 -10.18313
Si 31.90712 -19.68738 -8.82538
Si 31.90712 -16.97187 -6.10987
Si 29.19162 -19.68738 -6.10987
Si 29.19162 -16.97187 -8.82538
Si 27.83387 -21.04513 -4.75212
Si 30.54938 -21.04513 -2.03662
Si 27.83387 -18.32963 -2.03662
Si 30.54938 -18.32963 -4.75212
Si 31.90712 -19.68738 -3.39438
Si 31.90712 -16.97187 -0.67887
Si 29.19162 -19.68738 -0.67887
Si 29.19162 -16.97187 -3.39438
Si 27.83387 -15.61412 -15.61412
Si 30.54938 -15.61412 -12.89863
Si 27.83387 -12.89862 -12.89863
Si 30.54938 -12.89862 -15.61412
Si 31.90712 -14.25638 -14.25638
Si 31.90712 -11.54087 -11.54087
Si 29.19162 -14.25638 -11.54087
Si 29.19162 -11.54087 -14.25638
Si 27.83387 -15.61412 -10.18313
Si 30.54938 -15.61412 -7.46763
Si 27.83387 -12.89862 -7.46763
Si 30.54938 -12.89862 -10.18313
Si 31.90712 -14.25638 -8.82538
Si 31.90712 -11.54087 -6.10987
Si 29.19162 -14.25638 -6.10987
Si 29.19162 -11.54087 -8.82538
Si 27.83387 -15.61412 -4.75212
Si 30.54938 -15.61412 -2.03662
Si 27.83387 -12.89862 -2.03662
Si 30.54938 -12.89862 -4.75212
Si 31.90712 -14.25638 -3.39438
Si 31.90712 -11.54087 -0.67887
Si 29.19162 -14.25638 -0.67887
Si 29.19162 -11.54087 -3.39438
Si 27.83387 -10.18312 -15.61412
Si 30.54938 -10.18312 -12.89863
Si 27.83387 -7.46762 -12.89863
Si 30.54938 -7.46762 -15.61412
Si 31.90712 -8.82537 -14.25638
Si 31.90712 -6.10987 -11.54087
Si 29.19162 -8.82537 -11.54087
Si 29.19162 -6.10987 -14.25638
Si 27.83387 -10.18312 -10.18313
Si 30.54938 -10.18312 -7.46763
Si 27.83387 -7.46762 -7.46763
Si 30.54938 -7.46762 -10.18313
Si 31.90712 -8.82537 -8.82538
Si 31.90712 -6.10987 -6.10987
Si 29.19162 -8.82537 -6.10987
Si 29.19162 -6.10987 -8.82538
Si 27.83387 -10.18312 -4.75212
Si 30.54938 -10.18312 -2.03662
Si 27.83387 -7.46762 -2.03662
Si 30.54938 -7.46762 -4.75212
Si 31.90712 -8.82537 -3.39438
Si 31.90712 -6.10987 -0.67887
Si 29.19162 -8.82537 -0.67887
Si 29.19162 -6.10987 -3.39438
Si 27.83387 -4.75212 -15.61412
Si 30.54938 -4.75212 -12.89863
Si 27.83387 -2.03662 -12.89863
Si 30.54938 -2.03662 -15.61412
Si 31.90712 -3.39437 -14.25638
Si 31.90712 -0.67888 -11.54087
Si 29.19162 -3.39437 -11.54087
Si 29.19162 -0.67888 -14.25638
Si 27.83387 -4.75212 -10.18313
Si 30.54938 -4.75212 -7.46763
Si 27.83387 -2.03662 -7.46763
Si 30.54938 -2.03662 -10.18313
Si 31.90712 -3.39437 -8.82538
Si 31.90712 -0.67888 -6.10987
Si 29.19162 -3.39437 -6.10987
Si 29.19162 -0.67888 -8.82538
Si 27.83387 -4.75212 -4.75212
Si 30.54938 -4.75212 -2.03662
Si 27.83387 -2.03662 -2.03662
Si 30.54938 -2.03662 -4.75212
Si 31.90712 -3.39437 -3.39438
Si 31.90712 -0.67888 -0.67887
Si 29.19162 -3.39437 -0.67887
Si 29.19162 -0.67888 -3.39438
Si 33.26487 -21.04513 -15.61412
Si 35.98037 -21.04513 -12.89863
Si 33.26487 -18.32963 -12.89863
Si 35.98037 -18.32963 -15.61412
Si 37.33813 -19.68738 -14.25638
Si 37.33813 -16.97187 -11.54087
Si 34.62262 -19.68738 -11.54087
Si 34.62262 -16.97187 -14.25638
Si 33.26487 -21.04513 -10.18313
Si 35.98037 -21.04513 -7.46763
Si 33.26487 -18.32963 -7.46763
Si 35.98037 -18.32963 -10.18313
Si 37.33813 -19.68738 -8.82538
Si 37.33813 -16.97187 -6.10987
Si 34.62262 -19.68738 -6.10987
Si 34.62262 -16.97187 -8.82538
Si 33.26487 -21.04513 -4.75212
Si 35.98037 -21.04513 -2.03662
Si 33.26487 -18.32963 -2.03662
Si 35.98037 -18.32963 -4.75212
Si 37.33813 -19.68738 -3.39438
Si 37.33813 -16.97187 -0.67887
Si 34.62262 -19.68738 -0.67887
Si 34.62262 -16.97187 -3.39438
Si 33.26487 -15.61412 -15.61412
Si 35.98037 -15.61412 -12.89863
Si 33.26487 -12.89862 -12.89863
Si 35.98037 -12.89862 -15.61412
Si 37.33813 -14.25638 -14.25638
Si 37.33813 -11.54087 -11.54087
Si 34.62262 -14.25638 -11.54087
Si 34.62262 -11.54087 -14.25638
Si 33.26487 -15.61412 -10.18313
Si 35.98037 -15.61412 -7.46763
Si 33.26487 -12.89862 -7.46763
Si 35.98037 -12.89862 -10.18313
Si 37.33813 -14.25638 -8.82538
Si 37.33813 -11.54087 -6.10987
Si 34.62262 -14.25638 -6.10987
Si 34.62262 -11.54087 -8.82538
Si 33.26487 -15.61412 -4.75212
Si 35.98037 -15.61412 -2.03662
Si 33.26487 -12.89862 -2.03662
Si 35.98037 -12.89862 -4.75212
Si 37.33813 -14.25638 -3.39438
Si 37.33813 -11.54087 -0.67887
Si 34.62262 -14.25638 -0.67887
Si 34.62262 -11.54087 -3.39438
Si 33.26487 -10.18312 -15.61412
Si 35.98037 -10.18312 -12.89863
Si 33.26487 -7.46762 -12.89863
Si 35.98037 -7.46762 -15.61412
Si 37.33813 -8.82537 -14.25638
Si 37.33813 -6.10987 -11.54087
Si 34.62262 -8.82537 -11.54087
Si 34.62262 -6.10987 -14.25638
Si 33.26487 -10.18312 -10.18313
Si 35.98037 -10.18312 -7.46763
Si 33.26487 -7.46762 -7.46763
Si 35.98037 -7.46762 -10.18313
Si 37.33813 -8.82537 -8.82538
Si 37.33813 -6.10987 -6.10987
Si 34.62262 -8.82537 -6.10987
Si 34.62262 -6.10987 -8.82538
Si 33.26487 -10.18312 -4.75212
Si 35.98037 -10.18312 -2.03662
Si 33.26487 -7.46762 -2.03662
Si 35.98037 -7.46762 -4.75212
Si 37.33813 -8.82537 -3.39438
Si 37.33813 -6.10987 -0.67887
Si 34.62262 -8.82537 -0.67887
Si 34.62262 -6.10987 -3.39438
Si 33.26487 -4.75212 -15.61412
Si 35.98037 -4.75212 -12.89863
Si 33.26487 -2.03662 -12.89863
Si 35.98037 -2.03662 -15.61412
Si 37.33813 -3.39437 -14.25638
Si 37.33813 -0.67888 -11.54087
Si 34.62262 -3.39437 -11.54087
Si 34.62262 -0.67888 -14.25638
Si 33.26487 -4.75212 -10.18313
Si 35.98037 -4.75212 -7.46763
Si 33.26487 -2.03662 -7.46763
Si 35.98037 -2.03662 -10.18313
Si 37.33813 -3.39437 -8.82538
Si 37.33813 -0.67888 -6.10987
Si 34.62262 -3.39437 -6.10987
Si 34.62262 -0.67888 -8.82538
Si 33.26487 -4.75212 -4.75212
Si 35.98037 -4.75212 -2.03662
Si 33.26487 -2.03662 -2.03662
Si 35.98037 -2.03662 -4.75212
Si 37.33813 -3.39437 -3.39438
Si 37.33813 -0.67888 -0.67887
Si 34.62262 -3.39437 -0.67887
Si 34.62262 -0.67888 -3.39438
Si 38.69588 -21.04513 -15.61412
Si 41.41138 -21.04513 -12.89863
Si 38.69588 -18.32963 -12.89863
Si 41.41138 -18.32963 -15.61412
Si 42.76913 -19.68738 -14.25638
Si 42.76913 -16.97187 -11.54087
Si 40.05362 -19.68738 -11.54087
Si 40.05362 -16.97187 -14.25638
Si 38.69588 -21.04513 -10.18313
Si 41.41138 -21.04513 -7.46763
Si 38.69588 -18.32963 -7.46763
Si 41.41138 -18.32963 -10.18313
Si 42.76913 -19.68738 -8.82538
Si 42.76913 -16.97187 -6.10987
Si 40.05362 -19.68738 -6.10987
Si 40.05362 -16.97187 -8.82538
Si 38.69588 -21.04513 -4.75212
Si 41.41138 -21.04513 -2.03662
Si 38.69588 -18.32963 -2.03662
Si 41.41138 -18.32963 -4.75212
Si 42.76913 -19.68738 -3.39438
Si 42.76913 -16.97187 -0.67887
Si 40.05362 -19.68738 -0.67887
Si 40.05362 -16.97187 -3.39438
Si 38.69588 -15.61412 -15.61412
Si 41.41138 -15.61412 -12.89863
Si 38.69588 -12.89862 -12.89863
Si 41.41138 -12.89862 -15.61412
Si 42.76913 -14.25638 -14.25638
Si 42.76913 -11.54087 -11.54087
Si 40.05362 -14.25638 -11.54087
Si 40.05362 -11.54087 -14.25638
Si 38.69588 -15.61412 -10.18313
Si 41.41138 -15.61412 -7.46763
Si 38.69588 -12.89862 -7.46763
Si 41.41138 -12.89862 -10.18313
Si 42.76913 -14.25638 -8.82538
Si 42.76913 -11.54087 -6.10987
Si 40.05362 -14.25638 -6.10987
Si 40.05362 -11.54087 -8.82538
Si 38.69588 -15.61412 -4.75212
Si 41.41138 -15.61412 -2.03662
Si 38.69588 -12.89862 -2.03662
Si 41.41138 -12.89862 -4.75212
Si 42.76913 -14.25638 -3.39438
Si 42.76913 -11.54087 -0.67887
Si 40.05362 -14.25638 -0.67887
Si 40.05362 -11.54087 -3.39438
Si 38.69588 -10.18312 -15.61412
Si 41.41138 -10.18312 -12.89863
Si 38.69588 -7.46762 -12.89863
Si 41.41138 -7.46762 -15.61412
Si 42.76913 -8.82537 -14.25638
Si 42.76913 -6.10987 -11.54087
Si 40.05362 -8.82537 -11.54087
Si 40.05362 -6.10987 -14.25638
Si 38.69588 -10.18312 -10.18313
Si 41.41138 -10.18312 -7.46763
Si 38.69588 -7.46762 -7.46763
Si 41.41138 -7.46762 -10.18313
Si 42.76913 -8.82537 -8.82538
Si 42.76913 -6.10987 -6.10987
Si 40.05362 -8.82537 -6.10987
Si 40.05362 -6.10987 -8.82538
Si 38.69588 -10.18312 -4.75212
Si 41.41138 -10.18312 -2.03662
Si 38.69588 -7.46762 -2.03662
Si 41.41138 -7.46762 -4.75212
Si 42.76913 -8.82537 -3.39438
Si 42.76913 -6.10987 -0.67887
Si 40.05362 -8.82537 -0.67887
Si 40.05362 -6.10987 -3.39438
Si 38.69588 -4.75212 -15.61412
Si 41.41138 -4.75212 -12.89863
Si 38.69588 -2.03662 -12.89863
Si 41.41138 -2.03662 -15.61412
Si 42.76913 -3.39437 -14.25638
Si 42.76913 -0.67888 -11.54087
Si 40.05362 -3.39437 -11.54087
Si 40.05362 -0.67888 -14.25638
Si 38.69588 -4.75212 -10.18313
Si 41.41138 -4.75212 -7.46763
Si 38.69588 -2.03662 -7.46763
Si 41.41138 -2.03662 -10.18313
Si 42.76913 -3.39437 -8.82538
Si 42.76913 -0.67888 -6.10987
Si 40.05362 -3.39437 -6.10987
Si 40.05362 -0.67888 -8.82538
Si 38.69588 -4.75212 -4.75212
Si 41.41138 -4.75212 -2.03662
Si 38.69588 -2.03662 -2.03662
Si 41.41138 -2.03662 -4.75212
Si 42.76913 -3.39437 -3.39438
Si 42.76913 -0.67888 -0.67887
Si 40.05362 -3.39437 -0.67887
Si 40.05362 -0.67888 -3.39438
Si 22.40287 -21.04513  0.67888
Si 25.11837 -21.04513  3.39437
Si 22.40287 -18.32963  3.39437
Si 25.11837 -18.32963  0.67888
Si 26.47612 -19.68738  2.03662
Si 26.47612 -16.97187  4.75213
Si 23.76062 -19.68738  4.75213
Si 23.76062 -16.97187  2.03662
Si 22.40287 -21.04513  6.10987
Si 25.11837 -21.04513  8.82537
Si 22.40287 -18.32963  8.82537
Si 25.11837 -18.32963  6.10987
Si 26.47612 -19.68738  7.46762
Si 26.47612 -16.97187 10.18313
Si 23.76062 -19.68738 10.18313
Si 23.76062 -16.97187  7.46762
Si 22.40287 -21.04513 11.54087
Si 25.11837 -21.04513 14.25638
Si 22.40287 -18.32963 14.25638
Si 25.11837 -18.32963 11.54087
Si 26.47612 -19.68738 12.89862
Si 26.47612 -16.97187 15.61413
Si 23.76062 -19.68738 15.61413
Si 23.76062 -16.97187 12.89862
Si 22.40287 -15.61412  0.67888
Si 25.11837 -15.61412  3.39437
Si 22.40287 -12.89862  3.39437
Si 25.11837 -12.89862  0.67888
Si 26.47612 -14.25638  2.03662
Si 26.47612 -11.54087  4.75213
Si 23.76062 -14.25638  4.75213
Si 23.76062 -11.54087  2.03662
Si 22.40287 -15.61412  6.10987
Si 25.11837 -15.61412  8.82537
Si 22.40287 -12.89862  8.82537
Si 25.11837 -12.89862  6.10987
Si 26.47612 -14.25638  7.46762
Si 26.47612 -11.54087 10.18313
Si 23.76062 -14.25638 10.18313
Si 23.76062 -11.54087  7.46762
Si 22.40287 -15.61412 11.54087
Si 25.11837 -15.61412 14.25638
Si 22.40287 -12.89862 14.25638
Si 25.11837 -12.89862 11.54087
Si 26.47612 -14.25638 12.89862
Si 26.47612 -11.54087 15.61413
Si 23.76062 -14.25638 15.61413
Si 23.76062 -11.54087 12.89862
Si 22.40287 -10.18312  0.67888
Si 25.11837 -10.18312  3.39437
Si 22.40287 -7.46762  3.39437
Si 25.11837 -7.46762  0.67888
Si 26.47612 -8.82537  2.03662
Si 26.47612 -6.10987  4.75213
Si 23.76062 -8.82537  4.75213
Si 23.76062 -6.10987  2.03662
Si 22.40287 -10.18312  6.10987
Si 25.11837 -10.18312  8.82537
Si 22.40287 -7.46762  8.82537
Si 25.11837 -7.46762  6.10987
Si 26.47612 -8.82537  7.46762
Si 26.47612 -6.10987 10.18313
Si 23.76062 -8.82537 10.18313
Si 23.76062 -6.10987  7.46762
Si 22.40287 -10.18312 11.54087
Si 25.11837 -10.18312 14.25638
Si 22.40287 -7.46762 14.25638
Si 25.11837 -7.46762 11.54087
Si 26.47612 -8.82537 12.89862
Si 26.47612 -6.10987 15.61413
Si 23.76062 -8.82537 15.61413
Si 23.76062 -6.10987 12.89862
Si 22.40287 -4.75212  0.67888
Si 25.11837 -4.75212  3.39437
Si 22.40287 -2.03662  3.39437
Si 25.11837 -2.03662  0.67888
Si 26.47612 -3.39437  2.03662
Si 26.47612 -0.67888  4.75213
Si 23.76062 -3.39437  4.75213
Si 23.76062 -0.67888  2.03662
Si 22.40287 -4.75212  6.10987
Si 25.11837 -4.75212  8.82537
Si 22.40287 -2.03662  8.82537
Si 25.11837 -2.03662  6.10987
Si 26.47612 -3.39437  7.46762
Si 26.47612 -0.67888 10.18313
Si 23.76062 -3.39437 10.18313
Si 23.76062 -0.67888  7.46762
Si 22.40287 -4.75212 11.54087
Si 25.11837 -4.75212 14.25638
Si 22.40287 -2.03662 14.25638
Si 25.11837 -2.03662 11.54087
Si 26.47612 -3.39437 12.89862
Si 26.47612 -0.67888 15.61413
Si 23.76062 -3.39437 15.61413
Si 23.76062 -0.67888 12.89862
Si 27.83387 -21.04513  0.67888
Si 30.54938 -21.04513  3.39437
Si 27.83387 -18.32963  3.39437
Si 30.54938 -18.32963  0.67888
Si 31.90712 -19.68738  2.03662
Si 31.90712 -16.97187  4.75213
Si 29.19162 -19.68738  4.75213
Si 29.19162 -16.97187  2.03662
Si 27.83387 -21.04513  6.10987
Si 30.54938 -21.04513  8.82537
Si 27.83387 -18.32963  8.82537
Si 30.54938 -18.32963  6.10987
Si 31.90712 -19.68738  7.46762
Si 31.90712 -16.97187 10.18313
Si 29.19162 -19.68738 10.18313
Si 29.19162 -16.97187  7.46762
Si 27.83387 -21.04513 11.54087
Si 30.54938 -21.04513 14.25638
Si 27.83387 -18.32963 14.25638
Si 30.54938 -18.32963 11.54087
Si 31.90712 -19.68738 12.89862
Si 31.90712 -16.97187 15.61413
Si 29.19162 -19.68738 15.61413
Si 29.19162 -16.97187 12.89862
Si 27.83387 -15.61412  0.67888
Si 30.54938 -15.61412  3.39437
Si 27.83387 -12.89862  3.39437
Si 30.54938 -12.89862  0.67888
Si 31.90712 -14.25638  2.03662
Si 31.90712 -11.54087  4.75213
Si 29.19162 -14.25638  4.75213
Si 29.19162 -11.54087  2.03662
Si 27.83387 -15.61412  6.10987
Si 30.54938 -15.61412  8.82537
Si 27.83387 -12.89862  8.82537
Si 30.54938 -12.89862  6.10987
Si 31.90712 -14.25638  7.46762
Si 31.90712 -11.54087 10.18313
Si 29.19162 -14.25638 10.18313
Si 29.19162 -11.54087  7.46762
Si 27.83387 -15.61412 11.54087
Si 30.54938 -15.61412 14.25638
Si 27.83387 -12.89862 14.25638
Si 30.54938 -12.89862 11.54087
Si 31.90712 -14.25638 12.89862
Si 31.90712 -11.54087 15.61413
Si 29.19162 -14.25638 15.61413
Si 29.19162 -11.54087 12.89862
Si 27.83387 -10.18312  0.67888
Si 30.54938 -10.18312  3.39437
Si 27.83387 -7.46762  3.39437
Si 30.54938 -7.46762  0.67888
Si 31.90712 -8.82537  2.03662
Si 31.90712 -6.10987  4.75213
Si 29.19162 -8.82537  4.75213
Si 29.19162 -6.10987  2.03662
Si 27.83387 -10.18312  6.10987
Si 30.54938 -10.18312  8.82537
Si 27.83387 -7.46762  8.82537
Si 30.54938 -7.46762  6.10987
Si 31.90712 -8.82537  7.46762
Si 31.90712 -6.10987 10.18313
Si 29.19162 -8.82537 10.18313
Si 29.19162 -6.10987  7.46762
Si 27.83387 -10.18312 11.54087
Si 30.54938 -10.18312 14.25638
Si 27.83387 -7.46762 14.25638
Si 30.54938 -7.46762 11.54087
Si 31.90712 -8.82537 12.89862
Si 31.90712 -6.10987 15.61413
Si 29.19162 -8.82537 15.61413
Si 29.19162 -6.10987 12.89862
Si 27.83387 -4.75212  0.67888
Si 30.54938 -4.75212  3.39437
Si 27.83387 -2.03662  3.39437
Si 30.54938 -2.03662  0.67888
Si 31.90712 -3.39437  2.03662
Si 31.90712 -0.67888  4.75213
Si 29.19162 -3.39437  4.75213
Si 29.19162 -0.67888  2.03662
Si 27.83387 -4.75212  6.10987
Si 30.54938 -4.75212  8.82537
Si 27.83387 -2.03662  8.82537
Si 30.54938 -2.03662  6.10987
Si 31.90712 -3.39437  7.46762
Si 31.90712 -0.67888 10.18313
Si 29.19162 -3.39437 10.18313
Si 29.19162 -0.67888  7.46762
Si 27.83387 -4.75212 11.54087
Si 30.54938 -4.75212 14.25638
Si 27.83387 -2.03662 14.25638
Si 30.54938 -2.03662 11.54087
Si 31.90712 -3.39437 12.89862
Si 31.90712 -0.67888 15.61413
Si 29.19162 -3.39437 15.61413
Si 29.19162 -0.67888 12.89862
Si 33.26487 -21.04513  0.67888
Si 35.98037 -21.04513  3.39437
Si 33.26487 -18.32963  3.39437
Si 35.98037 -18.32963  0.67888
Si 37.33813 -19.68738  2.03662
Si 37.33813 -16.97187  4.75213
Si 34.62262 -19.68738  4.75213
Si 34.62262 -16.97187  2.03662
Si 33.26487 -21.04513  6.10987
Si 35.98037 -21.04513  8.82537
Si 33.26487 -18.32963  8.82537
Si 35.98037 -18.32963  6.10987
Si 37.33813 -19.68738  7.46762
Si 37.33813 -16.97187 10.18313
Si 34.62262 -19.68738 10.18313
Si 34.62262 -16.97187  7.46762
Si 33.26487 -21.04513 11.54087
Si 35.98037 -21.04513 14.25638
Si 33.26487 -18.32963 14.25638
Si 35.98037 -18.32963 11.54087
Si 37.33813 -19.68738 12.89862
Si 37.33813 -16.97187 15.61413
Si 34.62262 -19.68738 15.61413
Si 34.62262 -16.97187 12.89862
Si 33.26487 -15.61412  0.67888
Si 35.98037 -15.61412  3.39437
Si 33.26487 -12.89862  3.39437
Si 35.98037 -12.89862  0.67888
Si 37.33813 -14.25638  2.03662
Si 37.33813 -11.54087  4.75213
Si 34.62262 -14.25638  4.75213
Si 34.62262 -11.54087  2.03662
Si 33.26487 -15.61412  6.10987
Si 35.98037 -15.61412  8.82537
Si 33.26487 -12.89862  8.82537
Si 35.98037 -12.89862  6.10987
Si 37.33813 -14.25638  7.46762
Si 37.33813 -11.54087 10.18313
Si 34.62262 -14.25638 10.18313
Si 34.62262 -11.54087  7.46762
Si 33.26487 -15.61412 11.54087
Si 35.98037 -15.61412 14.25638
Si 33.26487 -12.89862 14.25638
Si 35.98037 -12.89862 11.54087
Si 37.33813 -14.25638 12.89862
Si 37.33813 -11.54087 15.61413
Si 34.62262 -14.25638 15.61413
Si 34.62262 -11.54087 12.89862
Si 33.26487 -10.18312  0.67888
Si 35.98037 -10.18312  3.39437
Si 33.26487 -7.46762  3.39437
Si 35.98037 -7.46762  0.67888
Si 37.33813 -8.82537  2.03662
Si 37.33813 -6.10987  4.75213
Si 34.62262 -8.82537  4.75213
Si 34.62262 -6.10987  2.03662
Si 33.26487 -10.18312  6.10987
Si 35.98037 -10.18312  8.82537
Si 33.26487 -7.46762  8.82537
Si 35.98037 -7.46762  6.10987
Si 37.33813 -8.82537  7.46762
Si 37.33813 -6.10987 10.18313
Si 34.62262 -8.82537 10.18313
Si 34.62262 -6.10987  7.46762
Si 33.26487 -10.18312 11.54087
Si 35.98037 -10.18312 14.25638
Si 33.26487 -7.46762 14.25638
Si 35.98037 -7.46762 11.54087
Si 37.33813 -8.82537 12.89862
Si 37.33813 -6.10987 15.61413
Si 34.62262 -8.82537 15.61413
Si 34.62262 -6.10987 12.89862
Si 33.26487 -4.75212  0.67888
Si 35.98037 -4.75212  3.39437
Si 33.26487 -2.03662  3.39437
Si 35.98037 -2.03662  0.67888
Si 37.33813 -3.39437  2.03662
Si 37.33813 -0.67888  4.75213
Si 34.62262 -3.39437  4.75213
Si 34.62262 -0.67888  2.03662
Si 33.26487 -4.75212  6.10987
Si 35.98037 -4.75212  8.82537
Si 33.26487 -2.03662  8.82537
Si 35.98037 -2.03662  6.10987
Si 37.33813 -3.39437  7.46762
Si 37.33813 -0.67888 10.18313
Si 34.62262 -3.39437 10.18313
Si 34.62262 -0.67888  7.46762
Si 33.26487 -4.75212 11.54087
Si 35.98037 -4.75212 14.25638
Si 33.26487 -2.03662 14.25638
Si 35.98037 -2.03662 11.54087
Si 37.33813 -3.39437 12.89862
Si 37.33813 -0.67888 15.61413
Si 34.62262 -3.39437 15.61413
Si 34.62262 -0.67888 12.89862
Si 38.69588 -21.04513  0.67888
Si 41.41138 -21.04513  3.39437
Si 38.69588 -18.32963  3.39437
Si 41.41138 -18.32963  0.67888
Si 42.76913 -19.68738  2.03662
Si 42.76913 -16.97187  4.75213
Si 40.05362 -19.68738  4.75213
Si 40.05362 -16.97187  2.03662
Si 38.69588 -21.04513  6.10987
Si 41.41138 -21.04513  8.82537
Si 38.69588 -18.32963  8.82537
Si 41.41138 -18.32963  6.10987
Si 42.76913 -19.68738  7.46762
Si 42.76913 -16.97187 10.18313
Si 40.05362 -19.68738 10.18313
Si 40.05362 -16.97187  7.46762
Si 38.69588 -21.04513 11.54087
Si 41.41138 -21.04513 14.25638
Si 38.69588 -18.32963 14.25638
Si 41.41138 -18.32963 11.54087
Si 42.76913 -19.68738 12.89862
Si 42.76913 -16.97187 15.61413
Si 40.05362 -19.68738 15.61413
Si 40.05362 -16.97187 12.89862
Si 38.69588 -15.61412  0.67888
Si 41.41138 -15.61412  3.39437
Si 38.69588 -12.89862  3.39437
Si 41.41138 -12.89862  0.67888
Si 42.76913 -14.25638  2.03662
Si 42.76913 -11.54087  4.75213
Si 40.05362 -14.25638  4.75213
Si 40.05362 -11.54087  2.03662
Si 38.69588 -15.61412  6.10987
Si 41.41138 -15.61412  8.82537
Si 38.69588 -12.89862  8.82537
Si 41.41138 -12.89862  6.10987
Si 42.76913 -14.25638  7.46762
Si 42.76913 -11.54087 10.18313
Si 40.05362 -14.25638 10.18313
Si 40.05362 -11.54087  7.46762
Si 38.69588 -15.61412 11.54087
Si 41.41138 -15.61412 14.25638
Si 38.69588 -12.89862 14.25638
Si 41.41138 -12.89862 11.54087
Si 42.76913 -14.25638 12.89862
Si 42.76913 -11.54087 15.61413
Si 40.05362 -14.25638 15.61413
Si 40.05362 -11.54087 12.89862
Si 38.69588 -10.18312  0.67888
Si 41.41138 -10.18312  3.39437
Si 38.69588 -7.46762  3.39437
Si 41.41138 -7.46762  0.67888
Si 42.76913 -8.82537  2.03662
Si 42.76913 -6.10987  4.75213
Si 40.05362 -8.82537  4.75213
Si 40.05362 -6.10987  2.03662
Si 38.69588 -10.18312  6.10987
Si 41.41138 -10.18312  8.82537
Si 38.69588 -7.46762  8.82537
Si 41.41138 -7.46762  6.10987
Si 42.76913 -8.82537  7.46762
Si 42.76913 -6.10987 10.18313
Si 40.05362 -8.82537 10.18313
Si 40.05362 -6.10987  7.46762
Si 38.69588 -10.18312 11.54087
Si 41.41138 -10.18312 14.25638
Si 38.69588 -7.46762 14.25638
Si 41.41138 -7.46762 11.54087
Si 42.76913 -8.82537 12.89862
Si 42.76913 -6.10987 15.61413
Si 40.05362 -8.82537 15.61413
Si 40.05362 -6.10987 12.89862
Si 38.69588 -4.75212  0.67888
Si 41.41138 -4.75212  3.39437
Si 38.69588 -2.03662  3.39437
Si 41.41138 -2.03662  0.67888
Si 42.76913 -3.39437  2.03662
Si 42.76913 -0.67888  4.75213
Si 40.05362 -3.39437  4.75213
Si 40.05362 -0.67888  2.03662
Si 38.69588 -4.75212  6.10987
Si 41.41138 -4.75212  8.82537
Si 38.69588 -2.03662  8.82537
Si 41.41138 -2.03662  6.10987
Si 42.76913 -3.39437  7.46762
Si 42.76913 -0.67888 10.18313
Si 40.05362 -3.39437 10.18313
Si 40.05362 -0.67888  7.46762
Si 38.69588 -4.75212 11.54087
Si 41.41138 -4.75212 14.25638
Si 38.69588 -2.03662 14.25638
Si 41.41138 -2.03662 11.54087
Si 42.76913 -3.39437 12.89862
Si 42.76913 -0.67888 15.61413
Si 40.05362 -3.39437 15.61413
Si 40.05362 -0.67888 12.89862
Si 22.40287 -21.04513 16.97188
Si 25.11837 -21.04513 19.68737
Si 22.40287 -18.32963 19.68737
Si 25.11837 -18.32963 16.97188
Si 26.47612 -19.68738 18.32963
Si 26.47612 -16.97187 21.04513
Si 23.76062 -19.68738 21.04513
Si 23.76062 -16.97187 18.32963
Si 22.40287 -21.04513 22.40287
Si 25.11837 -21.04513 25.11837
Si 22.40287 -18.32963 25.11837
Si 25.11837 -18.32963 22.40287
Si 26.47612 -19.68738 23.76062
Si 26.47612 -16.97187 26.47612
Si 23.76062 -19.68738 26.47612
Si 23.76062 -16.97187 23.76062
Si 22.40287 -21.04513 27.83388
Si 25.11837 -21.04513 30.54938
Si 22.40287 -18.32963 30.54938
Si 25.11837 -18.32963 27.83388
Si 26.47612 -19.68738 29.19162
Si 26.47612 -16.97187 31.90713
Si 23.76062 -19.68738 31.90713
Si 23.76062 -16.97187 29.19162
Si 22.40287 -15.61412 16.97188
Si 25.11837 -15.61412 19.68737
Si 22.40287 -12.89862 19.68737
Si 25.11837 -12.89862 16.97188
Si 26.47612 -14.25638 18.32963
Si 26.47612 -11.54087 21.04513
Si 23.76062 -14.25638 21.04513
Si 23.76062 -11.54087 18.32963
Si 22.40287 -15.61412 22.40287
Si 25.11837 -15.61412 25.11837
Si 22.40287 -12.89862 25.11837
Si 25.11837 -12.89862 22.40287
Si 26.47612 -14.25638 23.76062
Si 26.47612 -11.54087 26.47612
Si 23.76062 -14.25638 26.47612
Si 23.76062 -11.54087 23.76062
Si 22.40287 -15.61412 27.83388
Si 25.11837 -15.61412 30.54938
Si 22.40287 -12.89862 30.54938
Si 25.11837 -12.89862 27.83388
Si 26.47612 -14.25638 29.19162
Si 26.47612 -11.54087 31.90713
Si 23.76062 -14.25638 31.90713
Si 23.76062 -11.54087 29.19162
Si 22.40287 -10.18312 16.97188
Si 25.11837 -10.18312 19.68737
Si 22.40287 -7.46762 19.68737
Si 25.11837 -7.46762 16.97188
Si 26.47612 -8.82537 18.32963
Si 26.47612 -6.10987 21.04513
Si 23.76062 -8.82537 21.04513
Si 23.76062 -6.10987 18.32963
Si 22.40287 -10.18312 22.40287
Si 25.11837 -10.18312 25.11837
Si 22.40287 -7.46762 25.11837
Si 25.11837 -7.46762 22.40287
Si 26.47612 -8.82537 23.76062
Si 26.47612 -6.10987 26.47612
Si 23.76062 -8.82537 26.47612
Si 23.76062 -6.10987 23.76062
Si 22.40287 -10.18312 27.83388
Si 25.11837 -10.18312 30.54938
Si 22.40287 -7.46762 30.54938
Si 25.11837 -7.46762 27.83388
Si 26.47612 -8.82537 29.19162
Si 26.47612 -6.10987 31.90713
Si 23.76062 -8.82537 31.90713
Si 23.76062 -6.10987 29.19162
Si 22.40287 -4.75212 16.97188
Si 25.11837 -4.75212 19.68737
Si 22.40287 -2.03662 19.68737
Si 25.11837 -2.03662 16.97188
Si 26.47612 -3.39437 18.32963
Si 26.47612 -0.67888 21.04513
Si 23.76062 -3.39437 21.04513
Si 23.76062 -0.67888 18.32963
Si 22.40287 -4.75212 22.40287
Si 25.11837 -4.75212 25.11837
Si 22.40287 -2.03662 25.11837
Si 25.11837 -2.03662 22.40287
Si 26.47612 -3.39437 23.76062
Si 26.47612 -0.67888 26.47612
Si 23.76062 -3.39437 26.47612
Si 23.76062 -0.67888 23.76062
Si 22.40287 -4.75212 27.83388
Si 25.11837 -4.75212 30.54938
Si 22.40287 -2.03662 30.54938
Si 25.11837 -2.03662 27.83388
Si 26.47612 -3.39437 29.19162
Si 26.47612 -0.67888 31.90713
Si 23.76062 -3.39437 31.90713
Si 23.76062 -0.67888 29.19162
Si 27.83387 -21.04513 16.97188
Si 30.54938 -21.04513 19.68737
Si 27.83387 -18.32963 19.68737
Si 30.54938 -18.32963 16.97188
Si 31.90712 -19.68738 18.32963
Si 31.90712 -16.97187 21.04513
Si 29.19162 -19.68738 21.04513
Si 29.19162 -16.97187 18.32963
Si 27.83387 -21.04513 22.40287
Si 30.54938 -21.04513 25.11837
Si 27.83387 -18.32963 25.11837
Si 30.54938 -18.32963 22.40287
Si 31.90712 -19.68738 23.76062
Si 31.90712 -16.97187 26.47612
Si 29.19162 -19.68738 26.47612
Si 29.19162 -16.97187 23.76062
Si 27.83387 -21.04513 27.83388
Si 30.54938 -21.04513 30.54938
Si 27.83387 -18.32963 30.54938
Si 30.54938 -18.32963 27.83388
Si 31.90712 -19.68738 29.19162
Si 31.90712 -16.97187 31.90713
Si 29.19162 -19.68738 31.90713
Si 29.19162 -16.97187 29.19162
Si 27.83387 -15.61412 16.97188
Si 30.54938 -15.61412 19.68737
Si 27.83387 -12.89862 19.68737
Si 30.54938 -12.89862 16.97188
Si 31.90712 -14.25638 18.32963
Si 31.90712 -11.54087 21.04513
Si 29.19162 -14.25638 21.04513
Si 29.19162 -11.54087 18.32963
Si 27.83387 -15.61412 22.40287
Si 30.54938 -15.61412 25.11837
Si 27.83387 -12.89862 25.11837
Si 30.54938 -12.89862 22.40287
Si 31.90712 -14.25638 23.76062
Si 31.90712 -11.54087 26.47612
Si 29.19162 -14.25638 26.47612
Si 29.19162 -11.54087 23.76062
Si 27.83387 -15.61412 27.83388
Si 30.54938 -15.61412 30.54938
Si 27.83387 -12.89862 30.54938
Si 30.54938 -12.89862 27.83388
Si 31.90712 -14.25638 29.19162
Si 31.90712 -11.54087 31.90713
Si 29.19162 -14.25638 31.90713
Si 29.19162 -11.54087 29.19162
Si 27.83387 -10.18312 16.97188
Si 30.54938 -10.18312 19.68737
Si 27.83387 -7.46762 19.68737
Si 30.54938 -7.46762 16.97188
Si 31.90712 -8.82537 18.32963
Si 31.90712 -6.10987 21.04513
Si 29.19162 -8.82537 21.04513
Si 29.19162 -6.10987 18.32963
Si 27.83387 -10.18312 22.40287
Si 30.54938 -10.18312 25.11837
Si 27.83387 -7.46762 25.11837
Si 30.54938 -7.46762 22.40287
Si 31.90712 -8.82537 23.76062
Si 31.90712 -6.10987 26.47612
Si 29.19162 -8.82537 26.47612
Si 29.19162 -6.10987 23.76062
Si 27.83387 -10.18312 27.83388
Si 30.54938 -10.18312 30.54938
Si 27.83387 -7.46762 30.54938
Si 30.54938 -7.46762 27.83388
Si 31.90712 -8.82537 29.19162
Si 31.90712 -6.10987 31.90713
Si 29.19162 -8.82537 31.90713
Si 29.19162 -6.10987 29.19162
Si 27.83387 -4.75212 16.97188
Si 30.54938 -4.75212 19.68737
Si 27.83387 -2.03662 19.68737
Si 30.54938 -2.03662 16.97188
Si 31.90712 -3.39437 18.32963
Si 31.90712 -0.67888 21.04513
Si 29.19162 -3.39437 21.04513
Si 29.19162 -0.67888 18.32963
Si 27.83387 -4.75212 22.40287
Si 30.54938 -4.75212 25.11837
Si 27.83387 -2.03662 25.11837
Si 30.54938 -2.03662 22.40287
Si 31.90712 -3.39437 23.76062
Si 31.90712 -0.67888 26.47612
Si 29.19162 -3.39437 26.47612
Si 29.19162 -0.67888 23.76062
Si 27.83387 -4.75212 27.83388
Si 30.54938 -4.75212 30.54938
Si 27.83387 -2.03662 30.54938
Si 30.54938 -2.03662 27.83388
Si 31.90712 -3.39437 29.19162
Si 31.90712 -0.67888 31.90713
Si 29.19162 -3.39437 31.90713
Si 29.19162 -0.67888 29.19162
Si 33.26487 -21.04513 16.97188
Si 35.98037 -21.04513 19.68737
Si 33.26487 -18.32963 19.68737
Si 35.98037 -18.32963 16.97188
Si 37.33813 -19.68738 18.32963
Si 37.33813 -16.97187 21.04513
Si 34.62262 -19.68738 21.04513
Si 34.62262 -16.97187 18.32963
Si 33.26487 -21.04513 22.40287
Si 35.98037 -21.04513 25.11837
Si 33.26487 -18.32963 25.11837
Si 35.98037 -18.32963 22.40287
Si 37.33813 -19.68738 23.76062
Si 37.33813 -16.97187 26.47612
Si 34.62262 -19.68738 26.47612
Si 34.62262 -16.97187 23.76062
Si 33.26487 -21.04513 27.83388
Si 35.98037 -21.04513 30.54938
Si 33.26487 -18.32963 30.54938
Si 35.98037 -18.32963 27.83388
Si 37.33813 -19.68738 29.19162
Si 37.33813 -16.97187 31.90713
Si 34.62262 -19.68738 31.90713
Si 34.62262 -16.97187 29.19162
Si 33.26487 -15.61412 16.97188
Si 35.98037 -15.61412 19.68737
Si 33.26487 -12.89862 19.68737
Si 35.98037 -12.89862 16.97188
Si 37.33813 -14.25638 18.32963
Si 37.33813 -11.54087 21.04513
Si 34.62262 -14.25638 21.04513
Si 34.62262 -11.54087 18.32963
Si 33.26487 -15.61412 22.40287
Si 35.98037 -15.61412 25.11837
Si 33.26487 -12.89862 25.11837
Si 35.98037 -12.89862 22.40287
Si 37.33813 -14.25638 23.76062
Si 37.33813 -11.54087 26.47612
Si 34.62262 -14.25638 26.47612
Si 34.62262 -11.54087 23.76062
Si 33.26487 -15.61412 27.83388
Si 35.98037 -15.61412 30.54938
Si 33.26487 -12.89862 30.54938
Si 35.98037 -12.89862 27.83388
Si 37.33813 -14.25638 29.19162
Si 37.33813 -11.54087 31.90713
Si 34.62262 -14.25638 31.90713
Si 34.62262 -11.54087 29.19162
Si 33.26487 -10.18312 16.97188
Si 35.98037 -10.18312 19.68737
Si 33.26487 -7.46762 19.68737
Si 35.98037 -7.46762 16.97188
Si 37.33813 -8.82537 18.32963
Si 37.33813 -6.10987 21.04513
Si 34.62262 -8.82537 21.04513
Si 34.62262 -6.10987 18.32963
Si 33.26487 -10.18312 22.40287
Si 35.98037 -10.18312 25.11837
Si 33.26487 -7.46762 25.11837
Si 35.98037 -7.46762 22.40287
Si 37.33813 -8.82537 23.76062
Si 37.33813 -6.10987 26.47612
Si 34.62262 -8.82537 26.47612
Si 34.62262 -6.10987 23.76062
Si 33.26487 -10.18312 27.83388
Si 35.98037 -10.18312 30.54938
Si 33.26487 -7.46762 30.54938
Si 35.98037 -7.46762 27.83388
Si 37.33813 -8.82537 29.19162
Si 37.33813 -6.10987 31.90713
Si 34.62262 -8.82537 31.90713
Si 34.62262 -6.10987 29.19162
Si 33.26487 -4.75212 16.97188
Si 35.98037 -4.75212 19.68737
Si 33.26487 -2.03662 19.68737
Si 35.98037 -2.03662 16.97188
Si 37.33813 -3.39437 18.32963
Si 37.33813 -0.67888 21.04513
Si 34.62262 -3.39437 21.04513
Si 34.62262 -0.67888 18.32963
Si 33.26487 -4.75212 22.40287
Si 35.98037 -4.75212 25.11837
Si 33.26487 -2.03662 25.11837
Si 35.98037 -2.03662 22.40287
Si 37.33813 -3.39437 23.76062
Si 37.33813 -0.67888 26.47612
Si 34.62262 -3.39437 26.47612
Si 34.62262 -0.67888 23.76062
Si 33.26487 -4.75212 27.83388
Si 35.98037 -4.75212 30.54938
Si 33.26487 -2.03662 30.54938
Si 35.98037 -2.03662 27.83388
Si 37.33813 -3.39437 29.19162
Si 37.33813 -0.67888 31.90713
Si 34.62262 -3.39437 31.90713
Si 34.62262 -0.67888 29.19162
Si 38.69588 -21.04513 16.97188
Si 41.41138 -21.04513 19.68737
Si 38.69588 -18.32963 19.68737
Si 41.41138 -18.32963 16.97188
Si 42.76913 -19.68738 18.32963
Si 42.76913 -16.97187 21.04513
Si 40.05362 -19.68738 21.04513
Si 40.05362 -16.97187 18.32963
Si 38.69588 -21.04513 22.40287
Si 41.41138 -21.04513 25.11837
Si 38.69588 -18.32963 25.11837
Si 41.41138 -18.32963 22.40287
Si 42.76913 -19.68738 23.76062
Si 42.76913 -16.97187 26.47612
Si 40.05362 -19.68738 26.47612
Si 40.05362 -16.97187 23.76062
Si 38.69588 -21.04513 27.83388
Si 41.41138 -21.04513 30.54938
Si 38.69588 -18.32963 30.54938
Si 41.41138 -18.32963 27.83388
Si 42.76913 -19.68738 29.19162
Si 42.76913 -16.97187 31.90713
Si 40.05362 -19.68738 31.90713
Si 40.05362 -16.97187 29.19162
Si 38.69588 -15.61412 16.97188
Si 41.41138 -15.61412 19.68737
Si 38.69588 -12.89862 19.68737
Si 41.41138 -12.89862 16.97188
Si 42.76913 -14.25638 18.32963
Si 42.76913 -11.54087 21.04513
Si 40.05362 -14.25638 21.04513
Si 40.05362 -11.54087 18.32963
Si 38.69588 -15.61412 22.40287
Si 41.41138 -15.61412 25.11837
Si 38.69588 -12.89862 25.11837
Si 41.41138 -12.89862 22.40287
Si 42.76913 -14.25638 23.76062
Si 42.76913 -11.54087 26.47612
Si 40.05362 -14.25638 26.47612
Si 40.05362 -11.54087 23.76062
Si 38.69588 -15.61412 27.83388
Si 41.41138 -15.61412 30.54938
Si 38.69588 -12.89862 30.54938
Si 41.41138 -12.89862 27.83388
Si 42.76913 -14.25638 29.19162
Si 42.76913 -11.54087 31.90713
Si 40.05362 -14.25638 31.90713
Si 40.05362 -11.54087 29.19162
Si 38.69588 -10.18312 16.97188
Si 41.41138 -10.18312 19.68737
Si 38.69588 -7.46762 19.68737
Si 41.41138 -7.46762 16.97188
Si 42.76913 -8.82537 18.32963
Si 42.76913 -6.10987 21.04513
Si 40.05362 -8.82537 21.04513
Si 40.05362 -6.10987 18.32963
Si 38.69588 -10.18312 22.40287
Si 41.41138 -10.18312 25.11837
Si 38.69588 -7.46762 25.11837
Si 41.41138 -7.46762 22.40287
Si 42.76913 -8.82537 23.76062
Si 42.76913 -6.10987 26.47612
Si 40.05362 -8.82537 26.47612
Si 40.05362 -6.10987 23.76062
Si 38.69588 -10.18312 27.83388
Si 41.41138 -10.18312 30.54938
Si 38.69588 -7.46762 30.54938
Si 41.41138 -7.46762 27.83388
Si 42.76913 -8.82537 29.19162
Si 42.76913 -6.10987 31.90713
Si 40.05362 -8.82537 31.90713
Si 40.05362 -6.10987 29.19162
Si 38.69588 -4.75212 16.97188
Si 41.41138 -4.75212 19.68737
Si 38.69588 -2.03662 19.68737
Si 41.41138 -2.03662 16.97188
Si 42.76913 -3.39437 18.32963
Si 42.76913 -0.67888 21.04513
Si 40.05362 -3.39437 21.04513
Si 40.05362 -0.67888 18.32963
Si 38.69588 -4.75212 22.40287
Si 41.41138 -4.75212 25.11837
Si 38.69588 -2.03662 25.11837
Si 41.41138 -2.03662 22.40287
Si 42.76913 -3.39437 23.76062
Si 42.76913 -0.67888 26.47612
Si 40.05362 -3.39437 26.47612
Si 40.05362 -0.67888 23.76062
Si 38.69588 -4.75212 27.83388
Si 41.41138 -4.75212 30.54938
Si 38.69588 -2.03662 30.54938
Si 41.41138 -2.03662 27.83388
Si 42.76913 -3.39437 29.19162
Si 42.76913 -0.67888 31.90713
Si 40.05362 -3.39437 31.90713
Si 40.05362 -0.67888 29.19162
Si 22.40287  0.67887 -15.61412
Si 25.11837  0.67887 -12.89863
Si 22.40287  3.39437 -12.89863
Si 25.11837  3.39437 -15.61412
Si 26.47612  2.03662 -14.25638
Si 26.47612  4.75212 -11.54087
Si 23.76062  2.03662 -11.54087
Si 23.76062  4.75212 -14.25638
Si 22.40287  0.67887 -10.18313
Si 25.11837  0.67887 -7.46763
Si 22.40287  3.39437 -7.46763
Si 25.11837  3.39437 -10.18313
Si 26.47612  2.03662 -8.82538
Si 26.47612  4.75212 -6.10987
Si 23.76062  2.03662 -6.10987
Si 23.76062  4.75212 -8.82538
Si 22.40287  0.67887 -4.75212
Si 25.11837  0.67887 -2.03662
Si 22.40287  3.39437 -2.03662
Si 25.11837  3.39437 -4.75212
Si 26.47612  2.03662 -3.39438
Si 26.47612  4.75212 -0.67887
Si 23.76062  2.03662 -0.67887
Si 23.76062  4.75212 -3.39438
Si 22.40287  6.10987 -15.61412
Si 25.11837  6.10987 -12.89863
Si 22.40287  8.82537 -12.89863
Si 25.11837  8.82537 -15.61412
Si 26.47612  7.46762 -14.25638
Si 26.47612 10.18313 -11.54087
Si 23.76062  7.46762 -11.54087
Si 23.76062 10.18313 -14.25638
Si 22.40287  6.10987 -10.18313
Si 25.11837  6.10987 -7.46763
Si 22.40287  8.82537 -7.46763
Si 25.11837  8.82537 -10.18313
Si 26.47612  7.46762 -8.82538
Si 26.47612 10.18313 -6.10987
Si 23.76062  7.46762 -6.10987
Si 23.76062 10.18313 -8.82538
Si 22.40287  6.10987 -4.75212
Si 25.11837  6.10987 -2.03662
Si 22.40287  8.82537 -2.03662
Si 25.11837  8.82537 -4.75212
Si 26.47612  7.46762 -3.39438
Si 26.47612 10.18313 -0.67887
Si 23.76062  7.46762 -0.67887
Si 23.76062 10.18313 -3.39438
Si 22.40287 11.54087 -15.61412
Si 25.11837 11.54087 -12.89863
Si 22.40287 14.25638 -12.89863
Si 25.11837 14.25638 -15.61412
Si 26.47612 12.89862 -14.25638
Si 26.47612 15.61413 -11.54087
Si 23.76062 12.89862 -11.54087
Si 23.76062 15.61413 -14.25638
Si 22.40287 11.54087 -10.18313
Si 25.11837 11.54087 -7.46763
Si 22.40287 14.25638 -7.46763
Si 25.11837 14.25638 -10.18313
Si 26.47612 12.89862 -8.82538
Si 26.47612 15.61413 -6.10987
Si 23.76062 12.89862 -6.10987
Si 23.76062 15.61413 -8.82538
Si 22.40287 11.54087 -4.75212
Si 25.11837 11.54087 -2.03662
Si 22.40287 14.25638 -2.03662
Si 25.11837 14.25638 -4.75212
Si 26.47612 12.89862 -3.39438
Si 26.47612 15.61413 -0.67887
Si 23.76062 12.89862 -0.67887
Si 23.76062 15.61413 -3.39438
Si 22.40287 16.97188 -15.61412
Si 25.11837 16.97188 -12.89863
Si 22.40287 19.68738 -12.89863
Si 25.11837 19.68738 -15.61412
Si 26.47612 18.32963 -14.25638
Si 26.47612 21.04512 -11.54087
Si 23.76062 18.32963 -11.54087
Si 23.76062 21.04512 -14.25638
Si 22.40287 16.97188 -10.18313
Si 25.11837 16.97188 -7.46763
Si 22.40287 19.68738 -7.46763
Si 25.11837 19.68738 -10.18313
Si 26.47612 18.32963 -8.82538
Si 26.47612 21.04512 -6.10987
Si 23.76062 18.32963 -6.10987
Si 23.76062 21.04512 -8.82538
Si 22.40287 16.97188 -4.75212
Si 25.11837 16.97188 -2.03662
Si 22.40287 19.68738 -2.03662
Si 25.11837 19.68738 -4.75212
Si 26.47612 18.32963 -3.39438
Si 26.47612 21.04512 -0.67887
Si 23.76062 18.32963 -0.67887
Si 23.76062 21.04512 -3.39438
Si 27.83387  0.67887 -15.61412
Si 30.54938  0.67887 -12.89863
Si 27.83387  3.39437 -12.89863
Si 30.54938  3.39437 -15.61412
Si 31.90712  2.03662 -14.25638
Si 31.90712  4.75212 -11.54087
Si 29.19162  2.03662 -11.54087
Si 29.19162  4.75212 -14.25638
Si 27.83387  0.67887 -10.18313
Si 30.54938  0.67887 -7.46763
Si 27.83387  3.39437 -7.46763
Si 30.54938  3.39437 -10.18313
Si 31.90712  2.03662 -8.82538
Si 31.90712  4.75212 -6.10987
Si 29.19162  2.03662 -6.10987
Si 29.19162  4.75212 -8.82538
Si 27.83387  0.67887 -4.75212
Si 30.54938  0.67887 -2.03662
Si 27.83387  3.39437 -2.03662
Si 30.54938  3.39437 -4.75212
Si 31.90712  2.03662 -3.39438
Si 31.90712  4.75212 -0.67887
Si 29.19162  2.03662 -0.67887
Si 29.19162  4.75212 -3.39438
Si 27.83387  6.10987 -15.61412
Si 30.54938  6.10987 -12.89863
Si 27.83387  8.82537 -12.89863
Si 30.54938  8.82537 -15.61412
Si 31.90712  7.46762 -14.25638
Si 31.90712 10.18313 -11.54087
Si 29.19162  7.46762 -11.54087
Si 29.19162 10.18313 -14.25638
Si 27.83387  6.10987 -10.18313
Si 30.54938  6.10987 -7.46763
Si 27.83387  8.82537 -7.46763
Si 30.54938  8.82537 -10.18313
Si 31.90712  7.46762 -8.82538
Si 31.90712 10.18313 -6.10987
Si 29.19162  7.46762 -6.10987
Si 29.19162 10.18313 -8.82538
Si 27.83387  6.10987 -4.75212
Si 30.54938  6.10987 -2.03662
Si 27.83387  8.82537 -2.03662
Si 30.54938  8.82537 -4.75212
Si 31.90712  7.46762 -3.39438
Si 31.90712 10.18313 -0.67887
Si 29.19162  7.46762 -0.67887
Si 29.19162 10.18313 -3.39438
Si 27.83387 11.54087 -15.61412
Si 30.54938 11.54087 -12.89863
Si 27.83387 14.25638 -12.89863
Si 30.54938 14.25638 -15.61412
Si 31.90712 12.89862 -14.25638
Si 31.90712 15.61413 -11.54087
Si 29.19162 12.89862 -11.54087
Si 29.19162 15.61413 -14.25638
Si 27.83387 11.54087 -10.18313
Si 30.54938 11.54087 -7.46763
Si 27.83387 14.25638 -7.46763
Si 30.54938 14.25638 -10.18313
Si 31.90712 12.89862 -8.82538
Si 31.90712 15.61413 -6.10987
Si 29.19162 12.89862 -6.10987
Si 29.19162 15.61413 -8.82538
Si 27.83387 11.54087 -4.75212
Si 30.54938 11.54087 -2.03662
Si 27.83387 14.25638 -2.03662
Si 30.54938 14.25638 -4.75212
Si 31.90712 12.89862 -3.39438
Si 31.90712 15.61413 -0.67887
Si 29.19162 12.89862 -0.67887
Si 29.19162 15.61413 -3.39438
Si 27.83387 16.97188 -15.61412
Si 30.54938 16.97188 -12.89863
Si 27.83387 19.68738 -12.89863
Si 30.54938 19.68738 -15.61412
Si 31.90712 18.32963 -14.25638
Si 31.90712 21.04512 -11.54087
Si 29.19162 18.32963 -11.54087
Si 29.19162 21.04512 -14.25638
Si 27.83387 16.97188 -10.18313
Si 30.54938 16.97188 -7.46763
Si 27.83387 19.68738 -7.46763
Si 30.54938 19.68738 -10.18313
Si 31.90712 18.32963 -8.82538
Si 31.90712 21.04512 -6.10987
Si 29.19162 18.32963 -6.10987
Si 29.19162 21.04512 -8.82538
Si 27.83387 16.97188 -4.75212
Si 30.54938 16.97188 -2.03662
Si 27.83387 19.68738 -2.03662
Si 30.54938 19.68738 -4.75212
Si 31.90712 18.32963 -3.39438
Si 31.90712 21.04512 -0.67887
Si 29.19162 18.32963 -0.67887
Si 29.19162 21.04512 -3.39438
Si 33.26487  0.67887 -15.61412
Si 35.98037  0.67887 -12.89863
Si 33.26487  3.39437 -12.89863
Si 35.98037  3.39437 -15.61412
Si 37.33813  2.03662 -14.25638
Si 37.33813  4.75212 -11.54087
Si 34.62262  2.03662 -11.54087
Si 34.62262  4.75212 -14.25638
Si 33.26487  0.67887 -10.18313
Si 35.98037  0.67887 -7.46763
Si 33.26487  3.39437 -7.46763
Si 35.98037  3.39437 -10.18313
Si 37.33813  2.03662 -8.82538
Si 37.33813  4.75212 -6.10987
Si 34.62262  2.03662 -6.10987
Si 34.62262  4.75212 -8.82538
Si 33.26487  0.67887 -4.75212
Si 35.98037  0.67887 -2.03662
Si 33.26487  3.39437 -2.03662
Si 35.98037  3.39437 -4.75212
Si 37.33813  2.03662 -3.39438
Si 37.33813  4.75212 -0.67887
Si 34.62262  2.03662 -0.67887
Si 34.62262  4.75212 -3.39438
Si 33.26487  6.10987 -15.61412
Si 35.98037  6.10987 -12.89863
Si 33.26487  8.82537 -12.89863
Si 35.98037  8.82537 -15.61412
Si 37.33813  7.46762 -14.25638
Si 37.33813 10.18313 -11.54087
Si 34.62262  7.46762 -11.54087
Si 34.62262 10.18313 -14.25638
Si 33.26487  6.10987 -10.18313
Si 35.98037  6.10987 -7.46763
Si 33.26487  8.82537 -7.46763
Si 35.98037  8.82537 -10.18313
Si 37.33813  7.46762 -8.82538
Si 37.33813 10.18313 -6.10987
Si 34.62262  7.46762 -6.10987
Si 34.62262 10.18313 -8.82538
Si 33.26487  6.10987 -4.75212
Si 35.98037  6.10987 -2.03662
Si 33.26487  8.82537 -2.03662
Si 35.98037  8.82537 -4.75212
Si 37.33813  7.46762 -3.39438
Si 37.33813 10.18313 -0.67887
Si 34.62262  7.46762 -0.67887
Si 34.62262 10.18313 -3.39438
Si 33.26487 11.54087 -15.61412
Si 35.98037 11.54087 -12.89863
Si 33.26487 14.25638 -12.89863
Si 35.98037 14.25638 -15.61412
Si 37.33813 12.89862 -14.25638
Si 37.33813 15.61413 -11.54087
Si 34.62262 12.89862 -11.54087
Si 34.62262 15.61413 -14.25638
Si 33.26487 11.54087 -10.18313
Si 35.98037 11.54087 -7.46763
Si 33.26487 14.25638 -7.46763
Si 35.98037 14.25638 -10.18313
Si 37.33813 12.89862 -8.82538
Si 37.33813 15.61413 -6.10987
Si 34.62262 12.89862 -6.10987
Si 34.62262 15.61413 -8.82538
Si 33.26487 11.54087 -4.75212
Si 35.98037 11.54087 -2.03662
Si 33.26487 14.25638 -2.03662
Si 35.98037 14.25638 -4.75212
Si 37.33813 12.89862 -3.39438
Si 37.33813 15.61413 -0.67887
Si 34.62262 12.89862 -0.67887
Si 34.62262 15.61413 -3.39438
Si 33.26487 16.97188 -15.61412
Si 35.98037 16.97188 -12.89863
Si 33.26487 19.68738 -12.89863
Si 35.98037 19.68738 -15.61412
Si 37.33813 18.32963 -14.25638
Si 37.33813 21.04512 -11.54087
Si 34.62262 18.32963 -11.54087
Si 34.62262 21.04512 -14.25638
Si 33.26487 16.97188 -10.18313
Si 35.98037 16.97188 -7.46763
Si 33.26487 19.68738 -7.46763
Si 35.98037 19.68738 -10.18313
Si 37.33813 18.32963 -8.82538
Si 37.33813 21.04512 -6.10987
Si 34.62262 18.32963 -6.10987
Si 34.62262 21.04512 -8.82538
Si 33.26487 16.97188 -4.75212
Si 35.98037 16.97188 -2.03662
Si 33.26487 19.68738 -2.03662
Si 35.98037 19.68738 -4.75212
Si 37.33813 18.32963 -3.39438
Si 37.33813 21.04512 -0.67887
Si 34.62262 18.32963 -0.67887
Si 34.62262 21.04512 -3.39438
Si 38.69588  0.67887 -15.61412
Si 41.41138  0.67887 -12.89863
Si 38.69588  3.39437 -12.89863
Si 41.41138  3.39437 -15.61412
Si 42.76913  2.03662 -14.25638
Si 42.76913  4.75212 -11.54087
Si 40.05362  2.03662 -11.54087
Si 40.05362  4.75212 -14.25638
Si 38.69588  0.67887 -10.18313
Si 41.41138  0.67887 -7.46763
Si 38.69588  3.39437 -7.46763
Si 41.41138  3.39437 -10.18313
Si 42.76913  2.03662 -8.82538
Si 42.76913  4.75212 -6.10987
Si 40.05362  2.03662 -6.10987
Si 40.05362  4.75212 -8.82538
Si 38.69588  0.67887 -4.75212
Si 41.41138  0.67887 -2.03662
Si 38.69588  3.39437 -2.03662
Si 41.41138  3.39437 -4.75212
Si 42.76913  2.03662 -3.39438
Si 42.76913  4.75212 -0.67887
Si 40.05362  2.03662 -0.67887
Si 40.05362  4.75212 -3.39438
Si 38.69588  6.10987 -15.61412
Si 41.41138  6.10987 -12.89863
Si 38.69588  8.82537 -12.89863
Si 41.41138  8.82537 -15.61412
Si 42.76913  7.46762 -14.25638
Si 42.76913 10.18313 -11.54087
Si 40.05362  7.46762 -11.54087
Si 40.05362 10.18313 -14.25638
Si 38.69588  6.10987 -10.18313
Si 41.41138  6.10987 -7.46763
Si 38.69588  8.82537 -7.46763
Si 41.41138  8.82537 -10.18313
Si 42.76913  7.46762 -8.82538
Si 42.76913 10.18313 -6.10987
Si 40.05362  7.46762 -6.10987
Si 40.05362 10.18313 -8.82538
Si 38.69588  6.10987 -4.75212
Si 41.41138  6.10987 -2.03662
Si 38.69588  8.82537 -2.03662
Si 41.41138  8.82537 -4.75212
Si 42.76913  7.46762 -3.39438
Si 42.76913 10.18313 -0.67887
Si 40.05362  7.46762 -0.67887
Si 40.05362 10.18313 -3.39438
Si 38.69588 11.54087 -15.61412
Si 41.41138 11.54087 -12.89863
Si 38.69588 14.25638 -12.89863
Si 41.41138 14.25638 -15.61412
Si 42.76913 12.89862 -14.25638
Si 42.76913 15.61413 -11.54087
Si 40.05362 12.89862 -11.54087
Si 40.05362 15.61413 -14.25638
Si 38.69588 11.54087 -10.18313
Si 41.41138 11.54087 -7.46763
Si 38.69588 14.25638 -7.46763
Si 41.41138 14.25638 -10.18313
Si 42.76913 12.89862 -8.82538
Si 42.76913 15.61413 -6.10987
Si 40.05362 12.89862 -6.10987
Si 40.05362 15.61413 -8.82538
Si 38.69588 11.54087 -4.75212
Si 41.41138 11.54087 -2.03662
Si 38.69588 14.25638 -2.03662
Si 41.41138 14.25638 -4.75212
Si 42.76913 12.89862 -3.39438
Si 42.76913 15.61413 -0.67887
Si 40.05362 12.89862 -0.67887
Si 40.05362 15.61413 -3.39438
Si 38.69588 16.97188 -15.61412
Si 41.41138 16.97188 -12.89863
Si 38.69588 19.68738 -12.89863
Si 41.41138 19.68738 -15.61412
Si 42.76913 18.32963 -14.25638
Si 42.76913 21.04512 -11.54087
Si 40.05362 18.32963 -11.54087
Si 40.05362 21.04512 -14.25638
Si 38.69588 16.97188 -10.18313
Si 41.41138 16.97188 -7.46763
Si 38.69588 19.68738 -7.46763
Si 41.41138 19.68738 -10.18313
Si 42.76913 18.32963 -8.82538
Si 42.76913 21.04512 -6.10987
Si 40.05362 18.32963 -6.10987
Si 40.05362 21.04512 -8.82538
Si 38.69588 16.97188 -4.75212
Si 41.41138 16.97188 -2.03662
Si 38.69588 19.68738 -2.03662
Si 41.41138 19.68738 -4.75212
Si 42.76913 18.32963 -3.39438
Si 42.76913 21.04512 -0.67887
Si 40.05362 18.32963 -0.67887
Si 40.05362 21.04512 -3.39438
Si 22.40287  0.67887  0.67888
Si 25.11837  0.67887  3.39437
Si 22.40287  3.39437  3.39437
Si 25.11837  3.39437  0.67888
Si 26.47612  2.03662  2.03662
Si 26.47612  4.75212  4.75213
Si 23.76062  2.03662  4.75213
Si 23.76062  4.75212  2.03662
Si 22.40287  0.67887  6.10987
Si 25.11837  0.67887  8.82537
Si 22.40287  3.39437  8.82537
Si 25.11837  3.39437  6.10987
Si 26.47612  2.03662  7.46762
Si 26.47612  4.75212 10.18313
Si 23.76062  2.03662 10.18313
Si 23.76062  4.75212  7.46762
Si 22.40287  0.67887 11.54087
Si 25.11837  0.67887 14.25638
Si 22.40287  3.39437 14.25638
Si 25.11837  3.39437 11.54087
Si 26.47612  2.03662 12.89862
Si 26.47612  4.75212 15.61413
Si 23.76062  2.03662 15.61413
Si 23.76062  4.75212 12.89862
Si 22.40287  6.10987  0.67888
Si 25.11837  6.10987  3.39437
Si 22.40287  8.82537  3.39437
Si 25.11837  8.82537  0.67888
Si 26.47612  7.46762  2.03662
Si 26.47612 10.18313  4.75213
Si 23.76062  7.46762  4.75213
Si 23.76062 10.18313  2.03662
Si 22.40287  6.10987  6.10987
Si 25.11837  6.10987  8.82537
Si 22.40287  8.82537  8.82537
Si 25.11837  8.82537  6.10987
Si 26.47612  7.46762  7.46762
Si 26.47612 10.18313 10.18313
Si 23.76062  7.46762 10.18313
Si 23.76062 10.18313  7.46762
Si 22.40287  6.10987 11.54087
Si 25.11837  6.10987 14.25638
Si 22.40287  8.82537 14.25638
Si 25.11837  8.82537 11.54087
Si 26.47612  7.46762 12.89862
Si 26.47612 10.18313 15.61413
Si 23.76062  7.46762 15.61413
Si 23.76062 10.18313 12.89862
Si 22.40287 11.54087  0.67888
Si 25.11837 11.54087  3.39437
Si 22.40287 14.25638  3.39437
Si 25.11837 14.25638  0.67888
Si 26.47612 12.89862  2.03662
Si 26.47612 15.61413  4.75213
Si 23.76062 12.89862  4.75213
Si 23.76062 15.61413  2.03662
Si 22.40287 11.54087  6.10987
Si 25.11837 11.54087  8.82537
Si 22.40287 14.25638  8.82537
Si 25.11837 14.25638  6.10987
Si 26.47612 12.89862  7.46762
Si 26.47612 15.61413 10.18313
Si 23.76062 12.89862 10.18313
Si 23.76062 15.61413  7.46762
Si 22.40287 11.54087 11.54087
Si 25.11837 11.54087 14.25638
Si 22.40287 14.25638 14.25638
Si 25.11837 14.25638 11.54087
Si 26.47612 12.89862 12.89862
Si 26.47612 15.61413 15.61413
Si 23.76062 12.89862 15.61413
Si 23.76062 15.61413 12.89862
Si 22.40287 16.97188  0.67888
Si 25.11837 16.97188  3.39437
Si 22.40287 19.68738  3.39437
Si 25.11837 19.68738  0.67888
Si 26.47612 18.32963  2.03662
Si 26.47612 21.04512  4.75213
Si 23.76062 18.32963  4.75213
Si 23.76062 21.04512  2.03662
Si 22.40287 16.97188  6.10987
Si 25.11837 16.97188  8.82537
Si 22.40287 19.68738  8.82537
Si 25.11837 19.68738  6.10987
Si 26.47612 18.32963  7.46762
Si 26.47612 21.04512 10.18313
Si 23.76062 18.32963 10.18313
Si 23.76062 21.04512  7.46762
Si 22.40287 16.97188 11.54087
Si 25.11837 16.97188 14.25638
Si 22.40287 19.68738 14.25638
Si 25.11837 19.68738 11.54087
Si 26.47612 18.32963 12.89862
Si 26.47612 21.04512 15.61413
Si 23.76062 18.32963 15.61413
Si 23.76062 21.04512 12.89862
Si 27.83387  0.67887  0.67888
Si 30.54938  0.67887  3.39437
Si 27.83387  3.39437  3.39437
Si 30.54938  3.39437  0.67888
Si 31.90712  2.03662  2.03662
Si 31.90712  4.75212  4.75213
Si 29.19162  2.03662  4.75213
Si 29.19162  4.75212  2.03662
Si 27.83387  0.67887  6.10987
Si 30.54938  0.67887  8.82537
Si 27.83387  3.39437  8.82537
Si 30.54938  3.39437  6.10987
Si 31.90712  2.03662  7.46762
Si 31.90712  4.75212 10.18313
Si 29.19162  2.03662 10.18313
Si 29.19162  4.75212  7.46762
Si 27.83387  0.67887 11.54087
Si 30.54938  0.67887 14.25638
Si 27.83387  3.39437 14.25638
Si 30.54938  3.39437 11.54087
Si 31.90712  2.03662 12.89862
Si 31.90712  4.75212 15.61413
Si 29.19162  2.03662 15.61413
Si 29.19162  4.75212 12.89862
Si 27.83387  6.10987  0.67888
Si 30.54938  6.10987  3.39437
Si 27.83387  8.82537  3.39437
Si 30.54938  8.82537  0.67888
Si 31.90712  7.46762  2.03662
Si 31.90712 10.18313  4.75213
Si 29.19162  7.46762  4.75213
Si 29.19162 10.18313  2.03662
Si 27.83387  6.10987  6.10987
Si 30.54938  6.10987  8.82537
Si 27.83387  8.82537  8.82537
Si 30.54938  8.82537  6.10987
Si 31.90712  7.46762  7.46762
Si 31.90712 10.18313 10.18313
Si 29.19162  7.46762 10.18313
Si 29.19162 10.18313  7.46762
Si 27.83387  6.10987 11.54087
Si 30.54938  6.10987 14.25638
Si 27.83387  8.82537 14.25638
Si 30.54938  8.82537 11.54087
Si 31.90712  7.46762 12.89862
Si 31.90712 10.18313 15.61413
Si 29.19162  7.46762 15.61413
Si 29.19162 10.18313 12.89862
Si 27.83387 11.54087  0.67888
Si 30.54938 11.54087  3.39437
Si 27.83387 14.25638  3.39437
Si 30.54938 14.25638  0.67888
Si 31.90712 12.89862  2.03662
Si 31.90712 15.61413  4.75213
Si 29.19162 12.89862  4.75213
Si 29.19162 15.61413  2.03662
Si 27.83387 11.54087  6.10987
Si 30.54938 11.54087  8.82537
Si 27.83387 14.25638  8.82537
Si 30.54938 14.25638  6.10987
Si 31.90712 12.89862  7.46762
Si 31.90712 15.61413 10.18313
Si 29.19162 12.89862 10.18313
Si 29.19162 15.61413  7.46762
Si 27.83387 11.54087 11.54087
Si 30.54938 11.54087 14.25638
Si 27.83387 14.25638 14.25638
Si 30.54938 14.25638 11.54087
Si 31.90712 12.89862 12.89862
Si 31.90712 15.61413 15.61413
Si 29.19162 12.89862 15.61413
Si 29.19162 15.61413 12.89862
Si 27.83387 16.97188  0.67888
Si 30.54938 16.97188  3.39437
Si 27.83387 19.68738  3.39437
Si 30.54938 19.68738  0.67888
Si 31.90712 18.32963  2.03662
Si 31.90712 21.04512  4.75213
Si 29.19162 18.32963  4.75213
Si 29.19162 21.04512  2.03662
Si 27.83387 16.97188  6.10987
Si 30.54938 16.97188  8.82537
Si 27.83387 19.68738  8.82537
Si 30.54938 19.68738  6.10987
Si 31.90712 18.32963  7.46762
Si 31.90712 21.04512 10.18313
Si 29.19162 18.32963 10.18313
Si 29.19162 21.04512  7.46762
Si 27.83387 16.97188 11.54087
Si 30.54938 16.97188 14.25638
Si 27.83387 19.68738 14.25638
Si 30.54938 19.68738 11.54087
Si 31.90712 18.32963 12.89862
Si 31.90712 21.04512 15.61413
Si 29.19162 18.32963 15.61413
Si 29.19162 21.04512 12.89862
Si 33.26487  0.67887  0.67888
Si 35.98037  0.67887  3.39437
Si 33.26487  3.39437  3.39437
Si 35.98037  3.39437  0.67888
Si 37.33813  2.03662  2.03662
Si 37.33813  4.75212  4.75213
Si 34.62262  2.03662  4.75213
Si 34.62262  4.75212  2.03662
Si 33.26487  0.67887  6.10987
Si 35.98037  0.67887  8.82537
Si 33.26487  3.39437  8.82537
Si 35.98037  3.39437  6.10987
Si 37.33813  2.03662  7.46762
Si 37.33813  4.75212 10.18313
Si 34.62262  2.03662 10.18313
Si 34.62262  4.75212  7.46762
Si 33.26487  0.67887 11.54087
Si 35.98037  0.67887 14.25638
Si 33.26487  3.39437 14.25638
Si 35.98037  3.39437 11.54087
Si 37.33813  2.03662 12.89862
Si 37.33813  4.75212 15.61413
Si 34.62262  2.03662 15.61413
Si 34.62262  4.75212 12.89862
Si 33.26487  6.10987  0.67888
Si 35.98037  6.10987  3.39437
Si 33.26487  8.82537  3.39437
Si 35.98037  8.82537  0.67888
Si 37.33813  7.46762  2.03662
Si 37.33813 10.18313  4.75213
Si 34.62262  7.46762  4.75213
Si 34.62262 10.18313  2.03662
Si 33.26487  6.10987  6.10987
Si 35.98037  6.10987  8.82537
Si 33.26487  8.82537  8.82537
Si 35.98037  8.82537  6.10987
Si 37.33813  7.46762  7.46762
Si 37.33813 10.18313 10.18313
Si 34.62262  7.46762 10.18313
Si 34.62262 10.18313  7.46762
Si 33.26487  6.10987 11.54087
Si 35.98037  6.10987 14.25638
Si 33.26487  8.82537 14.25638
Si 35.98037  8.82537 11.54087
Si 37.33813  7.46762 12.89862
Si 37.33813 10.18313 15.61413
Si 34.62262  7.46762 15.61413
Si 34.62262 10.18313 12.89862
Si 33.26487 11.54087  0.67888
Si 35.98037 11.54087  3.39437
Si 33.26487 14.25638  3.39437
Si 35.98037 14.25638  0.67888
Si 37.33813 12.89862  2.03662
Si 37.33813 15.61413  4.75213
Si 34.62262 12.89862  4.75213
Si 34.62262 15.61413  2.03662
Si 33.26487 11.54087  6.10987
Si 35.98037 11.54087  8.82537
Si 33.26487 14.25638  8.82537
Si 35.98037 14.25638  6.10987
Si 37.33813 12.89862  7.46762
Si 37.33813 15.61413 10.18313
Si 34.62262 12.89862 10.18313
Si 34.62262 15.61413  7.46762
Si 33.26487 11.54087 11.54087
Si 35.98037 11.54087 14.25638
Si 33.26487 14.25638 14.25638
Si 35.98037 14.25638 11.54087
Si 37.33813 12.89862 12.89862
Si 37.33813 15.61413 15.61413
Si 34.62262 12.89862 15.61413
Si 34.62262 15.61413 12.89862
Si 33.26487 16.97188  0.67888
Si 35.98037 16.97188  3.39437
Si 33.26487 19.68738  3.39437
Si 35.98037 19.68738  0.67888
Si 37.33813 18.32963  2.03662
Si 37.33813 21.04512  4.75213
Si 34.62262 18.32963  4.75213
Si 34.62262 21.04512  2.03662
Si 33.26487 16.97188  6.10987
Si 35.98037 16.97188  8.82537
Si 33.26487 19.68738  8.82537
Si 35.98037 19.68738  6.10987
Si 37.33813 18.32963  7.46762
Si 37.33813 21.04512 10.18313
Si 34.62262 18.32963 10.18313
Si 34.62262 21.04512  7.46762
Si 33.26487 16.97188 11.54087
Si 35.98037 16.97188 14.25638
Si 33.26487 19.68738 14.25638
Si 35.98037 19.68738 11.54087
Si 37.33813 18.32963 12.89862
Si 37.33813 21.04512 15.61413
Si 34.62262 18.32963 15.61413
Si 34.62262 21.04512 12.89862
Si 38.69588  0.67887  0.67888
Si 41.41138  0.67887  3.39437
Si 38.69588  3.39437  3.39437
Si 41.41138  3.39437  0.67888
Si 42.76913  2.03662  2.03662
Si 42.76913  4.75212  4.75213
Si 40.05362  2.03662  4.75213
Si 40.05362  4.75212  2.03662
Si 38.69588  0.67887  6.10987
Si 41.41138  0.67887  8.82537
Si 38.69588  3.39437  8.82537
Si 41.41138  3.39437  6.10987
Si 42.76913  2.03662  7.46762
Si 42.76913  4.75212 10.18313
Si 40.05362  2.03662 10.18313
Si 40.05362  4.75212  7.46762
Si 38.69588  0.67887 11.54087
Si 41.41138  0.67887 14.25638
Si 38.69588  3.39437 14.25638
Si 41.41138  3.39437 11.54087
Si 42.76913  2.03662 12.89862
Si 42.76913  4.75212 15.61413
Si 40.05362  2.03662 15.61413
Si 40.05362  4.75212 12.89862
Si 38.69588  6.10987  0.67888
Si 41.41138  6.10987  3.39437
Si 38.69588  8.82537  3.39437
Si 41.41138  8.82537  0.67888
Si 42.76913  7.46762  2.03662
Si 42.76913 10.18313  4.75213
Si 40.05362  7.46762  4.75213
Si 40.05362 10.18313  2.03662
Si 38.69588  6.10987  6.10987
Si 41.41138  6.10987  8.82537
Si 38.69588  8.82537  8.82537
Si 41.41138  8.82537  6.10987
Si 42.76913  7.46762  7.46762
Si 42.76913 10.18313 10.18313
Si 40.05362  7.46762 10.18313
Si 40.05362 10.18313  7.46762
Si 38.69588  6.10987 11.54087
Si 41.41138  6.10987 14.25638
Si 38.69588  8.82537 14.25638
Si 41.41138  8.82537 11.54087
Si 42.76913  7.46762 12.89862
Si 42.76913 10.18313 15.61413
Si 40.05362  7.46762 15.61413
Si 40.05362 10.18313 12.89862
Si 38.69588 11.54087  0.67888
Si 41.41138 11.54087  3.39437
Si 38.69588 14.25638  3.39437
Si 41.41138 14.25638  0.67888
Si 42.76913 12.89862  2.03662
Si 42.76913 15.61413  4.75213
Si 40.05362 12.89862  4.75213
Si 40.05362 15.61413  2.03662
Si 38.69588 11.54087  6.10987
Si 41.41138 11.54087  8.82537
Si 38.69588 14.25638  8.82537
Si 41.41138 14.25638  6.10987
Si 42.76913 12.89862  7.46762
Si 42.76913 15.61413 10.18313
Si 40.05362 12.89862 10.18313
Si 40.05362 15.61413  7.46762
Si 38.69588 11.54087 11.54087
Si 41.41138 11.54087 14.25638
Si 38.69588 14.25638 14.25638
Si 41.41138 14.25638 11.54087
Si 42.76913 12.89862 12.89862
Si 42.76913 15.61413 15.61413
Si 40.05362 12.89862 15.61413
Si 40.05362 15.61413 12.89862
Si 38.69588 16.97188  0.67888
Si 41.41138 16.97188  3.39437
Si 38.69588 19.68738  3.39437
Si 41.41138 19.68738  0.67888
Si 42.76913 18.32963  2.03662
Si 42.76913 21.04512  4.75213
Si 40.05362 18.32963  4.75213
Si 40.05362 21.04512  2.03662
Si 38.69588 16.97188  6.10987
Si 41.41138 16.97188  8.82537
Si 38.69588 19.68738  8.82537
Si 41.41138 19.68738  6.10987
Si 42.76913 18.32963  7.46762
Si 42.76913 21.04512 10.18313
Si 40.05362 18.32963 10.18313
Si 40.05362 21.04512  7.46762
Si 38.69588 16.97188 11.54087
Si 41.41138 16.97188 14.25638
Si 38.69588 19.68738 14.25638
Si 41.41138 19.68738 11.54087
Si 42.76913 18.32963 12.89862
Si 42.76913 21.04512 15.61413
Si 40.05362 18.32963 15.61413
Si 40.05362 21.04512 12.89862
Si 22.40287  0.67887 16.97188
Si 25.11837  0.67887 19.68737
Si 22.40287  3.39437 19.68737
Si 25.11837  3.39437 16.97188
Si 26.47612  2.03662 18.32963
Si 26.47612  4.75212 21.04513
Si 23.76062  2.03662 21.04513
Si 23.76062  4.75212 18.32963
Si 22.40287  0.67887 22.40287
Si 25.11837  0.67887 25.11837
Si 22.40287  3.39437 25.11837
Si 25.11837  3.39437 22.40287
Si 26.47612  2.03662 23.76062
Si 26.47612  4.75212 26.47612
Si 23.76062  2.03662 26.47612
Si 23.76062  4.75212 23.76062
Si 22.40287  0.67887 27.83388
Si 25.11837  0.67887 30.54938
Si 22.40287  3.39437 30.54938
Si 25.11837  3.39437 27.83388
Si 26.47612  2.03662 29.19162
Si 26.47612  4.75212 31.90713
Si 23.76062  2.03662 31.90713
Si 23.76062  4.75212 29.19162
Si 22.40287  6.10987 16.97188
Si 25.11837  6.10987 19.68737
Si 22.40287  8.82537 19.68737
Si 25.11837  8.82537 16.97188
Si 26.47612  7.46762 18.32963
Si 26.47612 10.18313 21.04513
Si 23.76062  7.46762 21.04513
Si 23.76062 10.18313 18.32963
Si 22.40287  6.10987 22.40287
Si 25.11837  6.10987 25.11837
Si 22.40287  8.82537 25.11837
Si 25.11837  8.82537 22.40287
Si 26.47612  7.46762 23.76062
Si 26.47612 10.18313 26.47612
Si 23.76062  7.46762 26.47612
Si 23.76062 10.18313 23.76062
Si 22.40287  6.10987 27.83388
Si 25.11837  6.10987 30.54938
Si 22.40287  8.82537 30.54938
Si 25.11837  8.82537 27.83388
Si 26.47612  7.46762 29.19162
Si 26.47612 10.18313 31.90713
Si 23.76062  7.46762 31.90713
Si 23.76062 10.18313 29.19162
Si 22.40287 11.54087 16.97188
Si 25.11837 11.54087 19.68737
Si 22.40287 14.25638 19.68737
Si 25.11837 14.25638 16.97188
Si 26.47612 12.89862 18.32963
Si 26.47612 15.61413 21.04513
Si 23.76062 12.89862 21.04513
Si 23.76062 15.61413 18.32963
Si 22.40287 11.54087 22.40287
Si 25.11837 11.54087 25.11837
Si 22.40287 14.25638 25.11837
Si 25.11837 14.25638 22.40287
Si 26.47612 12.89862 23.76062
Si 26.47612 15.61413 26.47612
Si 23.76062 12.89862 26.47612
Si 23.76062 15.61413 23.76062
Si 22.40287 11.54087 27.83388
Si 25.11837 11.54087 30.54938
Si 22.40287 14.25638 30.54938
Si 25.11837 14.25638 27.83388
Si 26.47612 12.89862 29.19162
Si 26.47612 15.61413 31.90713
Si 23.76062 12.89862 31.90713
Si 23.76062 15.61413 29.19162
Si 22.40287 16.97188 16.97188
Si 25.11837 16.97188 19.68737
Si 22.40287 19.68738 19.68737
Si 25.11837 19.68738 16.97188
Si 26.47612 18.32963 18.32963
Si 26.47612 21.04512 21.04513
Si 23.76062 18.32963 21.04513
Si 23.76062 21.04512 18.32963
Si 22.40287 16.97188 22.40287
Si 25.11837 16.97188 25.11837
Si 22.40287 19.68738 25.11837
Si 25.11837 19.68738 22.40287
Si 26.47612 18.32963 23.76062
Si 26.47612 21.04512 26.47612
Si 23.76062 18.32963 26.47612
Si 23.76062 21.04512 23.76062
Si 22.40287 16.97188 27.83388
Si 25.11837 16.97188 30.54938
Si 22.40287 19.68738 30.54938
Si 25.11837 19.68738 27.83388
Si 26.47612 18.32963 29.19162
Si 26.47612 21.04512 31.90713
Si 23.76062 18.32963 31.90713
Si 23.76062 21.04512 29.19162
Si 27.83387  0.67887 16.97188
Si 30.54938  0.67887 19.68737
Si 27.83387  3.39437 19.68737
Si 30.54938  3.39437 16.97188
Si 31.90712  2.03662 18.32963
Si 31.90712  4.75212 21.04513
Si 29.19162  2.03662 21.04513
Si 29.19162  4.75212 18.32963
Si 27.83387  0.67887 22.40287
Si 30.54938  0.67887 25.11837
Si 27.83387  3.39437 25.11837
Si 30.54938  3.39437 22.40287
Si 31.90712  2.03662 23.76062
Si 31.90712  4.75212 26.47612
Si 29.19162  2.03662 26.47612
Si 29.19162  4.75212 23.76062
Si 27.83387  0.67887 27.83388
Si 30.54938  0.67887 30.54938
Si 27.83387  3.39437 30.54938
Si 30.54938  3.39437 27.83388
Si 31.90712  2.03662 29.19162
Si 31.90712  4.75212 31.90713
Si 29.19162  2.03662 31.90713
Si 29.19162  4.75212 29.19162
Si 27.83387  6.10987 16.97188
Si 30.54938  6.10987 19.68737
Si 27.83387  8.82537 19.68737
Si 30.54938  8.82537 16.97188
Si 31.90712  7.46762 18.32963
Si 31.90712 10.18313 21.04513
Si 29.19162  7.46762 21.04513
Si 29.19162 10.18313 18.32963
Si 27.83387  6.10987 22.40287
Si 30.54938  6.10987 25.11837
Si 27.83387  8.82537 25.11837
Si 30.54938  8.82537 22.40287
Si 31.90712  7.46762 23.76062
Si 31.90712 10.18313 26.47612
Si 29.19162  7.46762 26.47612
Si 29.19162 10.18313 23.76062
Si 27.83387  6.10987 27.83388
Si 30.54938  6.10987 30.54938
Si 27.83387  8.82537 30.54938
Si 30.54938  8.82537 27.83388
Si 31.90712  7.46762 29.19162
Si 31.90712 10.18313 31.90713
Si 29.19162  7.46762 31.90713
Si 29.19162 10.18313 29.19162
Si 27.83387 11.54087 16.97188
Si 30.54938 11.54087 19.68737
Si 27.83387 14.25638 19.68737
Si 30.54938 14.25638 16.97188
Si 31.90712 12.89862 18.32963
Si 31.90712 15.61413 21.04513
Si 29.19162 12.89862 21.04513
Si 29.19162 15.61413 18.32963
Si 27.83387 11.54087 22.40287
Si 30.54938 11.54087 25.11837
Si 27.83387 14.25638 25.11837
Si 30.54938 14.25638 22.40287
Si 31.90712 12.89862 23.76062
Si 31.90712 15.61413 26.47612
Si 29.19162 12.89862 26.47612
Si 29.19162 15.61413 23.76062
Si 27.83387 11.54087 27.83388
Si 30.54938 11.54087 30.54938
Si 27.83387 14.25638 30.54938
Si 30.54938 14.25638 27.83388
Si 31.90712 12.89862 29.19162
Si 31.90712 15.61413 31.90713
Si 29.19162 12.89862 31.90713
Si 29.19162 15.61413 29.19162
Si 27.83387 16.97188 16.97188
Si 30.54938 16.97188 19.68737
Si 27.83387 19.68738 19.68737
Si 30.54938 19.68738 16.97188
Si 31.90712 18.32963 18.32963
Si 31.90712 21.04512 21.04513
Si 29.19162 18.32963 21.04513
Si 29.19162 21.04512 18.32963
Si 27.83387 16.97188 22.40287
Si 30.54938 16.97188 25.11837
Si 27.83387 19.68738 25.11837
Si 30.54938 19.68738 22.40287
Si 31.90712 18.32963 23.76062
Si 31.90712 21.04512 26.47612
Si 29.19162 18.32963 26.47612
Si 29.19162 21.04512 23.76062
Si 27.83387 16.97188 27.83388
Si 30.54938 16.97188 30.54938
Si 27.83387 19.68738 30.54938
Si 30.54938 19.68738 27.83388
Si 31.90712 18.32963 29.19162
Si 31.90712 21.04512 31.90713
Si 29.19162 18.32963 31.90713
Si 29.19162 21.04512 29.19162
Si 33.26487  0.67887 16.97188
Si 35.98037  0.67887 19.68737
Si 33.26487  3.39437 19.68737
Si 35.98037  3.39437 16.97188
Si 37.33813  2.03662 18.32963
Si 37.33813  4.75212 21.04513
Si 34.62262  2.03662 21.04513
Si 34.62262  4.75212 18.32963
Si 33.26487  0.67887 22.40287
Si 35.98037  0.67887 25.11837
Si 33.26487  3.39437 25.11837
Si 35.98037  3.39437 22.40287
Si 37.33813  2.03662 23.76062
Si 37.33813  4.75212 26.47612
Si 34.62262  2.03662 26.47612
Si 34.62262  4.75212 23.76062
Si 33.26487  0.67887 27.83388
Si 35.98037  0.67887 30.54938
Si 33.26487  3.39437 30.54938
Si 35.98037  3.39437 27.83388
Si 37.33813  2.03662 29.19162
Si 37.33813  4.75212 31.90713
Si 34.62262  2.03662 31.90713
Si 34.62262  4.75212 29.19162
Si 33.26487  6.10987 16.97188
Si 35.98037  6.10987 19.68737
Si 33.26487  8.82537 19.68737
Si 35.98037  8.82537 16.97188
Si 37.33813  7.46762 18.32963
Si 37.33813 10.18313 21.04513
Si 34.62262  7.46762 21.04513
Si 34.62262 10.18313 18.32963
Si 33.26487  6.10987 22.40287
Si 35.98037  6.10987 25.11837
Si 33.26487  8.82537 25.11837
Si 35.98037  8.82537 22.40287
Si 37.33813  7.46762 23.76062
Si 37.33813 10.18313 26.47612
Si 34.62262  7.46762 26.47612
Si 34.62262 10.18313 23.76062
Si 33.26487  6.10987 27.83388
Si 35.98037  6.10987 30.54938
Si 33.26487  8.82537 30.54938
Si 35.98037  8.82537 27.83388
Si 37.33813  7.46762 29.19162
Si 37.33813 10.18313 31.90713
Si 34.62262  7.46762 31.90713
Si 34.62262 10.18313 29.19162
Si 33.26487 11.54087 16.97188
Si 35.98037 11.54087 19.68737
Si 33.26487 14.25638 19.68737
Si 35.98037 14.25638 16.97188
Si 37.33813 12.89862 18.32963
Si 37.33813 15.61413 21.04513
Si 34.62262 12.89862 21.04513
Si 34.62262 15.61413 18.32963
Si 33.26487 11.54087 22.40287
Si 35.98037 11.54087 25.11837
Si 33.26487 14.25638 25.11837
Si 35.98037 14.25638 22.40287
Si 37.33813 12.89862 23.76062
Si 37.33813 15.61413 26.47612
Si 34.62262 12.89862 26.47612
Si 34.62262 15.61413 23.76062
Si 33.26487 11.54087 27.83388
Si 35.98037 11.54087 30.54938
Si 33.26487 14.25638 30.54938
Si 35.98037 14.25638 27.83388
Si 37.33813 12.89862 29.19162
Si 37.33813 15.61413 31.90713
Si 34.62262 12.89862 31.90713
Si 34.62262 15.61413 29.19162
Si 33.26487 16.97188 16.97188
Si 35.98037 16.97188 19.68737
Si 33.26487 19.68738 19.68737
Si 35.98037 19.68738 16.97188
Si 37.33813 18.32963 18.32963
Si 37.33813 21.04512 21.04513
Si 34.62262 18.32963 21.04513
Si 34.62262 21.04512 18.32963
Si 33.26487 16.97188 22.40287
Si 35.98037 16.97188 25.11837
Si 33.26487 19.68738 25.11837
Si 35.98037 19.68738 22.40287
Si 37.33813 18.32963 23.76062
Si 37.33813 21.04512 26.47612
Si 34.62262 18.32963 26.47612
Si 34.62262 21.04512 23.76062
Si 33.26487 16.97188 27.83388
Si 35.98037 16.97188 30.54938
Si 33.26487 19.68738 30.54938
Si 35.98037 19.68738 27.83388
Si 37.33813 18.32963 29.19162
Si 37.33813 21.04512 31.90713
Si 34.62262 18.32963 31.90713
Si 34.62262 21.04512 29.19162
Si 38.69588  0.67887 16.97188
Si 41.41138  0.67887 19.68737
Si 38.69588  3.39437 19.68737
Si 41.41138  3.39437 16.97188
Si 42.76913  2.03662 18.32963
Si 42.76913  4.75212 21.04513
Si 40.05362  2.03662 21.04513
Si 40.05362  4.75212 18.32963
Si 38.69588  0.67887 22.40287
Si 41.41138  0.67887 25.11837
Si 38.69588  3.39437 25.11837
Si 41.41138  3.39437 22.40287
Si 42.76913  2.03662 23.76062
Si 42.76913  4.75212 26.47612
Si 40.05362  2.03662 26.47612
Si 40.05362  4.75212 23.76062
Si 38.69588  0.67887 27.83388
Si 41.41138  0.67887 30.54938
Si 38.69588  3.39437 30.54938
Si 41.41138  3.39437 27.83388
Si 42.76913  2.03662 29.19162
Si 42.76913  4.75212 31.90713
Si 40.05362  2.03662 31.90713
Si 40.05362  4.75212 29.19162
Si 38.69588  6.10987 16.97188
Si 41.41138  6.10987 19.68737
Si 38.69588  8.82537 19.68737
Si 41.41138  8.82537 16.97188
Si 42.76913  7.46762 18.32963
Si 42.76913 10.18313 21.04513
Si 40.05362  7.46762 21.04513
Si 40.05362 10.18313 18.32963
Si 38.69588  6.10987 22.40287
Si 41.41138  6.10987 25.11837
Si 38.69588  8.82537 25.11837
Si 41.41138  8.82537 22.40287
Si 42.76913  7.46762 23.76062
Si 42.76913 10.18313 26.47612
Si 40.05362  7.46762 26.47612
Si 40.05362 10.18313 23.76062
Si 38.69588  6.10987 27.83388
Si 41.41138  6.10987 30.54938
Si 38.69588  8.82537 30.54938
Si 41.41138  8.82537 27.83388
Si 42.76913  7.46762 29.19162
Si 42.76913 10.18313 31.90713
Si 40.05362  7.46762 31.90713
Si 40.05362 10.18313 29.19162
Si 38.69588 11.54087 16.97188
Si 41.41138 11.54087 19.68737
Si 38.69588 14.25638 19.68737
Si 41.41138 14.25638 16.97188
Si 42.76913 12.89862 18.32963
Si 42.76913 15.61413 21.04513
Si 40.05362 12.89862 21.04513
Si 40.05362 15.61413 18.32963
Si 38.69588 11.54087 22.40287
Si 41.41138 11.54087 25.11837
Si 38.69588 14.25638 25.11837
Si 41.41138 14.25638 22.40287
Si 42.76913 12.89862 23.76062
Si 42.76913 15.61413 26.47612
Si 40.05362 12.89862 26.47612
Si 40.05362 15.61413 23.76062
Si 38.69588 11.54087 27.83388
Si 41.41138 11.54087 30.54938
Si 38.69588 14.25638 30.54938
Si 41.41138 14.25638 27.83388
Si 42.76913 12.89862 29.19162
Si 42.76913 15.61413 31.90713
Si 40.05362 12.89862 31.90713
Si 40.05362 15.61413 29.19162
Si 38.69588 16.97188 16.97188
Si 41.41138 16.97188 19.68737
Si 38.69588 19.68738 19.68737
Si 41.41138 19.68738 16.97188
Si 42.76913 18.32963 18.32963
Si 42.76913 21.04512 21.04513
Si 40.05362 18.32963 21.04513
Si 40.05362 21.04512 18.32963
Si 38.69588 16.97188 22.40287
Si 41.41138 16.97188 25.11837
Si 38.69588 19.68738 25.11837
Si 41.41138 19.68738 22.40287
Si 42.76913 18.32963 23.76062
Si 42.76913 21.04512 26.47612
Si 40.05362 18.32963 26.47612
Si 40.05362 21.04512 23.76062
Si 38.69588 16.97188 27.83388
Si 41.41138 16.97188 30.54938
Si 38.69588 19.68738 30.54938
Si 41.41138 19.68738 27.83388
Si 42.76913 18.32963 29.19162
Si 42.76913 21.04512 31.90713
Si 40.05362 18.32963 31.90713
Si 40.05362 21.04512 29.19162
Si 22.40287 22.40287 -15.61412
Si 25.11837 22.40287 -12.89863
Si 22.40287 25.11837 -12.89863
Si 25.11837 25.11837 -15.61412
Si 26.47612 23.76062 -14.25638
Si 26.47612 26.47612 -11.54087
Si 23.76062 23.76062 -11.54087
Si 23.76062 26.47612 -14.25638
Si 22.40287 22.40287 -10.18313
Si 25.11837 22.40287 -7.46763
Si 22.40287 25.11837 -7.46763
Si 25.11837 25.11837 -10.18313
Si 26.47612 23.76062 -8.82538
Si 26.47612 26.47612 -6.10987
Si 23.76062 23.76062 -6.10987
Si 23.76062 26.47612 -8.82538
Si 22.40287 22.40287 -4.75212
Si 25.11837 22.40287 -2.03662
Si 22.40287 25.11837 -2.03662
Si 25.11837 25.11837 -4.75212
Si 26.47612 23.76062 -3.39438
Si 26.47612 26.47612 -0.67887
Si 23.76062 23.76062 -0.67887
Si 23.76062 26.47612 -3.39438
Si 22.40287 27.83387 -15.61412
Si 25.11837 27.83387 -12.89863
Si 22.40287 30.54938 -12.89863
Si 25.11837 30.54938 -15.61412
Si 26.47612 29.19162 -14.25638
Si 26.47612 31.90712 -11.54087
Si 23.76062 29.19162 -11.54087
Si 23.76062 31.90712 -14.25638
Si 22.40287 27.83387 -10.18313
Si 25.11837 27.83387 -7.46763
Si 22.40287 30.54938 -7.46763
Si 25.11837 30.54938 -10.18313
Si 26.47612 29.19162 -8.82538
Si 26.47612 31.90712 -6.10987
Si 23.76062 29.19162 -6.10987
Si 23.76062 31.90712 -8.82538
Si 22.40287 27.83387 -4.75212
Si 25.11837 27.83387 -2.03662
Si 22.40287 30.54938 -2.03662
Si 25.11837 30.54938 -4.75212
Si 26.47612 29.19162 -3.39438
Si 26.47612 31.90712 -0.67887
Si 23.76062 29.19162 -0.67887
Si 23.76062 31.90712 -3.39438
Si 22.40287 33.26487 -15.61412
Si 25.11837 33.26487 -12.89863
Si 22.40287 35.98037 -12.89863
Si 25.11837 35.98037 -15.61412
Si 26.47612 34.62262 -14.25638
Si 26.47612 37.33813 -11.54087
Si 23.76062 34.62262 -11.54087
Si 23.76062 37.33813 -14.25638
Si 22.40287 33.26487 -10.18313
Si 25.11837 33.26487 -7.46763
Si 22.40287 35.98037 -7.46763
Si 25.11837 35.98037 -10.18313
Si 26.47612 34.62262 -8.82538
Si 26.47612 37.33813 -6.10987
Si 23.76062 34.62262 -6.10987
Si 23.76062 37.33813 -8.82538
Si 22.40287 33.26487 -4.75212
Si 25.11837 33.26487 -2.03662
Si 22.40287 35.98037 -2.03662
Si 25.11837 35.98037 -4.75212
Si 26.47612 34.62262 -3.39438
Si 26.47612 37.33813 -0.67887
Si 23.76062 34.62262 -0.67887
Si 23.76062 37.33813 -3.39438
Si 22.40287 38.69588 -15.61412
Si 25.11837 38.69588 -12.89863
Si 22.40287 41.41138 -12.89863
Si 25.11837 41.41138 -15.61412
Si 26.47612 40.05362 -14.25638
Si 26.47612 42.76913 -11.54087
Si 23.76062 40.05362 -11.54087
Si 23.76062 42.76913 -14.25638
Si 22.40287 38.69588 -10.18313
Si 25.11837 38.69588 -7.46763
Si 22.40287 41.41138 -7.46763
Si 25.11837 41.41138 -10.18313
Si 26.47612 40.05362 -8.82538
Si 26.47612 42.76913 -6.10987
Si 23.76062 40.05362 -6.10987
Si 23.76062 42.76913 -8.82538
Si 22.40287 38.69588 -4.75212
Si 25.11837 38.69588 -2.03662
Si 22.40287 41.41138 -2.03662
Si 25.11837 41.41138 -4.75212
Si 26.47612 40.05362 -3.39438
Si 26.47612 42.76913 -0.67887
Si 23.76062 40.05362 -0.67887
Si 23.76062 42.76913 -3.39438
Si 27.83387 22.40287 -15.61412
Si 30.54938 22.40287 -12.89863
Si 27.83387 25.11837 -12.89863
Si 30.54938 25.11837 -15.61412
Si 31.90712 23.76062 -14.25638
Si 31.90712 26.47612 -11.54087
Si 29.19162 23.76062 -11.54087
Si 29.19162 26.47612 -14.25638
Si 27.83387 22.40287 -10.18313
Si 30.54938 22.40287 -7.46763
Si 27.83387 25.11837 -7.46763
Si 30.54938 25.11837 -10.18313
Si 31.90712 23.76062 -8.82538
Si 31.90712 26.47612 -6.10987
Si 29.19162 23.76062 -6.10987
Si 29.19162 26.47612 -8.82538
Si 27.83387 22.40287 -4.75212
Si 30.54938 22.40287 -2.03662
Si 27.83387 25.11837 -2.03662
Si 30.54938 25.11837 -4.75212
Si 31.90712 23.76062 -3.39438
Si 31.90712 26.47612 -0.67887
Si 29.19162 23.76062 -0.67887
Si 29.19162 26.47612 -3.39438
Si 27.83387 27.83387 -15.61412
Si 30.54938 27.83387 -12.89863
Si 27.83387 30.54938 -12.89863
Si 30.54938 30.54938 -15.61412
Si 31.90712 29.19162 -14.25638
Si 31.90712 31.90712 -11.54087
Si 29.19162 29.19162 -11.54087
Si 29.19162 31.90712 -14.25638
Si 27.83387 27.83387 -10.18313
Si 30.54938 27.83387 -7.46763
Si 27.83387 30.54938 -7.46763
Si 30.54938 30.54938 -10.18313
Si 31.90712 29.19162 -8.82538
Si 31.90712 31.90712 -6.10987
Si 29.19162 29.19162 -6.10987
Si 29.19162 31.90712 -8.82538
Si 27.83387 27.83387 -4.75212
Si 30.54938 27.83387 -2.03662
Si 27.83387 30.54938 -2.03662
Si 30.54938 30.54938 -4.75212
Si 31.90712 29.19162 -3.39438
Si 31.90712 31.90712 -0.67887
Si 29.19162 29.19162 -0.67887
Si 29.19162 31.90712 -3.39438
Si 27.83387 33.26487 -15.61412
Si 30.54938 33.26487 -12.89863
Si 27.83387 35.98037 -12.89863
Si 30.54938 35.98037 -15.61412
Si 31.90712 34.62262 -14.25638
Si 31.90712 37.33813 -11.54087
Si 29.19162 34.62262 -11.54087
Si 29.19162 37.33813 -14.25638
Si 27.83387 33.26487 -10.18313
Si 30.54938 33.26487 -7.46763
Si 27.83387 35.98037 -7.46763
Si 30.54938 35.98037 -10.18313
Si 31.90712 34.62262 -8.82538
Si 31.90712 37.33813 -6.10987
Si 29.19162 34.62262 -6.10987
Si 29.19162 37.33813 -8.82538
Si 27.83387 33.26487 -4.75212
Si 30.54938 33.26487 -2.03662
Si 27.83387 35.98037 -2.03662
Si 30.54938 35.98037 -4.75212
Si 31.90712 34.62262 -3.39438
Si 31.90712 37.33813 -0.67887
Si 29.19162 34.62262 -0.67887
Si 29.19162 37.33813 -3.39438
Si 27.83387 38.69588 -15.61412
Si 30.54938 38.69588 -12.89863
Si 27.83387 41.41138 -12.89863
Si 30.54938 41.41138 -15.61412
Si 31.90712 40.05362 -14.25638
Si 31.90712 42.76913 -11.54087
Si 29.19162 40.05362 -11.54087
Si 29.19162 42.76913 -14.25638
Si 27.83387 38.69588 -10.18313
Si 30.54938 38.69588 -7.46763
Si 27.83387 41.41138 -7.46763
Si 30.54938 41.41138 -10.18313
Si 31.90712 40.05362 -8.82538
Si 31.90712 42.76913 -6.10987
Si 29.19162 40.05362 -6.10987
Si 29.19162 42.76913 -8.82538
Si 27.83387 38.69588 -4.75212
Si 30.54938 38.69588 -2.03662
Si 27.83387 41.41138 -2.03662
Si 30.54938 41.41138 -4.75212
Si 31.90712 40.05362 -3.39438
Si 31.90712 42.76913 -0.67887
Si 29.19162 40.05362 -0.67887
Si 29.19162 42.76913 -3.39438
Si 33.26487 22.40287 -15.61412
Si 35.98037 22.40287 -12.89863
Si 33.26487 25.11837 -12.89863
Si 35.98037 25.11837 -15.61412
Si 37.33813 23.76062 -14.25638
Si 37.33813 26.47612 -11.54087
Si 34.62262 23.76062 -11.54087
Si 34.62262 26.47612 -14.25638
Si 33.26487 22.40287 -10.18313
Si 35.98037 22.40287 -7.46763
Si 33.26487 25.11837 -7.46763
Si 35.98037 25.11837 -10.18313
Si 37.33813 23.76062 -8.82538
Si 37.33813 26.47612 -6.10987
Si 34.62262 23.76062 -6.10987
Si 34.62262 26.47612 -8.82538
Si 33.26487 22.40287 -4.75212
Si 35.98037 22.40287 -2.03662
Si 33.26487 25.11837 -2.03662
Si 35.98037 25.11837 -4.75212
Si 37.33813 23.76062 -3.39438
Si 37.33813 26.47612 -0.67887
Si 34.62262 23.76062 -0.67887
Si 34.62262 26.47612 -3.39438
Si 33.26487 27.83387 -15.61412
Si 35.98037 27.83387 -12.89863
Si 33.26487 30.54938 -12.89863
Si 35.98037 30.54938 -15.61412
Si 37.33813 29.19162 -14.25638
Si 37.33813 31.90712 -11.54087
Si 34.62262 29.19162 -11.54087
Si 34.62262 31.90712 -14.25638
Si 33.26487 27.83387 -10.18313
Si 35.98037 27.83387 -7.46763
Si 33.26487 30.54938 -7.46763
Si 35.98037 30.54938 -10.18313
Si 37.33813 29.19162 -8.82538
Si 37.33813 31.90712 -6.10987
Si 34.62262 29.19162 -6.10987
Si 34.62262 31.90712 -8.82538
Si 33.26487 27.83387 -4.75212
Si 35.98037 27.83387 -2.03662
Si 33.26487 30.54938 -2.03662
Si 35.98037 30.54938 -4.75212
Si 37.33813 29.19162 -3.39438
Si 37.33813 31.90712 -0.67887
Si 34.62262 29.19162 -0.67887
Si 34.62262 31.90712 -3.39438
Si 33.26487 33.26487 -15.61412
Si 35.98037 33.26487 -12.89863
Si 33.26487 35.98037 -12.89863
Si 35.98037 35.98037 -15.61412
Si 37.33813 34.62262 -14.25638
Si 37.33813 37.33813 -11.54087
Si 34.62262 34.62262 -11.54087
Si 34.62262 37.33813 -14.25638
Si 33.26487 33.26487 -10.18313
Si 35.98037 33.26487 -7.46763
Si 33.26487 35.98037 -7.46763
Si 35.98037 35.98037 -10.18313
Si 37.33813 34.62262 -8.82538
Si 37.33813 37.33813 -6.10987
Si 34.62262 34.62262 -6.10987
Si 34.62262 37.33813 -8.82538
Si 33.26487 33.26487 -4.75212
Si 35.98037 33.26487 -2.03662
Si 33.26487 35.98037 -2.03662
Si 35.98037 35.98037 -4.75212
Si 37.33813 34.62262 -3.39438
Si 37.33813 37.33813 -0.67887
Si 34.62262 34.62262 -0.67887
Si 34.62262 37.33813 -3.39438
Si 33.26487 38.69588 -15.61412
Si 35.98037 38.69588 -12.89863
Si 33.26487 41.41138 -12.89863
Si 35.98037 41.41138 -15.61412
Si 37.33813 40.05362 -14.25638
Si 37.33813 42.76913 -11.54087
Si 34.62262 40.05362 -11.54087
Si 34.62262 42.76913 -14.25638
Si 33.26487 38.69588 -10.18313
Si 35.98037 38.69588 -7.46763
Si 33.26487 41.41138 -7.46763
Si 35.98037 41.41138 -10.18313
Si 37.33813 40.05362 -8.82538
Si 37.33813 42.76913 -6.10987
Si 34.62262 40.05362 -6.10987
Si 34.62262 42.76913 -8.82538
Si 33.26487 38.69588 -4.75212
Si 35.98037 38.69588 -2.03662
Si 33.26487 41.41138 -2.03662
Si 35.98037 41.41138 -4.75212
Si 37.33813 40.05362 -3.39438
Si 37.33813 42.76913 -0.67887
Si 34.62262 40.05362 -0.67887
Si 34.62262 42.76913 -3.39438
Si 38.69588 22.40287 -15.61412
Si 41.41138 22.40287 -12.89863
Si 38.69588 25.11837 -12.89863
Si 41.41138 25.11837 -15.61412
Si 42.76913 23.76062 -14.25638
Si 42.76913 26.47612 -11.54087
Si 40.05362 23.76062 -11.54087
Si 40.05362 26.47612 -14.25638
Si 38.69588 22.40287 -10.18313
Si 41.41138 22.40287 -7.46763
Si 38.69588 25.11837 -7.46763
Si 41.41138 25.11837 -10.18313
Si 42.76913 23.76062 -8.82538
Si 42.76913 26.47612 -6.10987
Si 40.05362 23.76062 -6.10987
Si 40.05362 26.47612 -8.82538
Si 38.69588 22.40287 -4.75212
Si 41.41138 22.40287 -2.03662
Si 38.69588 25.11837 -2.03662
Si 41.41138 25.11837 -4.75212
Si 42.76913 23.76062 -3.39438
Si 42.76913 26.47612 -0.67887
Si 40.05362 23.76062 -0.67887
Si 40.05362 26.47612 -3.39438
Si 38.69588 27.83387 -15.61412
Si 41.41138 27.83387 -12.89863
Si 38.69588 30.54938 -12.89863
Si 41.41138 30.54938 -15.61412
Si 42.76913 29.19162 -14.25638
Si 42.76913 31.90712 -11.54087
Si 40.05362 29.19162 -11.54087
Si 40.05362 31.90712 -14.25638
Si 38.69588 27.83387 -10.18313
Si 41.41138 27.83387 -7.46763
Si 38.69588 30.54938 -7.46763
Si 41.41138 30.54938 -10.18313
Si 42.76913 29.19162 -8.82538
Si 42.76913 31.90712 -6.10987
Si 40.05362 29.19162 -6.10987
Si 40.05362 31.90712 -8.82538
Si 38.69588 27.83387 -4.75212
Si 41.41138 27.83387 -2.03662
Si 38.69588 30.54938 -2.03662
Si 41.41138 30.54938 -4.75212
Si 42.76913 29.19162 -3.39438
Si 42.76913 31.90712 -0.67887
Si 40.05362 29.19162 -0.67887
Si 40.05362 31.90712 -3.39438
Si 38.69588 33.26487 -15.61412
Si 41.41138 33.26487 -12.89863
Si 38.69588 35.98037 -12.89863
Si 41.41138 35.98037 -15.61412
Si 42.76913 34.62262 -14.25638
Si 42.76913 37.33813 -11.54087
Si 40.05362 34.62262 -11.54087
Si 40.05362 37.33813 -14.25638
Si 38.69588 33.26487 -10.18313
Si 41.41138 33.26487 -7.46763
Si 38.69588 35.98037 -7.46763
Si 41.41138 35.98037 -10.18313
Si 42.76913 34.62262 -8.82538
Si 42.76913 37.33813 -6.10987
Si 40.05362 34.62262 -6.10987
Si 40.05362 37.33813 -8.82538
Si 38.69588 33.26487 -4.75212
Si 41.41138 33.26487 -2.03662
Si 38.69588 35.98037 -2.03662
Si 41.41138 35.98037 -4.75212
Si 42.76913 34.62262 -3.39438
Si 42.76913 37.33813 -0.67887
Si 40.05362 34.62262 -0.67887
Si 40.05362 37.33813 -3.39438
Si 38.69588 38.69588 -15.61412
Si 41.41138 38.69588 -12.89863
Si 38.69588 41.41138 -12.89863
Si 41.41138 41.41138 -15.61412
Si 42.76913 40.05362 -14.25638
Si 42.76913 42.76913 -11.54087
Si 40.05362 40.05362 -11.54087
Si 40.05362 42.76913 -14.25638
Si 38.69588 38.69588 -10.18313
Si 41.41138 38.69588 -7.46763
Si 38.69588 41.41138 -7.46763
Si 41.41138 41.41138 -10.18313
Si 42.76913 40.05362 -8.82538
Si 42.76913 42.76913 -6.10987
Si 40.05362 40.05362 -6.10987
Si 40.05362 42.76913 -8.82538
Si 38.69588 38.69588 -4.75212
Si 41.41138 38.69588 -2.03662
Si 38.69588 41.41138 -2.03662
Si 41.41138 41.41138 -4.75212
Si 42.76913 40.05362 -3.39438
Si 42.76913 42.76913 -0.67887
Si 40.05362 40.05362 -0.67887
Si 40.05362 42.76913 -3.39438
Si 22.40287 22.40287  0.67888
Si 25.11837 22.40287  3.39437
Si 22.40287 25.11837  3.39437
Si 25.11837 25.11837  0.67888
Si 26.47612 23.76062  2.03662
Si 26.47612 26.47612  4.75213
Si 23.76062 23.76062  4.75213
Si 23.76062 26.47612  2.03662
Si 22.40287 22.40287  6.10987
Si 25.11837 22.40287  8.82537
Si 22.40287 25.11837  8.82537
Si 25.11837 25.11837  6.10987
Si 26.47612 23.76062  7.46762
Si 26.47612 26.47612 10.18313
Si 23.76062 23.76062 10.18313
Si 23.76062 26.47612  7.46762
Si 22.40287 22.40287 11.54087
Si 25.11837 22.40287 14.25638
Si 22.40287 25.11837 14.25638
Si 25.11837 25.11837 11.54087
Si 26.47612 23.76062 12.89862
Si 26.47612 26.47612 15.61413
Si 23.76062 23.76062 15.61413
Si 23.76062 26.47612 12.89862
Si 22.40287 27.83387  0.67888
Si 25.11837 27.83387  3.39437
Si 22.40287 30.54938  3.39437
Si 25.11837 30.54938  0.67888
Si 26.47612 29.19162  2.03662
Si 26.47612 31.90712  4.75213
Si 23.76062 29.19162  4.75213
Si 23.76062 31.90712  2.03662
Si 22.40287 27.83387  6.10987
Si 25.11837 27.83387  8.82537
Si 22.40287 30.54938  8.82537
Si 25.11837 30.54938  6.10987
Si 26.47612 29.19162  7.46762
Si 26.47612 31.90712 10.18313
Si 23.76062 29.19162 10.18313
Si 23.76062 31.90712  7.46762
Si 22.40287 27.83387 11.54087
Si 25.11837 27.83387 14.25638
Si 22.40287 30.54938 14.25638
Si 25.11837 30.54938 11.54087
Si 26.47612 29.19162 12.89862
Si 26.47612 31.90712 15.61413
Si 23.76062 29.19162 15.61413
Si 23.76062 31.90712 12.89862
Si 22.40287 33.26487  0.67888
Si 25.11837 33.26487  3.39437
Si 22.40287 35.98037  3.39437
Si 25.11837 35.98037  0.67888
Si 26.47612 34.62262  2.03662
Si 26.47612 37.33813  4.75213
Si 23.76062 34.62262  4.75213
Si 23.76062 37.33813  2.03662
Si 22.40287 33.26487  6.10987
Si 25.11837 33.26487  8.82537
Si 22.40287 35.98037  8.82537
Si 25.11837 35.98037  6.10987
Si 26.47612 34.62262  7.46762
Si 26.47612 37.33813 10.18313
Si 23.76062 34.62262 10.18313
Si 23.76062 37.33813  7.46762
Si 22.40287 33.26487 11.54087
Si 25.11837 33.26487 14.25638
Si 22.40287 35.98037 14.25638
Si 25.11837 35.98037 11.54087
Si 26.47612 34.62262 12.89862
Si 26.47612 37.33813 15.61413
Si 23.76062 34.62262 15.61413
Si 23.76062 37.33813 12.89862
Si 22.40287 38.69588  0.67888
Si 25.11837 38.69588  3.39437
Si 22.40287 41.41138  3.39437
Si 25.11837 41.41138  0.67888
Si 26.47612 40.05362  2.03662
Si 26.47612 42.76913  4.75213
Si 23.76062 40.05362  4.75213
Si 23.76062 42.76913  2.03662
Si 22.40287 38.69588  6.10987
Si 25.11837 38.69588  8.82537
Si 22.40287 41.41138  8.82537
Si 25.11837 41.41138  6.10987
Si 26.47612 40.05362  7.46762
Si 26.47612 42.76913 10.18313
Si 23.76062 40.05362 10.18313
Si 23.76062 42.76913  7.46762
Si 22.40287 38.69588 11.54087
Si 25.11837 38.69588 14.25638
Si 22.40287 41.41138 14.25638
Si 25.11837 41.41138 11.54087
Si 26.47612 40.05362 12.89862
Si 26.47612 42.76913 15.61413
Si 23.76062 40.05362 15.61413
Si 23.76062 42.76913 12.89862
Si 27.83387 22.40287  0.67888
Si 30.54938 22.40287  3.39437
Si 27.83387 25.11837  3.39437
Si 30.54938 25.11837  0.67888
Si 31.90712 23.76062  2.03662
Si 31.90712 26.47612  4.75213
Si 29.19162 23.76062  4.75213
Si 29.19162 26.47612  2.03662
Si 27.83387 22.40287  6.10987
Si 30.54938 22.40287  8.82537
Si 27.83387 25.11837  8.82537
Si 30.54938 25.11837  6.10987
Si 31.90712 23.76062  7.46762
Si 31.90712 26.47612 10.18313
Si 29.19162 23.76062 10.18313
Si 29.19162 26.47612  7.46762
Si 27.83387 22.40287 11.54087
Si 30.54938 22.40287 14.25638
Si 27.83387 25.11837 14.25638
Si 30.54938 25.11837 11.54087
Si 31.90712 23.76062 12.89862
Si 31.90712 26.47612 15.61413
Si 29.19162 23.76062 15.61413
Si 29.19162 26.47612 12.89862
Si 27.83387 27.83387  0.67888
Si 30.54938 27.83387  3.39437
Si 27.83387 30.54938  3.39437
Si 30.54938 30.54938  0.67888
Si 31.90712 29.19162  2.03662
Si 31.90712 31.90712  4.75213
Si 29.19162 29.19162  4.75213
Si 29.19162 31.90712  2.03662
Si 27.83387 27.83387  6.10987
Si 30.54938 27.83387  8.82537
Si 27.83387 30.54938  8.82537
Si 30.54938 30.54938  6.10987
Si 31.90712 29.19162  7.46762
Si 31.90712 31.90712 10.18313
Si 29.19162 29.19162 10.18313
Si 29.19162 31.90712  7.46762
Si 27.83387 27.83387 11.54087
Si 30.54938 27.83387 14.25638
Si 27.83387 30.54938 14.25638
Si 30.54938 30.54938 11.54087
Si 31.90712 29.19162 12.89862
Si 31.90712 31.90712 15.61413
Si 29.19162 29.19162 15.61413
Si 29.19162 31.90712 12.89862
Si 27.83387 33.26487  0.67888
Si 30.54938 33.26487  3.39437
Si 27.83387 35.98037  3.39437
Si 30.54938 35.98037  0.67888
Si 31.90712 34.62262  2.03662
Si 31.90712 37.33813  4.75213
Si 29.19162 34.62262  4.75213
Si 29.19162 37.33813  2.03662
Si 27.83387 33.26487  6.10987
Si 30.54938 33.26487  8.82537
Si 27.83387 35.98037  8.82537
Si 30.54938 35.98037  6.10987
Si 31.90712 34.62262  7.46762
Si 31.90712 37.33813 10.18313
Si 29.19162 34.62262 10.18313
Si 29.19162 37.33813  7.46762
Si 27.83387 33.26487 11.54087
Si 30.54938 33.26487 14.25638
Si 27.83387 35.98037 14.25638
Si 30.54938 35.98037 11.54087
Si 31.90712 34.62262 12.89862
Si 31.90712 37.33813 15.61413
Si 29.19162 34.62262 15.61413
Si 29.19162 37.33813 12.89862
Si 27.83387 38.69588  0.67888
Si 30.54938 38.69588  3.39437
Si 27.83387 41.41138  3.39437
Si 30.54938 41.41138  0.67888
Si 31.90712 40.05362  2.03662
Si 31.90712 42.76913  4.75213
Si 29.19162 40.05362  4.75213
Si 29.19162 42.76913  2.03662
Si 27.83387 38.69588  6.10987
Si 30.54938 38.69588  8.82537
Si 27.83387 41.41138  8.82537
Si 30.54938 41.41138  6.10987
Si 31.90712 40.05362  7.46762
Si 31.90712 42.76913 10.18313
Si 29.19162 40.05362 10.18313
Si 29.19162 42.76913  7.46762
Si 27.83387 38.69588 11.54087
Si 30.54938 38.69588 14.25638
Si 27.83387 41.41138 14.25638
Si 30.54938 41.41138 11.54087
Si 31.90712 40.05362 12.89862
Si 31.90712 42.76913 15.61413
Si 29.19162 40.05362 15.61413
Si 29.19162 42.76913 12.89862
Si 33.26487 22.40287  0.67888
Si 35.98037 22.40287  3.39437
Si 33.26487 25.11837  3.39437
Si 35.98037 25.11837  0.67888
Si 37.33813 23.76062  2.03662
Si 37.33813 26.47612  4.75213
Si 34.62262 23.76062  4.75213
Si 34.62262 26.47612  2.03662
Si 33.26487 22.40287  6.10987
Si 35.98037 22.40287  8.82537
Si 33.26487 25.11837  8.82537
Si 35.98037 25.11837  6.10987
Si 37.33813 23.76062  7.46762
Si 37.33813 26.47612 10.18313
Si 34.62262 23.76062 10.18313
Si 34.62262 26.47612  7.46762
Si 33.26487 22.40287 11.54087
Si 35.98037 22.40287 14.25638
Si 33.26487 25.11837 14.25638
Si 35.98037 25.11837 11.54087
Si 37.33813 23.76062 12.89862
Si 37.33813 26.47612 15.61413
Si 34.62262 23.76062 15.61413
Si 34.62262 26.47612 12.89862
Si 33.26487 27.83387  0.67888
Si 35.98037 27.83387  3.39437
Si 33.26487 30.54938  3.39437
Si 35.98037 30.54938  0.67888
Si 37.33813 29.19162  2.03662
Si 37.33813 31.90712  4.75213
Si 34.62262 29.19162  4.75213
Si 34.62262 31.90712  2.03662
Si 33.26487 27.83387  6.10987
Si 35.98037 27.83387  8.82537
Si 33.26487 30.54938  8.82537
Si 35.98037 30.54938  6.10987
Si 37.33813 29.19162  7.46762
Si 37.33813 31.90712 10.18313
Si 34.62262 29.19162 10.18313
Si 34.62262 31.90712  7.46762
Si 33.26487 27.83387 11.54087
Si 35.98037 27.83387 14.25638
Si 33.26487 30.54938 14.25638
Si 35.98037 30.54938 11.54087
Si 37.33813 29.19162 12.89862
Si 37.33813 31.90712 15.61413
Si 34.62262 29.19162 15.61413
Si 34.62262 31.90712 12.89862
Si 33.26487 33.26487  0.67888
Si 35.98037 33.26487  3.39437
Si 33.26487 35.98037  3.39437
Si 35.98037 35.98037  0.67888
Si 37.33813 34.62262  2.03662
Si 37.33813 37.33813  4.75213
Si 34.62262 34.62262  4.75213
Si 34.62262 37.33813  2.03662
Si 33.26487 33.26487  6.10987
Si 35.98037 33.26487  8.82537
Si 33.26487 35.98037  8.82537
Si 35.98037 35.98037  6.10987
Si 37.33813 34.62262  7.46762
Si 37.33813 37.33813 10.18313
Si 34.62262 34.62262 10.18313
Si 34.62262 37.33813  7.46762
Si 33.26487 33.26487 11.54087
Si 35.98037 33.26487 14.25638
Si 33.26487 35.98037 14.25638
Si 35.98037 35.98037 11.54087
Si 37.33813 34.62262 12.89862
Si 37.33813 37.33813 15.61413
Si 34.62262 34.62262 15.61413
Si 34.62262 37.33813 12.89862
Si 33.26487 38.69588  0.67888
Si 35.98037 38.69588  3.39437
Si 33.26487 41.41138  3.39437
Si 35.98037 41.41138  0.67888
Si 37.33813 40.05362  2.03662
Si 37.33813 42.76913  4.75213
Si 34.62262 40.05362  4.75213
Si 34.62262 42.76913  2.03662
Si 33.26487 38.69588  6.10987
Si 35.98037 38.69588  8.82537
Si 33.26487 41.41138  8.82537
Si 35.98037 41.41138  6.10987
Si 37.33813 40.05362  7.46762
Si 37.33813 42.76913 10.18313
Si 34.62262 40.05362 10.18313
Si 34.62262 42.76913  7.46762
Si 33.26487 38.69588 11.54087
Si 35.98037 38.69588 14.25638
Si 33.26487 41.41138 14.25638
Si 35.98037 41.41138 11.54087
Si 37.33813 40.05362 12.89862
Si 37.33813 42.76913 15.61413
Si 34.62262 40.05362 15.61413
Si 34.62262 42.76913 12.89862
Si 38.69588 22.40287  0.67888
Si 41.41138 22.40287  3.39437
Si 38.69588 25.11837  3.39437
Si 41.41138 25.11837  0.67888
Si 42.76913 23.76062  2.03662
Si 42.76913 26.47612  4.75213
Si 40.05362 23.76062  4.75213
Si 40.05362 26.47612  2.03662
Si 38.69588 22.40287  6.10987
Si 41.41138 22.40287  8.82537
Si 38.69588 25.11837  8.82537
Si 41.41138 25.11837  6.10987
Si 42.76913 23.76062  7.46762
Si 42.76913 26.47612 10.18313
Si 40.05362 23.76062 10.18313
Si 40.05362 26.47612  7.46762
Si 38.69588 22.40287 11.54087
Si 41.41138 22.40287 14.25638
Si 38.69588 25.11837 14.25638
Si 41.41138 25.11837 11.54087
Si 42.76913 23.76062 12.89862
Si 42.76913 26.47612 15.61413
Si 40.05362 23.76062 15.61413
Si 40.05362 26.47612 12.89862
Si 38.69588 27.83387  0.67888
Si 41.41138 27.83387  3.39437
Si 38.69588 30.54938  3.39437
Si 41.41138 30.54938  0.67888
Si 42.76913 29.19162  2.03662
Si 42.76913 31.90712  4.75213
Si 40.05362 29.19162  4.75213
Si 40.05362 31.90712  2.03662
Si 38.69588 27.83387  6.10987
Si 41.41138 27.83387  8.82537
Si 38.69588 30.54938  8.82537
Si 41.41138 30.54938  6.10987
Si 42.76913 29.19162  7.46762
Si 42.76913 31.90712 10.18313
Si 40.05362 29.19162 10.18313
Si 40.05362 31.90712  7.46762
Si 38.69588 27.83387 11.54087
Si 41.41138 27.83387 14.25638
Si 38.69588 30.54938 14.25638
Si 41.41138 30.54938 11.54087
Si 42.76913 29.19162 12.89862
Si 42.76913 31.90712 15.61413
Si 40.05362 29.19162 15.61413
Si 40.05362 31.90712 12.89862
Si 38.69588 33.26487  0.67888
Si 41.41138 33.26487  3.39437
Si 38.69588 35.98037  3.39437
Si 41.41138 35.98037  0.67888
Si 42.76913 34.62262  2.03662
Si 42.76913 37.33813  4.75213
Si 40.05362 34.62262  4.75213
Si 40.05362 37.33813  2.03662
Si 38.69588 33.26487  6.10987
Si 41.41138 33.26487  8.82537
Si 38.69588 35.98037  8.82537
Si 41.41138 35.98037  6.10987
Si 42.76913 34.62262  7.46762
Si 42.76913 37.33813 10.18313
Si 40.05362 34.62262 10.18313
Si 40.05362 37.33813  7.46762
Si 38.69588 33.26487 11.54087
Si 41.41138 33.26487 14.25638
Si 38.69588 35.98037 14.25638
Si 41.41138 35.98037 11.54087
Si 42.76913 34.62262 12.89862
Si 42.76913 37.33813 15.61413
Si 40.05362 34.62262 15.61413
Si 40.05362 37.33813 12.89862
Si 38.69588 38.69588  0.67888
Si 41.41138 38.69588  3.39437
Si 38.69588 41.41138  3.39437
Si 41.41138 41.41138  0.67888
Si 42.76913 40.05362  2.03662
Si 42.76913 42.76913  4.75213
Si 40.05362 40.05362  4.75213
Si 40.05362 42.76913  2.03662
Si 38.69588 38.69588  6.10987
Si 41.41138 38.69588  8.82537
Si 38.69588 41.41138  8.82537
Si 41.41138 41.41138  6.10987
Si 42.76913 40.05362  7.46762
Si 42.76913 42.76913 10.18313
Si 40.05362 40.05362 10.18313
Si 40.05362 42.76913  7.46762
Si 38.69588 38.69588 11.54087
Si 41.41138 38.69588 14.25638
Si 38.69588 41.41138 14.25638
Si 41.41138 41.41138 11.54087
Si 42.76913 40.05362 12.89862
Si 42.76913 42.76913 15.61413
Si 40.05362 40.05362 15.61413
Si 40.05362 42.76913 12.89862
Si 22.40287 22.40287 16.97188
Si 25.11837 22.40287 19.68737
Si 22.40287 25.11837 19.68737
Si 25.11837 25.11837 16.97188
Si 26.47612 23.76062 18.32963
Si 26.47612 26.47612 21.04513
Si 23.76062 23.76062 21.04513
Si 23.76062 26.47612 18.32963
Si 22.40287 22.40287 22.40287
Si 25.11837 22.40287 25.11837
Si 22.40287 25.11837 25.11837
Si 25.11837 25.11837 22.40287
Si 26.47612 23.76062 23.76062
Si 26.47612 26.47612 26.47612
Si 23.76062 23.76062 26.47612
Si 23.76062 26.47612 23.76062
Si 22.40287 22.40287 27.83388
Si 25.11837 22.40287 30.54938
Si 22.40287 25.11837 30.54938
Si 25.11837 25.11837 27.83388
Si 26.47612 23.76062 29.19162
Si 26.47612 26.47612 31.90713
Si 23.76062 23.76062 31.90713
Si 23.76062 26.47612 29.19162
Si 22.40287 27.83387 16.97188
Si 25.11837 27.83387 19.68737
Si 22.40287 30.54938 19.68737
Si 25.11837 30.54938 16.97188
Si 26.47612 29.19162 18.32963
Si 26.47612 31.90712 21.04513
Si 23.76062 29.19162 21.04513
Si 23.76062 31.90712 18.32963
Si 22.40287 27.83387 22.40287
Si 25.11837 27.83387 25.11837
Si 22.40287 30.54938 25.11837
Si 25.11837 30.54938 22.40287
Si 26.47612 29.19162 23.76062
Si 26.47612 31.90712 26.47612
Si 23.76062 29.19162 26.47612
Si 23.76062 31.90712 23.76062
Si 22.40287 27.83387 27.83388
Si 25.11837 27.83387 30.54938
Si 22.40287 30.54938 30.54938
Si 25.11837 30.54938 27.83388
Si 26.47612 29.19162 29.19162
Si 26.47612 31.90712 31.90713
Si 23.76062 29.19162 31.90713
Si 23.76062 31.90712 29.19162
Si 22.40287 33.26487 16.97188
Si 25.11837 33.26487 19.68737
Si 22.40287 35.98037 19.68737
Si 25.11837 35.98037 16.97188
Si 26.47612 34.62262 18.32963
Si 26.47612 37.33813 21.04513
Si 23.76062 34.62262 21.04513
Si 23.76062 37.33813 18.32963
Si 22.40287 33.26487 22.40287
Si 25.11837 33.26487 25.11837
Si 22.40287 35.98037 25.11837
Si 25.11837 35.98037 22.40287
Si 26.47612 34.62262 23.76062
Si 26.47612 37.33813 26.47612
Si 23.76062 34.62262 26.47612
Si 23.76062 37.33813 23.76062
Si 22.40287 33.26487 27.83388
Si 25.11837 33.26487 30.54938
Si 22.40287 35.98037 30.54938
Si 25.11837 35.98037 27.83388
Si 26.47612 34.62262 29.19162
Si 26.47612 37.33813 31.90713
Si 23.76062 34.62262 31.90713
Si 23.76062 37.33813 29.19162
Si 22.40287 38.69588 16.97188
Si 25.11837 38.69588 19.68737
Si 22.40287 41.41138 19.68737
Si 25.11837 41.41138 16.97188
Si 26.47612 40.05362 18.32963
Si 26.47612 42.76913 21.04513
Si 23.76062 40.05362 21.04513
Si 23.76062 42.76913 18.32963
Si 22.40287 38.69588 22.40287
Si 25.11837 38.69588 25.11837
Si 22.40287 41.41138 25.11837
Si 25.11837 41.41138 22.40287
Si 26.47612 40.05362 23.76062
Si 26.47612 42.76913 26.47612
Si 23.76062 40.05362 26.47612
Si 23.76062 42.76913 23.76062
Si 22.40287 38.69588 27.83388
Si 25.11837 38.69588 30.54938
Si 22.40287 41.41138 30.54938
Si 25.11837 41.41138 27.83388
Si 26.47612 40.05362 29.19162
Si 26.47612 42.76913 31.90713
Si 23.76062 40.05362 31.90713
Si 23.76062 42.76913 29.19162
Si 27.83387 22.40287 16.97188
Si 30.54938 22.40287 19.68737
Si 27.83387 25.11837 19.68737
Si 30.54938 25.11837 16.97188
Si 31.90712 23.76062 18.32963
Si 31.90712 26.47612 21.04513
Si 29.19162 23.76062 21.04513
Si 29.19162 26.47612 18.32963
Si 27.83387 22.40287 22.40287
Si 30.54938 22.40287 25.11837
Si 27.83387 25.11837 25.11837
Si 30.54938 25.11837 22.40287
Si 31.90712 23.76062 23.76062
Si 31.90712 26.47612 26.47612
Si 29.19162 23.76062 26.47612
Si 29.19162 26.47612 23.76062
Si 27.83387 22.40287 27.83388
Si 30.54938 22.40287 30.54938
Si 27.83387 25.11837 30.54938
Si 30.54938 25.11837 27.83388
Si 31.90712 23.76062 29.19162
Si 31.90712 26.47612 31.90713
Si 29.19162 23.76062 31.90713
Si 29.19162 26.47612 29.19162
Si 27.83387 27.83387 16.97188
Si 30.54938 27.83387 19.68737
Si 27.83387 30.54938 19.68737
Si 30.54938 30.54938 16.97188
Si 31.90712 29.19162 18.32963
Si 31.90712 31.90712 21.04513
Si 29.19162 29.19162 21.04513
Si 29.19162 31.90712 18.32963
Si 27.83387 27.83387 22.40287
Si 30.54938 27.83387 25.11837
Si 27.83387 30.54938 25.11837
Si 30.54938 30.54938 22.40287
Si 31.90712 29.19162 23.76062
Si 31.90712 31.90712 26.47612
Si 29.19162 29.19162 26.47612
Si 29.19162 31.90712 23.76062
Si 27.83387 27.83387 27.83388
Si 30.54938 27.83387 30.54938
Si 27.83387 30.54938 30.54938
Si 30.54938 30.54938 27.83388
Si 31.90712 29.19162 29.19162
Si 31.90712 31.90712 31.90713
Si 29.19162 29.19162 31.90713
Si 29.19162 31.90712 29.19162
Si 27.83387 33.26487 16.97188
Si 30.54938 33.26487 19.68737
Si 27.83387 35.98037 19.68737
Si 30.54938 35.98037 16.97188
Si 31.90712 34.62262 18.32963
Si 31.90712 37.33813 21.04513
Si 29.19162 34.62262 21.04513
Si 29.19162 37.33813 18.32963
Si 27.83387 33.26487 22.40287
Si 30.54938 33.26487 25.11837
Si 27.83387 35.98037 25.11837
Si 30.54938 35.98037 22.40287
Si 31.90712 34.62262 23.76062
Si 31.90712 37.33813 26.47612
Si 29.19162 34.62262 26.47612
Si 29.19162 37.33813 23.76062
Si 27.83387 33.26487 27.83388
Si 30.54938 33.26487 30.54938
Si 27.83387 35.98037 30.54938
Si 30.54938 35.98037 27.83388
Si 31.90712 34.62262 29.19162
Si 31.90712 37.33813 31.90713
Si 29.19162 34.62262 31.90713
Si 29.19162 37.33813 29.19162
Si 27.83387 38.69588 16.97188
Si 30.54938 38.69588 19.68737
Si 27.83387 41.41138 19.68737
Si 30.54938 41.41138 16.97188
Si 31.90712 40.05362 18.32963
Si 31.90712 42.76913 21.04513
Si 29.19162 40.05362 21.04513
Si 29.19162 42.76913 18.32963
Si 27.83387 38.69588 22.40287
Si 30.54938 38.69588 25.11837
Si 27.83387 41.41138 25.11837
Si 30.54938 41.41138 22.40287
Si 31.90712 40.05362 23.76062
Si 31.90712 42.76913 26.47612
Si 29.19162 40.05362 26.47612
Si 29.19162 42.76913 23.76062
Si 27.83387 38.69588 27.83388
Si 30.54938 38.69588 30.54938
Si 27.83387 41.41138 30.54938
Si 30.54938 41.41138 27.83388
Si 31.90712 40.05362 29.19162
Si 31.90712 42.76913 31.90713
Si 29.19162 40.05362 31.90713
Si 29.19162 42.76913 29.19162
Si 33.26487 22.40287 16.97188
Si 35.98037 22.40287 19.68737
Si 33.26487 25.11837 19.68737
Si 35.98037 25.11837 16.97188
Si 37.33813 23.76062 18.32963
Si 37.33813 26.47612 21.04513
Si 34.62262 23.76062 21.04513
Si 34.62262 26.47612 18.32963
Si 33.26487 22.40287 22.40287
Si 35.98037 22.40287 25.11837
Si 33.26487 25.11837 25.11837
Si 35.98037 25.11837 22.40287
Si 37.33813 23.76062 23.76062
Si 37.33813 26.47612 26.47612
Si 34.62262 23.76062 26.47612
Si 34.62262 26.47612 23.76062
Si 33.26487 22.40287 27.83388
Si 35.98037 22.40287 30.54938
Si 33.26487 25.11837 30.54938
Si 35.98037 25.11837 27.83388
Si 37.33813 23.76062 29.19162
Si 37.33813 26.47612 31.90713
Si 34.62262 23.76062 31.90713
Si 34.62262 26.47612 29.19162
Si 33.26487 27.83387 16.97188
Si 35.98037 27.83387 19.68737
Si 33.26487 30.54938 19.68737
Si 35.98037 30.54938 16.97188
Si 37.33813 29.19162 18.32963
Si 37.33813 31.90712 21.04513
Si 34.62262 29.19162 21.04513
Si 34.62262 31.90712 18.32963
Si 33.26487 27.83387 22.40287
Si 35.98037 27.83387 25.11837
Si 33.26487 30.54938 25.11837
Si 35.98037 30.54938 22.40287
Si 37.33813 29.19162 23.76062
Si 37.33813 31.90712 26.47612
Si 34.62262 29.19162 26.47612
Si 34.62262 31.90712 23.76062
Si 33.26487 27.83387 27.83388
Si 35.98037 27.83387 30.54938
Si 33.26487 30.54938 30.54938
Si 35.98037 30.54938 27.83388
Si 37.33813 29.19162 29.19162
Si 37.33813 31.90712 31.90713
Si 34.62262 29.19162 31.90713
Si 34.62262 31.90712 29.19162
Si 33.26487 33.26487 16.97188
Si 35.98037 33.26487 19.68737
Si 33.26487 35.98037 19.68737
Si 35.98037 35.98037 16.97188
Si 37.33813 34.62262 18.32963
Si 37.33813 37.33813 21.04513
Si 34.62262 34.62262 21.04513
Si 34.62262 37.33813 18.32963
Si 33.26487 33.26487 22.40287
Si 35.98037 33.26487 25.11837
Si 33.26487 35.98037 25.11837
Si 35.98037 35.98037 22.40287
Si 37.33813 34.62262 23.76062
Si 37.33813 37.33813 26.47612
Si 34.62262 34.62262 26.47612
Si 34.62262 37.33813 23.76062
Si 33.26487 33.26487 27.83388
Si 35.98037 33.26487 30.54938
Si 33.26487 35.98037 30.54938
Si 35.98037 35.98037 27.83388
Si 37.33813 34.62262 29.19162
Si 37.33813 37.33813 31.90713
Si 34.62262 34.62262 31.90713
Si 34.62262 37.33813 29.19162
Si 33.26487 38.69588 16.97188
Si 35.98037 38.69588 19.68737
Si 33.26487 41.41138 19.68737
Si 35.98037 41.41138 16.97188
Si 37.33813 40.05362 18.32963
Si 37.33813 42.76913 21.04513
Si 34.62262 40.05362 21.04513
Si 34.62262 42.76913 18.32963
Si 33.26487 38.69588 22.40287
Si 35.98037 38.69588 25.11837
Si 33.26487 41.41138 25.11837
Si 35.98037 41.41138 22.40287
Si 37.33813 40.05362 23.76062
Si 37.33813 42.76913 26.47612
Si 34.62262 40.05362 26.47612
Si 34.62262 42.76913 23.76062
Si 33.26487 38.69588 27.83388
Si 35.98037 38.69588 30.54938
Si 33.26487 41.41138 30.54938
Si 35.98037 41.41138 27.83388
Si 37.33813 40.05362 29.19162
Si 37.33813 42.76913 31.90713
Si 34.62262 40.05362 31.90713
Si 34.62262 42.76913 29.19162
Si 38.69588 22.40287 16.97188
Si 41.41138 22.40287 19.68737
Si 38.69588 25.11837 19.68737
Si 41.41138 25.11837 16.97188
Si 42.76913 23.76062 18.32963
Si 42.76913 26.47612 21.04513
Si 40.05362 23.76062 21.04513
Si 40.05362 26.47612 18.32963
Si 38.69588 22.40287 22.40287
Si 41.41138 22.40287 25.11837
Si 38.69588 25.11837 25.11837
Si 41.41138 25.11837 22.40287
Si 42.76913 23.76062 23.76062
Si 42.76913 26.47612 26.47612
Si 40.05362 23.76062 26.47612
Si 40.05362 26.47612 23.76062
Si 38.69588 22.40287 27.83388
Si 41.41138 22.40287 30.54938
Si 38.69588 25.11837 30.54938
Si 41.41138 25.11837 27.83388
Si 42.76913 23.76062 29.19162
Si 42.76913 26.47612 31.90713
Si 40.05362 23.76062 31.90713
Si 40.05362 26.47612 29.19162
Si 38.69588 27.83387 16.97188
Si 41.41138 27.83387 19.68737
Si 38.69588 30.54938 19.68737
Si 41.41138 30.54938 16.97188
Si 42.76913 29.19162 18.32963
Si 42.76913 31.90712 21.04513
Si 40.05362 29.19162 21.04513
Si 40.05362 31.90712 18.32963
Si 38.69588 27.83387 22.40287
Si 41.41138 27.83387 25.11837
Si 38.69588 30.54938 25.11837
Si 41.41138 30.54938 22.40287
Si 42.76913 29.19162 23.76062
Si 42.76913 31.90712 26.47612
Si 40.05362 29.19162 26.47612
Si 40.05362 31.90712 23.76062
Si 38.69588 27.83387 27.83388
Si 41.41138 27.83387 30.54938
Si 38.69588 30.54938 30.54938
Si 41.41138 30.54938 27.83388
Si 42.76913 29.19162 29.19162
Si 42.76913 31.90712 31.90713
Si 40.05362 29.19162 31.90713
Si 40.05362 31.90712 29.19162
Si 38.69588 33.26487 16.97188
Si 41.41138 33.26487 19.68737
Si 38.69588 35.98037 19.68737
Si 41.41138 35.98037 16.97188
Si 42.76913 34.62262 18.32963
Si 42.76913 37.33813 21.04513
Si 40.05362 34.62262 21.04513
Si 40.05362 37.33813 18.32963
Si 38.69588 33.26487 22.40287
Si 41.41138 33.26487 25.11837
Si 38.69588 35.98037 25.11837
Si 41.41138 35.98037 22.40287
Si 42.76913 34.62262 23.76062
Si 42.76913 37.33813 26.47612
Si 40.05362 34.62262 26.47612
Si 40.05362 37.33813 23.76062
Si 38.69588 33.26487 27.83388
Si 41.41138 33.26487 30.54938
Si 38.69588 35.98037 30.54938
Si 41.41138 35.98037 27.83388
Si 42.76913 34.62262 29.19162
Si 42.76913 37.33813 31.90713
Si 40.05362 34.62262 31.90713
Si 40.05362 37.33813 29.19162
Si 38.69588 38.69588 16.97188
Si 41.41138 38.69588 19.68737
Si 38.69588 41.41138 19.68737
Si 41.41138 41.41138 16.97188
Si 42.76913 40.05362 18.32963
Si 42.76913 42.76913 21.04513
Si 40.05362 40.05362 21.04513
Si 40.05362 42.76913 18.32963
Si 38.69588 38.69588 22.40287
Si 41.41138 38.69588 25.11837
Si 38.69588 41.41138 25.11837
Si 41.41138 41.41138 22.40287
Si 42.76913 40.05362 23.76062
Si 42.76913 42.76913 26.47612
Si 40.05362 40.05362 26.47612
Si 40.05362 42.76913 23.76062
Si 38.69588 38.69588 27.83388
Si 41.41138 38.69588 30.54938
Si 38.69588 41.41138 30.54938
Si 41.41138 41.41138 27.83388
Si 42.76913 40.05362 29.19162
Si 42.76913 42.76913 31.90713
Si 40.05362 40.05362 31.90713
Si 40.05362 42.76913 29.19162
