216 

Si    0.72888   0.67888   0.67888   0.013631497226290   0.000002001460096   0.000002001686723
Si    3.39437   0.67888   3.39437  -0.000195062240551   0.000124674069786  -0.000201385129678
Si    0.67888   3.39437   3.39437   0.000433613896842  -0.000118049942043  -0.000118379236031
Si    3.39437   3.39437   0.67888  -0.000195098261468  -0.000201497830233   0.000125084652540
Si    4.75213   2.03662   2.03662   0.000008528745188   0.000027583001426   0.000027703945444
Si    4.75213   4.75213   4.75213   0.000015183874519   0.000008182036404   0.000008179337476
Si    2.03662   2.03662   4.75213   0.000034201430292  -0.000037162333708   0.000036357291184
Si    2.03662   4.75213   2.03662   0.000034100529944   0.000036445500943  -0.000037241445076
Si    0.67888   0.67888   6.10987  -0.000020657533359   0.000002865169482   0.000000639627391
Si    3.39437   0.67888   8.82538  -0.000019862549124   0.000008157569866   0.000008160529452
Si    0.67888   3.39437   8.82538  -0.000005492641639  -0.000008080980089   0.000010810299717
Si    3.39437   3.39437   6.10987  -0.000016814627473   0.000020982213218  -0.000003350348060
Si    4.75213   2.03662   7.46762  -0.000000012588484  -0.000007640572887  -0.000000924026779
Si    4.75213   4.75213  10.18313   0.000003069673982  -0.000019389304600  -0.000004684431665
Si    2.03662   2.03662  10.18313   0.000016305261792   0.000000110194653   0.000002748993939
Si    2.03662   4.75213   7.46762   0.000010341316750  -0.000005955084231   0.000007312150534
Si    0.67888   0.67888  11.54087  -0.000015370173815   0.000008186698247  -0.000007929559645
Si    3.39437   0.67888  14.25638  -0.000189138577709  -0.000112700192431   0.000191716104666
Si    0.67888   3.39437  14.25638   0.000432168713967   0.000113040298445  -0.000117147289708
Si    3.39437   3.39437  11.54087  -0.000022187291634   0.000016445266881   0.000003309617137
Si    4.75213   2.03662  12.89863  -0.000016975920308   0.000054663248458   0.000024688397678
Si    4.75213   4.75213  15.61412  -0.000010845239373  -0.000012843117240  -0.000064391552293
Si    2.03662   2.03662  15.61412  -0.003409351566519  -0.002468380027120   0.002461238040499
Si    2.03662   4.75213  12.89863  -0.000177938758009   0.000057691171076  -0.000051981001762
Si    0.67888   6.10987   0.67888  -0.000020495599788   0.000000650486351   0.000002888533342
Si    3.39437   6.10987   3.39437  -0.000016846280594  -0.000003358591474   0.000020964677230
Si    0.67888   8.82538   3.39437  -0.000005641429312   0.000010755071473  -0.000008079730394
Si    3.39437   8.82538   0.67888  -0.000019774470751   0.000008156381831   0.000008161577319
Si    4.75213   7.46762   2.03662  -0.000000001089667  -0.000000909628625  -0.000007645556233
Si    4.75213  10.18313   4.75213   0.000003190629986  -0.000004692202700  -0.000019381526289
Si    2.03662   7.46762   4.75213   0.000010346887100   0.000007286752679  -0.000005919876437
Si    2.03662  10.18313   2.03662   0.000016281627992   0.000002732380534   0.000000284969399
Si    0.67888   6.10987   6.10987   0.000110657284355  -0.000020536040095  -0.000020567792351
Si    3.39437   6.10987   8.82538  -0.000005688638885   0.000014365674542   0.000004395384565
Si    0.67888   8.82538   8.82538   0.000105434266726   0.000008974866807   0.000008956337726
Si    3.39437   8.82538   6.10987  -0.000005682225694   0.000004382341578   0.000014370329951
Si    4.75213   7.46762   7.46762   0.000008933962524  -0.000012505898349  -0.000012506365546
Si    4.75213  10.18313  10.18313   0.000007894074099   0.000004349449665   0.000004345770177
Si    2.03662   7.46762  10.18313  -0.000061816510845  -0.000005671175228  -0.000001444845090
Si    2.03662  10.18313   7.46762  -0.000061816615285  -0.000001449483546  -0.000005682348643
Si    0.67888   6.10987  11.54087   0.000107992394483   0.000019463821886  -0.000023260157195
Si    3.39437   6.10987  14.25638  -0.000021122641273  -0.000011453930938  -0.000024517765340
Si    0.67888   8.82538  14.25638  -0.000010923502917   0.000000275285046   0.000000788850920
Si    3.39437   8.82538  11.54087  -0.000011783450841   0.000007464321290  -0.000024196623091
Si    4.75213   7.46762  12.89863   0.000009271574059  -0.000005158557076   0.000031224343741
Si    4.75213  10.18313  15.61412   0.000000017206332  -0.000001087896133   0.000005627198597
Si    2.03662   7.46762  15.61412   0.000015407003854  -0.000005623761580  -0.000003170434282
Si    2.03662  10.18313  12.89863   0.000009470717713  -0.000010175479623   0.000015931953012
Si    0.67888  11.54087   0.67888  -0.000015236857734  -0.000007930633817   0.000008162813411
Si    3.39437  11.54087   3.39437  -0.000022169855019   0.000003300607397   0.000016351558667
Si    0.67888  14.25638   3.39437   0.000432189400005  -0.000116811497626   0.000113369835457
Si    3.39437  14.25638   0.67888  -0.000189182696864   0.000191805743477  -0.000113116075645
Si    4.75213  12.89863   2.03662  -0.000016949306047   0.000024687523573   0.000054547329167
Si    4.75213  15.61412   4.75213  -0.000010890406306  -0.000064531517796  -0.000012849515766
Si    2.03662  12.89863   4.75213  -0.000177938763448  -0.000051920372950   0.000057741964452
Si    2.03662  15.61412   2.03662  -0.003409349143526   0.002461149687493  -0.002468475963697
Si    0.67888  11.54087   6.10987   0.000107974724523  -0.000023210309084   0.000019506278009
Si    3.39437  11.54087   8.82538  -0.000011772954071  -0.000024215974324   0.000007445694930
Si    0.67888  14.25638   8.82538  -0.000010757728669   0.000000799390682   0.000000236906928
Si    3.39437  14.25638   6.10987  -0.000021137071297  -0.000024610471180  -0.000011466893022
Si    4.75213  12.89863   7.46762   0.000009168298550   0.000031237063445  -0.000005142403722
Si    4.75213  15.61412  10.18313  -0.000000027835675   0.000005640326408  -0.000001092017976
Si    2.03662  12.89863  10.18313   0.000009465229899   0.000015964917195  -0.000010196810455
Si    2.03662  15.61412   7.46762   0.000015430028353  -0.000003000525325  -0.000005636257283
Si    0.67888  11.54087  11.54087   0.000112513148555   0.000011564877172   0.000011615050315
Si    3.39437  11.54087  14.25638  -0.000016819921249   0.000001357109981  -0.000022980419771
Si    0.67888  14.25638  14.25638   0.000431699967001   0.000108982433520   0.000109328761441
Si    3.39437  14.25638  11.54087  -0.000016823574877  -0.000022977338386   0.000001330147820
Si    4.75213  12.89863  12.89863   0.000015184779369   0.000008131002958   0.000008141459583
Si    4.75213  15.61412  15.61412   0.000009493449138  -0.000035701328503  -0.000035826610493
Si    2.03662  12.89863  15.61412   0.000034991876159  -0.000026419524369   0.000034359923066
Si    2.03662  15.61412  12.89863   0.000035091168473   0.000034276376600  -0.000026327829745
Si    6.10987   0.67888   0.67888  -0.000004684798431   0.000002878082008   0.000002874528563
Si    8.82538   0.67888   3.39437   0.000006440700409   0.000005526252494  -0.000008017294014
Si    6.10987   3.39437   3.39437   0.000002871036394  -0.000014372630078  -0.000014374256712
Si    8.82538   3.39437   0.67888   0.000006456273436  -0.000008012433568   0.000005510754426
Si   10.18313   2.03662   2.03662  -0.000001362453637   0.000002681594593   0.000002708384304
Si   10.18313   4.75213   4.75213   0.000000768089207  -0.000000867708120  -0.000000906744082
Si    7.46762   2.03662   4.75213   0.000000596985607   0.000011294051841   0.000004672604260
Si    7.46762   4.75213   2.03662   0.000000630673238   0.000004674385474   0.000011296027430
Si    6.10987   0.67888   6.10987  -0.000004368396527   0.000028318707214  -0.000014472328668
Si    8.82538   0.67888   8.82538   0.000006832248212   0.000008978022212   0.000008956266565
Si    6.10987   3.39437   8.82538  -0.000000573878626   0.000012235395168   0.000001088399032
Si    8.82538   3.39437   6.10987   0.000005871584504  -0.000004461010937   0.000000857908143
Si   10.18313   2.03662   7.46762  -0.000003953983991  -0.000000884650028  -0.000006380689658
Si   10.18313   4.75213  10.18313   0.000005006324884   0.000011508967641  -0.000007287193994
Si    7.46762   2.03662  10.18313  -0.000011372734359   0.000001941273016   0.000001100504536
Si    7.46762   4.75213   7.46762  -0.000003115558692   0.000004010866455  -0.000015434964220
Si    6.10987   0.67888  11.54087  -0.000005242735526  -0.000018305660699   0.000011586009087
Si    8.82538   0.67888  14.25638   0.000001156170152   0.000005503981869   0.000000726119010
Si    6.10987   3.39437  14.25638   0.000002107816798  -0.000011603961655   0.000004464882016
Si    8.82538   3.39437  11.54087   0.000012132931372  -0.000007487650725  -0.000007134542563
Si   10.18313   2.03662  12.89863   0.000003412326107  -0.000010148912739   0.000009080712375
Si   10.18313   4.75213  15.61412   0.000004303289937   0.000000918318275   0.000007270828224
Si    7.46762   2.03662  15.61412  -0.000003982206308  -0.000003803185679   0.000000064555690
Si    7.46762   4.75213  12.89863  -0.000007359580876   0.000012887924972   0.000005008427861
Si    6.10987   6.10987   0.67888  -0.000004483677026  -0.000014485617613   0.000028283047933
Si    8.82538   6.10987   3.39437   0.000005889425491   0.000000851272286  -0.000004468152177
Si    6.10987   8.82538   3.39437  -0.000000582735846   0.000001093865100   0.000012224454382
Si    8.82538   8.82538   0.67888   0.000006786104988   0.000008974883617   0.000008959463353
Si   10.18313   7.46762   2.03662  -0.000003943448525  -0.000006384864833  -0.000000902304258
Si   10.18313  10.18313   4.75213   0.000005000766544  -0.000007275386648   0.000011533305291
Si    7.46762   7.46762   4.75213  -0.000003120241399  -0.000015418297159   0.000003997027868
Si    7.46762  10.18313   2.03662  -0.000011359685126   0.000001090952027   0.000001958720185
Si    6.10987   6.10987   6.10987  -0.000003927009452   0.000003383812059   0.000003383389680
Si    8.82538   6.10987   8.82538   0.000001963799228   0.000000843242517   0.000002878921056
Si    6.10987   8.82538   8.82538  -0.000000921365711   0.000002889328147   0.000002885028733
Si    8.82538   8.82538   6.10987   0.000001953493340   0.000002852898157   0.000000837876474
Si   10.18313   7.46762   7.46762  -0.000001931074411  -0.000002006798679  -0.000002024840388
Si   10.18313  10.18313  10.18313  -0.000001055965739  -0.000000882563164  -0.000000860317267
Si    7.46762   7.46762  10.18313  -0.000003879811374  -0.000003818501647   0.000000054025249
Si    7.46762  10.18313   7.46762  -0.000003896896440   0.000000070811203  -0.000003809120426
Si    6.10987   6.10987  11.54087  -0.000003809736527   0.000003478738876  -0.000010593154484
Si    8.82538   6.10987  14.25638   0.000010274176173  -0.000001821040286  -0.000001481366206
Si    6.10987   8.82538  14.25638   0.000000293594208   0.000008916263560  -0.000015111048886
Si    8.82538   8.82538  11.54087   0.000007238173157   0.000008177247410  -0.000008129477626
Si   10.18313   7.46762  12.89863   0.000005875177223   0.000004386281556  -0.000001522043782
Si   10.18313  10.18313  15.61412  -0.000003943392797  -0.000000734267786  -0.000006227855928
Si    7.46762   7.46762  15.61412  -0.000013219190385  -0.000010066720061  -0.000010916918595
Si    7.46762  10.18313  12.89863   0.000002147373097   0.000008135123555   0.000007051464345
Si    6.10987  11.54087   0.67888  -0.000005357540626   0.000011595085017  -0.000018268507619
Si    8.82538  11.54087   3.39437   0.000012131653410  -0.000007154177448  -0.000007474104645
Si    6.10987  14.25638   3.39437   0.000002107987257   0.000004485749005  -0.000011589356510
Si    8.82538  14.25638   0.67888   0.000001188996760   0.000000730964876   0.000005536713389
Si   10.18313  12.89863   2.03662   0.000003428636199   0.000009091208360  -0.000010157896856
Si   10.18313  15.61412   4.75213   0.000004287297520   0.000007257430286   0.000000930908926
Si    7.46762  12.89863   4.75213  -0.000007359721187   0.000005059764920   0.000012902257597
Si    7.46762  15.61412   2.03662  -0.000003964679713   0.000000052367146  -0.000003822462642
Si    6.10987  11.54087   6.10987  -0.000003809668984  -0.000010599530220   0.000003465958323
Si    8.82538  11.54087   8.82538   0.000007231136348  -0.000008125164417   0.000008168186106
Si    6.10987  14.25638   8.82538   0.000000302401742  -0.000015126056098   0.000008923910746
Si    8.82538  14.25638   6.10987   0.000010275342638  -0.000001486248640  -0.000001822269195
Si   10.18313  12.89863   7.46762   0.000005880837061  -0.000001499817679   0.000004402323022
Si   10.18313  15.61412  10.18313  -0.000003953723601  -0.000006238935744  -0.000000744815572
Si    7.46762  12.89863  10.18313   0.000002169380646   0.000007020595531   0.000008142020468
Si    7.46762  15.61412   7.46762  -0.000013232408638  -0.000010917797505  -0.000010057951852
Si    6.10987  11.54087  11.54087  -0.000003053168900  -0.000006273076288  -0.000006268282378
Si    8.82538  11.54087  14.25638   0.000005870574670  -0.000004598870655   0.000000710826975
Si    6.10987  14.25638  14.25638   0.000002004389194   0.000011476162265   0.000011481991095
Si    8.82538  14.25638  11.54087   0.000005887083216   0.000000710961695  -0.000004612778014
Si   10.18313  12.89863  12.89863   0.000000770440243   0.000006651382741   0.000006681970125
Si   10.18313  15.61412  15.61412  -0.000002235720184  -0.000005570179818  -0.000005592525622
Si    7.46762  12.89863  15.61412  -0.000004653926682   0.000006355198682  -0.000018588806585
Si    7.46762  15.61412  12.89863  -0.000004670586635  -0.000018577255340   0.000006374193562
Si   11.54087   0.67888   0.67888  -0.000013430613265   0.000008148389400   0.000008152439406
Si   14.25638   0.67888   3.39437  -0.000179302542780   0.000112581842734   0.000182479746637
Si   11.54087   3.39437   3.39437  -0.000006631909289  -0.000003526921674  -0.000003550643355
Si   14.25638   3.39437   0.67888  -0.000179335706410   0.000182550628930   0.000112988571650
Si   15.61412   2.03662   2.03662  -0.003262986867639   0.002166834599276   0.002166947024950
Si   15.61412   4.75213   4.75213  -0.000180887420496  -0.000045690656518  -0.000045774258738
Si   12.89863   2.03662   4.75213  -0.000014360017747  -0.000055144894523   0.000022776083212
Si   12.89863   4.75213   2.03662  -0.000014319643394   0.000022767752300  -0.000055021821256
Si   11.54087   0.67888   6.10987  -0.000006655226782   0.000022729889643   0.000013096829473
Si   14.25638   0.67888   8.82538  -0.000011135236662   0.000002890917297   0.000002884722525
Si   11.54087   3.39437   8.82538  -0.000008759416638  -0.000024312342900   0.000007223339903
Si   14.25638   3.39437   6.10987  -0.000014146370728  -0.000031373781260   0.000011736328791
Si   15.61412   2.03662   7.46762   0.000013584904317  -0.000001241382678  -0.000000010383905
Si   15.61412   4.75213  10.18313   0.000006422356602   0.000011814206893   0.000011218601491
Si   12.89863   2.03662  10.18313   0.000004465255958   0.000009196598222   0.000001799825035
Si   12.89863   4.75213   7.46762   0.000009166441336   0.000031444515228  -0.000012883211025
Si   11.54087   0.67888  11.54087  -0.000012754742756  -0.000010878088611  -0.000022918233547
Si   14.25638   0.67888  14.25638  -0.000178485556974  -0.000102463412712  -0.000185407135667
Si   11.54087   3.39437  14.25638  -0.000001003244351   0.000008819339190  -0.000010828677933
Si   14.25638   3.39437  11.54087  -0.000013387758912  -0.000027760412231  -0.000007716703555
Si   15.61412   2.03662  12.89863   0.000029299317153   0.000040267794059   0.000029996725915
Si   15.61412   4.75213  15.61412   0.000023874980980  -0.000019102086799  -0.000047606495096
Si   12.89863   2.03662  15.61412   0.000005118969603  -0.000027794137517   0.000025945285593
Si   12.89863   4.75213  12.89863   0.000015162467972   0.000008323634905   0.000007996855155
Si   11.54087   6.10987   0.67888  -0.000006777136183   0.000013103426022   0.000022701680020
Si   14.25638   6.10987   3.39437  -0.000014130423304   0.000011722291132  -0.000031300645247
Si   11.54087   8.82538   3.39437  -0.000008768635926   0.000007242329411  -0.000024281467403
Si   14.25638   8.82538   0.67888  -0.000011051455592   0.000002889146933   0.000002886687715
Si   15.61412   7.46762   2.03662   0.000013591791348  -0.000000014709116  -0.000001429302364
Si   15.61412  10.18313   4.75213   0.000006404955937   0.000011201419382   0.000011795752613
Si   12.89863   7.46762   4.75213   0.000009265996320  -0.000012904667813   0.000031433793027
Si   12.89863  10.18313   2.03662   0.000004490515325   0.000001801652492   0.000009191491399
Si   11.54087   6.10987   6.10987  -0.000010947498111  -0.000003424769739  -0.000003413477683
Si   14.25638   6.10987   8.82538  -0.000002618232342  -0.000015197939703   0.000008675237878
Si   11.54087   8.82538   8.82538  -0.000009858252696   0.000008157159171   0.000008161177668
Si   14.25638   8.82538   6.10987  -0.000002628812626   0.000008669142005  -0.000015197242953
Si   15.61412   7.46762   7.46762  -0.000070097772923  -0.000010400282004  -0.000010376401918
Si   15.61412  10.18313  10.18313  -0.000068234327749   0.000001422516657   0.000001417033562
Si   12.89863   7.46762  10.18313   0.000003453130892   0.000001348883355  -0.000003349088671
Si   12.89863  10.18313   7.46762   0.000003470362920  -0.000003348071094   0.000001331201656
Si   11.54087   6.10987  11.54087  -0.000006664734590  -0.000002627909325   0.000000616285155
Si   14.25638   6.10987  14.25638  -0.000014278372921   0.000004845415736   0.000024880972590
Si   11.54087   8.82538  14.25638  -0.000002667035581   0.000004605022319   0.000014455096990
Si   14.25638   8.82538  11.54087  -0.000003503953190   0.000001340384793   0.000012309228606
Si   15.61412   7.46762  12.89863   0.000001137935548  -0.000018484858775  -0.000000747711745
Si   15.61412  10.18313  15.61412   0.000013574560142  -0.000003733731882  -0.000002330928371
Si   12.89863   7.46762  15.61412   0.000005526376903  -0.000009957116756  -0.000017353924667
Si   12.89863  10.18313  12.89863   0.000003189601483   0.000003059130963  -0.000019591706863
Si   11.54087  11.54087   0.67888  -0.000012858905210  -0.000022948991099  -0.000010855257600
Si   14.25638  11.54087   3.39437  -0.000013401603791  -0.000007735874133  -0.000027760503196
Si   11.54087  14.25638   3.39437  -0.000001020576709  -0.000010815679967   0.000008813775257
Si   14.25638  14.25638   0.67888  -0.000178511369066  -0.000185483264355  -0.000102867723217
Si   15.61412  12.89863   2.03662   0.000029150031974   0.000030080523069   0.000040343479613
Si   15.61412  15.61412   4.75213   0.000024040904057  -0.000047527444727  -0.000019001513627
Si   12.89863  12.89863   4.75213   0.000015162093835   0.000007989495190   0.000008324745712
Si   12.89863  15.61412   2.03662   0.000005102339533   0.000025846323102  -0.000027912092631
Si   11.54087  11.54087   6.10987  -0.000006647381314   0.000000630202096  -0.000002632493286
Si   14.25638  11.54087   8.82538  -0.000003493355271   0.000012305728601   0.000001336296487
Si   11.54087  14.25638   8.82538  -0.000002674993593   0.000014461868267   0.000004618319163
Si   14.25638  14.25638   6.10987  -0.000014266145076   0.000024875959889   0.000004830641195
Si   15.61412  12.89863   7.46762   0.000001138204175  -0.000000782860502  -0.000018511794365
Si   15.61412  15.61412  10.18313   0.000013603613811  -0.000002511587916  -0.000003745644609
Si   12.89863  12.89863  10.18313   0.000003073578403  -0.000019596262397   0.000003061831693
Si   12.89863  15.61412   7.46762   0.000005500668102  -0.000017355090393  -0.000009959535827
Si   11.54087  11.54087  11.54087  -0.000011984418217  -0.000004731346919  -0.000004746729105
Si   14.25638  11.54087  14.25638  -0.000014137695148  -0.000018839088096   0.000024175789632
Si   11.54087  14.25638  14.25638  -0.000005601191813  -0.000004638718488  -0.000004618916122
Si   14.25638  14.25638  11.54087  -0.000014151435648   0.000024256948830  -0.000018859900751
Si   15.61412  12.89863  12.89863  -0.000180892635016   0.000063663311187   0.000063710514910
Si   15.61412  15.61412  15.61412  -0.003264902603235  -0.002175711651167  -0.002175811281763
Si   12.89863  12.89863  15.61412  -0.000008193465354  -0.000010909908825   0.000045152483002
Si   12.89863  15.61412  12.89863  -0.000008250781038   0.000045251023071  -0.000010923400931
