6750

Si -27.15500 -27.15500 -27.15500
Si -25.79725 -25.79725 -25.79725
Si -24.43950 -24.43950 -27.15500
Si -23.08175 -23.08175 -25.79725
Si -21.72400 -21.72400 -27.15500
Si -20.36625 -20.36625 -25.79725
Si -19.00850 -19.00850 -27.15500
Si -17.65075 -17.65075 -25.79725
Si -16.29300 -16.29300 -27.15500
Si -14.93525 -14.93525 -25.79725
Si -24.43950 -27.15500 -24.43950
Si -23.08175 -25.79725 -23.08175
Si -21.72400 -24.43950 -24.43950
Si -20.36625 -23.08175 -23.08175
Si -19.00850 -21.72400 -24.43950
Si -17.65075 -20.36625 -23.08175
Si -16.29300 -19.00850 -24.43950
Si -14.93525 -17.65075 -23.08175
Si -13.57750 -16.29300 -24.43950
Si -12.21975 -14.93525 -23.08175
Si -21.72400 -27.15500 -21.72400
Si -20.36625 -25.79725 -20.36625
Si -19.00850 -24.43950 -21.72400
Si -17.65075 -23.08175 -20.36625
Si -16.29300 -21.72400 -21.72400
Si -14.93525 -20.36625 -20.36625
Si -13.57750 -19.00850 -21.72400
Si -12.21975 -17.65075 -20.36625
Si -10.86200 -16.29300 -21.72400
Si -9.50425 -14.93525 -20.36625
Si -19.00850 -27.15500 -19.00850
Si -17.65075 -25.79725 -17.65075
Si -16.29300 -24.43950 -19.00850
Si -14.93525 -23.08175 -17.65075
Si -13.57750 -21.72400 -19.00850
Si -12.21975 -20.36625 -17.65075
Si -10.86200 -19.00850 -19.00850
Si -9.50425 -17.65075 -17.65075
Si -8.14650 -16.29300 -19.00850
Si -6.78875 -14.93525 -17.65075
Si -16.29300 -27.15500 -16.29300
Si -14.93525 -25.79725 -14.93525
Si -13.57750 -24.43950 -16.29300
Si -12.21975 -23.08175 -14.93525
Si -10.86200 -21.72400 -16.29300
Si -9.50425 -20.36625 -14.93525
Si -8.14650 -19.00850 -16.29300
Si -6.78875 -17.65075 -14.93525
Si -5.43100 -16.29300 -16.29300
Si -4.07325 -14.93525 -14.93525
Si -27.15500 -24.43950 -24.43950
Si -25.79725 -23.08175 -23.08175
Si -24.43950 -21.72400 -24.43950
Si -23.08175 -20.36625 -23.08175
Si -21.72400 -19.00850 -24.43950
Si -20.36625 -17.65075 -23.08175
Si -19.00850 -16.29300 -24.43950
Si -17.65075 -14.93525 -23.08175
Si -16.29300 -13.57750 -24.43950
Si -14.93525 -12.21975 -23.08175
Si -24.43950 -24.43950 -21.72400
Si -23.08175 -23.08175 -20.36625
Si -21.72400 -21.72400 -21.72400
Si -20.36625 -20.36625 -20.36625
Si -19.00850 -19.00850 -21.72400
Si -17.65075 -17.65075 -20.36625
Si -16.29300 -16.29300 -21.72400
Si -14.93525 -14.93525 -20.36625
Si -13.57750 -13.57750 -21.72400
Si -12.21975 -12.21975 -20.36625
Si -21.72400 -24.43950 -19.00850
Si -20.36625 -23.08175 -17.65075
Si -19.00850 -21.72400 -19.00850
Si -17.65075 -20.36625 -17.65075
Si -16.29300 -19.00850 -19.00850
Si -14.93525 -17.65075 -17.65075
Si -13.57750 -16.29300 -19.00850
Si -12.21975 -14.93525 -17.65075
Si -10.86200 -13.57750 -19.00850
Si -9.50425 -12.21975 -17.65075
Si -19.00850 -24.43950 -16.29300
Si -17.65075 -23.08175 -14.93525
Si -16.29300 -21.72400 -16.29300
Si -14.93525 -20.36625 -14.93525
Si -13.57750 -19.00850 -16.29300
Si -12.21975 -17.65075 -14.93525
Si -10.86200 -16.29300 -16.29300
Si -9.50425 -14.93525 -14.93525
Si -8.14650 -13.57750 -16.29300
Si -6.78875 -12.21975 -14.93525
Si -16.29300 -24.43950 -13.57750
Si -14.93525 -23.08175 -12.21975
Si -13.57750 -21.72400 -13.57750
Si -12.21975 -20.36625 -12.21975
Si -10.86200 -19.00850 -13.57750
Si -9.50425 -17.65075 -12.21975
Si -8.14650 -16.29300 -13.57750
Si -6.78875 -14.93525 -12.21975
Si -5.43100 -13.57750 -13.57750
Si -4.07325 -12.21975 -12.21975
Si -27.15500 -21.72400 -21.72400
Si -25.79725 -20.36625 -20.36625
Si -24.43950 -19.00850 -21.72400
Si -23.08175 -17.65075 -20.36625
Si -21.72400 -16.29300 -21.72400
Si -20.36625 -14.93525 -20.36625
Si -19.00850 -13.57750 -21.72400
Si -17.65075 -12.21975 -20.36625
Si -16.29300 -10.86200 -21.72400
Si -14.93525 -9.50425 -20.36625
Si -24.43950 -21.72400 -19.00850
Si -23.08175 -20.36625 -17.65075
Si -21.72400 -19.00850 -19.00850
Si -20.36625 -17.65075 -17.65075
Si -19.00850 -16.29300 -19.00850
Si -17.65075 -14.93525 -17.65075
Si -16.29300 -13.57750 -19.00850
Si -14.93525 -12.21975 -17.65075
Si -13.57750 -10.86200 -19.00850
Si -12.21975 -9.50425 -17.65075
Si -21.72400 -21.72400 -16.29300
Si -20.36625 -20.36625 -14.93525
Si -19.00850 -19.00850 -16.29300
Si -17.65075 -17.65075 -14.93525
Si -16.29300 -16.29300 -16.29300
Si -14.93525 -14.93525 -14.93525
Si -13.57750 -13.57750 -16.29300
Si -12.21975 -12.21975 -14.93525
Si -10.86200 -10.86200 -16.29300
Si -9.50425 -9.50425 -14.93525
Si -19.00850 -21.72400 -13.57750
Si -17.65075 -20.36625 -12.21975
Si -16.29300 -19.00850 -13.57750
Si -14.93525 -17.65075 -12.21975
Si -13.57750 -16.29300 -13.57750
Si -12.21975 -14.93525 -12.21975
Si -10.86200 -13.57750 -13.57750
Si -9.50425 -12.21975 -12.21975
Si -8.14650 -10.86200 -13.57750
Si -6.78875 -9.50425 -12.21975
Si -16.29300 -21.72400 -10.86200
Si -14.93525 -20.36625 -9.50425
Si -13.57750 -19.00850 -10.86200
Si -12.21975 -17.65075 -9.50425
Si -10.86200 -16.29300 -10.86200
Si -9.50425 -14.93525 -9.50425
Si -8.14650 -13.57750 -10.86200
Si -6.78875 -12.21975 -9.50425
Si -5.43100 -10.86200 -10.86200
Si -4.07325 -9.50425 -9.50425
Si -27.15500 -19.00850 -19.00850
Si -25.79725 -17.65075 -17.65075
Si -24.43950 -16.29300 -19.00850
Si -23.08175 -14.93525 -17.65075
Si -21.72400 -13.57750 -19.00850
Si -20.36625 -12.21975 -17.65075
Si -19.00850 -10.86200 -19.00850
Si -17.65075 -9.50425 -17.65075
Si -16.29300 -8.14650 -19.00850
Si -14.93525 -6.78875 -17.65075
Si -24.43950 -19.00850 -16.29300
Si -23.08175 -17.65075 -14.93525
Si -21.72400 -16.29300 -16.29300
Si -20.36625 -14.93525 -14.93525
Si -19.00850 -13.57750 -16.29300
Si -17.65075 -12.21975 -14.93525
Si -16.29300 -10.86200 -16.29300
Si -14.93525 -9.50425 -14.93525
Si -13.57750 -8.14650 -16.29300
Si -12.21975 -6.78875 -14.93525
Si -21.72400 -19.00850 -13.57750
Si -20.36625 -17.65075 -12.21975
Si -19.00850 -16.29300 -13.57750
Si -17.65075 -14.93525 -12.21975
Si -16.29300 -13.57750 -13.57750
Si -14.93525 -12.21975 -12.21975
Si -13.57750 -10.86200 -13.57750
Si -12.21975 -9.50425 -12.21975
Si -10.86200 -8.14650 -13.57750
Si -9.50425 -6.78875 -12.21975
Si -19.00850 -19.00850 -10.86200
Si -17.65075 -17.65075 -9.50425
Si -16.29300 -16.29300 -10.86200
Si -14.93525 -14.93525 -9.50425
Si -13.57750 -13.57750 -10.86200
Si -12.21975 -12.21975 -9.50425
Si -10.86200 -10.86200 -10.86200
Si -9.50425 -9.50425 -9.50425
Si -8.14650 -8.14650 -10.86200
Si -6.78875 -6.78875 -9.50425
Si -16.29300 -19.00850 -8.14650
Si -14.93525 -17.65075 -6.78875
Si -13.57750 -16.29300 -8.14650
Si -12.21975 -14.93525 -6.78875
Si -10.86200 -13.57750 -8.14650
Si -9.50425 -12.21975 -6.78875
Si -8.14650 -10.86200 -8.14650
Si -6.78875 -9.50425 -6.78875
Si -5.43100 -8.14650 -8.14650
Si -4.07325 -6.78875 -6.78875
Si -27.15500 -16.29300 -16.29300
Si -25.79725 -14.93525 -14.93525
Si -24.43950 -13.57750 -16.29300
Si -23.08175 -12.21975 -14.93525
Si -21.72400 -10.86200 -16.29300
Si -20.36625 -9.50425 -14.93525
Si -19.00850 -8.14650 -16.29300
Si -17.65075 -6.78875 -14.93525
Si -16.29300 -5.43100 -16.29300
Si -14.93525 -4.07325 -14.93525
Si -24.43950 -16.29300 -13.57750
Si -23.08175 -14.93525 -12.21975
Si -21.72400 -13.57750 -13.57750
Si -20.36625 -12.21975 -12.21975
Si -19.00850 -10.86200 -13.57750
Si -17.65075 -9.50425 -12.21975
Si -16.29300 -8.14650 -13.57750
Si -14.93525 -6.78875 -12.21975
Si -13.57750 -5.43100 -13.57750
Si -12.21975 -4.07325 -12.21975
Si -21.72400 -16.29300 -10.86200
Si -20.36625 -14.93525 -9.50425
Si -19.00850 -13.57750 -10.86200
Si -17.65075 -12.21975 -9.50425
Si -16.29300 -10.86200 -10.86200
Si -14.93525 -9.50425 -9.50425
Si -13.57750 -8.14650 -10.86200
Si -12.21975 -6.78875 -9.50425
Si -10.86200 -5.43100 -10.86200
Si -9.50425 -4.07325 -9.50425
Si -19.00850 -16.29300 -8.14650
Si -17.65075 -14.93525 -6.78875
Si -16.29300 -13.57750 -8.14650
Si -14.93525 -12.21975 -6.78875
Si -13.57750 -10.86200 -8.14650
Si -12.21975 -9.50425 -6.78875
Si -10.86200 -8.14650 -8.14650
Si -9.50425 -6.78875 -6.78875
Si -8.14650 -5.43100 -8.14650
Si -6.78875 -4.07325 -6.78875
Si -16.29300 -16.29300 -5.43100
Si -14.93525 -14.93525 -4.07325
Si -13.57750 -13.57750 -5.43100
Si -12.21975 -12.21975 -4.07325
Si -10.86200 -10.86200 -5.43100
Si -9.50425 -9.50425 -4.07325
Si -8.14650 -8.14650 -5.43100
Si -6.78875 -6.78875 -4.07325
Si -5.43100 -5.43100 -5.43100
Si -4.07325 -4.07325 -4.07325
Si -13.57750 -13.57750 -27.15500
Si -12.21975 -12.21975 -25.79725
Si -10.86200 -10.86200 -27.15500
Si -9.50425 -9.50425 -25.79725
Si -8.14650 -8.14650 -27.15500
Si -6.78875 -6.78875 -25.79725
Si -5.43100 -5.43100 -27.15500
Si -4.07325 -4.07325 -25.79725
Si -2.71550 -2.71550 -27.15500
Si -1.35775 -1.35775 -25.79725
Si -10.86200 -13.57750 -24.43950
Si -9.50425 -12.21975 -23.08175
Si -8.14650 -10.86200 -24.43950
Si -6.78875 -9.50425 -23.08175
Si -5.43100 -8.14650 -24.43950
Si -4.07325 -6.78875 -23.08175
Si -2.71550 -5.43100 -24.43950
Si -1.35775 -4.07325 -23.08175
Si  0.00000 -2.71550 -24.43950
Si  1.35775 -1.35775 -23.08175
Si -8.14650 -13.57750 -21.72400
Si -6.78875 -12.21975 -20.36625
Si -5.43100 -10.86200 -21.72400
Si -4.07325 -9.50425 -20.36625
Si -2.71550 -8.14650 -21.72400
Si -1.35775 -6.78875 -20.36625
Si  0.00000 -5.43100 -21.72400
Si  1.35775 -4.07325 -20.36625
Si  2.71550 -2.71550 -21.72400
Si  4.07325 -1.35775 -20.36625
Si -5.43100 -13.57750 -19.00850
Si -4.07325 -12.21975 -17.65075
Si -2.71550 -10.86200 -19.00850
Si -1.35775 -9.50425 -17.65075
Si  0.00000 -8.14650 -19.00850
Si  1.35775 -6.78875 -17.65075
Si  2.71550 -5.43100 -19.00850
Si  4.07325 -4.07325 -17.65075
Si  5.43100 -2.71550 -19.00850
Si  6.78875 -1.35775 -17.65075
Si -2.71550 -13.57750 -16.29300
Si -1.35775 -12.21975 -14.93525
Si -0.00000 -10.86200 -16.29300
Si  1.35775 -9.50425 -14.93525
Si  2.71550 -8.14650 -16.29300
Si  4.07325 -6.78875 -14.93525
Si  5.43100 -5.43100 -16.29300
Si  6.78875 -4.07325 -14.93525
Si  8.14650 -2.71550 -16.29300
Si  9.50425 -1.35775 -14.93525
Si -13.57750 -10.86200 -24.43950
Si -12.21975 -9.50425 -23.08175
Si -10.86200 -8.14650 -24.43950
Si -9.50425 -6.78875 -23.08175
Si -8.14650 -5.43100 -24.43950
Si -6.78875 -4.07325 -23.08175
Si -5.43100 -2.71550 -24.43950
Si -4.07325 -1.35775 -23.08175
Si -2.71550  0.00000 -24.43950
Si -1.35775  1.35775 -23.08175
Si -10.86200 -10.86200 -21.72400
Si -9.50425 -9.50425 -20.36625
Si -8.14650 -8.14650 -21.72400
Si -6.78875 -6.78875 -20.36625
Si -5.43100 -5.43100 -21.72400
Si -4.07325 -4.07325 -20.36625
Si -2.71550 -2.71550 -21.72400
Si -1.35775 -1.35775 -20.36625
Si  0.00000  0.00000 -21.72400
Si  1.35775  1.35775 -20.36625
Si -8.14650 -10.86200 -19.00850
Si -6.78875 -9.50425 -17.65075
Si -5.43100 -8.14650 -19.00850
Si -4.07325 -6.78875 -17.65075
Si -2.71550 -5.43100 -19.00850
Si -1.35775 -4.07325 -17.65075
Si  0.00000 -2.71550 -19.00850
Si  1.35775 -1.35775 -17.65075
Si  2.71550 -0.00000 -19.00850
Si  4.07325  1.35775 -17.65075
Si -5.43100 -10.86200 -16.29300
Si -4.07325 -9.50425 -14.93525
Si -2.71550 -8.14650 -16.29300
Si -1.35775 -6.78875 -14.93525
Si  0.00000 -5.43100 -16.29300
Si  1.35775 -4.07325 -14.93525
Si  2.71550 -2.71550 -16.29300
Si  4.07325 -1.35775 -14.93525
Si  5.43100  0.00000 -16.29300
Si  6.78875  1.35775 -14.93525
Si -2.71550 -10.86200 -13.57750
Si -1.35775 -9.50425 -12.21975
Si -0.00000 -8.14650 -13.57750
Si  1.35775 -6.78875 -12.21975
Si  2.71550 -5.43100 -13.57750
Si  4.07325 -4.07325 -12.21975
Si  5.43100 -2.71550 -13.57750
Si  6.78875 -1.35775 -12.21975
Si  8.14650  0.00000 -13.57750
Si  9.50425  1.35775 -12.21975
Si -13.57750 -8.14650 -21.72400
Si -12.21975 -6.78875 -20.36625
Si -10.86200 -5.43100 -21.72400
Si -9.50425 -4.07325 -20.36625
Si -8.14650 -2.71550 -21.72400
Si -6.78875 -1.35775 -20.36625
Si -5.43100  0.00000 -21.72400
Si -4.07325  1.35775 -20.36625
Si -2.71550  2.71550 -21.72400
Si -1.35775  4.07325 -20.36625
Si -10.86200 -8.14650 -19.00850
Si -9.50425 -6.78875 -17.65075
Si -8.14650 -5.43100 -19.00850
Si -6.78875 -4.07325 -17.65075
Si -5.43100 -2.71550 -19.00850
Si -4.07325 -1.35775 -17.65075
Si -2.71550  0.00000 -19.00850
Si -1.35775  1.35775 -17.65075
Si  0.00000  2.71550 -19.00850
Si  1.35775  4.07325 -17.65075
Si -8.14650 -8.14650 -16.29300
Si -6.78875 -6.78875 -14.93525
Si -5.43100 -5.43100 -16.29300
Si -4.07325 -4.07325 -14.93525
Si -2.71550 -2.71550 -16.29300
Si -1.35775 -1.35775 -14.93525
Si  0.00000  0.00000 -16.29300
Si  1.35775  1.35775 -14.93525
Si  2.71550  2.71550 -16.29300
Si  4.07325  4.07325 -14.93525
Si -5.43100 -8.14650 -13.57750
Si -4.07325 -6.78875 -12.21975
Si -2.71550 -5.43100 -13.57750
Si -1.35775 -4.07325 -12.21975
Si  0.00000 -2.71550 -13.57750
Si  1.35775 -1.35775 -12.21975
Si  2.71550  0.00000 -13.57750
Si  4.07325  1.35775 -12.21975
Si  5.43100  2.71550 -13.57750
Si  6.78875  4.07325 -12.21975
Si -2.71550 -8.14650 -10.86200
Si -1.35775 -6.78875 -9.50425
Si  0.00000 -5.43100 -10.86200
Si  1.35775 -4.07325 -9.50425
Si  2.71550 -2.71550 -10.86200
Si  4.07325 -1.35775 -9.50425
Si  5.43100  0.00000 -10.86200
Si  6.78875  1.35775 -9.50425
Si  8.14650  2.71550 -10.86200
Si  9.50425  4.07325 -9.50425
Si -13.57750 -5.43100 -19.00850
Si -12.21975 -4.07325 -17.65075
Si -10.86200 -2.71550 -19.00850
Si -9.50425 -1.35775 -17.65075
Si -8.14650  0.00000 -19.00850
Si -6.78875  1.35775 -17.65075
Si -5.43100  2.71550 -19.00850
Si -4.07325  4.07325 -17.65075
Si -2.71550  5.43100 -19.00850
Si -1.35775  6.78875 -17.65075
Si -10.86200 -5.43100 -16.29300
Si -9.50425 -4.07325 -14.93525
Si -8.14650 -2.71550 -16.29300
Si -6.78875 -1.35775 -14.93525
Si -5.43100  0.00000 -16.29300
Si -4.07325  1.35775 -14.93525
Si -2.71550  2.71550 -16.29300
Si -1.35775  4.07325 -14.93525
Si  0.00000  5.43100 -16.29300
Si  1.35775  6.78875 -14.93525
Si -8.14650 -5.43100 -13.57750
Si -6.78875 -4.07325 -12.21975
Si -5.43100 -2.71550 -13.57750
Si -4.07325 -1.35775 -12.21975
Si -2.71550  0.00000 -13.57750
Si -1.35775  1.35775 -12.21975
Si  0.00000  2.71550 -13.57750
Si  1.35775  4.07325 -12.21975
Si  2.71550  5.43100 -13.57750
Si  4.07325  6.78875 -12.21975
Si -5.43100 -5.43100 -10.86200
Si -4.07325 -4.07325 -9.50425
Si -2.71550 -2.71550 -10.86200
Si -1.35775 -1.35775 -9.50425
Si  0.00000  0.00000 -10.86200
Si  1.35775  1.35775 -9.50425
Si  2.71550  2.71550 -10.86200
Si  4.07325  4.07325 -9.50425
Si  5.43100  5.43100 -10.86200
Si  6.78875  6.78875 -9.50425
Si -2.71550 -5.43100 -8.14650
Si -1.35775 -4.07325 -6.78875
Si  0.00000 -2.71550 -8.14650
Si  1.35775 -1.35775 -6.78875
Si  2.71550  0.00000 -8.14650
Si  4.07325  1.35775 -6.78875
Si  5.43100  2.71550 -8.14650
Si  6.78875  4.07325 -6.78875
Si  8.14650  5.43100 -8.14650
Si  9.50425  6.78875 -6.78875
Si -13.57750 -2.71550 -16.29300
Si -12.21975 -1.35775 -14.93525
Si -10.86200  0.00000 -16.29300
Si -9.50425  1.35775 -14.93525
Si -8.14650  2.71550 -16.29300
Si -6.78875  4.07325 -14.93525
Si -5.43100  5.43100 -16.29300
Si -4.07325  6.78875 -14.93525
Si -2.71550  8.14650 -16.29300
Si -1.35775  9.50425 -14.93525
Si -10.86200 -2.71550 -13.57750
Si -9.50425 -1.35775 -12.21975
Si -8.14650  0.00000 -13.57750
Si -6.78875  1.35775 -12.21975
Si -5.43100  2.71550 -13.57750
Si -4.07325  4.07325 -12.21975
Si -2.71550  5.43100 -13.57750
Si -1.35775  6.78875 -12.21975
Si -0.00000  8.14650 -13.57750
Si  1.35775  9.50425 -12.21975
Si -8.14650 -2.71550 -10.86200
Si -6.78875 -1.35775 -9.50425
Si -5.43100  0.00000 -10.86200
Si -4.07325  1.35775 -9.50425
Si -2.71550  2.71550 -10.86200
Si -1.35775  4.07325 -9.50425
Si  0.00000  5.43100 -10.86200
Si  1.35775  6.78875 -9.50425
Si  2.71550  8.14650 -10.86200
Si  4.07325  9.50425 -9.50425
Si -5.43100 -2.71550 -8.14650
Si -4.07325 -1.35775 -6.78875
Si -2.71550 -0.00000 -8.14650
Si -1.35775  1.35775 -6.78875
Si  0.00000  2.71550 -8.14650
Si  1.35775  4.07325 -6.78875
Si  2.71550  5.43100 -8.14650
Si  4.07325  6.78875 -6.78875
Si  5.43100  8.14650 -8.14650
Si  6.78875  9.50425 -6.78875
Si -2.71550 -2.71550 -5.43100
Si -1.35775 -1.35775 -4.07325
Si  0.00000  0.00000 -5.43100
Si  1.35775  1.35775 -4.07325
Si  2.71550  2.71550 -5.43100
Si  4.07325  4.07325 -4.07325
Si  5.43100  5.43100 -5.43100
Si  6.78875  6.78875 -4.07325
Si  8.14650  8.14650 -5.43100
Si  9.50425  9.50425 -4.07325
Si  0.00000  0.00000 -27.15500
Si  1.35775  1.35775 -25.79725
Si  2.71550  2.71550 -27.15500
Si  4.07325  4.07325 -25.79725
Si  5.43100  5.43100 -27.15500
Si  6.78875  6.78875 -25.79725
Si  8.14650  8.14650 -27.15500
Si  9.50425  9.50425 -25.79725
Si 10.86200 10.86200 -27.15500
Si 12.21975 12.21975 -25.79725
Si  2.71550  0.00000 -24.43950
Si  4.07325  1.35775 -23.08175
Si  5.43100  2.71550 -24.43950
Si  6.78875  4.07325 -23.08175
Si  8.14650  5.43100 -24.43950
Si  9.50425  6.78875 -23.08175
Si 10.86200  8.14650 -24.43950
Si 12.21975  9.50425 -23.08175
Si 13.57750 10.86200 -24.43950
Si 14.93525 12.21975 -23.08175
Si  5.43100  0.00000 -21.72400
Si  6.78875  1.35775 -20.36625
Si  8.14650  2.71550 -21.72400
Si  9.50425  4.07325 -20.36625
Si 10.86200  5.43100 -21.72400
Si 12.21975  6.78875 -20.36625
Si 13.57750  8.14650 -21.72400
Si 14.93525  9.50425 -20.36625
Si 16.29300 10.86200 -21.72400
Si 17.65075 12.21975 -20.36625
Si  8.14650  0.00000 -19.00850
Si  9.50425  1.35775 -17.65075
Si 10.86200  2.71550 -19.00850
Si 12.21975  4.07325 -17.65075
Si 13.57750  5.43100 -19.00850
Si 14.93525  6.78875 -17.65075
Si 16.29300  8.14650 -19.00850
Si 17.65075  9.50425 -17.65075
Si 19.00850 10.86200 -19.00850
Si 20.36625 12.21975 -17.65075
Si 10.86200  0.00000 -16.29300
Si 12.21975  1.35775 -14.93525
Si 13.57750  2.71550 -16.29300
Si 14.93525  4.07325 -14.93525
Si 16.29300  5.43100 -16.29300
Si 17.65075  6.78875 -14.93525
Si 19.00850  8.14650 -16.29300
Si 20.36625  9.50425 -14.93525
Si 21.72400 10.86200 -16.29300
Si 23.08175 12.21975 -14.93525
Si  0.00000  2.71550 -24.43950
Si  1.35775  4.07325 -23.08175
Si  2.71550  5.43100 -24.43950
Si  4.07325  6.78875 -23.08175
Si  5.43100  8.14650 -24.43950
Si  6.78875  9.50425 -23.08175
Si  8.14650 10.86200 -24.43950
Si  9.50425 12.21975 -23.08175
Si 10.86200 13.57750 -24.43950
Si 12.21975 14.93525 -23.08175
Si  2.71550  2.71550 -21.72400
Si  4.07325  4.07325 -20.36625
Si  5.43100  5.43100 -21.72400
Si  6.78875  6.78875 -20.36625
Si  8.14650  8.14650 -21.72400
Si  9.50425  9.50425 -20.36625
Si 10.86200 10.86200 -21.72400
Si 12.21975 12.21975 -20.36625
Si 13.57750 13.57750 -21.72400
Si 14.93525 14.93525 -20.36625
Si  5.43100  2.71550 -19.00850
Si  6.78875  4.07325 -17.65075
Si  8.14650  5.43100 -19.00850
Si  9.50425  6.78875 -17.65075
Si 10.86200  8.14650 -19.00850
Si 12.21975  9.50425 -17.65075
Si 13.57750 10.86200 -19.00850
Si 14.93525 12.21975 -17.65075
Si 16.29300 13.57750 -19.00850
Si 17.65075 14.93525 -17.65075
Si  8.14650  2.71550 -16.29300
Si  9.50425  4.07325 -14.93525
Si 10.86200  5.43100 -16.29300
Si 12.21975  6.78875 -14.93525
Si 13.57750  8.14650 -16.29300
Si 14.93525  9.50425 -14.93525
Si 16.29300 10.86200 -16.29300
Si 17.65075 12.21975 -14.93525
Si 19.00850 13.57750 -16.29300
Si 20.36625 14.93525 -14.93525
Si 10.86200  2.71550 -13.57750
Si 12.21975  4.07325 -12.21975
Si 13.57750  5.43100 -13.57750
Si 14.93525  6.78875 -12.21975
Si 16.29300  8.14650 -13.57750
Si 17.65075  9.50425 -12.21975
Si 19.00850 10.86200 -13.57750
Si 20.36625 12.21975 -12.21975
Si 21.72400 13.57750 -13.57750
Si 23.08175 14.93525 -12.21975
Si  0.00000  5.43100 -21.72400
Si  1.35775  6.78875 -20.36625
Si  2.71550  8.14650 -21.72400
Si  4.07325  9.50425 -20.36625
Si  5.43100 10.86200 -21.72400
Si  6.78875 12.21975 -20.36625
Si  8.14650 13.57750 -21.72400
Si  9.50425 14.93525 -20.36625
Si 10.86200 16.29300 -21.72400
Si 12.21975 17.65075 -20.36625
Si  2.71550  5.43100 -19.00850
Si  4.07325  6.78875 -17.65075
Si  5.43100  8.14650 -19.00850
Si  6.78875  9.50425 -17.65075
Si  8.14650 10.86200 -19.00850
Si  9.50425 12.21975 -17.65075
Si 10.86200 13.57750 -19.00850
Si 12.21975 14.93525 -17.65075
Si 13.57750 16.29300 -19.00850
Si 14.93525 17.65075 -17.65075
Si  5.43100  5.43100 -16.29300
Si  6.78875  6.78875 -14.93525
Si  8.14650  8.14650 -16.29300
Si  9.50425  9.50425 -14.93525
Si 10.86200 10.86200 -16.29300
Si 12.21975 12.21975 -14.93525
Si 13.57750 13.57750 -16.29300
Si 14.93525 14.93525 -14.93525
Si 16.29300 16.29300 -16.29300
Si 17.65075 17.65075 -14.93525
Si  8.14650  5.43100 -13.57750
Si  9.50425  6.78875 -12.21975
Si 10.86200  8.14650 -13.57750
Si 12.21975  9.50425 -12.21975
Si 13.57750 10.86200 -13.57750
Si 14.93525 12.21975 -12.21975
Si 16.29300 13.57750 -13.57750
Si 17.65075 14.93525 -12.21975
Si 19.00850 16.29300 -13.57750
Si 20.36625 17.65075 -12.21975
Si 10.86200  5.43100 -10.86200
Si 12.21975  6.78875 -9.50425
Si 13.57750  8.14650 -10.86200
Si 14.93525  9.50425 -9.50425
Si 16.29300 10.86200 -10.86200
Si 17.65075 12.21975 -9.50425
Si 19.00850 13.57750 -10.86200
Si 20.36625 14.93525 -9.50425
Si 21.72400 16.29300 -10.86200
Si 23.08175 17.65075 -9.50425
Si  0.00000  8.14650 -19.00850
Si  1.35775  9.50425 -17.65075
Si  2.71550 10.86200 -19.00850
Si  4.07325 12.21975 -17.65075
Si  5.43100 13.57750 -19.00850
Si  6.78875 14.93525 -17.65075
Si  8.14650 16.29300 -19.00850
Si  9.50425 17.65075 -17.65075
Si 10.86200 19.00850 -19.00850
Si 12.21975 20.36625 -17.65075
Si  2.71550  8.14650 -16.29300
Si  4.07325  9.50425 -14.93525
Si  5.43100 10.86200 -16.29300
Si  6.78875 12.21975 -14.93525
Si  8.14650 13.57750 -16.29300
Si  9.50425 14.93525 -14.93525
Si 10.86200 16.29300 -16.29300
Si 12.21975 17.65075 -14.93525
Si 13.57750 19.00850 -16.29300
Si 14.93525 20.36625 -14.93525
Si  5.43100  8.14650 -13.57750
Si  6.78875  9.50425 -12.21975
Si  8.14650 10.86200 -13.57750
Si  9.50425 12.21975 -12.21975
Si 10.86200 13.57750 -13.57750
Si 12.21975 14.93525 -12.21975
Si 13.57750 16.29300 -13.57750
Si 14.93525 17.65075 -12.21975
Si 16.29300 19.00850 -13.57750
Si 17.65075 20.36625 -12.21975
Si  8.14650  8.14650 -10.86200
Si  9.50425  9.50425 -9.50425
Si 10.86200 10.86200 -10.86200
Si 12.21975 12.21975 -9.50425
Si 13.57750 13.57750 -10.86200
Si 14.93525 14.93525 -9.50425
Si 16.29300 16.29300 -10.86200
Si 17.65075 17.65075 -9.50425
Si 19.00850 19.00850 -10.86200
Si 20.36625 20.36625 -9.50425
Si 10.86200  8.14650 -8.14650
Si 12.21975  9.50425 -6.78875
Si 13.57750 10.86200 -8.14650
Si 14.93525 12.21975 -6.78875
Si 16.29300 13.57750 -8.14650
Si 17.65075 14.93525 -6.78875
Si 19.00850 16.29300 -8.14650
Si 20.36625 17.65075 -6.78875
Si 21.72400 19.00850 -8.14650
Si 23.08175 20.36625 -6.78875
Si  0.00000 10.86200 -16.29300
Si  1.35775 12.21975 -14.93525
Si  2.71550 13.57750 -16.29300
Si  4.07325 14.93525 -14.93525
Si  5.43100 16.29300 -16.29300
Si  6.78875 17.65075 -14.93525
Si  8.14650 19.00850 -16.29300
Si  9.50425 20.36625 -14.93525
Si 10.86200 21.72400 -16.29300
Si 12.21975 23.08175 -14.93525
Si  2.71550 10.86200 -13.57750
Si  4.07325 12.21975 -12.21975
Si  5.43100 13.57750 -13.57750
Si  6.78875 14.93525 -12.21975
Si  8.14650 16.29300 -13.57750
Si  9.50425 17.65075 -12.21975
Si 10.86200 19.00850 -13.57750
Si 12.21975 20.36625 -12.21975
Si 13.57750 21.72400 -13.57750
Si 14.93525 23.08175 -12.21975
Si  5.43100 10.86200 -10.86200
Si  6.78875 12.21975 -9.50425
Si  8.14650 13.57750 -10.86200
Si  9.50425 14.93525 -9.50425
Si 10.86200 16.29300 -10.86200
Si 12.21975 17.65075 -9.50425
Si 13.57750 19.00850 -10.86200
Si 14.93525 20.36625 -9.50425
Si 16.29300 21.72400 -10.86200
Si 17.65075 23.08175 -9.50425
Si  8.14650 10.86200 -8.14650
Si  9.50425 12.21975 -6.78875
Si 10.86200 13.57750 -8.14650
Si 12.21975 14.93525 -6.78875
Si 13.57750 16.29300 -8.14650
Si 14.93525 17.65075 -6.78875
Si 16.29300 19.00850 -8.14650
Si 17.65075 20.36625 -6.78875
Si 19.00850 21.72400 -8.14650
Si 20.36625 23.08175 -6.78875
Si 10.86200 10.86200 -5.43100
Si 12.21975 12.21975 -4.07325
Si 13.57750 13.57750 -5.43100
Si 14.93525 14.93525 -4.07325
Si 16.29300 16.29300 -5.43100
Si 17.65075 17.65075 -4.07325
Si 19.00850 19.00850 -5.43100
Si 20.36625 20.36625 -4.07325
Si 21.72400 21.72400 -5.43100
Si 23.08175 23.08175 -4.07325
Si -13.57750 -27.15500 -13.57750
Si -12.21975 -25.79725 -12.21975
Si -10.86200 -24.43950 -13.57750
Si -9.50425 -23.08175 -12.21975
Si -8.14650 -21.72400 -13.57750
Si -6.78875 -20.36625 -12.21975
Si -5.43100 -19.00850 -13.57750
Si -4.07325 -17.65075 -12.21975
Si -2.71550 -16.29300 -13.57750
Si -1.35775 -14.93525 -12.21975
Si -10.86200 -27.15500 -10.86200
Si -9.50425 -25.79725 -9.50425
Si -8.14650 -24.43950 -10.86200
Si -6.78875 -23.08175 -9.50425
Si -5.43100 -21.72400 -10.86200
Si -4.07325 -20.36625 -9.50425
Si -2.71550 -19.00850 -10.86200
Si -1.35775 -17.65075 -9.50425
Si  0.00000 -16.29300 -10.86200
Si  1.35775 -14.93525 -9.50425
Si -8.14650 -27.15500 -8.14650
Si -6.78875 -25.79725 -6.78875
Si -5.43100 -24.43950 -8.14650
Si -4.07325 -23.08175 -6.78875
Si -2.71550 -21.72400 -8.14650
Si -1.35775 -20.36625 -6.78875
Si  0.00000 -19.00850 -8.14650
Si  1.35775 -17.65075 -6.78875
Si  2.71550 -16.29300 -8.14650
Si  4.07325 -14.93525 -6.78875
Si -5.43100 -27.15500 -5.43100
Si -4.07325 -25.79725 -4.07325
Si -2.71550 -24.43950 -5.43100
Si -1.35775 -23.08175 -4.07325
Si  0.00000 -21.72400 -5.43100
Si  1.35775 -20.36625 -4.07325
Si  2.71550 -19.00850 -5.43100
Si  4.07325 -17.65075 -4.07325
Si  5.43100 -16.29300 -5.43100
Si  6.78875 -14.93525 -4.07325
Si -2.71550 -27.15500 -2.71550
Si -1.35775 -25.79725 -1.35775
Si -0.00000 -24.43950 -2.71550
Si  1.35775 -23.08175 -1.35775
Si  2.71550 -21.72400 -2.71550
Si  4.07325 -20.36625 -1.35775
Si  5.43100 -19.00850 -2.71550
Si  6.78875 -17.65075 -1.35775
Si  8.14650 -16.29300 -2.71550
Si  9.50425 -14.93525 -1.35775
Si -13.57750 -24.43950 -10.86200
Si -12.21975 -23.08175 -9.50425
Si -10.86200 -21.72400 -10.86200
Si -9.50425 -20.36625 -9.50425
Si -8.14650 -19.00850 -10.86200
Si -6.78875 -17.65075 -9.50425
Si -5.43100 -16.29300 -10.86200
Si -4.07325 -14.93525 -9.50425
Si -2.71550 -13.57750 -10.86200
Si -1.35775 -12.21975 -9.50425
Si -10.86200 -24.43950 -8.14650
Si -9.50425 -23.08175 -6.78875
Si -8.14650 -21.72400 -8.14650
Si -6.78875 -20.36625 -6.78875
Si -5.43100 -19.00850 -8.14650
Si -4.07325 -17.65075 -6.78875
Si -2.71550 -16.29300 -8.14650
Si -1.35775 -14.93525 -6.78875
Si  0.00000 -13.57750 -8.14650
Si  1.35775 -12.21975 -6.78875
Si -8.14650 -24.43950 -5.43100
Si -6.78875 -23.08175 -4.07325
Si -5.43100 -21.72400 -5.43100
Si -4.07325 -20.36625 -4.07325
Si -2.71550 -19.00850 -5.43100
Si -1.35775 -17.65075 -4.07325
Si  0.00000 -16.29300 -5.43100
Si  1.35775 -14.93525 -4.07325
Si  2.71550 -13.57750 -5.43100
Si  4.07325 -12.21975 -4.07325
Si -5.43100 -24.43950 -2.71550
Si -4.07325 -23.08175 -1.35775
Si -2.71550 -21.72400 -2.71550
Si -1.35775 -20.36625 -1.35775
Si  0.00000 -19.00850 -2.71550
Si  1.35775 -17.65075 -1.35775
Si  2.71550 -16.29300 -2.71550
Si  4.07325 -14.93525 -1.35775
Si  5.43100 -13.57750 -2.71550
Si  6.78875 -12.21975 -1.35775
Si -2.71550 -24.43950  0.00000
Si -1.35775 -23.08175  1.35775
Si -0.00000 -21.72400  0.00000
Si  1.35775 -20.36625  1.35775
Si  2.71550 -19.00850 -0.00000
Si  4.07325 -17.65075  1.35775
Si  5.43100 -16.29300  0.00000
Si  6.78875 -14.93525  1.35775
Si  8.14650 -13.57750  0.00000
Si  9.50425 -12.21975  1.35775
Si -13.57750 -21.72400 -8.14650
Si -12.21975 -20.36625 -6.78875
Si -10.86200 -19.00850 -8.14650
Si -9.50425 -17.65075 -6.78875
Si -8.14650 -16.29300 -8.14650
Si -6.78875 -14.93525 -6.78875
Si -5.43100 -13.57750 -8.14650
Si -4.07325 -12.21975 -6.78875
Si -2.71550 -10.86200 -8.14650
Si -1.35775 -9.50425 -6.78875
Si -10.86200 -21.72400 -5.43100
Si -9.50425 -20.36625 -4.07325
Si -8.14650 -19.00850 -5.43100
Si -6.78875 -17.65075 -4.07325
Si -5.43100 -16.29300 -5.43100
Si -4.07325 -14.93525 -4.07325
Si -2.71550 -13.57750 -5.43100
Si -1.35775 -12.21975 -4.07325
Si  0.00000 -10.86200 -5.43100
Si  1.35775 -9.50425 -4.07325
Si -8.14650 -21.72400 -2.71550
Si -6.78875 -20.36625 -1.35775
Si -5.43100 -19.00850 -2.71550
Si -4.07325 -17.65075 -1.35775
Si -2.71550 -16.29300 -2.71550
Si -1.35775 -14.93525 -1.35775
Si  0.00000 -13.57750 -2.71550
Si  1.35775 -12.21975 -1.35775
Si  2.71550 -10.86200 -2.71550
Si  4.07325 -9.50425 -1.35775
Si -5.43100 -21.72400  0.00000
Si -4.07325 -20.36625  1.35775
Si -2.71550 -19.00850  0.00000
Si -1.35775 -17.65075  1.35775
Si  0.00000 -16.29300  0.00000
Si  1.35775 -14.93525  1.35775
Si  2.71550 -13.57750  0.00000
Si  4.07325 -12.21975  1.35775
Si  5.43100 -10.86200  0.00000
Si  6.78875 -9.50425  1.35775
Si -2.71550 -21.72400  2.71550
Si -1.35775 -20.36625  4.07325
Si  0.00000 -19.00850  2.71550
Si  1.35775 -17.65075  4.07325
Si  2.71550 -16.29300  2.71550
Si  4.07325 -14.93525  4.07325
Si  5.43100 -13.57750  2.71550
Si  6.78875 -12.21975  4.07325
Si  8.14650 -10.86200  2.71550
Si  9.50425 -9.50425  4.07325
Si -13.57750 -19.00850 -5.43100
Si -12.21975 -17.65075 -4.07325
Si -10.86200 -16.29300 -5.43100
Si -9.50425 -14.93525 -4.07325
Si -8.14650 -13.57750 -5.43100
Si -6.78875 -12.21975 -4.07325
Si -5.43100 -10.86200 -5.43100
Si -4.07325 -9.50425 -4.07325
Si -2.71550 -8.14650 -5.43100
Si -1.35775 -6.78875 -4.07325
Si -10.86200 -19.00850 -2.71550
Si -9.50425 -17.65075 -1.35775
Si -8.14650 -16.29300 -2.71550
Si -6.78875 -14.93525 -1.35775
Si -5.43100 -13.57750 -2.71550
Si -4.07325 -12.21975 -1.35775
Si -2.71550 -10.86200 -2.71550
Si -1.35775 -9.50425 -1.35775
Si  0.00000 -8.14650 -2.71550
Si  1.35775 -6.78875 -1.35775
Si -8.14650 -19.00850  0.00000
Si -6.78875 -17.65075  1.35775
Si -5.43100 -16.29300  0.00000
Si -4.07325 -14.93525  1.35775
Si -2.71550 -13.57750  0.00000
Si -1.35775 -12.21975  1.35775
Si  0.00000 -10.86200  0.00000
Si  1.35775 -9.50425  1.35775
Si  2.71550 -8.14650  0.00000
Si  4.07325 -6.78875  1.35775
Si -5.43100 -19.00850  2.71550
Si -4.07325 -17.65075  4.07325
Si -2.71550 -16.29300  2.71550
Si -1.35775 -14.93525  4.07325
Si  0.00000 -13.57750  2.71550
Si  1.35775 -12.21975  4.07325
Si  2.71550 -10.86200  2.71550
Si  4.07325 -9.50425  4.07325
Si  5.43100 -8.14650  2.71550
Si  6.78875 -6.78875  4.07325
Si -2.71550 -19.00850  5.43100
Si -1.35775 -17.65075  6.78875
Si  0.00000 -16.29300  5.43100
Si  1.35775 -14.93525  6.78875
Si  2.71550 -13.57750  5.43100
Si  4.07325 -12.21975  6.78875
Si  5.43100 -10.86200  5.43100
Si  6.78875 -9.50425  6.78875
Si  8.14650 -8.14650  5.43100
Si  9.50425 -6.78875  6.78875
Si -13.57750 -16.29300 -2.71550
Si -12.21975 -14.93525 -1.35775
Si -10.86200 -13.57750 -2.71550
Si -9.50425 -12.21975 -1.35775
Si -8.14650 -10.86200 -2.71550
Si -6.78875 -9.50425 -1.35775
Si -5.43100 -8.14650 -2.71550
Si -4.07325 -6.78875 -1.35775
Si -2.71550 -5.43100 -2.71550
Si -1.35775 -4.07325 -1.35775
Si -10.86200 -16.29300  0.00000
Si -9.50425 -14.93525  1.35775
Si -8.14650 -13.57750  0.00000
Si -6.78875 -12.21975  1.35775
Si -5.43100 -10.86200  0.00000
Si -4.07325 -9.50425  1.35775
Si -2.71550 -8.14650  0.00000
Si -1.35775 -6.78875  1.35775
Si -0.00000 -5.43100  0.00000
Si  1.35775 -4.07325  1.35775
Si -8.14650 -16.29300  2.71550
Si -6.78875 -14.93525  4.07325
Si -5.43100 -13.57750  2.71550
Si -4.07325 -12.21975  4.07325
Si -2.71550 -10.86200  2.71550
Si -1.35775 -9.50425  4.07325
Si  0.00000 -8.14650  2.71550
Si  1.35775 -6.78875  4.07325
Si  2.71550 -5.43100  2.71550
Si  4.07325 -4.07325  4.07325
Si -5.43100 -16.29300  5.43100
Si -4.07325 -14.93525  6.78875
Si -2.71550 -13.57750  5.43100
Si -1.35775 -12.21975  6.78875
Si  0.00000 -10.86200  5.43100
Si  1.35775 -9.50425  6.78875
Si  2.71550 -8.14650  5.43100
Si  4.07325 -6.78875  6.78875
Si  5.43100 -5.43100  5.43100
Si  6.78875 -4.07325  6.78875
Si -2.71550 -16.29300  8.14650
Si -1.35775 -14.93525  9.50425
Si  0.00000 -13.57750  8.14650
Si  1.35775 -12.21975  9.50425
Si  2.71550 -10.86200  8.14650
Si  4.07325 -9.50425  9.50425
Si  5.43100 -8.14650  8.14650
Si  6.78875 -6.78875  9.50425
Si  8.14650 -5.43100  8.14650
Si  9.50425 -4.07325  9.50425
Si  0.00000 -13.57750 -13.57750
Si  1.35775 -12.21975 -12.21975
Si  2.71550 -10.86200 -13.57750
Si  4.07325 -9.50425 -12.21975
Si  5.43100 -8.14650 -13.57750
Si  6.78875 -6.78875 -12.21975
Si  8.14650 -5.43100 -13.57750
Si  9.50425 -4.07325 -12.21975
Si 10.86200 -2.71550 -13.57750
Si 12.21975 -1.35775 -12.21975
Si  2.71550 -13.57750 -10.86200
Si  4.07325 -12.21975 -9.50425
Si  5.43100 -10.86200 -10.86200
Si  6.78875 -9.50425 -9.50425
Si  8.14650 -8.14650 -10.86200
Si  9.50425 -6.78875 -9.50425
Si 10.86200 -5.43100 -10.86200
Si 12.21975 -4.07325 -9.50425
Si 13.57750 -2.71550 -10.86200
Si 14.93525 -1.35775 -9.50425
Si  5.43100 -13.57750 -8.14650
Si  6.78875 -12.21975 -6.78875
Si  8.14650 -10.86200 -8.14650
Si  9.50425 -9.50425 -6.78875
Si 10.86200 -8.14650 -8.14650
Si 12.21975 -6.78875 -6.78875
Si 13.57750 -5.43100 -8.14650
Si 14.93525 -4.07325 -6.78875
Si 16.29300 -2.71550 -8.14650
Si 17.65075 -1.35775 -6.78875
Si  8.14650 -13.57750 -5.43100
Si  9.50425 -12.21975 -4.07325
Si 10.86200 -10.86200 -5.43100
Si 12.21975 -9.50425 -4.07325
Si 13.57750 -8.14650 -5.43100
Si 14.93525 -6.78875 -4.07325
Si 16.29300 -5.43100 -5.43100
Si 17.65075 -4.07325 -4.07325
Si 19.00850 -2.71550 -5.43100
Si 20.36625 -1.35775 -4.07325
Si 10.86200 -13.57750 -2.71550
Si 12.21975 -12.21975 -1.35775
Si 13.57750 -10.86200 -2.71550
Si 14.93525 -9.50425 -1.35775
Si 16.29300 -8.14650 -2.71550
Si 17.65075 -6.78875 -1.35775
Si 19.00850 -5.43100 -2.71550
Si 20.36625 -4.07325 -1.35775
Si 21.72400 -2.71550 -2.71550
Si 23.08175 -1.35775 -1.35775
Si  0.00000 -10.86200 -10.86200
Si  1.35775 -9.50425 -9.50425
Si  2.71550 -8.14650 -10.86200
Si  4.07325 -6.78875 -9.50425
Si  5.43100 -5.43100 -10.86200
Si  6.78875 -4.07325 -9.50425
Si  8.14650 -2.71550 -10.86200
Si  9.50425 -1.35775 -9.50425
Si 10.86200  0.00000 -10.86200
Si 12.21975  1.35775 -9.50425
Si  2.71550 -10.86200 -8.14650
Si  4.07325 -9.50425 -6.78875
Si  5.43100 -8.14650 -8.14650
Si  6.78875 -6.78875 -6.78875
Si  8.14650 -5.43100 -8.14650
Si  9.50425 -4.07325 -6.78875
Si 10.86200 -2.71550 -8.14650
Si 12.21975 -1.35775 -6.78875
Si 13.57750  0.00000 -8.14650
Si 14.93525  1.35775 -6.78875
Si  5.43100 -10.86200 -5.43100
Si  6.78875 -9.50425 -4.07325
Si  8.14650 -8.14650 -5.43100
Si  9.50425 -6.78875 -4.07325
Si 10.86200 -5.43100 -5.43100
Si 12.21975 -4.07325 -4.07325
Si 13.57750 -2.71550 -5.43100
Si 14.93525 -1.35775 -4.07325
Si 16.29300 -0.00000 -5.43100
Si 17.65075  1.35775 -4.07325
Si  8.14650 -10.86200 -2.71550
Si  9.50425 -9.50425 -1.35775
Si 10.86200 -8.14650 -2.71550
Si 12.21975 -6.78875 -1.35775
Si 13.57750 -5.43100 -2.71550
Si 14.93525 -4.07325 -1.35775
Si 16.29300 -2.71550 -2.71550
Si 17.65075 -1.35775 -1.35775
Si 19.00850  0.00000 -2.71550
Si 20.36625  1.35775 -1.35775
Si 10.86200 -10.86200  0.00000
Si 12.21975 -9.50425  1.35775
Si 13.57750 -8.14650  0.00000
Si 14.93525 -6.78875  1.35775
Si 16.29300 -5.43100 -0.00000
Si 17.65075 -4.07325  1.35775
Si 19.00850 -2.71550  0.00000
Si 20.36625 -1.35775  1.35775
Si 21.72400  0.00000  0.00000
Si 23.08175  1.35775  1.35775
Si  0.00000 -8.14650 -8.14650
Si  1.35775 -6.78875 -6.78875
Si  2.71550 -5.43100 -8.14650
Si  4.07325 -4.07325 -6.78875
Si  5.43100 -2.71550 -8.14650
Si  6.78875 -1.35775 -6.78875
Si  8.14650  0.00000 -8.14650
Si  9.50425  1.35775 -6.78875
Si 10.86200  2.71550 -8.14650
Si 12.21975  4.07325 -6.78875
Si  2.71550 -8.14650 -5.43100
Si  4.07325 -6.78875 -4.07325
Si  5.43100 -5.43100 -5.43100
Si  6.78875 -4.07325 -4.07325
Si  8.14650 -2.71550 -5.43100
Si  9.50425 -1.35775 -4.07325
Si 10.86200  0.00000 -5.43100
Si 12.21975  1.35775 -4.07325
Si 13.57750  2.71550 -5.43100
Si 14.93525  4.07325 -4.07325
Si  5.43100 -8.14650 -2.71550
Si  6.78875 -6.78875 -1.35775
Si  8.14650 -5.43100 -2.71550
Si  9.50425 -4.07325 -1.35775
Si 10.86200 -2.71550 -2.71550
Si 12.21975 -1.35775 -1.35775
Si 13.57750  0.00000 -2.71550
Si 14.93525  1.35775 -1.35775
Si 16.29300  2.71550 -2.71550
Si 17.65075  4.07325 -1.35775
Si  8.14650 -8.14650  0.00000
Si  9.50425 -6.78875  1.35775
Si 10.86200 -5.43100  0.00000
Si 12.21975 -4.07325  1.35775
Si 13.57750 -2.71550  0.00000
Si 14.93525 -1.35775  1.35775
Si 16.29300  0.00000  0.00000
Si 17.65075  1.35775  1.35775
Si 19.00850  2.71550  0.00000
Si 20.36625  4.07325  1.35775
Si 10.86200 -8.14650  2.71550
Si 12.21975 -6.78875  4.07325
Si 13.57750 -5.43100  2.71550
Si 14.93525 -4.07325  4.07325
Si 16.29300 -2.71550  2.71550
Si 17.65075 -1.35775  4.07325
Si 19.00850  0.00000  2.71550
Si 20.36625  1.35775  4.07325
Si 21.72400  2.71550  2.71550
Si 23.08175  4.07325  4.07325
Si  0.00000 -5.43100 -5.43100
Si  1.35775 -4.07325 -4.07325
Si  2.71550 -2.71550 -5.43100
Si  4.07325 -1.35775 -4.07325
Si  5.43100  0.00000 -5.43100
Si  6.78875  1.35775 -4.07325
Si  8.14650  2.71550 -5.43100
Si  9.50425  4.07325 -4.07325
Si 10.86200  5.43100 -5.43100
Si 12.21975  6.78875 -4.07325
Si  2.71550 -5.43100 -2.71550
Si  4.07325 -4.07325 -1.35775
Si  5.43100 -2.71550 -2.71550
Si  6.78875 -1.35775 -1.35775
Si  8.14650  0.00000 -2.71550
Si  9.50425  1.35775 -1.35775
Si 10.86200  2.71550 -2.71550
Si 12.21975  4.07325 -1.35775
Si 13.57750  5.43100 -2.71550
Si 14.93525  6.78875 -1.35775
Si  5.43100 -5.43100  0.00000
Si  6.78875 -4.07325  1.35775
Si  8.14650 -2.71550  0.00000
Si  9.50425 -1.35775  1.35775
Si 10.86200  0.00000  0.00000
Si 12.21975  1.35775  1.35775
Si 13.57750  2.71550  0.00000
Si 14.93525  4.07325  1.35775
Si 16.29300  5.43100  0.00000
Si 17.65075  6.78875  1.35775
Si  8.14650 -5.43100  2.71550
Si  9.50425 -4.07325  4.07325
Si 10.86200 -2.71550  2.71550
Si 12.21975 -1.35775  4.07325
Si 13.57750  0.00000  2.71550
Si 14.93525  1.35775  4.07325
Si 16.29300  2.71550  2.71550
Si 17.65075  4.07325  4.07325
Si 19.00850  5.43100  2.71550
Si 20.36625  6.78875  4.07325
Si 10.86200 -5.43100  5.43100
Si 12.21975 -4.07325  6.78875
Si 13.57750 -2.71550  5.43100
Si 14.93525 -1.35775  6.78875
Si 16.29300  0.00000  5.43100
Si 17.65075  1.35775  6.78875
Si 19.00850  2.71550  5.43100
Si 20.36625  4.07325  6.78875
Si 21.72400  5.43100  5.43100
Si 23.08175  6.78875  6.78875
Si  0.00000 -2.71550 -2.71550
Si  1.35775 -1.35775 -1.35775
Si  2.71550  0.00000 -2.71550
Si  4.07325  1.35775 -1.35775
Si  5.43100  2.71550 -2.71550
Si  6.78875  4.07325 -1.35775
Si  8.14650  5.43100 -2.71550
Si  9.50425  6.78875 -1.35775
Si 10.86200  8.14650 -2.71550
Si 12.21975  9.50425 -1.35775
Si  2.71550 -2.71550  0.00000
Si  4.07325 -1.35775  1.35775
Si  5.43100  0.00000  0.00000
Si  6.78875  1.35775  1.35775
Si  8.14650  2.71550  0.00000
Si  9.50425  4.07325  1.35775
Si 10.86200  5.43100  0.00000
Si 12.21975  6.78875  1.35775
Si 13.57750  8.14650  0.00000
Si 14.93525  9.50425  1.35775
Si  5.43100 -2.71550  2.71550
Si  6.78875 -1.35775  4.07325
Si  8.14650  0.00000  2.71550
Si  9.50425  1.35775  4.07325
Si 10.86200  2.71550  2.71550
Si 12.21975  4.07325  4.07325
Si 13.57750  5.43100  2.71550
Si 14.93525  6.78875  4.07325
Si 16.29300  8.14650  2.71550
Si 17.65075  9.50425  4.07325
Si  8.14650 -2.71550  5.43100
Si  9.50425 -1.35775  6.78875
Si 10.86200 -0.00000  5.43100
Si 12.21975  1.35775  6.78875
Si 13.57750  2.71550  5.43100
Si 14.93525  4.07325  6.78875
Si 16.29300  5.43100  5.43100
Si 17.65075  6.78875  6.78875
Si 19.00850  8.14650  5.43100
Si 20.36625  9.50425  6.78875
Si 10.86200 -2.71550  8.14650
Si 12.21975 -1.35775  9.50425
Si 13.57750  0.00000  8.14650
Si 14.93525  1.35775  9.50425
Si 16.29300  2.71550  8.14650
Si 17.65075  4.07325  9.50425
Si 19.00850  5.43100  8.14650
Si 20.36625  6.78875  9.50425
Si 21.72400  8.14650  8.14650
Si 23.08175  9.50425  9.50425
Si 13.57750  0.00000 -13.57750
Si 14.93525  1.35775 -12.21975
Si 16.29300  2.71550 -13.57750
Si 17.65075  4.07325 -12.21975
Si 19.00850  5.43100 -13.57750
Si 20.36625  6.78875 -12.21975
Si 21.72400  8.14650 -13.57750
Si 23.08175  9.50425 -12.21975
Si 24.43950 10.86200 -13.57750
Si 25.79725 12.21975 -12.21975
Si 16.29300  0.00000 -10.86200
Si 17.65075  1.35775 -9.50425
Si 19.00850  2.71550 -10.86200
Si 20.36625  4.07325 -9.50425
Si 21.72400  5.43100 -10.86200
Si 23.08175  6.78875 -9.50425
Si 24.43950  8.14650 -10.86200
Si 25.79725  9.50425 -9.50425
Si 27.15500 10.86200 -10.86200
Si 28.51275 12.21975 -9.50425
Si 19.00850  0.00000 -8.14650
Si 20.36625  1.35775 -6.78875
Si 21.72400  2.71550 -8.14650
Si 23.08175  4.07325 -6.78875
Si 24.43950  5.43100 -8.14650
Si 25.79725  6.78875 -6.78875
Si 27.15500  8.14650 -8.14650
Si 28.51275  9.50425 -6.78875
Si 29.87050 10.86200 -8.14650
Si 31.22825 12.21975 -6.78875
Si 21.72400  0.00000 -5.43100
Si 23.08175  1.35775 -4.07325
Si 24.43950  2.71550 -5.43100
Si 25.79725  4.07325 -4.07325
Si 27.15500  5.43100 -5.43100
Si 28.51275  6.78875 -4.07325
Si 29.87050  8.14650 -5.43100
Si 31.22825  9.50425 -4.07325
Si 32.58600 10.86200 -5.43100
Si 33.94375 12.21975 -4.07325
Si 24.43950  0.00000 -2.71550
Si 25.79725  1.35775 -1.35775
Si 27.15500  2.71550 -2.71550
Si 28.51275  4.07325 -1.35775
Si 29.87050  5.43100 -2.71550
Si 31.22825  6.78875 -1.35775
Si 32.58600  8.14650 -2.71550
Si 33.94375  9.50425 -1.35775
Si 35.30150 10.86200 -2.71550
Si 36.65925 12.21975 -1.35775
Si 13.57750  2.71550 -10.86200
Si 14.93525  4.07325 -9.50425
Si 16.29300  5.43100 -10.86200
Si 17.65075  6.78875 -9.50425
Si 19.00850  8.14650 -10.86200
Si 20.36625  9.50425 -9.50425
Si 21.72400 10.86200 -10.86200
Si 23.08175 12.21975 -9.50425
Si 24.43950 13.57750 -10.86200
Si 25.79725 14.93525 -9.50425
Si 16.29300  2.71550 -8.14650
Si 17.65075  4.07325 -6.78875
Si 19.00850  5.43100 -8.14650
Si 20.36625  6.78875 -6.78875
Si 21.72400  8.14650 -8.14650
Si 23.08175  9.50425 -6.78875
Si 24.43950 10.86200 -8.14650
Si 25.79725 12.21975 -6.78875
Si 27.15500 13.57750 -8.14650
Si 28.51275 14.93525 -6.78875
Si 19.00850  2.71550 -5.43100
Si 20.36625  4.07325 -4.07325
Si 21.72400  5.43100 -5.43100
Si 23.08175  6.78875 -4.07325
Si 24.43950  8.14650 -5.43100
Si 25.79725  9.50425 -4.07325
Si 27.15500 10.86200 -5.43100
Si 28.51275 12.21975 -4.07325
Si 29.87050 13.57750 -5.43100
Si 31.22825 14.93525 -4.07325
Si 21.72400  2.71550 -2.71550
Si 23.08175  4.07325 -1.35775
Si 24.43950  5.43100 -2.71550
Si 25.79725  6.78875 -1.35775
Si 27.15500  8.14650 -2.71550
Si 28.51275  9.50425 -1.35775
Si 29.87050 10.86200 -2.71550
Si 31.22825 12.21975 -1.35775
Si 32.58600 13.57750 -2.71550
Si 33.94375 14.93525 -1.35775
Si 24.43950  2.71550  0.00000
Si 25.79725  4.07325  1.35775
Si 27.15500  5.43100  0.00000
Si 28.51275  6.78875  1.35775
Si 29.87050  8.14650 -0.00000
Si 31.22825  9.50425  1.35775
Si 32.58600 10.86200  0.00000
Si 33.94375 12.21975  1.35775
Si 35.30150 13.57750  0.00000
Si 36.65925 14.93525  1.35775
Si 13.57750  5.43100 -8.14650
Si 14.93525  6.78875 -6.78875
Si 16.29300  8.14650 -8.14650
Si 17.65075  9.50425 -6.78875
Si 19.00850 10.86200 -8.14650
Si 20.36625 12.21975 -6.78875
Si 21.72400 13.57750 -8.14650
Si 23.08175 14.93525 -6.78875
Si 24.43950 16.29300 -8.14650
Si 25.79725 17.65075 -6.78875
Si 16.29300  5.43100 -5.43100
Si 17.65075  6.78875 -4.07325
Si 19.00850  8.14650 -5.43100
Si 20.36625  9.50425 -4.07325
Si 21.72400 10.86200 -5.43100
Si 23.08175 12.21975 -4.07325
Si 24.43950 13.57750 -5.43100
Si 25.79725 14.93525 -4.07325
Si 27.15500 16.29300 -5.43100
Si 28.51275 17.65075 -4.07325
Si 19.00850  5.43100 -2.71550
Si 20.36625  6.78875 -1.35775
Si 21.72400  8.14650 -2.71550
Si 23.08175  9.50425 -1.35775
Si 24.43950 10.86200 -2.71550
Si 25.79725 12.21975 -1.35775
Si 27.15500 13.57750 -2.71550
Si 28.51275 14.93525 -1.35775
Si 29.87050 16.29300 -2.71550
Si 31.22825 17.65075 -1.35775
Si 21.72400  5.43100  0.00000
Si 23.08175  6.78875  1.35775
Si 24.43950  8.14650  0.00000
Si 25.79725  9.50425  1.35775
Si 27.15500 10.86200  0.00000
Si 28.51275 12.21975  1.35775
Si 29.87050 13.57750  0.00000
Si 31.22825 14.93525  1.35775
Si 32.58600 16.29300  0.00000
Si 33.94375 17.65075  1.35775
Si 24.43950  5.43100  2.71550
Si 25.79725  6.78875  4.07325
Si 27.15500  8.14650  2.71550
Si 28.51275  9.50425  4.07325
Si 29.87050 10.86200  2.71550
Si 31.22825 12.21975  4.07325
Si 32.58600 13.57750  2.71550
Si 33.94375 14.93525  4.07325
Si 35.30150 16.29300  2.71550
Si 36.65925 17.65075  4.07325
Si 13.57750  8.14650 -5.43100
Si 14.93525  9.50425 -4.07325
Si 16.29300 10.86200 -5.43100
Si 17.65075 12.21975 -4.07325
Si 19.00850 13.57750 -5.43100
Si 20.36625 14.93525 -4.07325
Si 21.72400 16.29300 -5.43100
Si 23.08175 17.65075 -4.07325
Si 24.43950 19.00850 -5.43100
Si 25.79725 20.36625 -4.07325
Si 16.29300  8.14650 -2.71550
Si 17.65075  9.50425 -1.35775
Si 19.00850 10.86200 -2.71550
Si 20.36625 12.21975 -1.35775
Si 21.72400 13.57750 -2.71550
Si 23.08175 14.93525 -1.35775
Si 24.43950 16.29300 -2.71550
Si 25.79725 17.65075 -1.35775
Si 27.15500 19.00850 -2.71550
Si 28.51275 20.36625 -1.35775
Si 19.00850  8.14650  0.00000
Si 20.36625  9.50425  1.35775
Si 21.72400 10.86200  0.00000
Si 23.08175 12.21975  1.35775
Si 24.43950 13.57750  0.00000
Si 25.79725 14.93525  1.35775
Si 27.15500 16.29300  0.00000
Si 28.51275 17.65075  1.35775
Si 29.87050 19.00850  0.00000
Si 31.22825 20.36625  1.35775
Si 21.72400  8.14650  2.71550
Si 23.08175  9.50425  4.07325
Si 24.43950 10.86200  2.71550
Si 25.79725 12.21975  4.07325
Si 27.15500 13.57750  2.71550
Si 28.51275 14.93525  4.07325
Si 29.87050 16.29300  2.71550
Si 31.22825 17.65075  4.07325
Si 32.58600 19.00850  2.71550
Si 33.94375 20.36625  4.07325
Si 24.43950  8.14650  5.43100
Si 25.79725  9.50425  6.78875
Si 27.15500 10.86200  5.43100
Si 28.51275 12.21975  6.78875
Si 29.87050 13.57750  5.43100
Si 31.22825 14.93525  6.78875
Si 32.58600 16.29300  5.43100
Si 33.94375 17.65075  6.78875
Si 35.30150 19.00850  5.43100
Si 36.65925 20.36625  6.78875
Si 13.57750 10.86200 -2.71550
Si 14.93525 12.21975 -1.35775
Si 16.29300 13.57750 -2.71550
Si 17.65075 14.93525 -1.35775
Si 19.00850 16.29300 -2.71550
Si 20.36625 17.65075 -1.35775
Si 21.72400 19.00850 -2.71550
Si 23.08175 20.36625 -1.35775
Si 24.43950 21.72400 -2.71550
Si 25.79725 23.08175 -1.35775
Si 16.29300 10.86200  0.00000
Si 17.65075 12.21975  1.35775
Si 19.00850 13.57750  0.00000
Si 20.36625 14.93525  1.35775
Si 21.72400 16.29300  0.00000
Si 23.08175 17.65075  1.35775
Si 24.43950 19.00850  0.00000
Si 25.79725 20.36625  1.35775
Si 27.15500 21.72400  0.00000
Si 28.51275 23.08175  1.35775
Si 19.00850 10.86200  2.71550
Si 20.36625 12.21975  4.07325
Si 21.72400 13.57750  2.71550
Si 23.08175 14.93525  4.07325
Si 24.43950 16.29300  2.71550
Si 25.79725 17.65075  4.07325
Si 27.15500 19.00850  2.71550
Si 28.51275 20.36625  4.07325
Si 29.87050 21.72400  2.71550
Si 31.22825 23.08175  4.07325
Si 21.72400 10.86200  5.43100
Si 23.08175 12.21975  6.78875
Si 24.43950 13.57750  5.43100
Si 25.79725 14.93525  6.78875
Si 27.15500 16.29300  5.43100
Si 28.51275 17.65075  6.78875
Si 29.87050 19.00850  5.43100
Si 31.22825 20.36625  6.78875
Si 32.58600 21.72400  5.43100
Si 33.94375 23.08175  6.78875
Si 24.43950 10.86200  8.14650
Si 25.79725 12.21975  9.50425
Si 27.15500 13.57750  8.14650
Si 28.51275 14.93525  9.50425
Si 29.87050 16.29300  8.14650
Si 31.22825 17.65075  9.50425
Si 32.58600 19.00850  8.14650
Si 33.94375 20.36625  9.50425
Si 35.30150 21.72400  8.14650
Si 36.65925 23.08175  9.50425
Si  0.00000 -27.15500  0.00000
Si  1.35775 -25.79725  1.35775
Si  2.71550 -24.43950  0.00000
Si  4.07325 -23.08175  1.35775
Si  5.43100 -21.72400  0.00000
Si  6.78875 -20.36625  1.35775
Si  8.14650 -19.00850  0.00000
Si  9.50425 -17.65075  1.35775
Si 10.86200 -16.29300  0.00000
Si 12.21975 -14.93525  1.35775
Si  2.71550 -27.15500  2.71550
Si  4.07325 -25.79725  4.07325
Si  5.43100 -24.43950  2.71550
Si  6.78875 -23.08175  4.07325
Si  8.14650 -21.72400  2.71550
Si  9.50425 -20.36625  4.07325
Si 10.86200 -19.00850  2.71550
Si 12.21975 -17.65075  4.07325
Si 13.57750 -16.29300  2.71550
Si 14.93525 -14.93525  4.07325
Si  5.43100 -27.15500  5.43100
Si  6.78875 -25.79725  6.78875
Si  8.14650 -24.43950  5.43100
Si  9.50425 -23.08175  6.78875
Si 10.86200 -21.72400  5.43100
Si 12.21975 -20.36625  6.78875
Si 13.57750 -19.00850  5.43100
Si 14.93525 -17.65075  6.78875
Si 16.29300 -16.29300  5.43100
Si 17.65075 -14.93525  6.78875
Si  8.14650 -27.15500  8.14650
Si  9.50425 -25.79725  9.50425
Si 10.86200 -24.43950  8.14650
Si 12.21975 -23.08175  9.50425
Si 13.57750 -21.72400  8.14650
Si 14.93525 -20.36625  9.50425
Si 16.29300 -19.00850  8.14650
Si 17.65075 -17.65075  9.50425
Si 19.00850 -16.29300  8.14650
Si 20.36625 -14.93525  9.50425
Si 10.86200 -27.15500 10.86200
Si 12.21975 -25.79725 12.21975
Si 13.57750 -24.43950 10.86200
Si 14.93525 -23.08175 12.21975
Si 16.29300 -21.72400 10.86200
Si 17.65075 -20.36625 12.21975
Si 19.00850 -19.00850 10.86200
Si 20.36625 -17.65075 12.21975
Si 21.72400 -16.29300 10.86200
Si 23.08175 -14.93525 12.21975
Si  0.00000 -24.43950  2.71550
Si  1.35775 -23.08175  4.07325
Si  2.71550 -21.72400  2.71550
Si  4.07325 -20.36625  4.07325
Si  5.43100 -19.00850  2.71550
Si  6.78875 -17.65075  4.07325
Si  8.14650 -16.29300  2.71550
Si  9.50425 -14.93525  4.07325
Si 10.86200 -13.57750  2.71550
Si 12.21975 -12.21975  4.07325
Si  2.71550 -24.43950  5.43100
Si  4.07325 -23.08175  6.78875
Si  5.43100 -21.72400  5.43100
Si  6.78875 -20.36625  6.78875
Si  8.14650 -19.00850  5.43100
Si  9.50425 -17.65075  6.78875
Si 10.86200 -16.29300  5.43100
Si 12.21975 -14.93525  6.78875
Si 13.57750 -13.57750  5.43100
Si 14.93525 -12.21975  6.78875
Si  5.43100 -24.43950  8.14650
Si  6.78875 -23.08175  9.50425
Si  8.14650 -21.72400  8.14650
Si  9.50425 -20.36625  9.50425
Si 10.86200 -19.00850  8.14650
Si 12.21975 -17.65075  9.50425
Si 13.57750 -16.29300  8.14650
Si 14.93525 -14.93525  9.50425
Si 16.29300 -13.57750  8.14650
Si 17.65075 -12.21975  9.50425
Si  8.14650 -24.43950 10.86200
Si  9.50425 -23.08175 12.21975
Si 10.86200 -21.72400 10.86200
Si 12.21975 -20.36625 12.21975
Si 13.57750 -19.00850 10.86200
Si 14.93525 -17.65075 12.21975
Si 16.29300 -16.29300 10.86200
Si 17.65075 -14.93525 12.21975
Si 19.00850 -13.57750 10.86200
Si 20.36625 -12.21975 12.21975
Si 10.86200 -24.43950 13.57750
Si 12.21975 -23.08175 14.93525
Si 13.57750 -21.72400 13.57750
Si 14.93525 -20.36625 14.93525
Si 16.29300 -19.00850 13.57750
Si 17.65075 -17.65075 14.93525
Si 19.00850 -16.29300 13.57750
Si 20.36625 -14.93525 14.93525
Si 21.72400 -13.57750 13.57750
Si 23.08175 -12.21975 14.93525
Si  0.00000 -21.72400  5.43100
Si  1.35775 -20.36625  6.78875
Si  2.71550 -19.00850  5.43100
Si  4.07325 -17.65075  6.78875
Si  5.43100 -16.29300  5.43100
Si  6.78875 -14.93525  6.78875
Si  8.14650 -13.57750  5.43100
Si  9.50425 -12.21975  6.78875
Si 10.86200 -10.86200  5.43100
Si 12.21975 -9.50425  6.78875
Si  2.71550 -21.72400  8.14650
Si  4.07325 -20.36625  9.50425
Si  5.43100 -19.00850  8.14650
Si  6.78875 -17.65075  9.50425
Si  8.14650 -16.29300  8.14650
Si  9.50425 -14.93525  9.50425
Si 10.86200 -13.57750  8.14650
Si 12.21975 -12.21975  9.50425
Si 13.57750 -10.86200  8.14650
Si 14.93525 -9.50425  9.50425
Si  5.43100 -21.72400 10.86200
Si  6.78875 -20.36625 12.21975
Si  8.14650 -19.00850 10.86200
Si  9.50425 -17.65075 12.21975
Si 10.86200 -16.29300 10.86200
Si 12.21975 -14.93525 12.21975
Si 13.57750 -13.57750 10.86200
Si 14.93525 -12.21975 12.21975
Si 16.29300 -10.86200 10.86200
Si 17.65075 -9.50425 12.21975
Si  8.14650 -21.72400 13.57750
Si  9.50425 -20.36625 14.93525
Si 10.86200 -19.00850 13.57750
Si 12.21975 -17.65075 14.93525
Si 13.57750 -16.29300 13.57750
Si 14.93525 -14.93525 14.93525
Si 16.29300 -13.57750 13.57750
Si 17.65075 -12.21975 14.93525
Si 19.00850 -10.86200 13.57750
Si 20.36625 -9.50425 14.93525
Si 10.86200 -21.72400 16.29300
Si 12.21975 -20.36625 17.65075
Si 13.57750 -19.00850 16.29300
Si 14.93525 -17.65075 17.65075
Si 16.29300 -16.29300 16.29300
Si 17.65075 -14.93525 17.65075
Si 19.00850 -13.57750 16.29300
Si 20.36625 -12.21975 17.65075
Si 21.72400 -10.86200 16.29300
Si 23.08175 -9.50425 17.65075
Si  0.00000 -19.00850  8.14650
Si  1.35775 -17.65075  9.50425
Si  2.71550 -16.29300  8.14650
Si  4.07325 -14.93525  9.50425
Si  5.43100 -13.57750  8.14650
Si  6.78875 -12.21975  9.50425
Si  8.14650 -10.86200  8.14650
Si  9.50425 -9.50425  9.50425
Si 10.86200 -8.14650  8.14650
Si 12.21975 -6.78875  9.50425
Si  2.71550 -19.00850 10.86200
Si  4.07325 -17.65075 12.21975
Si  5.43100 -16.29300 10.86200
Si  6.78875 -14.93525 12.21975
Si  8.14650 -13.57750 10.86200
Si  9.50425 -12.21975 12.21975
Si 10.86200 -10.86200 10.86200
Si 12.21975 -9.50425 12.21975
Si 13.57750 -8.14650 10.86200
Si 14.93525 -6.78875 12.21975
Si  5.43100 -19.00850 13.57750
Si  6.78875 -17.65075 14.93525
Si  8.14650 -16.29300 13.57750
Si  9.50425 -14.93525 14.93525
Si 10.86200 -13.57750 13.57750
Si 12.21975 -12.21975 14.93525
Si 13.57750 -10.86200 13.57750
Si 14.93525 -9.50425 14.93525
Si 16.29300 -8.14650 13.57750
Si 17.65075 -6.78875 14.93525
Si  8.14650 -19.00850 16.29300
Si  9.50425 -17.65075 17.65075
Si 10.86200 -16.29300 16.29300
Si 12.21975 -14.93525 17.65075
Si 13.57750 -13.57750 16.29300
Si 14.93525 -12.21975 17.65075
Si 16.29300 -10.86200 16.29300
Si 17.65075 -9.50425 17.65075
Si 19.00850 -8.14650 16.29300
Si 20.36625 -6.78875 17.65075
Si 10.86200 -19.00850 19.00850
Si 12.21975 -17.65075 20.36625
Si 13.57750 -16.29300 19.00850
Si 14.93525 -14.93525 20.36625
Si 16.29300 -13.57750 19.00850
Si 17.65075 -12.21975 20.36625
Si 19.00850 -10.86200 19.00850
Si 20.36625 -9.50425 20.36625
Si 21.72400 -8.14650 19.00850
Si 23.08175 -6.78875 20.36625
Si  0.00000 -16.29300 10.86200
Si  1.35775 -14.93525 12.21975
Si  2.71550 -13.57750 10.86200
Si  4.07325 -12.21975 12.21975
Si  5.43100 -10.86200 10.86200
Si  6.78875 -9.50425 12.21975
Si  8.14650 -8.14650 10.86200
Si  9.50425 -6.78875 12.21975
Si 10.86200 -5.43100 10.86200
Si 12.21975 -4.07325 12.21975
Si  2.71550 -16.29300 13.57750
Si  4.07325 -14.93525 14.93525
Si  5.43100 -13.57750 13.57750
Si  6.78875 -12.21975 14.93525
Si  8.14650 -10.86200 13.57750
Si  9.50425 -9.50425 14.93525
Si 10.86200 -8.14650 13.57750
Si 12.21975 -6.78875 14.93525
Si 13.57750 -5.43100 13.57750
Si 14.93525 -4.07325 14.93525
Si  5.43100 -16.29300 16.29300
Si  6.78875 -14.93525 17.65075
Si  8.14650 -13.57750 16.29300
Si  9.50425 -12.21975 17.65075
Si 10.86200 -10.86200 16.29300
Si 12.21975 -9.50425 17.65075
Si 13.57750 -8.14650 16.29300
Si 14.93525 -6.78875 17.65075
Si 16.29300 -5.43100 16.29300
Si 17.65075 -4.07325 17.65075
Si  8.14650 -16.29300 19.00850
Si  9.50425 -14.93525 20.36625
Si 10.86200 -13.57750 19.00850
Si 12.21975 -12.21975 20.36625
Si 13.57750 -10.86200 19.00850
Si 14.93525 -9.50425 20.36625
Si 16.29300 -8.14650 19.00850
Si 17.65075 -6.78875 20.36625
Si 19.00850 -5.43100 19.00850
Si 20.36625 -4.07325 20.36625
Si 10.86200 -16.29300 21.72400
Si 12.21975 -14.93525 23.08175
Si 13.57750 -13.57750 21.72400
Si 14.93525 -12.21975 23.08175
Si 16.29300 -10.86200 21.72400
Si 17.65075 -9.50425 23.08175
Si 19.00850 -8.14650 21.72400
Si 20.36625 -6.78875 23.08175
Si 21.72400 -5.43100 21.72400
Si 23.08175 -4.07325 23.08175
Si 13.57750 -13.57750  0.00000
Si 14.93525 -12.21975  1.35775
Si 16.29300 -10.86200  0.00000
Si 17.65075 -9.50425  1.35775
Si 19.00850 -8.14650  0.00000
Si 20.36625 -6.78875  1.35775
Si 21.72400 -5.43100  0.00000
Si 23.08175 -4.07325  1.35775
Si 24.43950 -2.71550  0.00000
Si 25.79725 -1.35775  1.35775
Si 16.29300 -13.57750  2.71550
Si 17.65075 -12.21975  4.07325
Si 19.00850 -10.86200  2.71550
Si 20.36625 -9.50425  4.07325
Si 21.72400 -8.14650  2.71550
Si 23.08175 -6.78875  4.07325
Si 24.43950 -5.43100  2.71550
Si 25.79725 -4.07325  4.07325
Si 27.15500 -2.71550  2.71550
Si 28.51275 -1.35775  4.07325
Si 19.00850 -13.57750  5.43100
Si 20.36625 -12.21975  6.78875
Si 21.72400 -10.86200  5.43100
Si 23.08175 -9.50425  6.78875
Si 24.43950 -8.14650  5.43100
Si 25.79725 -6.78875  6.78875
Si 27.15500 -5.43100  5.43100
Si 28.51275 -4.07325  6.78875
Si 29.87050 -2.71550  5.43100
Si 31.22825 -1.35775  6.78875
Si 21.72400 -13.57750  8.14650
Si 23.08175 -12.21975  9.50425
Si 24.43950 -10.86200  8.14650
Si 25.79725 -9.50425  9.50425
Si 27.15500 -8.14650  8.14650
Si 28.51275 -6.78875  9.50425
Si 29.87050 -5.43100  8.14650
Si 31.22825 -4.07325  9.50425
Si 32.58600 -2.71550  8.14650
Si 33.94375 -1.35775  9.50425
Si 24.43950 -13.57750 10.86200
Si 25.79725 -12.21975 12.21975
Si 27.15500 -10.86200 10.86200
Si 28.51275 -9.50425 12.21975
Si 29.87050 -8.14650 10.86200
Si 31.22825 -6.78875 12.21975
Si 32.58600 -5.43100 10.86200
Si 33.94375 -4.07325 12.21975
Si 35.30150 -2.71550 10.86200
Si 36.65925 -1.35775 12.21975
Si 13.57750 -10.86200  2.71550
Si 14.93525 -9.50425  4.07325
Si 16.29300 -8.14650  2.71550
Si 17.65075 -6.78875  4.07325
Si 19.00850 -5.43100  2.71550
Si 20.36625 -4.07325  4.07325
Si 21.72400 -2.71550  2.71550
Si 23.08175 -1.35775  4.07325
Si 24.43950  0.00000  2.71550
Si 25.79725  1.35775  4.07325
Si 16.29300 -10.86200  5.43100
Si 17.65075 -9.50425  6.78875
Si 19.00850 -8.14650  5.43100
Si 20.36625 -6.78875  6.78875
Si 21.72400 -5.43100  5.43100
Si 23.08175 -4.07325  6.78875
Si 24.43950 -2.71550  5.43100
Si 25.79725 -1.35775  6.78875
Si 27.15500  0.00000  5.43100
Si 28.51275  1.35775  6.78875
Si 19.00850 -10.86200  8.14650
Si 20.36625 -9.50425  9.50425
Si 21.72400 -8.14650  8.14650
Si 23.08175 -6.78875  9.50425
Si 24.43950 -5.43100  8.14650
Si 25.79725 -4.07325  9.50425
Si 27.15500 -2.71550  8.14650
Si 28.51275 -1.35775  9.50425
Si 29.87050 -0.00000  8.14650
Si 31.22825  1.35775  9.50425
Si 21.72400 -10.86200 10.86200
Si 23.08175 -9.50425 12.21975
Si 24.43950 -8.14650 10.86200
Si 25.79725 -6.78875 12.21975
Si 27.15500 -5.43100 10.86200
Si 28.51275 -4.07325 12.21975
Si 29.87050 -2.71550 10.86200
Si 31.22825 -1.35775 12.21975
Si 32.58600  0.00000 10.86200
Si 33.94375  1.35775 12.21975
Si 24.43950 -10.86200 13.57750
Si 25.79725 -9.50425 14.93525
Si 27.15500 -8.14650 13.57750
Si 28.51275 -6.78875 14.93525
Si 29.87050 -5.43100 13.57750
Si 31.22825 -4.07325 14.93525
Si 32.58600 -2.71550 13.57750
Si 33.94375 -1.35775 14.93525
Si 35.30150  0.00000 13.57750
Si 36.65925  1.35775 14.93525
Si 13.57750 -8.14650  5.43100
Si 14.93525 -6.78875  6.78875
Si 16.29300 -5.43100  5.43100
Si 17.65075 -4.07325  6.78875
Si 19.00850 -2.71550  5.43100
Si 20.36625 -1.35775  6.78875
Si 21.72400  0.00000  5.43100
Si 23.08175  1.35775  6.78875
Si 24.43950  2.71550  5.43100
Si 25.79725  4.07325  6.78875
Si 16.29300 -8.14650  8.14650
Si 17.65075 -6.78875  9.50425
Si 19.00850 -5.43100  8.14650
Si 20.36625 -4.07325  9.50425
Si 21.72400 -2.71550  8.14650
Si 23.08175 -1.35775  9.50425
Si 24.43950  0.00000  8.14650
Si 25.79725  1.35775  9.50425
Si 27.15500  2.71550  8.14650
Si 28.51275  4.07325  9.50425
Si 19.00850 -8.14650 10.86200
Si 20.36625 -6.78875 12.21975
Si 21.72400 -5.43100 10.86200
Si 23.08175 -4.07325 12.21975
Si 24.43950 -2.71550 10.86200
Si 25.79725 -1.35775 12.21975
Si 27.15500  0.00000 10.86200
Si 28.51275  1.35775 12.21975
Si 29.87050  2.71550 10.86200
Si 31.22825  4.07325 12.21975
Si 21.72400 -8.14650 13.57750
Si 23.08175 -6.78875 14.93525
Si 24.43950 -5.43100 13.57750
Si 25.79725 -4.07325 14.93525
Si 27.15500 -2.71550 13.57750
Si 28.51275 -1.35775 14.93525
Si 29.87050  0.00000 13.57750
Si 31.22825  1.35775 14.93525
Si 32.58600  2.71550 13.57750
Si 33.94375  4.07325 14.93525
Si 24.43950 -8.14650 16.29300
Si 25.79725 -6.78875 17.65075
Si 27.15500 -5.43100 16.29300
Si 28.51275 -4.07325 17.65075
Si 29.87050 -2.71550 16.29300
Si 31.22825 -1.35775 17.65075
Si 32.58600  0.00000 16.29300
Si 33.94375  1.35775 17.65075
Si 35.30150  2.71550 16.29300
Si 36.65925  4.07325 17.65075
Si 13.57750 -5.43100  8.14650
Si 14.93525 -4.07325  9.50425
Si 16.29300 -2.71550  8.14650
Si 17.65075 -1.35775  9.50425
Si 19.00850  0.00000  8.14650
Si 20.36625  1.35775  9.50425
Si 21.72400  2.71550  8.14650
Si 23.08175  4.07325  9.50425
Si 24.43950  5.43100  8.14650
Si 25.79725  6.78875  9.50425
Si 16.29300 -5.43100 10.86200
Si 17.65075 -4.07325 12.21975
Si 19.00850 -2.71550 10.86200
Si 20.36625 -1.35775 12.21975
Si 21.72400  0.00000 10.86200
Si 23.08175  1.35775 12.21975
Si 24.43950  2.71550 10.86200
Si 25.79725  4.07325 12.21975
Si 27.15500  5.43100 10.86200
Si 28.51275  6.78875 12.21975
Si 19.00850 -5.43100 13.57750
Si 20.36625 -4.07325 14.93525
Si 21.72400 -2.71550 13.57750
Si 23.08175 -1.35775 14.93525
Si 24.43950  0.00000 13.57750
Si 25.79725  1.35775 14.93525
Si 27.15500  2.71550 13.57750
Si 28.51275  4.07325 14.93525
Si 29.87050  5.43100 13.57750
Si 31.22825  6.78875 14.93525
Si 21.72400 -5.43100 16.29300
Si 23.08175 -4.07325 17.65075
Si 24.43950 -2.71550 16.29300
Si 25.79725 -1.35775 17.65075
Si 27.15500  0.00000 16.29300
Si 28.51275  1.35775 17.65075
Si 29.87050  2.71550 16.29300
Si 31.22825  4.07325 17.65075
Si 32.58600  5.43100 16.29300
Si 33.94375  6.78875 17.65075
Si 24.43950 -5.43100 19.00850
Si 25.79725 -4.07325 20.36625
Si 27.15500 -2.71550 19.00850
Si 28.51275 -1.35775 20.36625
Si 29.87050  0.00000 19.00850
Si 31.22825  1.35775 20.36625
Si 32.58600  2.71550 19.00850
Si 33.94375  4.07325 20.36625
Si 35.30150  5.43100 19.00850
Si 36.65925  6.78875 20.36625
Si 13.57750 -2.71550 10.86200
Si 14.93525 -1.35775 12.21975
Si 16.29300  0.00000 10.86200
Si 17.65075  1.35775 12.21975
Si 19.00850  2.71550 10.86200
Si 20.36625  4.07325 12.21975
Si 21.72400  5.43100 10.86200
Si 23.08175  6.78875 12.21975
Si 24.43950  8.14650 10.86200
Si 25.79725  9.50425 12.21975
Si 16.29300 -2.71550 13.57750
Si 17.65075 -1.35775 14.93525
Si 19.00850  0.00000 13.57750
Si 20.36625  1.35775 14.93525
Si 21.72400  2.71550 13.57750
Si 23.08175  4.07325 14.93525
Si 24.43950  5.43100 13.57750
Si 25.79725  6.78875 14.93525
Si 27.15500  8.14650 13.57750
Si 28.51275  9.50425 14.93525
Si 19.00850 -2.71550 16.29300
Si 20.36625 -1.35775 17.65075
Si 21.72400  0.00000 16.29300
Si 23.08175  1.35775 17.65075
Si 24.43950  2.71550 16.29300
Si 25.79725  4.07325 17.65075
Si 27.15500  5.43100 16.29300
Si 28.51275  6.78875 17.65075
Si 29.87050  8.14650 16.29300
Si 31.22825  9.50425 17.65075
Si 21.72400 -2.71550 19.00850
Si 23.08175 -1.35775 20.36625
Si 24.43950 -0.00000 19.00850
Si 25.79725  1.35775 20.36625
Si 27.15500  2.71550 19.00850
Si 28.51275  4.07325 20.36625
Si 29.87050  5.43100 19.00850
Si 31.22825  6.78875 20.36625
Si 32.58600  8.14650 19.00850
Si 33.94375  9.50425 20.36625
Si 24.43950 -2.71550 21.72400
Si 25.79725 -1.35775 23.08175
Si 27.15500  0.00000 21.72400
Si 28.51275  1.35775 23.08175
Si 29.87050  2.71550 21.72400
Si 31.22825  4.07325 23.08175
Si 32.58600  5.43100 21.72400
Si 33.94375  6.78875 23.08175
Si 35.30150  8.14650 21.72400
Si 36.65925  9.50425 23.08175
Si 27.15500  0.00000  0.00000
Si 28.51275  1.35775  1.35775
Si 29.87050  2.71550  0.00000
Si 31.22825  4.07325  1.35775
Si 32.58600  5.43100  0.00000
Si 33.94375  6.78875  1.35775
Si 35.30150  8.14650  0.00000
Si 36.65925  9.50425  1.35775
Si 38.01700 10.86200  0.00000
Si 39.37475 12.21975  1.35775
Si 29.87050  0.00000  2.71550
Si 31.22825  1.35775  4.07325
Si 32.58600  2.71550  2.71550
Si 33.94375  4.07325  4.07325
Si 35.30150  5.43100  2.71550
Si 36.65925  6.78875  4.07325
Si 38.01700  8.14650  2.71550
Si 39.37475  9.50425  4.07325
Si 40.73250 10.86200  2.71550
Si 42.09025 12.21975  4.07325
Si 32.58600  0.00000  5.43100
Si 33.94375  1.35775  6.78875
Si 35.30150  2.71550  5.43100
Si 36.65925  4.07325  6.78875
Si 38.01700  5.43100  5.43100
Si 39.37475  6.78875  6.78875
Si 40.73250  8.14650  5.43100
Si 42.09025  9.50425  6.78875
Si 43.44800 10.86200  5.43100
Si 44.80575 12.21975  6.78875
Si 35.30150  0.00000  8.14650
Si 36.65925  1.35775  9.50425
Si 38.01700  2.71550  8.14650
Si 39.37475  4.07325  9.50425
Si 40.73250  5.43100  8.14650
Si 42.09025  6.78875  9.50425
Si 43.44800  8.14650  8.14650
Si 44.80575  9.50425  9.50425
Si 46.16350 10.86200  8.14650
Si 47.52125 12.21975  9.50425
Si 38.01700  0.00000 10.86200
Si 39.37475  1.35775 12.21975
Si 40.73250  2.71550 10.86200
Si 42.09025  4.07325 12.21975
Si 43.44800  5.43100 10.86200
Si 44.80575  6.78875 12.21975
Si 46.16350  8.14650 10.86200
Si 47.52125  9.50425 12.21975
Si 48.87900 10.86200 10.86200
Si 50.23675 12.21975 12.21975
Si 27.15500  2.71550  2.71550
Si 28.51275  4.07325  4.07325
Si 29.87050  5.43100  2.71550
Si 31.22825  6.78875  4.07325
Si 32.58600  8.14650  2.71550
Si 33.94375  9.50425  4.07325
Si 35.30150 10.86200  2.71550
Si 36.65925 12.21975  4.07325
Si 38.01700 13.57750  2.71550
Si 39.37475 14.93525  4.07325
Si 29.87050  2.71550  5.43100
Si 31.22825  4.07325  6.78875
Si 32.58600  5.43100  5.43100
Si 33.94375  6.78875  6.78875
Si 35.30150  8.14650  5.43100
Si 36.65925  9.50425  6.78875
Si 38.01700 10.86200  5.43100
Si 39.37475 12.21975  6.78875
Si 40.73250 13.57750  5.43100
Si 42.09025 14.93525  6.78875
Si 32.58600  2.71550  8.14650
Si 33.94375  4.07325  9.50425
Si 35.30150  5.43100  8.14650
Si 36.65925  6.78875  9.50425
Si 38.01700  8.14650  8.14650
Si 39.37475  9.50425  9.50425
Si 40.73250 10.86200  8.14650
Si 42.09025 12.21975  9.50425
Si 43.44800 13.57750  8.14650
Si 44.80575 14.93525  9.50425
Si 35.30150  2.71550 10.86200
Si 36.65925  4.07325 12.21975
Si 38.01700  5.43100 10.86200
Si 39.37475  6.78875 12.21975
Si 40.73250  8.14650 10.86200
Si 42.09025  9.50425 12.21975
Si 43.44800 10.86200 10.86200
Si 44.80575 12.21975 12.21975
Si 46.16350 13.57750 10.86200
Si 47.52125 14.93525 12.21975
Si 38.01700  2.71550 13.57750
Si 39.37475  4.07325 14.93525
Si 40.73250  5.43100 13.57750
Si 42.09025  6.78875 14.93525
Si 43.44800  8.14650 13.57750
Si 44.80575  9.50425 14.93525
Si 46.16350 10.86200 13.57750
Si 47.52125 12.21975 14.93525
Si 48.87900 13.57750 13.57750
Si 50.23675 14.93525 14.93525
Si 27.15500  5.43100  5.43100
Si 28.51275  6.78875  6.78875
Si 29.87050  8.14650  5.43100
Si 31.22825  9.50425  6.78875
Si 32.58600 10.86200  5.43100
Si 33.94375 12.21975  6.78875
Si 35.30150 13.57750  5.43100
Si 36.65925 14.93525  6.78875
Si 38.01700 16.29300  5.43100
Si 39.37475 17.65075  6.78875
Si 29.87050  5.43100  8.14650
Si 31.22825  6.78875  9.50425
Si 32.58600  8.14650  8.14650
Si 33.94375  9.50425  9.50425
Si 35.30150 10.86200  8.14650
Si 36.65925 12.21975  9.50425
Si 38.01700 13.57750  8.14650
Si 39.37475 14.93525  9.50425
Si 40.73250 16.29300  8.14650
Si 42.09025 17.65075  9.50425
Si 32.58600  5.43100 10.86200
Si 33.94375  6.78875 12.21975
Si 35.30150  8.14650 10.86200
Si 36.65925  9.50425 12.21975
Si 38.01700 10.86200 10.86200
Si 39.37475 12.21975 12.21975
Si 40.73250 13.57750 10.86200
Si 42.09025 14.93525 12.21975
Si 43.44800 16.29300 10.86200
Si 44.80575 17.65075 12.21975
Si 35.30150  5.43100 13.57750
Si 36.65925  6.78875 14.93525
Si 38.01700  8.14650 13.57750
Si 39.37475  9.50425 14.93525
Si 40.73250 10.86200 13.57750
Si 42.09025 12.21975 14.93525
Si 43.44800 13.57750 13.57750
Si 44.80575 14.93525 14.93525
Si 46.16350 16.29300 13.57750
Si 47.52125 17.65075 14.93525
Si 38.01700  5.43100 16.29300
Si 39.37475  6.78875 17.65075
Si 40.73250  8.14650 16.29300
Si 42.09025  9.50425 17.65075
Si 43.44800 10.86200 16.29300
Si 44.80575 12.21975 17.65075
Si 46.16350 13.57750 16.29300
Si 47.52125 14.93525 17.65075
Si 48.87900 16.29300 16.29300
Si 50.23675 17.65075 17.65075
Si 27.15500  8.14650  8.14650
Si 28.51275  9.50425  9.50425
Si 29.87050 10.86200  8.14650
Si 31.22825 12.21975  9.50425
Si 32.58600 13.57750  8.14650
Si 33.94375 14.93525  9.50425
Si 35.30150 16.29300  8.14650
Si 36.65925 17.65075  9.50425
Si 38.01700 19.00850  8.14650
Si 39.37475 20.36625  9.50425
Si 29.87050  8.14650 10.86200
Si 31.22825  9.50425 12.21975
Si 32.58600 10.86200 10.86200
Si 33.94375 12.21975 12.21975
Si 35.30150 13.57750 10.86200
Si 36.65925 14.93525 12.21975
Si 38.01700 16.29300 10.86200
Si 39.37475 17.65075 12.21975
Si 40.73250 19.00850 10.86200
Si 42.09025 20.36625 12.21975
Si 32.58600  8.14650 13.57750
Si 33.94375  9.50425 14.93525
Si 35.30150 10.86200 13.57750
Si 36.65925 12.21975 14.93525
Si 38.01700 13.57750 13.57750
Si 39.37475 14.93525 14.93525
Si 40.73250 16.29300 13.57750
Si 42.09025 17.65075 14.93525
Si 43.44800 19.00850 13.57750
Si 44.80575 20.36625 14.93525
Si 35.30150  8.14650 16.29300
Si 36.65925  9.50425 17.65075
Si 38.01700 10.86200 16.29300
Si 39.37475 12.21975 17.65075
Si 40.73250 13.57750 16.29300
Si 42.09025 14.93525 17.65075
Si 43.44800 16.29300 16.29300
Si 44.80575 17.65075 17.65075
Si 46.16350 19.00850 16.29300
Si 47.52125 20.36625 17.65075
Si 38.01700  8.14650 19.00850
Si 39.37475  9.50425 20.36625
Si 40.73250 10.86200 19.00850
Si 42.09025 12.21975 20.36625
Si 43.44800 13.57750 19.00850
Si 44.80575 14.93525 20.36625
Si 46.16350 16.29300 19.00850
Si 47.52125 17.65075 20.36625
Si 48.87900 19.00850 19.00850
Si 50.23675 20.36625 20.36625
Si 27.15500 10.86200 10.86200
Si 28.51275 12.21975 12.21975
Si 29.87050 13.57750 10.86200
Si 31.22825 14.93525 12.21975
Si 32.58600 16.29300 10.86200
Si 33.94375 17.65075 12.21975
Si 35.30150 19.00850 10.86200
Si 36.65925 20.36625 12.21975
Si 38.01700 21.72400 10.86200
Si 39.37475 23.08175 12.21975
Si 29.87050 10.86200 13.57750
Si 31.22825 12.21975 14.93525
Si 32.58600 13.57750 13.57750
Si 33.94375 14.93525 14.93525
Si 35.30150 16.29300 13.57750
Si 36.65925 17.65075 14.93525
Si 38.01700 19.00850 13.57750
Si 39.37475 20.36625 14.93525
Si 40.73250 21.72400 13.57750
Si 42.09025 23.08175 14.93525
Si 32.58600 10.86200 16.29300
Si 33.94375 12.21975 17.65075
Si 35.30150 13.57750 16.29300
Si 36.65925 14.93525 17.65075
Si 38.01700 16.29300 16.29300
Si 39.37475 17.65075 17.65075
Si 40.73250 19.00850 16.29300
Si 42.09025 20.36625 17.65075
Si 43.44800 21.72400 16.29300
Si 44.80575 23.08175 17.65075
Si 35.30150 10.86200 19.00850
Si 36.65925 12.21975 20.36625
Si 38.01700 13.57750 19.00850
Si 39.37475 14.93525 20.36625
Si 40.73250 16.29300 19.00850
Si 42.09025 17.65075 20.36625
Si 43.44800 19.00850 19.00850
Si 44.80575 20.36625 20.36625
Si 46.16350 21.72400 19.00850
Si 47.52125 23.08175 20.36625
Si 38.01700 10.86200 21.72400
Si 39.37475 12.21975 23.08175
Si 40.73250 13.57750 21.72400
Si 42.09025 14.93525 23.08175
Si 43.44800 16.29300 21.72400
Si 44.80575 17.65075 23.08175
Si 46.16350 19.00850 21.72400
Si 47.52125 20.36625 23.08175
Si 48.87900 21.72400 21.72400
Si 50.23675 23.08175 23.08175
Si -27.15500 -13.57750 -13.57750
Si -25.79725 -12.21975 -12.21975
Si -24.43950 -10.86200 -13.57750
Si -23.08175 -9.50425 -12.21975
Si -21.72400 -8.14650 -13.57750
Si -20.36625 -6.78875 -12.21975
Si -19.00850 -5.43100 -13.57750
Si -17.65075 -4.07325 -12.21975
Si -16.29300 -2.71550 -13.57750
Si -14.93525 -1.35775 -12.21975
Si -24.43950 -13.57750 -10.86200
Si -23.08175 -12.21975 -9.50425
Si -21.72400 -10.86200 -10.86200
Si -20.36625 -9.50425 -9.50425
Si -19.00850 -8.14650 -10.86200
Si -17.65075 -6.78875 -9.50425
Si -16.29300 -5.43100 -10.86200
Si -14.93525 -4.07325 -9.50425
Si -13.57750 -2.71550 -10.86200
Si -12.21975 -1.35775 -9.50425
Si -21.72400 -13.57750 -8.14650
Si -20.36625 -12.21975 -6.78875
Si -19.00850 -10.86200 -8.14650
Si -17.65075 -9.50425 -6.78875
Si -16.29300 -8.14650 -8.14650
Si -14.93525 -6.78875 -6.78875
Si -13.57750 -5.43100 -8.14650
Si -12.21975 -4.07325 -6.78875
Si -10.86200 -2.71550 -8.14650
Si -9.50425 -1.35775 -6.78875
Si -19.00850 -13.57750 -5.43100
Si -17.65075 -12.21975 -4.07325
Si -16.29300 -10.86200 -5.43100
Si -14.93525 -9.50425 -4.07325
Si -13.57750 -8.14650 -5.43100
Si -12.21975 -6.78875 -4.07325
Si -10.86200 -5.43100 -5.43100
Si -9.50425 -4.07325 -4.07325
Si -8.14650 -2.71550 -5.43100
Si -6.78875 -1.35775 -4.07325
Si -16.29300 -13.57750 -2.71550
Si -14.93525 -12.21975 -1.35775
Si -13.57750 -10.86200 -2.71550
Si -12.21975 -9.50425 -1.35775
Si -10.86200 -8.14650 -2.71550
Si -9.50425 -6.78875 -1.35775
Si -8.14650 -5.43100 -2.71550
Si -6.78875 -4.07325 -1.35775
Si -5.43100 -2.71550 -2.71550
Si -4.07325 -1.35775 -1.35775
Si -27.15500 -10.86200 -10.86200
Si -25.79725 -9.50425 -9.50425
Si -24.43950 -8.14650 -10.86200
Si -23.08175 -6.78875 -9.50425
Si -21.72400 -5.43100 -10.86200
Si -20.36625 -4.07325 -9.50425
Si -19.00850 -2.71550 -10.86200
Si -17.65075 -1.35775 -9.50425
Si -16.29300  0.00000 -10.86200
Si -14.93525  1.35775 -9.50425
Si -24.43950 -10.86200 -8.14650
Si -23.08175 -9.50425 -6.78875
Si -21.72400 -8.14650 -8.14650
Si -20.36625 -6.78875 -6.78875
Si -19.00850 -5.43100 -8.14650
Si -17.65075 -4.07325 -6.78875
Si -16.29300 -2.71550 -8.14650
Si -14.93525 -1.35775 -6.78875
Si -13.57750  0.00000 -8.14650
Si -12.21975  1.35775 -6.78875
Si -21.72400 -10.86200 -5.43100
Si -20.36625 -9.50425 -4.07325
Si -19.00850 -8.14650 -5.43100
Si -17.65075 -6.78875 -4.07325
Si -16.29300 -5.43100 -5.43100
Si -14.93525 -4.07325 -4.07325
Si -13.57750 -2.71550 -5.43100
Si -12.21975 -1.35775 -4.07325
Si -10.86200 -0.00000 -5.43100
Si -9.50425  1.35775 -4.07325
Si -19.00850 -10.86200 -2.71550
Si -17.65075 -9.50425 -1.35775
Si -16.29300 -8.14650 -2.71550
Si -14.93525 -6.78875 -1.35775
Si -13.57750 -5.43100 -2.71550
Si -12.21975 -4.07325 -1.35775
Si -10.86200 -2.71550 -2.71550
Si -9.50425 -1.35775 -1.35775
Si -8.14650  0.00000 -2.71550
Si -6.78875  1.35775 -1.35775
Si -16.29300 -10.86200  0.00000
Si -14.93525 -9.50425  1.35775
Si -13.57750 -8.14650  0.00000
Si -12.21975 -6.78875  1.35775
Si -10.86200 -5.43100 -0.00000
Si -9.50425 -4.07325  1.35775
Si -8.14650 -2.71550  0.00000
Si -6.78875 -1.35775  1.35775
Si -5.43100  0.00000  0.00000
Si -4.07325  1.35775  1.35775
Si -27.15500 -8.14650 -8.14650
Si -25.79725 -6.78875 -6.78875
Si -24.43950 -5.43100 -8.14650
Si -23.08175 -4.07325 -6.78875
Si -21.72400 -2.71550 -8.14650
Si -20.36625 -1.35775 -6.78875
Si -19.00850  0.00000 -8.14650
Si -17.65075  1.35775 -6.78875
Si -16.29300  2.71550 -8.14650
Si -14.93525  4.07325 -6.78875
Si -24.43950 -8.14650 -5.43100
Si -23.08175 -6.78875 -4.07325
Si -21.72400 -5.43100 -5.43100
Si -20.36625 -4.07325 -4.07325
Si -19.00850 -2.71550 -5.43100
Si -17.65075 -1.35775 -4.07325
Si -16.29300  0.00000 -5.43100
Si -14.93525  1.35775 -4.07325
Si -13.57750  2.71550 -5.43100
Si -12.21975  4.07325 -4.07325
Si -21.72400 -8.14650 -2.71550
Si -20.36625 -6.78875 -1.35775
Si -19.00850 -5.43100 -2.71550
Si -17.65075 -4.07325 -1.35775
Si -16.29300 -2.71550 -2.71550
Si -14.93525 -1.35775 -1.35775
Si -13.57750  0.00000 -2.71550
Si -12.21975  1.35775 -1.35775
Si -10.86200  2.71550 -2.71550
Si -9.50425  4.07325 -1.35775
Si -19.00850 -8.14650  0.00000
Si -17.65075 -6.78875  1.35775
Si -16.29300 -5.43100  0.00000
Si -14.93525 -4.07325  1.35775
Si -13.57750 -2.71550  0.00000
Si -12.21975 -1.35775  1.35775
Si -10.86200  0.00000  0.00000
Si -9.50425  1.35775  1.35775
Si -8.14650  2.71550  0.00000
Si -6.78875  4.07325  1.35775
Si -16.29300 -8.14650  2.71550
Si -14.93525 -6.78875  4.07325
Si -13.57750 -5.43100  2.71550
Si -12.21975 -4.07325  4.07325
Si -10.86200 -2.71550  2.71550
Si -9.50425 -1.35775  4.07325
Si -8.14650  0.00000  2.71550
Si -6.78875  1.35775  4.07325
Si -5.43100  2.71550  2.71550
Si -4.07325  4.07325  4.07325
Si -27.15500 -5.43100 -5.43100
Si -25.79725 -4.07325 -4.07325
Si -24.43950 -2.71550 -5.43100
Si -23.08175 -1.35775 -4.07325
Si -21.72400  0.00000 -5.43100
Si -20.36625  1.35775 -4.07325
Si -19.00850  2.71550 -5.43100
Si -17.65075  4.07325 -4.07325
Si -16.29300  5.43100 -5.43100
Si -14.93525  6.78875 -4.07325
Si -24.43950 -5.43100 -2.71550
Si -23.08175 -4.07325 -1.35775
Si -21.72400 -2.71550 -2.71550
Si -20.36625 -1.35775 -1.35775
Si -19.00850  0.00000 -2.71550
Si -17.65075  1.35775 -1.35775
Si -16.29300  2.71550 -2.71550
Si -14.93525  4.07325 -1.35775
Si -13.57750  5.43100 -2.71550
Si -12.21975  6.78875 -1.35775
Si -21.72400 -5.43100  0.00000
Si -20.36625 -4.07325  1.35775
Si -19.00850 -2.71550  0.00000
Si -17.65075 -1.35775  1.35775
Si -16.29300  0.00000  0.00000
Si -14.93525  1.35775  1.35775
Si -13.57750  2.71550  0.00000
Si -12.21975  4.07325  1.35775
Si -10.86200  5.43100  0.00000
Si -9.50425  6.78875  1.35775
Si -19.00850 -5.43100  2.71550
Si -17.65075 -4.07325  4.07325
Si -16.29300 -2.71550  2.71550
Si -14.93525 -1.35775  4.07325
Si -13.57750  0.00000  2.71550
Si -12.21975  1.35775  4.07325
Si -10.86200  2.71550  2.71550
Si -9.50425  4.07325  4.07325
Si -8.14650  5.43100  2.71550
Si -6.78875  6.78875  4.07325
Si -16.29300 -5.43100  5.43100
Si -14.93525 -4.07325  6.78875
Si -13.57750 -2.71550  5.43100
Si -12.21975 -1.35775  6.78875
Si -10.86200  0.00000  5.43100
Si -9.50425  1.35775  6.78875
Si -8.14650  2.71550  5.43100
Si -6.78875  4.07325  6.78875
Si -5.43100  5.43100  5.43100
Si -4.07325  6.78875  6.78875
Si -27.15500 -2.71550 -2.71550
Si -25.79725 -1.35775 -1.35775
Si -24.43950  0.00000 -2.71550
Si -23.08175  1.35775 -1.35775
Si -21.72400  2.71550 -2.71550
Si -20.36625  4.07325 -1.35775
Si -19.00850  5.43100 -2.71550
Si -17.65075  6.78875 -1.35775
Si -16.29300  8.14650 -2.71550
Si -14.93525  9.50425 -1.35775
Si -24.43950 -2.71550  0.00000
Si -23.08175 -1.35775  1.35775
Si -21.72400  0.00000  0.00000
Si -20.36625  1.35775  1.35775
Si -19.00850  2.71550  0.00000
Si -17.65075  4.07325  1.35775
Si -16.29300  5.43100  0.00000
Si -14.93525  6.78875  1.35775
Si -13.57750  8.14650  0.00000
Si -12.21975  9.50425  1.35775
Si -21.72400 -2.71550  2.71550
Si -20.36625 -1.35775  4.07325
Si -19.00850  0.00000  2.71550
Si -17.65075  1.35775  4.07325
Si -16.29300  2.71550  2.71550
Si -14.93525  4.07325  4.07325
Si -13.57750  5.43100  2.71550
Si -12.21975  6.78875  4.07325
Si -10.86200  8.14650  2.71550
Si -9.50425  9.50425  4.07325
Si -19.00850 -2.71550  5.43100
Si -17.65075 -1.35775  6.78875
Si -16.29300 -0.00000  5.43100
Si -14.93525  1.35775  6.78875
Si -13.57750  2.71550  5.43100
Si -12.21975  4.07325  6.78875
Si -10.86200  5.43100  5.43100
Si -9.50425  6.78875  6.78875
Si -8.14650  8.14650  5.43100
Si -6.78875  9.50425  6.78875
Si -16.29300 -2.71550  8.14650
Si -14.93525 -1.35775  9.50425
Si -13.57750  0.00000  8.14650
Si -12.21975  1.35775  9.50425
Si -10.86200  2.71550  8.14650
Si -9.50425  4.07325  9.50425
Si -8.14650  5.43100  8.14650
Si -6.78875  6.78875  9.50425
Si -5.43100  8.14650  8.14650
Si -4.07325  9.50425  9.50425
Si -13.57750  0.00000 -13.57750
Si -12.21975  1.35775 -12.21975
Si -10.86200  2.71550 -13.57750
Si -9.50425  4.07325 -12.21975
Si -8.14650  5.43100 -13.57750
Si -6.78875  6.78875 -12.21975
Si -5.43100  8.14650 -13.57750
Si -4.07325  9.50425 -12.21975
Si -2.71550 10.86200 -13.57750
Si -1.35775 12.21975 -12.21975
Si -10.86200  0.00000 -10.86200
Si -9.50425  1.35775 -9.50425
Si -8.14650  2.71550 -10.86200
Si -6.78875  4.07325 -9.50425
Si -5.43100  5.43100 -10.86200
Si -4.07325  6.78875 -9.50425
Si -2.71550  8.14650 -10.86200
Si -1.35775  9.50425 -9.50425
Si  0.00000 10.86200 -10.86200
Si  1.35775 12.21975 -9.50425
Si -8.14650  0.00000 -8.14650
Si -6.78875  1.35775 -6.78875
Si -5.43100  2.71550 -8.14650
Si -4.07325  4.07325 -6.78875
Si -2.71550  5.43100 -8.14650
Si -1.35775  6.78875 -6.78875
Si  0.00000  8.14650 -8.14650
Si  1.35775  9.50425 -6.78875
Si  2.71550 10.86200 -8.14650
Si  4.07325 12.21975 -6.78875
Si -5.43100  0.00000 -5.43100
Si -4.07325  1.35775 -4.07325
Si -2.71550  2.71550 -5.43100
Si -1.35775  4.07325 -4.07325
Si  0.00000  5.43100 -5.43100
Si  1.35775  6.78875 -4.07325
Si  2.71550  8.14650 -5.43100
Si  4.07325  9.50425 -4.07325
Si  5.43100 10.86200 -5.43100
Si  6.78875 12.21975 -4.07325
Si -2.71550  0.00000 -2.71550
Si -1.35775  1.35775 -1.35775
Si -0.00000  2.71550 -2.71550
Si  1.35775  4.07325 -1.35775
Si  2.71550  5.43100 -2.71550
Si  4.07325  6.78875 -1.35775
Si  5.43100  8.14650 -2.71550
Si  6.78875  9.50425 -1.35775
Si  8.14650 10.86200 -2.71550
Si  9.50425 12.21975 -1.35775
Si -13.57750  2.71550 -10.86200
Si -12.21975  4.07325 -9.50425
Si -10.86200  5.43100 -10.86200
Si -9.50425  6.78875 -9.50425
Si -8.14650  8.14650 -10.86200
Si -6.78875  9.50425 -9.50425
Si -5.43100 10.86200 -10.86200
Si -4.07325 12.21975 -9.50425
Si -2.71550 13.57750 -10.86200
Si -1.35775 14.93525 -9.50425
Si -10.86200  2.71550 -8.14650
Si -9.50425  4.07325 -6.78875
Si -8.14650  5.43100 -8.14650
Si -6.78875  6.78875 -6.78875
Si -5.43100  8.14650 -8.14650
Si -4.07325  9.50425 -6.78875
Si -2.71550 10.86200 -8.14650
Si -1.35775 12.21975 -6.78875
Si  0.00000 13.57750 -8.14650
Si  1.35775 14.93525 -6.78875
Si -8.14650  2.71550 -5.43100
Si -6.78875  4.07325 -4.07325
Si -5.43100  5.43100 -5.43100
Si -4.07325  6.78875 -4.07325
Si -2.71550  8.14650 -5.43100
Si -1.35775  9.50425 -4.07325
Si  0.00000 10.86200 -5.43100
Si  1.35775 12.21975 -4.07325
Si  2.71550 13.57750 -5.43100
Si  4.07325 14.93525 -4.07325
Si -5.43100  2.71550 -2.71550
Si -4.07325  4.07325 -1.35775
Si -2.71550  5.43100 -2.71550
Si -1.35775  6.78875 -1.35775
Si  0.00000  8.14650 -2.71550
Si  1.35775  9.50425 -1.35775
Si  2.71550 10.86200 -2.71550
Si  4.07325 12.21975 -1.35775
Si  5.43100 13.57750 -2.71550
Si  6.78875 14.93525 -1.35775
Si -2.71550  2.71550  0.00000
Si -1.35775  4.07325  1.35775
Si -0.00000  5.43100  0.00000
Si  1.35775  6.78875  1.35775
Si  2.71550  8.14650 -0.00000
Si  4.07325  9.50425  1.35775
Si  5.43100 10.86200  0.00000
Si  6.78875 12.21975  1.35775
Si  8.14650 13.57750  0.00000
Si  9.50425 14.93525  1.35775
Si -13.57750  5.43100 -8.14650
Si -12.21975  6.78875 -6.78875
Si -10.86200  8.14650 -8.14650
Si -9.50425  9.50425 -6.78875
Si -8.14650 10.86200 -8.14650
Si -6.78875 12.21975 -6.78875
Si -5.43100 13.57750 -8.14650
Si -4.07325 14.93525 -6.78875
Si -2.71550 16.29300 -8.14650
Si -1.35775 17.65075 -6.78875
Si -10.86200  5.43100 -5.43100
Si -9.50425  6.78875 -4.07325
Si -8.14650  8.14650 -5.43100
Si -6.78875  9.50425 -4.07325
Si -5.43100 10.86200 -5.43100
Si -4.07325 12.21975 -4.07325
Si -2.71550 13.57750 -5.43100
Si -1.35775 14.93525 -4.07325
Si  0.00000 16.29300 -5.43100
Si  1.35775 17.65075 -4.07325
Si -8.14650  5.43100 -2.71550
Si -6.78875  6.78875 -1.35775
Si -5.43100  8.14650 -2.71550
Si -4.07325  9.50425 -1.35775
Si -2.71550 10.86200 -2.71550
Si -1.35775 12.21975 -1.35775
Si  0.00000 13.57750 -2.71550
Si  1.35775 14.93525 -1.35775
Si  2.71550 16.29300 -2.71550
Si  4.07325 17.65075 -1.35775
Si -5.43100  5.43100  0.00000
Si -4.07325  6.78875  1.35775
Si -2.71550  8.14650  0.00000
Si -1.35775  9.50425  1.35775
Si  0.00000 10.86200  0.00000
Si  1.35775 12.21975  1.35775
Si  2.71550 13.57750  0.00000
Si  4.07325 14.93525  1.35775
Si  5.43100 16.29300  0.00000
Si  6.78875 17.65075  1.35775
Si -2.71550  5.43100  2.71550
Si -1.35775  6.78875  4.07325
Si  0.00000  8.14650  2.71550
Si  1.35775  9.50425  4.07325
Si  2.71550 10.86200  2.71550
Si  4.07325 12.21975  4.07325
Si  5.43100 13.57750  2.71550
Si  6.78875 14.93525  4.07325
Si  8.14650 16.29300  2.71550
Si  9.50425 17.65075  4.07325
Si -13.57750  8.14650 -5.43100
Si -12.21975  9.50425 -4.07325
Si -10.86200 10.86200 -5.43100
Si -9.50425 12.21975 -4.07325
Si -8.14650 13.57750 -5.43100
Si -6.78875 14.93525 -4.07325
Si -5.43100 16.29300 -5.43100
Si -4.07325 17.65075 -4.07325
Si -2.71550 19.00850 -5.43100
Si -1.35775 20.36625 -4.07325
Si -10.86200  8.14650 -2.71550
Si -9.50425  9.50425 -1.35775
Si -8.14650 10.86200 -2.71550
Si -6.78875 12.21975 -1.35775
Si -5.43100 13.57750 -2.71550
Si -4.07325 14.93525 -1.35775
Si -2.71550 16.29300 -2.71550
Si -1.35775 17.65075 -1.35775
Si  0.00000 19.00850 -2.71550
Si  1.35775 20.36625 -1.35775
Si -8.14650  8.14650  0.00000
Si -6.78875  9.50425  1.35775
Si -5.43100 10.86200  0.00000
Si -4.07325 12.21975  1.35775
Si -2.71550 13.57750  0.00000
Si -1.35775 14.93525  1.35775
Si  0.00000 16.29300  0.00000
Si  1.35775 17.65075  1.35775
Si  2.71550 19.00850  0.00000
Si  4.07325 20.36625  1.35775
Si -5.43100  8.14650  2.71550
Si -4.07325  9.50425  4.07325
Si -2.71550 10.86200  2.71550
Si -1.35775 12.21975  4.07325
Si  0.00000 13.57750  2.71550
Si  1.35775 14.93525  4.07325
Si  2.71550 16.29300  2.71550
Si  4.07325 17.65075  4.07325
Si  5.43100 19.00850  2.71550
Si  6.78875 20.36625  4.07325
Si -2.71550  8.14650  5.43100
Si -1.35775  9.50425  6.78875
Si  0.00000 10.86200  5.43100
Si  1.35775 12.21975  6.78875
Si  2.71550 13.57750  5.43100
Si  4.07325 14.93525  6.78875
Si  5.43100 16.29300  5.43100
Si  6.78875 17.65075  6.78875
Si  8.14650 19.00850  5.43100
Si  9.50425 20.36625  6.78875
Si -13.57750 10.86200 -2.71550
Si -12.21975 12.21975 -1.35775
Si -10.86200 13.57750 -2.71550
Si -9.50425 14.93525 -1.35775
Si -8.14650 16.29300 -2.71550
Si -6.78875 17.65075 -1.35775
Si -5.43100 19.00850 -2.71550
Si -4.07325 20.36625 -1.35775
Si -2.71550 21.72400 -2.71550
Si -1.35775 23.08175 -1.35775
Si -10.86200 10.86200  0.00000
Si -9.50425 12.21975  1.35775
Si -8.14650 13.57750  0.00000
Si -6.78875 14.93525  1.35775
Si -5.43100 16.29300  0.00000
Si -4.07325 17.65075  1.35775
Si -2.71550 19.00850  0.00000
Si -1.35775 20.36625  1.35775
Si -0.00000 21.72400  0.00000
Si  1.35775 23.08175  1.35775
Si -8.14650 10.86200  2.71550
Si -6.78875 12.21975  4.07325
Si -5.43100 13.57750  2.71550
Si -4.07325 14.93525  4.07325
Si -2.71550 16.29300  2.71550
Si -1.35775 17.65075  4.07325
Si  0.00000 19.00850  2.71550
Si  1.35775 20.36625  4.07325
Si  2.71550 21.72400  2.71550
Si  4.07325 23.08175  4.07325
Si -5.43100 10.86200  5.43100
Si -4.07325 12.21975  6.78875
Si -2.71550 13.57750  5.43100
Si -1.35775 14.93525  6.78875
Si  0.00000 16.29300  5.43100
Si  1.35775 17.65075  6.78875
Si  2.71550 19.00850  5.43100
Si  4.07325 20.36625  6.78875
Si  5.43100 21.72400  5.43100
Si  6.78875 23.08175  6.78875
Si -2.71550 10.86200  8.14650
Si -1.35775 12.21975  9.50425
Si  0.00000 13.57750  8.14650
Si  1.35775 14.93525  9.50425
Si  2.71550 16.29300  8.14650
Si  4.07325 17.65075  9.50425
Si  5.43100 19.00850  8.14650
Si  6.78875 20.36625  9.50425
Si  8.14650 21.72400  8.14650
Si  9.50425 23.08175  9.50425
Si  0.00000 13.57750 -13.57750
Si  1.35775 14.93525 -12.21975
Si  2.71550 16.29300 -13.57750
Si  4.07325 17.65075 -12.21975
Si  5.43100 19.00850 -13.57750
Si  6.78875 20.36625 -12.21975
Si  8.14650 21.72400 -13.57750
Si  9.50425 23.08175 -12.21975
Si 10.86200 24.43950 -13.57750
Si 12.21975 25.79725 -12.21975
Si  2.71550 13.57750 -10.86200
Si  4.07325 14.93525 -9.50425
Si  5.43100 16.29300 -10.86200
Si  6.78875 17.65075 -9.50425
Si  8.14650 19.00850 -10.86200
Si  9.50425 20.36625 -9.50425
Si 10.86200 21.72400 -10.86200
Si 12.21975 23.08175 -9.50425
Si 13.57750 24.43950 -10.86200
Si 14.93525 25.79725 -9.50425
Si  5.43100 13.57750 -8.14650
Si  6.78875 14.93525 -6.78875
Si  8.14650 16.29300 -8.14650
Si  9.50425 17.65075 -6.78875
Si 10.86200 19.00850 -8.14650
Si 12.21975 20.36625 -6.78875
Si 13.57750 21.72400 -8.14650
Si 14.93525 23.08175 -6.78875
Si 16.29300 24.43950 -8.14650
Si 17.65075 25.79725 -6.78875
Si  8.14650 13.57750 -5.43100
Si  9.50425 14.93525 -4.07325
Si 10.86200 16.29300 -5.43100
Si 12.21975 17.65075 -4.07325
Si 13.57750 19.00850 -5.43100
Si 14.93525 20.36625 -4.07325
Si 16.29300 21.72400 -5.43100
Si 17.65075 23.08175 -4.07325
Si 19.00850 24.43950 -5.43100
Si 20.36625 25.79725 -4.07325
Si 10.86200 13.57750 -2.71550
Si 12.21975 14.93525 -1.35775
Si 13.57750 16.29300 -2.71550
Si 14.93525 17.65075 -1.35775
Si 16.29300 19.00850 -2.71550
Si 17.65075 20.36625 -1.35775
Si 19.00850 21.72400 -2.71550
Si 20.36625 23.08175 -1.35775
Si 21.72400 24.43950 -2.71550
Si 23.08175 25.79725 -1.35775
Si  0.00000 16.29300 -10.86200
Si  1.35775 17.65075 -9.50425
Si  2.71550 19.00850 -10.86200
Si  4.07325 20.36625 -9.50425
Si  5.43100 21.72400 -10.86200
Si  6.78875 23.08175 -9.50425
Si  8.14650 24.43950 -10.86200
Si  9.50425 25.79725 -9.50425
Si 10.86200 27.15500 -10.86200
Si 12.21975 28.51275 -9.50425
Si  2.71550 16.29300 -8.14650
Si  4.07325 17.65075 -6.78875
Si  5.43100 19.00850 -8.14650
Si  6.78875 20.36625 -6.78875
Si  8.14650 21.72400 -8.14650
Si  9.50425 23.08175 -6.78875
Si 10.86200 24.43950 -8.14650
Si 12.21975 25.79725 -6.78875
Si 13.57750 27.15500 -8.14650
Si 14.93525 28.51275 -6.78875
Si  5.43100 16.29300 -5.43100
Si  6.78875 17.65075 -4.07325
Si  8.14650 19.00850 -5.43100
Si  9.50425 20.36625 -4.07325
Si 10.86200 21.72400 -5.43100
Si 12.21975 23.08175 -4.07325
Si 13.57750 24.43950 -5.43100
Si 14.93525 25.79725 -4.07325
Si 16.29300 27.15500 -5.43100
Si 17.65075 28.51275 -4.07325
Si  8.14650 16.29300 -2.71550
Si  9.50425 17.65075 -1.35775
Si 10.86200 19.00850 -2.71550
Si 12.21975 20.36625 -1.35775
Si 13.57750 21.72400 -2.71550
Si 14.93525 23.08175 -1.35775
Si 16.29300 24.43950 -2.71550
Si 17.65075 25.79725 -1.35775
Si 19.00850 27.15500 -2.71550
Si 20.36625 28.51275 -1.35775
Si 10.86200 16.29300  0.00000
Si 12.21975 17.65075  1.35775
Si 13.57750 19.00850  0.00000
Si 14.93525 20.36625  1.35775
Si 16.29300 21.72400 -0.00000
Si 17.65075 23.08175  1.35775
Si 19.00850 24.43950  0.00000
Si 20.36625 25.79725  1.35775
Si 21.72400 27.15500  0.00000
Si 23.08175 28.51275  1.35775
Si  0.00000 19.00850 -8.14650
Si  1.35775 20.36625 -6.78875
Si  2.71550 21.72400 -8.14650
Si  4.07325 23.08175 -6.78875
Si  5.43100 24.43950 -8.14650
Si  6.78875 25.79725 -6.78875
Si  8.14650 27.15500 -8.14650
Si  9.50425 28.51275 -6.78875
Si 10.86200 29.87050 -8.14650
Si 12.21975 31.22825 -6.78875
Si  2.71550 19.00850 -5.43100
Si  4.07325 20.36625 -4.07325
Si  5.43100 21.72400 -5.43100
Si  6.78875 23.08175 -4.07325
Si  8.14650 24.43950 -5.43100
Si  9.50425 25.79725 -4.07325
Si 10.86200 27.15500 -5.43100
Si 12.21975 28.51275 -4.07325
Si 13.57750 29.87050 -5.43100
Si 14.93525 31.22825 -4.07325
Si  5.43100 19.00850 -2.71550
Si  6.78875 20.36625 -1.35775
Si  8.14650 21.72400 -2.71550
Si  9.50425 23.08175 -1.35775
Si 10.86200 24.43950 -2.71550
Si 12.21975 25.79725 -1.35775
Si 13.57750 27.15500 -2.71550
Si 14.93525 28.51275 -1.35775
Si 16.29300 29.87050 -2.71550
Si 17.65075 31.22825 -1.35775
Si  8.14650 19.00850  0.00000
Si  9.50425 20.36625  1.35775
Si 10.86200 21.72400  0.00000
Si 12.21975 23.08175  1.35775
Si 13.57750 24.43950  0.00000
Si 14.93525 25.79725  1.35775
Si 16.29300 27.15500  0.00000
Si 17.65075 28.51275  1.35775
Si 19.00850 29.87050  0.00000
Si 20.36625 31.22825  1.35775
Si 10.86200 19.00850  2.71550
Si 12.21975 20.36625  4.07325
Si 13.57750 21.72400  2.71550
Si 14.93525 23.08175  4.07325
Si 16.29300 24.43950  2.71550
Si 17.65075 25.79725  4.07325
Si 19.00850 27.15500  2.71550
Si 20.36625 28.51275  4.07325
Si 21.72400 29.87050  2.71550
Si 23.08175 31.22825  4.07325
Si  0.00000 21.72400 -5.43100
Si  1.35775 23.08175 -4.07325
Si  2.71550 24.43950 -5.43100
Si  4.07325 25.79725 -4.07325
Si  5.43100 27.15500 -5.43100
Si  6.78875 28.51275 -4.07325
Si  8.14650 29.87050 -5.43100
Si  9.50425 31.22825 -4.07325
Si 10.86200 32.58600 -5.43100
Si 12.21975 33.94375 -4.07325
Si  2.71550 21.72400 -2.71550
Si  4.07325 23.08175 -1.35775
Si  5.43100 24.43950 -2.71550
Si  6.78875 25.79725 -1.35775
Si  8.14650 27.15500 -2.71550
Si  9.50425 28.51275 -1.35775
Si 10.86200 29.87050 -2.71550
Si 12.21975 31.22825 -1.35775
Si 13.57750 32.58600 -2.71550
Si 14.93525 33.94375 -1.35775
Si  5.43100 21.72400  0.00000
Si  6.78875 23.08175  1.35775
Si  8.14650 24.43950  0.00000
Si  9.50425 25.79725  1.35775
Si 10.86200 27.15500  0.00000
Si 12.21975 28.51275  1.35775
Si 13.57750 29.87050  0.00000
Si 14.93525 31.22825  1.35775
Si 16.29300 32.58600  0.00000
Si 17.65075 33.94375  1.35775
Si  8.14650 21.72400  2.71550
Si  9.50425 23.08175  4.07325
Si 10.86200 24.43950  2.71550
Si 12.21975 25.79725  4.07325
Si 13.57750 27.15500  2.71550
Si 14.93525 28.51275  4.07325
Si 16.29300 29.87050  2.71550
Si 17.65075 31.22825  4.07325
Si 19.00850 32.58600  2.71550
Si 20.36625 33.94375  4.07325
Si 10.86200 21.72400  5.43100
Si 12.21975 23.08175  6.78875
Si 13.57750 24.43950  5.43100
Si 14.93525 25.79725  6.78875
Si 16.29300 27.15500  5.43100
Si 17.65075 28.51275  6.78875
Si 19.00850 29.87050  5.43100
Si 20.36625 31.22825  6.78875
Si 21.72400 32.58600  5.43100
Si 23.08175 33.94375  6.78875
Si  0.00000 24.43950 -2.71550
Si  1.35775 25.79725 -1.35775
Si  2.71550 27.15500 -2.71550
Si  4.07325 28.51275 -1.35775
Si  5.43100 29.87050 -2.71550
Si  6.78875 31.22825 -1.35775
Si  8.14650 32.58600 -2.71550
Si  9.50425 33.94375 -1.35775
Si 10.86200 35.30150 -2.71550
Si 12.21975 36.65925 -1.35775
Si  2.71550 24.43950  0.00000
Si  4.07325 25.79725  1.35775
Si  5.43100 27.15500  0.00000
Si  6.78875 28.51275  1.35775
Si  8.14650 29.87050  0.00000
Si  9.50425 31.22825  1.35775
Si 10.86200 32.58600  0.00000
Si 12.21975 33.94375  1.35775
Si 13.57750 35.30150  0.00000
Si 14.93525 36.65925  1.35775
Si  5.43100 24.43950  2.71550
Si  6.78875 25.79725  4.07325
Si  8.14650 27.15500  2.71550
Si  9.50425 28.51275  4.07325
Si 10.86200 29.87050  2.71550
Si 12.21975 31.22825  4.07325
Si 13.57750 32.58600  2.71550
Si 14.93525 33.94375  4.07325
Si 16.29300 35.30150  2.71550
Si 17.65075 36.65925  4.07325
Si  8.14650 24.43950  5.43100
Si  9.50425 25.79725  6.78875
Si 10.86200 27.15500  5.43100
Si 12.21975 28.51275  6.78875
Si 13.57750 29.87050  5.43100
Si 14.93525 31.22825  6.78875
Si 16.29300 32.58600  5.43100
Si 17.65075 33.94375  6.78875
Si 19.00850 35.30150  5.43100
Si 20.36625 36.65925  6.78875
Si 10.86200 24.43950  8.14650
Si 12.21975 25.79725  9.50425
Si 13.57750 27.15500  8.14650
Si 14.93525 28.51275  9.50425
Si 16.29300 29.87050  8.14650
Si 17.65075 31.22825  9.50425
Si 19.00850 32.58600  8.14650
Si 20.36625 33.94375  9.50425
Si 21.72400 35.30150  8.14650
Si 23.08175 36.65925  9.50425
Si -13.57750 -13.57750  0.00000
Si -12.21975 -12.21975  1.35775
Si -10.86200 -10.86200  0.00000
Si -9.50425 -9.50425  1.35775
Si -8.14650 -8.14650  0.00000
Si -6.78875 -6.78875  1.35775
Si -5.43100 -5.43100  0.00000
Si -4.07325 -4.07325  1.35775
Si -2.71550 -2.71550  0.00000
Si -1.35775 -1.35775  1.35775
Si -10.86200 -13.57750  2.71550
Si -9.50425 -12.21975  4.07325
Si -8.14650 -10.86200  2.71550
Si -6.78875 -9.50425  4.07325
Si -5.43100 -8.14650  2.71550
Si -4.07325 -6.78875  4.07325
Si -2.71550 -5.43100  2.71550
Si -1.35775 -4.07325  4.07325
Si  0.00000 -2.71550  2.71550
Si  1.35775 -1.35775  4.07325
Si -8.14650 -13.57750  5.43100
Si -6.78875 -12.21975  6.78875
Si -5.43100 -10.86200  5.43100
Si -4.07325 -9.50425  6.78875
Si -2.71550 -8.14650  5.43100
Si -1.35775 -6.78875  6.78875
Si  0.00000 -5.43100  5.43100
Si  1.35775 -4.07325  6.78875
Si  2.71550 -2.71550  5.43100
Si  4.07325 -1.35775  6.78875
Si -5.43100 -13.57750  8.14650
Si -4.07325 -12.21975  9.50425
Si -2.71550 -10.86200  8.14650
Si -1.35775 -9.50425  9.50425
Si  0.00000 -8.14650  8.14650
Si  1.35775 -6.78875  9.50425
Si  2.71550 -5.43100  8.14650
Si  4.07325 -4.07325  9.50425
Si  5.43100 -2.71550  8.14650
Si  6.78875 -1.35775  9.50425
Si -2.71550 -13.57750 10.86200
Si -1.35775 -12.21975 12.21975
Si -0.00000 -10.86200 10.86200
Si  1.35775 -9.50425 12.21975
Si  2.71550 -8.14650 10.86200
Si  4.07325 -6.78875 12.21975
Si  5.43100 -5.43100 10.86200
Si  6.78875 -4.07325 12.21975
Si  8.14650 -2.71550 10.86200
Si  9.50425 -1.35775 12.21975
Si -13.57750 -10.86200  2.71550
Si -12.21975 -9.50425  4.07325
Si -10.86200 -8.14650  2.71550
Si -9.50425 -6.78875  4.07325
Si -8.14650 -5.43100  2.71550
Si -6.78875 -4.07325  4.07325
Si -5.43100 -2.71550  2.71550
Si -4.07325 -1.35775  4.07325
Si -2.71550  0.00000  2.71550
Si -1.35775  1.35775  4.07325
Si -10.86200 -10.86200  5.43100
Si -9.50425 -9.50425  6.78875
Si -8.14650 -8.14650  5.43100
Si -6.78875 -6.78875  6.78875
Si -5.43100 -5.43100  5.43100
Si -4.07325 -4.07325  6.78875
Si -2.71550 -2.71550  5.43100
Si -1.35775 -1.35775  6.78875
Si  0.00000  0.00000  5.43100
Si  1.35775  1.35775  6.78875
Si -8.14650 -10.86200  8.14650
Si -6.78875 -9.50425  9.50425
Si -5.43100 -8.14650  8.14650
Si -4.07325 -6.78875  9.50425
Si -2.71550 -5.43100  8.14650
Si -1.35775 -4.07325  9.50425
Si  0.00000 -2.71550  8.14650
Si  1.35775 -1.35775  9.50425
Si  2.71550 -0.00000  8.14650
Si  4.07325  1.35775  9.50425
Si -5.43100 -10.86200 10.86200
Si -4.07325 -9.50425 12.21975
Si -2.71550 -8.14650 10.86200
Si -1.35775 -6.78875 12.21975
Si  0.00000 -5.43100 10.86200
Si  1.35775 -4.07325 12.21975
Si  2.71550 -2.71550 10.86200
Si  4.07325 -1.35775 12.21975
Si  5.43100  0.00000 10.86200
Si  6.78875  1.35775 12.21975
Si -2.71550 -10.86200 13.57750
Si -1.35775 -9.50425 14.93525
Si -0.00000 -8.14650 13.57750
Si  1.35775 -6.78875 14.93525
Si  2.71550 -5.43100 13.57750
Si  4.07325 -4.07325 14.93525
Si  5.43100 -2.71550 13.57750
Si  6.78875 -1.35775 14.93525
Si  8.14650  0.00000 13.57750
Si  9.50425  1.35775 14.93525
Si -13.57750 -8.14650  5.43100
Si -12.21975 -6.78875  6.78875
Si -10.86200 -5.43100  5.43100
Si -9.50425 -4.07325  6.78875
Si -8.14650 -2.71550  5.43100
Si -6.78875 -1.35775  6.78875
Si -5.43100  0.00000  5.43100
Si -4.07325  1.35775  6.78875
Si -2.71550  2.71550  5.43100
Si -1.35775  4.07325  6.78875
Si -10.86200 -8.14650  8.14650
Si -9.50425 -6.78875  9.50425
Si -8.14650 -5.43100  8.14650
Si -6.78875 -4.07325  9.50425
Si -5.43100 -2.71550  8.14650
Si -4.07325 -1.35775  9.50425
Si -2.71550  0.00000  8.14650
Si -1.35775  1.35775  9.50425
Si  0.00000  2.71550  8.14650
Si  1.35775  4.07325  9.50425
Si -8.14650 -8.14650 10.86200
Si -6.78875 -6.78875 12.21975
Si -5.43100 -5.43100 10.86200
Si -4.07325 -4.07325 12.21975
Si -2.71550 -2.71550 10.86200
Si -1.35775 -1.35775 12.21975
Si  0.00000  0.00000 10.86200
Si  1.35775  1.35775 12.21975
Si  2.71550  2.71550 10.86200
Si  4.07325  4.07325 12.21975
Si -5.43100 -8.14650 13.57750
Si -4.07325 -6.78875 14.93525
Si -2.71550 -5.43100 13.57750
Si -1.35775 -4.07325 14.93525
Si  0.00000 -2.71550 13.57750
Si  1.35775 -1.35775 14.93525
Si  2.71550  0.00000 13.57750
Si  4.07325  1.35775 14.93525
Si  5.43100  2.71550 13.57750
Si  6.78875  4.07325 14.93525
Si -2.71550 -8.14650 16.29300
Si -1.35775 -6.78875 17.65075
Si  0.00000 -5.43100 16.29300
Si  1.35775 -4.07325 17.65075
Si  2.71550 -2.71550 16.29300
Si  4.07325 -1.35775 17.65075
Si  5.43100  0.00000 16.29300
Si  6.78875  1.35775 17.65075
Si  8.14650  2.71550 16.29300
Si  9.50425  4.07325 17.65075
Si -13.57750 -5.43100  8.14650
Si -12.21975 -4.07325  9.50425
Si -10.86200 -2.71550  8.14650
Si -9.50425 -1.35775  9.50425
Si -8.14650  0.00000  8.14650
Si -6.78875  1.35775  9.50425
Si -5.43100  2.71550  8.14650
Si -4.07325  4.07325  9.50425
Si -2.71550  5.43100  8.14650
Si -1.35775  6.78875  9.50425
Si -10.86200 -5.43100 10.86200
Si -9.50425 -4.07325 12.21975
Si -8.14650 -2.71550 10.86200
Si -6.78875 -1.35775 12.21975
Si -5.43100  0.00000 10.86200
Si -4.07325  1.35775 12.21975
Si -2.71550  2.71550 10.86200
Si -1.35775  4.07325 12.21975
Si  0.00000  5.43100 10.86200
Si  1.35775  6.78875 12.21975
Si -8.14650 -5.43100 13.57750
Si -6.78875 -4.07325 14.93525
Si -5.43100 -2.71550 13.57750
Si -4.07325 -1.35775 14.93525
Si -2.71550  0.00000 13.57750
Si -1.35775  1.35775 14.93525
Si  0.00000  2.71550 13.57750
Si  1.35775  4.07325 14.93525
Si  2.71550  5.43100 13.57750
Si  4.07325  6.78875 14.93525
Si -5.43100 -5.43100 16.29300
Si -4.07325 -4.07325 17.65075
Si -2.71550 -2.71550 16.29300
Si -1.35775 -1.35775 17.65075
Si  0.00000  0.00000 16.29300
Si  1.35775  1.35775 17.65075
Si  2.71550  2.71550 16.29300
Si  4.07325  4.07325 17.65075
Si  5.43100  5.43100 16.29300
Si  6.78875  6.78875 17.65075
Si -2.71550 -5.43100 19.00850
Si -1.35775 -4.07325 20.36625
Si  0.00000 -2.71550 19.00850
Si  1.35775 -1.35775 20.36625
Si  2.71550  0.00000 19.00850
Si  4.07325  1.35775 20.36625
Si  5.43100  2.71550 19.00850
Si  6.78875  4.07325 20.36625
Si  8.14650  5.43100 19.00850
Si  9.50425  6.78875 20.36625
Si -13.57750 -2.71550 10.86200
Si -12.21975 -1.35775 12.21975
Si -10.86200  0.00000 10.86200
Si -9.50425  1.35775 12.21975
Si -8.14650  2.71550 10.86200
Si -6.78875  4.07325 12.21975
Si -5.43100  5.43100 10.86200
Si -4.07325  6.78875 12.21975
Si -2.71550  8.14650 10.86200
Si -1.35775  9.50425 12.21975
Si -10.86200 -2.71550 13.57750
Si -9.50425 -1.35775 14.93525
Si -8.14650  0.00000 13.57750
Si -6.78875  1.35775 14.93525
Si -5.43100  2.71550 13.57750
Si -4.07325  4.07325 14.93525
Si -2.71550  5.43100 13.57750
Si -1.35775  6.78875 14.93525
Si -0.00000  8.14650 13.57750
Si  1.35775  9.50425 14.93525
Si -8.14650 -2.71550 16.29300
Si -6.78875 -1.35775 17.65075
Si -5.43100  0.00000 16.29300
Si -4.07325  1.35775 17.65075
Si -2.71550  2.71550 16.29300
Si -1.35775  4.07325 17.65075
Si  0.00000  5.43100 16.29300
Si  1.35775  6.78875 17.65075
Si  2.71550  8.14650 16.29300
Si  4.07325  9.50425 17.65075
Si -5.43100 -2.71550 19.00850
Si -4.07325 -1.35775 20.36625
Si -2.71550 -0.00000 19.00850
Si -1.35775  1.35775 20.36625
Si  0.00000  2.71550 19.00850
Si  1.35775  4.07325 20.36625
Si  2.71550  5.43100 19.00850
Si  4.07325  6.78875 20.36625
Si  5.43100  8.14650 19.00850
Si  6.78875  9.50425 20.36625
Si -2.71550 -2.71550 21.72400
Si -1.35775 -1.35775 23.08175
Si  0.00000  0.00000 21.72400
Si  1.35775  1.35775 23.08175
Si  2.71550  2.71550 21.72400
Si  4.07325  4.07325 23.08175
Si  5.43100  5.43100 21.72400
Si  6.78875  6.78875 23.08175
Si  8.14650  8.14650 21.72400
Si  9.50425  9.50425 23.08175
Si  0.00000  0.00000  0.00000
Si  1.35775  1.35775  1.35775
Si  2.71550  2.71550  0.00000
Si  4.07325  4.07325  1.35775
Si  5.43100  5.43100  0.00000
Si  6.78875  6.78875  1.35775
Si  8.14650  8.14650  0.00000
Si  9.50425  9.50425  1.35775
Si 10.86200 10.86200  0.00000
Si 12.21975 12.21975  1.35775
Si  2.71550  0.00000  2.71550
Si  4.07325  1.35775  4.07325
Si  5.43100  2.71550  2.71550
Si  6.78875  4.07325  4.07325
Si  8.14650  5.43100  2.71550
Si  9.50425  6.78875  4.07325
Si 10.86200  8.14650  2.71550
Si 12.21975  9.50425  4.07325
Si 13.57750 10.86200  2.71550
Si 14.93525 12.21975  4.07325
Si  5.43100  0.00000  5.43100
Si  6.78875  1.35775  6.78875
Si  8.14650  2.71550  5.43100
Si  9.50425  4.07325  6.78875
Si 10.86200  5.43100  5.43100
Si 12.21975  6.78875  6.78875
Si 13.57750  8.14650  5.43100
Si 14.93525  9.50425  6.78875
Si 16.29300 10.86200  5.43100
Si 17.65075 12.21975  6.78875
Si  8.14650  0.00000  8.14650
Si  9.50425  1.35775  9.50425
Si 10.86200  2.71550  8.14650
Si 12.21975  4.07325  9.50425
Si 13.57750  5.43100  8.14650
Si 14.93525  6.78875  9.50425
Si 16.29300  8.14650  8.14650
Si 17.65075  9.50425  9.50425
Si 19.00850 10.86200  8.14650
Si 20.36625 12.21975  9.50425
Si 10.86200  0.00000 10.86200
Si 12.21975  1.35775 12.21975
Si 13.57750  2.71550 10.86200
Si 14.93525  4.07325 12.21975
Si 16.29300  5.43100 10.86200
Si 17.65075  6.78875 12.21975
Si 19.00850  8.14650 10.86200
Si 20.36625  9.50425 12.21975
Si 21.72400 10.86200 10.86200
Si 23.08175 12.21975 12.21975
Si  0.00000  2.71550  2.71550
Si  1.35775  4.07325  4.07325
Si  2.71550  5.43100  2.71550
Si  4.07325  6.78875  4.07325
Si  5.43100  8.14650  2.71550
Si  6.78875  9.50425  4.07325
Si  8.14650 10.86200  2.71550
Si  9.50425 12.21975  4.07325
Si 10.86200 13.57750  2.71550
Si 12.21975 14.93525  4.07325
Si  2.71550  2.71550  5.43100
Si  4.07325  4.07325  6.78875
Si  5.43100  5.43100  5.43100
Si  6.78875  6.78875  6.78875
Si  8.14650  8.14650  5.43100
Si  9.50425  9.50425  6.78875
Si 10.86200 10.86200  5.43100
Si 12.21975 12.21975  6.78875
Si 13.57750 13.57750  5.43100
Si 14.93525 14.93525  6.78875
Si  5.43100  2.71550  8.14650
Si  6.78875  4.07325  9.50425
Si  8.14650  5.43100  8.14650
Si  9.50425  6.78875  9.50425
Si 10.86200  8.14650  8.14650
Si 12.21975  9.50425  9.50425
Si 13.57750 10.86200  8.14650
Si 14.93525 12.21975  9.50425
Si 16.29300 13.57750  8.14650
Si 17.65075 14.93525  9.50425
Si  8.14650  2.71550 10.86200
Si  9.50425  4.07325 12.21975
Si 10.86200  5.43100 10.86200
Si 12.21975  6.78875 12.21975
Si 13.57750  8.14650 10.86200
Si 14.93525  9.50425 12.21975
Si 16.29300 10.86200 10.86200
Si 17.65075 12.21975 12.21975
Si 19.00850 13.57750 10.86200
Si 20.36625 14.93525 12.21975
Si 10.86200  2.71550 13.57750
Si 12.21975  4.07325 14.93525
Si 13.57750  5.43100 13.57750
Si 14.93525  6.78875 14.93525
Si 16.29300  8.14650 13.57750
Si 17.65075  9.50425 14.93525
Si 19.00850 10.86200 13.57750
Si 20.36625 12.21975 14.93525
Si 21.72400 13.57750 13.57750
Si 23.08175 14.93525 14.93525
Si  0.00000  5.43100  5.43100
Si  1.35775  6.78875  6.78875
Si  2.71550  8.14650  5.43100
Si  4.07325  9.50425  6.78875
Si  5.43100 10.86200  5.43100
Si  6.78875 12.21975  6.78875
Si  8.14650 13.57750  5.43100
Si  9.50425 14.93525  6.78875
Si 10.86200 16.29300  5.43100
Si 12.21975 17.65075  6.78875
Si  2.71550  5.43100  8.14650
Si  4.07325  6.78875  9.50425
Si  5.43100  8.14650  8.14650
Si  6.78875  9.50425  9.50425
Si  8.14650 10.86200  8.14650
Si  9.50425 12.21975  9.50425
Si 10.86200 13.57750  8.14650
Si 12.21975 14.93525  9.50425
Si 13.57750 16.29300  8.14650
Si 14.93525 17.65075  9.50425
Si  5.43100  5.43100 10.86200
Si  6.78875  6.78875 12.21975
Si  8.14650  8.14650 10.86200
Si  9.50425  9.50425 12.21975
Si 10.86200 10.86200 10.86200
Si 12.21975 12.21975 12.21975
Si 13.57750 13.57750 10.86200
Si 14.93525 14.93525 12.21975
Si 16.29300 16.29300 10.86200
Si 17.65075 17.65075 12.21975
Si  8.14650  5.43100 13.57750
Si  9.50425  6.78875 14.93525
Si 10.86200  8.14650 13.57750
Si 12.21975  9.50425 14.93525
Si 13.57750 10.86200 13.57750
Si 14.93525 12.21975 14.93525
Si 16.29300 13.57750 13.57750
Si 17.65075 14.93525 14.93525
Si 19.00850 16.29300 13.57750
Si 20.36625 17.65075 14.93525
Si 10.86200  5.43100 16.29300
Si 12.21975  6.78875 17.65075
Si 13.57750  8.14650 16.29300
Si 14.93525  9.50425 17.65075
Si 16.29300 10.86200 16.29300
Si 17.65075 12.21975 17.65075
Si 19.00850 13.57750 16.29300
Si 20.36625 14.93525 17.65075
Si 21.72400 16.29300 16.29300
Si 23.08175 17.65075 17.65075
Si  0.00000  8.14650  8.14650
Si  1.35775  9.50425  9.50425
Si  2.71550 10.86200  8.14650
Si  4.07325 12.21975  9.50425
Si  5.43100 13.57750  8.14650
Si  6.78875 14.93525  9.50425
Si  8.14650 16.29300  8.14650
Si  9.50425 17.65075  9.50425
Si 10.86200 19.00850  8.14650
Si 12.21975 20.36625  9.50425
Si  2.71550  8.14650 10.86200
Si  4.07325  9.50425 12.21975
Si  5.43100 10.86200 10.86200
Si  6.78875 12.21975 12.21975
Si  8.14650 13.57750 10.86200
Si  9.50425 14.93525 12.21975
Si 10.86200 16.29300 10.86200
Si 12.21975 17.65075 12.21975
Si 13.57750 19.00850 10.86200
Si 14.93525 20.36625 12.21975
Si  5.43100  8.14650 13.57750
Si  6.78875  9.50425 14.93525
Si  8.14650 10.86200 13.57750
Si  9.50425 12.21975 14.93525
Si 10.86200 13.57750 13.57750
Si 12.21975 14.93525 14.93525
Si 13.57750 16.29300 13.57750
Si 14.93525 17.65075 14.93525
Si 16.29300 19.00850 13.57750
Si 17.65075 20.36625 14.93525
Si  8.14650  8.14650 16.29300
Si  9.50425  9.50425 17.65075
Si 10.86200 10.86200 16.29300
Si 12.21975 12.21975 17.65075
Si 13.57750 13.57750 16.29300
Si 14.93525 14.93525 17.65075
Si 16.29300 16.29300 16.29300
Si 17.65075 17.65075 17.65075
Si 19.00850 19.00850 16.29300
Si 20.36625 20.36625 17.65075
Si 10.86200  8.14650 19.00850
Si 12.21975  9.50425 20.36625
Si 13.57750 10.86200 19.00850
Si 14.93525 12.21975 20.36625
Si 16.29300 13.57750 19.00850
Si 17.65075 14.93525 20.36625
Si 19.00850 16.29300 19.00850
Si 20.36625 17.65075 20.36625
Si 21.72400 19.00850 19.00850
Si 23.08175 20.36625 20.36625
Si  0.00000 10.86200 10.86200
Si  1.35775 12.21975 12.21975
Si  2.71550 13.57750 10.86200
Si  4.07325 14.93525 12.21975
Si  5.43100 16.29300 10.86200
Si  6.78875 17.65075 12.21975
Si  8.14650 19.00850 10.86200
Si  9.50425 20.36625 12.21975
Si 10.86200 21.72400 10.86200
Si 12.21975 23.08175 12.21975
Si  2.71550 10.86200 13.57750
Si  4.07325 12.21975 14.93525
Si  5.43100 13.57750 13.57750
Si  6.78875 14.93525 14.93525
Si  8.14650 16.29300 13.57750
Si  9.50425 17.65075 14.93525
Si 10.86200 19.00850 13.57750
Si 12.21975 20.36625 14.93525
Si 13.57750 21.72400 13.57750
Si 14.93525 23.08175 14.93525
Si  5.43100 10.86200 16.29300
Si  6.78875 12.21975 17.65075
Si  8.14650 13.57750 16.29300
Si  9.50425 14.93525 17.65075
Si 10.86200 16.29300 16.29300
Si 12.21975 17.65075 17.65075
Si 13.57750 19.00850 16.29300
Si 14.93525 20.36625 17.65075
Si 16.29300 21.72400 16.29300
Si 17.65075 23.08175 17.65075
Si  8.14650 10.86200 19.00850
Si  9.50425 12.21975 20.36625
Si 10.86200 13.57750 19.00850
Si 12.21975 14.93525 20.36625
Si 13.57750 16.29300 19.00850
Si 14.93525 17.65075 20.36625
Si 16.29300 19.00850 19.00850
Si 17.65075 20.36625 20.36625
Si 19.00850 21.72400 19.00850
Si 20.36625 23.08175 20.36625
Si 10.86200 10.86200 21.72400
Si 12.21975 12.21975 23.08175
Si 13.57750 13.57750 21.72400
Si 14.93525 14.93525 23.08175
Si 16.29300 16.29300 21.72400
Si 17.65075 17.65075 23.08175
Si 19.00850 19.00850 21.72400
Si 20.36625 20.36625 23.08175
Si 21.72400 21.72400 21.72400
Si 23.08175 23.08175 23.08175
Si 13.57750 13.57750  0.00000
Si 14.93525 14.93525  1.35775
Si 16.29300 16.29300  0.00000
Si 17.65075 17.65075  1.35775
Si 19.00850 19.00850  0.00000
Si 20.36625 20.36625  1.35775
Si 21.72400 21.72400  0.00000
Si 23.08175 23.08175  1.35775
Si 24.43950 24.43950  0.00000
Si 25.79725 25.79725  1.35775
Si 16.29300 13.57750  2.71550
Si 17.65075 14.93525  4.07325
Si 19.00850 16.29300  2.71550
Si 20.36625 17.65075  4.07325
Si 21.72400 19.00850  2.71550
Si 23.08175 20.36625  4.07325
Si 24.43950 21.72400  2.71550
Si 25.79725 23.08175  4.07325
Si 27.15500 24.43950  2.71550
Si 28.51275 25.79725  4.07325
Si 19.00850 13.57750  5.43100
Si 20.36625 14.93525  6.78875
Si 21.72400 16.29300  5.43100
Si 23.08175 17.65075  6.78875
Si 24.43950 19.00850  5.43100
Si 25.79725 20.36625  6.78875
Si 27.15500 21.72400  5.43100
Si 28.51275 23.08175  6.78875
Si 29.87050 24.43950  5.43100
Si 31.22825 25.79725  6.78875
Si 21.72400 13.57750  8.14650
Si 23.08175 14.93525  9.50425
Si 24.43950 16.29300  8.14650
Si 25.79725 17.65075  9.50425
Si 27.15500 19.00850  8.14650
Si 28.51275 20.36625  9.50425
Si 29.87050 21.72400  8.14650
Si 31.22825 23.08175  9.50425
Si 32.58600 24.43950  8.14650
Si 33.94375 25.79725  9.50425
Si 24.43950 13.57750 10.86200
Si 25.79725 14.93525 12.21975
Si 27.15500 16.29300 10.86200
Si 28.51275 17.65075 12.21975
Si 29.87050 19.00850 10.86200
Si 31.22825 20.36625 12.21975
Si 32.58600 21.72400 10.86200
Si 33.94375 23.08175 12.21975
Si 35.30150 24.43950 10.86200
Si 36.65925 25.79725 12.21975
Si 13.57750 16.29300  2.71550
Si 14.93525 17.65075  4.07325
Si 16.29300 19.00850  2.71550
Si 17.65075 20.36625  4.07325
Si 19.00850 21.72400  2.71550
Si 20.36625 23.08175  4.07325
Si 21.72400 24.43950  2.71550
Si 23.08175 25.79725  4.07325
Si 24.43950 27.15500  2.71550
Si 25.79725 28.51275  4.07325
Si 16.29300 16.29300  5.43100
Si 17.65075 17.65075  6.78875
Si 19.00850 19.00850  5.43100
Si 20.36625 20.36625  6.78875
Si 21.72400 21.72400  5.43100
Si 23.08175 23.08175  6.78875
Si 24.43950 24.43950  5.43100
Si 25.79725 25.79725  6.78875
Si 27.15500 27.15500  5.43100
Si 28.51275 28.51275  6.78875
Si 19.00850 16.29300  8.14650
Si 20.36625 17.65075  9.50425
Si 21.72400 19.00850  8.14650
Si 23.08175 20.36625  9.50425
Si 24.43950 21.72400  8.14650
Si 25.79725 23.08175  9.50425
Si 27.15500 24.43950  8.14650
Si 28.51275 25.79725  9.50425
Si 29.87050 27.15500  8.14650
Si 31.22825 28.51275  9.50425
Si 21.72400 16.29300 10.86200
Si 23.08175 17.65075 12.21975
Si 24.43950 19.00850 10.86200
Si 25.79725 20.36625 12.21975
Si 27.15500 21.72400 10.86200
Si 28.51275 23.08175 12.21975
Si 29.87050 24.43950 10.86200
Si 31.22825 25.79725 12.21975
Si 32.58600 27.15500 10.86200
Si 33.94375 28.51275 12.21975
Si 24.43950 16.29300 13.57750
Si 25.79725 17.65075 14.93525
Si 27.15500 19.00850 13.57750
Si 28.51275 20.36625 14.93525
Si 29.87050 21.72400 13.57750
Si 31.22825 23.08175 14.93525
Si 32.58600 24.43950 13.57750
Si 33.94375 25.79725 14.93525
Si 35.30150 27.15500 13.57750
Si 36.65925 28.51275 14.93525
Si 13.57750 19.00850  5.43100
Si 14.93525 20.36625  6.78875
Si 16.29300 21.72400  5.43100
Si 17.65075 23.08175  6.78875
Si 19.00850 24.43950  5.43100
Si 20.36625 25.79725  6.78875
Si 21.72400 27.15500  5.43100
Si 23.08175 28.51275  6.78875
Si 24.43950 29.87050  5.43100
Si 25.79725 31.22825  6.78875
Si 16.29300 19.00850  8.14650
Si 17.65075 20.36625  9.50425
Si 19.00850 21.72400  8.14650
Si 20.36625 23.08175  9.50425
Si 21.72400 24.43950  8.14650
Si 23.08175 25.79725  9.50425
Si 24.43950 27.15500  8.14650
Si 25.79725 28.51275  9.50425
Si 27.15500 29.87050  8.14650
Si 28.51275 31.22825  9.50425
Si 19.00850 19.00850 10.86200
Si 20.36625 20.36625 12.21975
Si 21.72400 21.72400 10.86200
Si 23.08175 23.08175 12.21975
Si 24.43950 24.43950 10.86200
Si 25.79725 25.79725 12.21975
Si 27.15500 27.15500 10.86200
Si 28.51275 28.51275 12.21975
Si 29.87050 29.87050 10.86200
Si 31.22825 31.22825 12.21975
Si 21.72400 19.00850 13.57750
Si 23.08175 20.36625 14.93525
Si 24.43950 21.72400 13.57750
Si 25.79725 23.08175 14.93525
Si 27.15500 24.43950 13.57750
Si 28.51275 25.79725 14.93525
Si 29.87050 27.15500 13.57750
Si 31.22825 28.51275 14.93525
Si 32.58600 29.87050 13.57750
Si 33.94375 31.22825 14.93525
Si 24.43950 19.00850 16.29300
Si 25.79725 20.36625 17.65075
Si 27.15500 21.72400 16.29300
Si 28.51275 23.08175 17.65075
Si 29.87050 24.43950 16.29300
Si 31.22825 25.79725 17.65075
Si 32.58600 27.15500 16.29300
Si 33.94375 28.51275 17.65075
Si 35.30150 29.87050 16.29300
Si 36.65925 31.22825 17.65075
Si 13.57750 21.72400  8.14650
Si 14.93525 23.08175  9.50425
Si 16.29300 24.43950  8.14650
Si 17.65075 25.79725  9.50425
Si 19.00850 27.15500  8.14650
Si 20.36625 28.51275  9.50425
Si 21.72400 29.87050  8.14650
Si 23.08175 31.22825  9.50425
Si 24.43950 32.58600  8.14650
Si 25.79725 33.94375  9.50425
Si 16.29300 21.72400 10.86200
Si 17.65075 23.08175 12.21975
Si 19.00850 24.43950 10.86200
Si 20.36625 25.79725 12.21975
Si 21.72400 27.15500 10.86200
Si 23.08175 28.51275 12.21975
Si 24.43950 29.87050 10.86200
Si 25.79725 31.22825 12.21975
Si 27.15500 32.58600 10.86200
Si 28.51275 33.94375 12.21975
Si 19.00850 21.72400 13.57750
Si 20.36625 23.08175 14.93525
Si 21.72400 24.43950 13.57750
Si 23.08175 25.79725 14.93525
Si 24.43950 27.15500 13.57750
Si 25.79725 28.51275 14.93525
Si 27.15500 29.87050 13.57750
Si 28.51275 31.22825 14.93525
Si 29.87050 32.58600 13.57750
Si 31.22825 33.94375 14.93525
Si 21.72400 21.72400 16.29300
Si 23.08175 23.08175 17.65075
Si 24.43950 24.43950 16.29300
Si 25.79725 25.79725 17.65075
Si 27.15500 27.15500 16.29300
Si 28.51275 28.51275 17.65075
Si 29.87050 29.87050 16.29300
Si 31.22825 31.22825 17.65075
Si 32.58600 32.58600 16.29300
Si 33.94375 33.94375 17.65075
Si 24.43950 21.72400 19.00850
Si 25.79725 23.08175 20.36625
Si 27.15500 24.43950 19.00850
Si 28.51275 25.79725 20.36625
Si 29.87050 27.15500 19.00850
Si 31.22825 28.51275 20.36625
Si 32.58600 29.87050 19.00850
Si 33.94375 31.22825 20.36625
Si 35.30150 32.58600 19.00850
Si 36.65925 33.94375 20.36625
Si 13.57750 24.43950 10.86200
Si 14.93525 25.79725 12.21975
Si 16.29300 27.15500 10.86200
Si 17.65075 28.51275 12.21975
Si 19.00850 29.87050 10.86200
Si 20.36625 31.22825 12.21975
Si 21.72400 32.58600 10.86200
Si 23.08175 33.94375 12.21975
Si 24.43950 35.30150 10.86200
Si 25.79725 36.65925 12.21975
Si 16.29300 24.43950 13.57750
Si 17.65075 25.79725 14.93525
Si 19.00850 27.15500 13.57750
Si 20.36625 28.51275 14.93525
Si 21.72400 29.87050 13.57750
Si 23.08175 31.22825 14.93525
Si 24.43950 32.58600 13.57750
Si 25.79725 33.94375 14.93525
Si 27.15500 35.30150 13.57750
Si 28.51275 36.65925 14.93525
Si 19.00850 24.43950 16.29300
Si 20.36625 25.79725 17.65075
Si 21.72400 27.15500 16.29300
Si 23.08175 28.51275 17.65075
Si 24.43950 29.87050 16.29300
Si 25.79725 31.22825 17.65075
Si 27.15500 32.58600 16.29300
Si 28.51275 33.94375 17.65075
Si 29.87050 35.30150 16.29300
Si 31.22825 36.65925 17.65075
Si 21.72400 24.43950 19.00850
Si 23.08175 25.79725 20.36625
Si 24.43950 27.15500 19.00850
Si 25.79725 28.51275 20.36625
Si 27.15500 29.87050 19.00850
Si 28.51275 31.22825 20.36625
Si 29.87050 32.58600 19.00850
Si 31.22825 33.94375 20.36625
Si 32.58600 35.30150 19.00850
Si 33.94375 36.65925 20.36625
Si 24.43950 24.43950 21.72400
Si 25.79725 25.79725 23.08175
Si 27.15500 27.15500 21.72400
Si 28.51275 28.51275 23.08175
Si 29.87050 29.87050 21.72400
Si 31.22825 31.22825 23.08175
Si 32.58600 32.58600 21.72400
Si 33.94375 33.94375 23.08175
Si 35.30150 35.30150 21.72400
Si 36.65925 36.65925 23.08175
Si  0.00000 -13.57750 13.57750
Si  1.35775 -12.21975 14.93525
Si  2.71550 -10.86200 13.57750
Si  4.07325 -9.50425 14.93525
Si  5.43100 -8.14650 13.57750
Si  6.78875 -6.78875 14.93525
Si  8.14650 -5.43100 13.57750
Si  9.50425 -4.07325 14.93525
Si 10.86200 -2.71550 13.57750
Si 12.21975 -1.35775 14.93525
Si  2.71550 -13.57750 16.29300
Si  4.07325 -12.21975 17.65075
Si  5.43100 -10.86200 16.29300
Si  6.78875 -9.50425 17.65075
Si  8.14650 -8.14650 16.29300
Si  9.50425 -6.78875 17.65075
Si 10.86200 -5.43100 16.29300
Si 12.21975 -4.07325 17.65075
Si 13.57750 -2.71550 16.29300
Si 14.93525 -1.35775 17.65075
Si  5.43100 -13.57750 19.00850
Si  6.78875 -12.21975 20.36625
Si  8.14650 -10.86200 19.00850
Si  9.50425 -9.50425 20.36625
Si 10.86200 -8.14650 19.00850
Si 12.21975 -6.78875 20.36625
Si 13.57750 -5.43100 19.00850
Si 14.93525 -4.07325 20.36625
Si 16.29300 -2.71550 19.00850
Si 17.65075 -1.35775 20.36625
Si  8.14650 -13.57750 21.72400
Si  9.50425 -12.21975 23.08175
Si 10.86200 -10.86200 21.72400
Si 12.21975 -9.50425 23.08175
Si 13.57750 -8.14650 21.72400
Si 14.93525 -6.78875 23.08175
Si 16.29300 -5.43100 21.72400
Si 17.65075 -4.07325 23.08175
Si 19.00850 -2.71550 21.72400
Si 20.36625 -1.35775 23.08175
Si 10.86200 -13.57750 24.43950
Si 12.21975 -12.21975 25.79725
Si 13.57750 -10.86200 24.43950
Si 14.93525 -9.50425 25.79725
Si 16.29300 -8.14650 24.43950
Si 17.65075 -6.78875 25.79725
Si 19.00850 -5.43100 24.43950
Si 20.36625 -4.07325 25.79725
Si 21.72400 -2.71550 24.43950
Si 23.08175 -1.35775 25.79725
Si  0.00000 -10.86200 16.29300
Si  1.35775 -9.50425 17.65075
Si  2.71550 -8.14650 16.29300
Si  4.07325 -6.78875 17.65075
Si  5.43100 -5.43100 16.29300
Si  6.78875 -4.07325 17.65075
Si  8.14650 -2.71550 16.29300
Si  9.50425 -1.35775 17.65075
Si 10.86200  0.00000 16.29300
Si 12.21975  1.35775 17.65075
Si  2.71550 -10.86200 19.00850
Si  4.07325 -9.50425 20.36625
Si  5.43100 -8.14650 19.00850
Si  6.78875 -6.78875 20.36625
Si  8.14650 -5.43100 19.00850
Si  9.50425 -4.07325 20.36625
Si 10.86200 -2.71550 19.00850
Si 12.21975 -1.35775 20.36625
Si 13.57750  0.00000 19.00850
Si 14.93525  1.35775 20.36625
Si  5.43100 -10.86200 21.72400
Si  6.78875 -9.50425 23.08175
Si  8.14650 -8.14650 21.72400
Si  9.50425 -6.78875 23.08175
Si 10.86200 -5.43100 21.72400
Si 12.21975 -4.07325 23.08175
Si 13.57750 -2.71550 21.72400
Si 14.93525 -1.35775 23.08175
Si 16.29300 -0.00000 21.72400
Si 17.65075  1.35775 23.08175
Si  8.14650 -10.86200 24.43950
Si  9.50425 -9.50425 25.79725
Si 10.86200 -8.14650 24.43950
Si 12.21975 -6.78875 25.79725
Si 13.57750 -5.43100 24.43950
Si 14.93525 -4.07325 25.79725
Si 16.29300 -2.71550 24.43950
Si 17.65075 -1.35775 25.79725
Si 19.00850  0.00000 24.43950
Si 20.36625  1.35775 25.79725
Si 10.86200 -10.86200 27.15500
Si 12.21975 -9.50425 28.51275
Si 13.57750 -8.14650 27.15500
Si 14.93525 -6.78875 28.51275
Si 16.29300 -5.43100 27.15500
Si 17.65075 -4.07325 28.51275
Si 19.00850 -2.71550 27.15500
Si 20.36625 -1.35775 28.51275
Si 21.72400  0.00000 27.15500
Si 23.08175  1.35775 28.51275
Si  0.00000 -8.14650 19.00850
Si  1.35775 -6.78875 20.36625
Si  2.71550 -5.43100 19.00850
Si  4.07325 -4.07325 20.36625
Si  5.43100 -2.71550 19.00850
Si  6.78875 -1.35775 20.36625
Si  8.14650  0.00000 19.00850
Si  9.50425  1.35775 20.36625
Si 10.86200  2.71550 19.00850
Si 12.21975  4.07325 20.36625
Si  2.71550 -8.14650 21.72400
Si  4.07325 -6.78875 23.08175
Si  5.43100 -5.43100 21.72400
Si  6.78875 -4.07325 23.08175
Si  8.14650 -2.71550 21.72400
Si  9.50425 -1.35775 23.08175
Si 10.86200  0.00000 21.72400
Si 12.21975  1.35775 23.08175
Si 13.57750  2.71550 21.72400
Si 14.93525  4.07325 23.08175
Si  5.43100 -8.14650 24.43950
Si  6.78875 -6.78875 25.79725
Si  8.14650 -5.43100 24.43950
Si  9.50425 -4.07325 25.79725
Si 10.86200 -2.71550 24.43950
Si 12.21975 -1.35775 25.79725
Si 13.57750  0.00000 24.43950
Si 14.93525  1.35775 25.79725
Si 16.29300  2.71550 24.43950
Si 17.65075  4.07325 25.79725
Si  8.14650 -8.14650 27.15500
Si  9.50425 -6.78875 28.51275
Si 10.86200 -5.43100 27.15500
Si 12.21975 -4.07325 28.51275
Si 13.57750 -2.71550 27.15500
Si 14.93525 -1.35775 28.51275
Si 16.29300  0.00000 27.15500
Si 17.65075  1.35775 28.51275
Si 19.00850  2.71550 27.15500
Si 20.36625  4.07325 28.51275
Si 10.86200 -8.14650 29.87050
Si 12.21975 -6.78875 31.22825
Si 13.57750 -5.43100 29.87050
Si 14.93525 -4.07325 31.22825
Si 16.29300 -2.71550 29.87050
Si 17.65075 -1.35775 31.22825
Si 19.00850  0.00000 29.87050
Si 20.36625  1.35775 31.22825
Si 21.72400  2.71550 29.87050
Si 23.08175  4.07325 31.22825
Si  0.00000 -5.43100 21.72400
Si  1.35775 -4.07325 23.08175
Si  2.71550 -2.71550 21.72400
Si  4.07325 -1.35775 23.08175
Si  5.43100  0.00000 21.72400
Si  6.78875  1.35775 23.08175
Si  8.14650  2.71550 21.72400
Si  9.50425  4.07325 23.08175
Si 10.86200  5.43100 21.72400
Si 12.21975  6.78875 23.08175
Si  2.71550 -5.43100 24.43950
Si  4.07325 -4.07325 25.79725
Si  5.43100 -2.71550 24.43950
Si  6.78875 -1.35775 25.79725
Si  8.14650  0.00000 24.43950
Si  9.50425  1.35775 25.79725
Si 10.86200  2.71550 24.43950
Si 12.21975  4.07325 25.79725
Si 13.57750  5.43100 24.43950
Si 14.93525  6.78875 25.79725
Si  5.43100 -5.43100 27.15500
Si  6.78875 -4.07325 28.51275
Si  8.14650 -2.71550 27.15500
Si  9.50425 -1.35775 28.51275
Si 10.86200  0.00000 27.15500
Si 12.21975  1.35775 28.51275
Si 13.57750  2.71550 27.15500
Si 14.93525  4.07325 28.51275
Si 16.29300  5.43100 27.15500
Si 17.65075  6.78875 28.51275
Si  8.14650 -5.43100 29.87050
Si  9.50425 -4.07325 31.22825
Si 10.86200 -2.71550 29.87050
Si 12.21975 -1.35775 31.22825
Si 13.57750  0.00000 29.87050
Si 14.93525  1.35775 31.22825
Si 16.29300  2.71550 29.87050
Si 17.65075  4.07325 31.22825
Si 19.00850  5.43100 29.87050
Si 20.36625  6.78875 31.22825
Si 10.86200 -5.43100 32.58600
Si 12.21975 -4.07325 33.94375
Si 13.57750 -2.71550 32.58600
Si 14.93525 -1.35775 33.94375
Si 16.29300  0.00000 32.58600
Si 17.65075  1.35775 33.94375
Si 19.00850  2.71550 32.58600
Si 20.36625  4.07325 33.94375
Si 21.72400  5.43100 32.58600
Si 23.08175  6.78875 33.94375
Si  0.00000 -2.71550 24.43950
Si  1.35775 -1.35775 25.79725
Si  2.71550  0.00000 24.43950
Si  4.07325  1.35775 25.79725
Si  5.43100  2.71550 24.43950
Si  6.78875  4.07325 25.79725
Si  8.14650  5.43100 24.43950
Si  9.50425  6.78875 25.79725
Si 10.86200  8.14650 24.43950
Si 12.21975  9.50425 25.79725
Si  2.71550 -2.71550 27.15500
Si  4.07325 -1.35775 28.51275
Si  5.43100  0.00000 27.15500
Si  6.78875  1.35775 28.51275
Si  8.14650  2.71550 27.15500
Si  9.50425  4.07325 28.51275
Si 10.86200  5.43100 27.15500
Si 12.21975  6.78875 28.51275
Si 13.57750  8.14650 27.15500
Si 14.93525  9.50425 28.51275
Si  5.43100 -2.71550 29.87050
Si  6.78875 -1.35775 31.22825
Si  8.14650  0.00000 29.87050
Si  9.50425  1.35775 31.22825
Si 10.86200  2.71550 29.87050
Si 12.21975  4.07325 31.22825
Si 13.57750  5.43100 29.87050
Si 14.93525  6.78875 31.22825
Si 16.29300  8.14650 29.87050
Si 17.65075  9.50425 31.22825
Si  8.14650 -2.71550 32.58600
Si  9.50425 -1.35775 33.94375
Si 10.86200 -0.00000 32.58600
Si 12.21975  1.35775 33.94375
Si 13.57750  2.71550 32.58600
Si 14.93525  4.07325 33.94375
Si 16.29300  5.43100 32.58600
Si 17.65075  6.78875 33.94375
Si 19.00850  8.14650 32.58600
Si 20.36625  9.50425 33.94375
Si 10.86200 -2.71550 35.30150
Si 12.21975 -1.35775 36.65925
Si 13.57750  0.00000 35.30150
Si 14.93525  1.35775 36.65925
Si 16.29300  2.71550 35.30150
Si 17.65075  4.07325 36.65925
Si 19.00850  5.43100 35.30150
Si 20.36625  6.78875 36.65925
Si 21.72400  8.14650 35.30150
Si 23.08175  9.50425 36.65925
Si 13.57750  0.00000 13.57750
Si 14.93525  1.35775 14.93525
Si 16.29300  2.71550 13.57750
Si 17.65075  4.07325 14.93525
Si 19.00850  5.43100 13.57750
Si 20.36625  6.78875 14.93525
Si 21.72400  8.14650 13.57750
Si 23.08175  9.50425 14.93525
Si 24.43950 10.86200 13.57750
Si 25.79725 12.21975 14.93525
Si 16.29300  0.00000 16.29300
Si 17.65075  1.35775 17.65075
Si 19.00850  2.71550 16.29300
Si 20.36625  4.07325 17.65075
Si 21.72400  5.43100 16.29300
Si 23.08175  6.78875 17.65075
Si 24.43950  8.14650 16.29300
Si 25.79725  9.50425 17.65075
Si 27.15500 10.86200 16.29300
Si 28.51275 12.21975 17.65075
Si 19.00850  0.00000 19.00850
Si 20.36625  1.35775 20.36625
Si 21.72400  2.71550 19.00850
Si 23.08175  4.07325 20.36625
Si 24.43950  5.43100 19.00850
Si 25.79725  6.78875 20.36625
Si 27.15500  8.14650 19.00850
Si 28.51275  9.50425 20.36625
Si 29.87050 10.86200 19.00850
Si 31.22825 12.21975 20.36625
Si 21.72400  0.00000 21.72400
Si 23.08175  1.35775 23.08175
Si 24.43950  2.71550 21.72400
Si 25.79725  4.07325 23.08175
Si 27.15500  5.43100 21.72400
Si 28.51275  6.78875 23.08175
Si 29.87050  8.14650 21.72400
Si 31.22825  9.50425 23.08175
Si 32.58600 10.86200 21.72400
Si 33.94375 12.21975 23.08175
Si 24.43950  0.00000 24.43950
Si 25.79725  1.35775 25.79725
Si 27.15500  2.71550 24.43950
Si 28.51275  4.07325 25.79725
Si 29.87050  5.43100 24.43950
Si 31.22825  6.78875 25.79725
Si 32.58600  8.14650 24.43950
Si 33.94375  9.50425 25.79725
Si 35.30150 10.86200 24.43950
Si 36.65925 12.21975 25.79725
Si 13.57750  2.71550 16.29300
Si 14.93525  4.07325 17.65075
Si 16.29300  5.43100 16.29300
Si 17.65075  6.78875 17.65075
Si 19.00850  8.14650 16.29300
Si 20.36625  9.50425 17.65075
Si 21.72400 10.86200 16.29300
Si 23.08175 12.21975 17.65075
Si 24.43950 13.57750 16.29300
Si 25.79725 14.93525 17.65075
Si 16.29300  2.71550 19.00850
Si 17.65075  4.07325 20.36625
Si 19.00850  5.43100 19.00850
Si 20.36625  6.78875 20.36625
Si 21.72400  8.14650 19.00850
Si 23.08175  9.50425 20.36625
Si 24.43950 10.86200 19.00850
Si 25.79725 12.21975 20.36625
Si 27.15500 13.57750 19.00850
Si 28.51275 14.93525 20.36625
Si 19.00850  2.71550 21.72400
Si 20.36625  4.07325 23.08175
Si 21.72400  5.43100 21.72400
Si 23.08175  6.78875 23.08175
Si 24.43950  8.14650 21.72400
Si 25.79725  9.50425 23.08175
Si 27.15500 10.86200 21.72400
Si 28.51275 12.21975 23.08175
Si 29.87050 13.57750 21.72400
Si 31.22825 14.93525 23.08175
Si 21.72400  2.71550 24.43950
Si 23.08175  4.07325 25.79725
Si 24.43950  5.43100 24.43950
Si 25.79725  6.78875 25.79725
Si 27.15500  8.14650 24.43950
Si 28.51275  9.50425 25.79725
Si 29.87050 10.86200 24.43950
Si 31.22825 12.21975 25.79725
Si 32.58600 13.57750 24.43950
Si 33.94375 14.93525 25.79725
Si 24.43950  2.71550 27.15500
Si 25.79725  4.07325 28.51275
Si 27.15500  5.43100 27.15500
Si 28.51275  6.78875 28.51275
Si 29.87050  8.14650 27.15500
Si 31.22825  9.50425 28.51275
Si 32.58600 10.86200 27.15500
Si 33.94375 12.21975 28.51275
Si 35.30150 13.57750 27.15500
Si 36.65925 14.93525 28.51275
Si 13.57750  5.43100 19.00850
Si 14.93525  6.78875 20.36625
Si 16.29300  8.14650 19.00850
Si 17.65075  9.50425 20.36625
Si 19.00850 10.86200 19.00850
Si 20.36625 12.21975 20.36625
Si 21.72400 13.57750 19.00850
Si 23.08175 14.93525 20.36625
Si 24.43950 16.29300 19.00850
Si 25.79725 17.65075 20.36625
Si 16.29300  5.43100 21.72400
Si 17.65075  6.78875 23.08175
Si 19.00850  8.14650 21.72400
Si 20.36625  9.50425 23.08175
Si 21.72400 10.86200 21.72400
Si 23.08175 12.21975 23.08175
Si 24.43950 13.57750 21.72400
Si 25.79725 14.93525 23.08175
Si 27.15500 16.29300 21.72400
Si 28.51275 17.65075 23.08175
Si 19.00850  5.43100 24.43950
Si 20.36625  6.78875 25.79725
Si 21.72400  8.14650 24.43950
Si 23.08175  9.50425 25.79725
Si 24.43950 10.86200 24.43950
Si 25.79725 12.21975 25.79725
Si 27.15500 13.57750 24.43950
Si 28.51275 14.93525 25.79725
Si 29.87050 16.29300 24.43950
Si 31.22825 17.65075 25.79725
Si 21.72400  5.43100 27.15500
Si 23.08175  6.78875 28.51275
Si 24.43950  8.14650 27.15500
Si 25.79725  9.50425 28.51275
Si 27.15500 10.86200 27.15500
Si 28.51275 12.21975 28.51275
Si 29.87050 13.57750 27.15500
Si 31.22825 14.93525 28.51275
Si 32.58600 16.29300 27.15500
Si 33.94375 17.65075 28.51275
Si 24.43950  5.43100 29.87050
Si 25.79725  6.78875 31.22825
Si 27.15500  8.14650 29.87050
Si 28.51275  9.50425 31.22825
Si 29.87050 10.86200 29.87050
Si 31.22825 12.21975 31.22825
Si 32.58600 13.57750 29.87050
Si 33.94375 14.93525 31.22825
Si 35.30150 16.29300 29.87050
Si 36.65925 17.65075 31.22825
Si 13.57750  8.14650 21.72400
Si 14.93525  9.50425 23.08175
Si 16.29300 10.86200 21.72400
Si 17.65075 12.21975 23.08175
Si 19.00850 13.57750 21.72400
Si 20.36625 14.93525 23.08175
Si 21.72400 16.29300 21.72400
Si 23.08175 17.65075 23.08175
Si 24.43950 19.00850 21.72400
Si 25.79725 20.36625 23.08175
Si 16.29300  8.14650 24.43950
Si 17.65075  9.50425 25.79725
Si 19.00850 10.86200 24.43950
Si 20.36625 12.21975 25.79725
Si 21.72400 13.57750 24.43950
Si 23.08175 14.93525 25.79725
Si 24.43950 16.29300 24.43950
Si 25.79725 17.65075 25.79725
Si 27.15500 19.00850 24.43950
Si 28.51275 20.36625 25.79725
Si 19.00850  8.14650 27.15500
Si 20.36625  9.50425 28.51275
Si 21.72400 10.86200 27.15500
Si 23.08175 12.21975 28.51275
Si 24.43950 13.57750 27.15500
Si 25.79725 14.93525 28.51275
Si 27.15500 16.29300 27.15500
Si 28.51275 17.65075 28.51275
Si 29.87050 19.00850 27.15500
Si 31.22825 20.36625 28.51275
Si 21.72400  8.14650 29.87050
Si 23.08175  9.50425 31.22825
Si 24.43950 10.86200 29.87050
Si 25.79725 12.21975 31.22825
Si 27.15500 13.57750 29.87050
Si 28.51275 14.93525 31.22825
Si 29.87050 16.29300 29.87050
Si 31.22825 17.65075 31.22825
Si 32.58600 19.00850 29.87050
Si 33.94375 20.36625 31.22825
Si 24.43950  8.14650 32.58600
Si 25.79725  9.50425 33.94375
Si 27.15500 10.86200 32.58600
Si 28.51275 12.21975 33.94375
Si 29.87050 13.57750 32.58600
Si 31.22825 14.93525 33.94375
Si 32.58600 16.29300 32.58600
Si 33.94375 17.65075 33.94375
Si 35.30150 19.00850 32.58600
Si 36.65925 20.36625 33.94375
Si 13.57750 10.86200 24.43950
Si 14.93525 12.21975 25.79725
Si 16.29300 13.57750 24.43950
Si 17.65075 14.93525 25.79725
Si 19.00850 16.29300 24.43950
Si 20.36625 17.65075 25.79725
Si 21.72400 19.00850 24.43950
Si 23.08175 20.36625 25.79725
Si 24.43950 21.72400 24.43950
Si 25.79725 23.08175 25.79725
Si 16.29300 10.86200 27.15500
Si 17.65075 12.21975 28.51275
Si 19.00850 13.57750 27.15500
Si 20.36625 14.93525 28.51275
Si 21.72400 16.29300 27.15500
Si 23.08175 17.65075 28.51275
Si 24.43950 19.00850 27.15500
Si 25.79725 20.36625 28.51275
Si 27.15500 21.72400 27.15500
Si 28.51275 23.08175 28.51275
Si 19.00850 10.86200 29.87050
Si 20.36625 12.21975 31.22825
Si 21.72400 13.57750 29.87050
Si 23.08175 14.93525 31.22825
Si 24.43950 16.29300 29.87050
Si 25.79725 17.65075 31.22825
Si 27.15500 19.00850 29.87050
Si 28.51275 20.36625 31.22825
Si 29.87050 21.72400 29.87050
Si 31.22825 23.08175 31.22825
Si 21.72400 10.86200 32.58600
Si 23.08175 12.21975 33.94375
Si 24.43950 13.57750 32.58600
Si 25.79725 14.93525 33.94375
Si 27.15500 16.29300 32.58600
Si 28.51275 17.65075 33.94375
Si 29.87050 19.00850 32.58600
Si 31.22825 20.36625 33.94375
Si 32.58600 21.72400 32.58600
Si 33.94375 23.08175 33.94375
Si 24.43950 10.86200 35.30150
Si 25.79725 12.21975 36.65925
Si 27.15500 13.57750 35.30150
Si 28.51275 14.93525 36.65925
Si 29.87050 16.29300 35.30150
Si 31.22825 17.65075 36.65925
Si 32.58600 19.00850 35.30150
Si 33.94375 20.36625 36.65925
Si 35.30150 21.72400 35.30150
Si 36.65925 23.08175 36.65925
Si 27.15500 13.57750 13.57750
Si 28.51275 14.93525 14.93525
Si 29.87050 16.29300 13.57750
Si 31.22825 17.65075 14.93525
Si 32.58600 19.00850 13.57750
Si 33.94375 20.36625 14.93525
Si 35.30150 21.72400 13.57750
Si 36.65925 23.08175 14.93525
Si 38.01700 24.43950 13.57750
Si 39.37475 25.79725 14.93525
Si 29.87050 13.57750 16.29300
Si 31.22825 14.93525 17.65075
Si 32.58600 16.29300 16.29300
Si 33.94375 17.65075 17.65075
Si 35.30150 19.00850 16.29300
Si 36.65925 20.36625 17.65075
Si 38.01700 21.72400 16.29300
Si 39.37475 23.08175 17.65075
Si 40.73250 24.43950 16.29300
Si 42.09025 25.79725 17.65075
Si 32.58600 13.57750 19.00850
Si 33.94375 14.93525 20.36625
Si 35.30150 16.29300 19.00850
Si 36.65925 17.65075 20.36625
Si 38.01700 19.00850 19.00850
Si 39.37475 20.36625 20.36625
Si 40.73250 21.72400 19.00850
Si 42.09025 23.08175 20.36625
Si 43.44800 24.43950 19.00850
Si 44.80575 25.79725 20.36625
Si 35.30150 13.57750 21.72400
Si 36.65925 14.93525 23.08175
Si 38.01700 16.29300 21.72400
Si 39.37475 17.65075 23.08175
Si 40.73250 19.00850 21.72400
Si 42.09025 20.36625 23.08175
Si 43.44800 21.72400 21.72400
Si 44.80575 23.08175 23.08175
Si 46.16350 24.43950 21.72400
Si 47.52125 25.79725 23.08175
Si 38.01700 13.57750 24.43950
Si 39.37475 14.93525 25.79725
Si 40.73250 16.29300 24.43950
Si 42.09025 17.65075 25.79725
Si 43.44800 19.00850 24.43950
Si 44.80575 20.36625 25.79725
Si 46.16350 21.72400 24.43950
Si 47.52125 23.08175 25.79725
Si 48.87900 24.43950 24.43950
Si 50.23675 25.79725 25.79725
Si 27.15500 16.29300 16.29300
Si 28.51275 17.65075 17.65075
Si 29.87050 19.00850 16.29300
Si 31.22825 20.36625 17.65075
Si 32.58600 21.72400 16.29300
Si 33.94375 23.08175 17.65075
Si 35.30150 24.43950 16.29300
Si 36.65925 25.79725 17.65075
Si 38.01700 27.15500 16.29300
Si 39.37475 28.51275 17.65075
Si 29.87050 16.29300 19.00850
Si 31.22825 17.65075 20.36625
Si 32.58600 19.00850 19.00850
Si 33.94375 20.36625 20.36625
Si 35.30150 21.72400 19.00850
Si 36.65925 23.08175 20.36625
Si 38.01700 24.43950 19.00850
Si 39.37475 25.79725 20.36625
Si 40.73250 27.15500 19.00850
Si 42.09025 28.51275 20.36625
Si 32.58600 16.29300 21.72400
Si 33.94375 17.65075 23.08175
Si 35.30150 19.00850 21.72400
Si 36.65925 20.36625 23.08175
Si 38.01700 21.72400 21.72400
Si 39.37475 23.08175 23.08175
Si 40.73250 24.43950 21.72400
Si 42.09025 25.79725 23.08175
Si 43.44800 27.15500 21.72400
Si 44.80575 28.51275 23.08175
Si 35.30150 16.29300 24.43950
Si 36.65925 17.65075 25.79725
Si 38.01700 19.00850 24.43950
Si 39.37475 20.36625 25.79725
Si 40.73250 21.72400 24.43950
Si 42.09025 23.08175 25.79725
Si 43.44800 24.43950 24.43950
Si 44.80575 25.79725 25.79725
Si 46.16350 27.15500 24.43950
Si 47.52125 28.51275 25.79725
Si 38.01700 16.29300 27.15500
Si 39.37475 17.65075 28.51275
Si 40.73250 19.00850 27.15500
Si 42.09025 20.36625 28.51275
Si 43.44800 21.72400 27.15500
Si 44.80575 23.08175 28.51275
Si 46.16350 24.43950 27.15500
Si 47.52125 25.79725 28.51275
Si 48.87900 27.15500 27.15500
Si 50.23675 28.51275 28.51275
Si 27.15500 19.00850 19.00850
Si 28.51275 20.36625 20.36625
Si 29.87050 21.72400 19.00850
Si 31.22825 23.08175 20.36625
Si 32.58600 24.43950 19.00850
Si 33.94375 25.79725 20.36625
Si 35.30150 27.15500 19.00850
Si 36.65925 28.51275 20.36625
Si 38.01700 29.87050 19.00850
Si 39.37475 31.22825 20.36625
Si 29.87050 19.00850 21.72400
Si 31.22825 20.36625 23.08175
Si 32.58600 21.72400 21.72400
Si 33.94375 23.08175 23.08175
Si 35.30150 24.43950 21.72400
Si 36.65925 25.79725 23.08175
Si 38.01700 27.15500 21.72400
Si 39.37475 28.51275 23.08175
Si 40.73250 29.87050 21.72400
Si 42.09025 31.22825 23.08175
Si 32.58600 19.00850 24.43950
Si 33.94375 20.36625 25.79725
Si 35.30150 21.72400 24.43950
Si 36.65925 23.08175 25.79725
Si 38.01700 24.43950 24.43950
Si 39.37475 25.79725 25.79725
Si 40.73250 27.15500 24.43950
Si 42.09025 28.51275 25.79725
Si 43.44800 29.87050 24.43950
Si 44.80575 31.22825 25.79725
Si 35.30150 19.00850 27.15500
Si 36.65925 20.36625 28.51275
Si 38.01700 21.72400 27.15500
Si 39.37475 23.08175 28.51275
Si 40.73250 24.43950 27.15500
Si 42.09025 25.79725 28.51275
Si 43.44800 27.15500 27.15500
Si 44.80575 28.51275 28.51275
Si 46.16350 29.87050 27.15500
Si 47.52125 31.22825 28.51275
Si 38.01700 19.00850 29.87050
Si 39.37475 20.36625 31.22825
Si 40.73250 21.72400 29.87050
Si 42.09025 23.08175 31.22825
Si 43.44800 24.43950 29.87050
Si 44.80575 25.79725 31.22825
Si 46.16350 27.15500 29.87050
Si 47.52125 28.51275 31.22825
Si 48.87900 29.87050 29.87050
Si 50.23675 31.22825 31.22825
Si 27.15500 21.72400 21.72400
Si 28.51275 23.08175 23.08175
Si 29.87050 24.43950 21.72400
Si 31.22825 25.79725 23.08175
Si 32.58600 27.15500 21.72400
Si 33.94375 28.51275 23.08175
Si 35.30150 29.87050 21.72400
Si 36.65925 31.22825 23.08175
Si 38.01700 32.58600 21.72400
Si 39.37475 33.94375 23.08175
Si 29.87050 21.72400 24.43950
Si 31.22825 23.08175 25.79725
Si 32.58600 24.43950 24.43950
Si 33.94375 25.79725 25.79725
Si 35.30150 27.15500 24.43950
Si 36.65925 28.51275 25.79725
Si 38.01700 29.87050 24.43950
Si 39.37475 31.22825 25.79725
Si 40.73250 32.58600 24.43950
Si 42.09025 33.94375 25.79725
Si 32.58600 21.72400 27.15500
Si 33.94375 23.08175 28.51275
Si 35.30150 24.43950 27.15500
Si 36.65925 25.79725 28.51275
Si 38.01700 27.15500 27.15500
Si 39.37475 28.51275 28.51275
Si 40.73250 29.87050 27.15500
Si 42.09025 31.22825 28.51275
Si 43.44800 32.58600 27.15500
Si 44.80575 33.94375 28.51275
Si 35.30150 21.72400 29.87050
Si 36.65925 23.08175 31.22825
Si 38.01700 24.43950 29.87050
Si 39.37475 25.79725 31.22825
Si 40.73250 27.15500 29.87050
Si 42.09025 28.51275 31.22825
Si 43.44800 29.87050 29.87050
Si 44.80575 31.22825 31.22825
Si 46.16350 32.58600 29.87050
Si 47.52125 33.94375 31.22825
Si 38.01700 21.72400 32.58600
Si 39.37475 23.08175 33.94375
Si 40.73250 24.43950 32.58600
Si 42.09025 25.79725 33.94375
Si 43.44800 27.15500 32.58600
Si 44.80575 28.51275 33.94375
Si 46.16350 29.87050 32.58600
Si 47.52125 31.22825 33.94375
Si 48.87900 32.58600 32.58600
Si 50.23675 33.94375 33.94375
Si 27.15500 24.43950 24.43950
Si 28.51275 25.79725 25.79725
Si 29.87050 27.15500 24.43950
Si 31.22825 28.51275 25.79725
Si 32.58600 29.87050 24.43950
Si 33.94375 31.22825 25.79725
Si 35.30150 32.58600 24.43950
Si 36.65925 33.94375 25.79725
Si 38.01700 35.30150 24.43950
Si 39.37475 36.65925 25.79725
Si 29.87050 24.43950 27.15500
Si 31.22825 25.79725 28.51275
Si 32.58600 27.15500 27.15500
Si 33.94375 28.51275 28.51275
Si 35.30150 29.87050 27.15500
Si 36.65925 31.22825 28.51275
Si 38.01700 32.58600 27.15500
Si 39.37475 33.94375 28.51275
Si 40.73250 35.30150 27.15500
Si 42.09025 36.65925 28.51275
Si 32.58600 24.43950 29.87050
Si 33.94375 25.79725 31.22825
Si 35.30150 27.15500 29.87050
Si 36.65925 28.51275 31.22825
Si 38.01700 29.87050 29.87050
Si 39.37475 31.22825 31.22825
Si 40.73250 32.58600 29.87050
Si 42.09025 33.94375 31.22825
Si 43.44800 35.30150 29.87050
Si 44.80575 36.65925 31.22825
Si 35.30150 24.43950 32.58600
Si 36.65925 25.79725 33.94375
Si 38.01700 27.15500 32.58600
Si 39.37475 28.51275 33.94375
Si 40.73250 29.87050 32.58600
Si 42.09025 31.22825 33.94375
Si 43.44800 32.58600 32.58600
Si 44.80575 33.94375 33.94375
Si 46.16350 35.30150 32.58600
Si 47.52125 36.65925 33.94375
Si 38.01700 24.43950 35.30150
Si 39.37475 25.79725 36.65925
Si 40.73250 27.15500 35.30150
Si 42.09025 28.51275 36.65925
Si 43.44800 29.87050 35.30150
Si 44.80575 31.22825 36.65925
Si 46.16350 32.58600 35.30150
Si 47.52125 33.94375 36.65925
Si 48.87900 35.30150 35.30150
Si 50.23675 36.65925 36.65925
Si -27.15500  0.00000  0.00000
Si -25.79725  1.35775  1.35775
Si -24.43950  2.71550  0.00000
Si -23.08175  4.07325  1.35775
Si -21.72400  5.43100  0.00000
Si -20.36625  6.78875  1.35775
Si -19.00850  8.14650  0.00000
Si -17.65075  9.50425  1.35775
Si -16.29300 10.86200  0.00000
Si -14.93525 12.21975  1.35775
Si -24.43950  0.00000  2.71550
Si -23.08175  1.35775  4.07325
Si -21.72400  2.71550  2.71550
Si -20.36625  4.07325  4.07325
Si -19.00850  5.43100  2.71550
Si -17.65075  6.78875  4.07325
Si -16.29300  8.14650  2.71550
Si -14.93525  9.50425  4.07325
Si -13.57750 10.86200  2.71550
Si -12.21975 12.21975  4.07325
Si -21.72400  0.00000  5.43100
Si -20.36625  1.35775  6.78875
Si -19.00850  2.71550  5.43100
Si -17.65075  4.07325  6.78875
Si -16.29300  5.43100  5.43100
Si -14.93525  6.78875  6.78875
Si -13.57750  8.14650  5.43100
Si -12.21975  9.50425  6.78875
Si -10.86200 10.86200  5.43100
Si -9.50425 12.21975  6.78875
Si -19.00850  0.00000  8.14650
Si -17.65075  1.35775  9.50425
Si -16.29300  2.71550  8.14650
Si -14.93525  4.07325  9.50425
Si -13.57750  5.43100  8.14650
Si -12.21975  6.78875  9.50425
Si -10.86200  8.14650  8.14650
Si -9.50425  9.50425  9.50425
Si -8.14650 10.86200  8.14650
Si -6.78875 12.21975  9.50425
Si -16.29300  0.00000 10.86200
Si -14.93525  1.35775 12.21975
Si -13.57750  2.71550 10.86200
Si -12.21975  4.07325 12.21975
Si -10.86200  5.43100 10.86200
Si -9.50425  6.78875 12.21975
Si -8.14650  8.14650 10.86200
Si -6.78875  9.50425 12.21975
Si -5.43100 10.86200 10.86200
Si -4.07325 12.21975 12.21975
Si -27.15500  2.71550  2.71550
Si -25.79725  4.07325  4.07325
Si -24.43950  5.43100  2.71550
Si -23.08175  6.78875  4.07325
Si -21.72400  8.14650  2.71550
Si -20.36625  9.50425  4.07325
Si -19.00850 10.86200  2.71550
Si -17.65075 12.21975  4.07325
Si -16.29300 13.57750  2.71550
Si -14.93525 14.93525  4.07325
Si -24.43950  2.71550  5.43100
Si -23.08175  4.07325  6.78875
Si -21.72400  5.43100  5.43100
Si -20.36625  6.78875  6.78875
Si -19.00850  8.14650  5.43100
Si -17.65075  9.50425  6.78875
Si -16.29300 10.86200  5.43100
Si -14.93525 12.21975  6.78875
Si -13.57750 13.57750  5.43100
Si -12.21975 14.93525  6.78875
Si -21.72400  2.71550  8.14650
Si -20.36625  4.07325  9.50425
Si -19.00850  5.43100  8.14650
Si -17.65075  6.78875  9.50425
Si -16.29300  8.14650  8.14650
Si -14.93525  9.50425  9.50425
Si -13.57750 10.86200  8.14650
Si -12.21975 12.21975  9.50425
Si -10.86200 13.57750  8.14650
Si -9.50425 14.93525  9.50425
Si -19.00850  2.71550 10.86200
Si -17.65075  4.07325 12.21975
Si -16.29300  5.43100 10.86200
Si -14.93525  6.78875 12.21975
Si -13.57750  8.14650 10.86200
Si -12.21975  9.50425 12.21975
Si -10.86200 10.86200 10.86200
Si -9.50425 12.21975 12.21975
Si -8.14650 13.57750 10.86200
Si -6.78875 14.93525 12.21975
Si -16.29300  2.71550 13.57750
Si -14.93525  4.07325 14.93525
Si -13.57750  5.43100 13.57750
Si -12.21975  6.78875 14.93525
Si -10.86200  8.14650 13.57750
Si -9.50425  9.50425 14.93525
Si -8.14650 10.86200 13.57750
Si -6.78875 12.21975 14.93525
Si -5.43100 13.57750 13.57750
Si -4.07325 14.93525 14.93525
Si -27.15500  5.43100  5.43100
Si -25.79725  6.78875  6.78875
Si -24.43950  8.14650  5.43100
Si -23.08175  9.50425  6.78875
Si -21.72400 10.86200  5.43100
Si -20.36625 12.21975  6.78875
Si -19.00850 13.57750  5.43100
Si -17.65075 14.93525  6.78875
Si -16.29300 16.29300  5.43100
Si -14.93525 17.65075  6.78875
Si -24.43950  5.43100  8.14650
Si -23.08175  6.78875  9.50425
Si -21.72400  8.14650  8.14650
Si -20.36625  9.50425  9.50425
Si -19.00850 10.86200  8.14650
Si -17.65075 12.21975  9.50425
Si -16.29300 13.57750  8.14650
Si -14.93525 14.93525  9.50425
Si -13.57750 16.29300  8.14650
Si -12.21975 17.65075  9.50425
Si -21.72400  5.43100 10.86200
Si -20.36625  6.78875 12.21975
Si -19.00850  8.14650 10.86200
Si -17.65075  9.50425 12.21975
Si -16.29300 10.86200 10.86200
Si -14.93525 12.21975 12.21975
Si -13.57750 13.57750 10.86200
Si -12.21975 14.93525 12.21975
Si -10.86200 16.29300 10.86200
Si -9.50425 17.65075 12.21975
Si -19.00850  5.43100 13.57750
Si -17.65075  6.78875 14.93525
Si -16.29300  8.14650 13.57750
Si -14.93525  9.50425 14.93525
Si -13.57750 10.86200 13.57750
Si -12.21975 12.21975 14.93525
Si -10.86200 13.57750 13.57750
Si -9.50425 14.93525 14.93525
Si -8.14650 16.29300 13.57750
Si -6.78875 17.65075 14.93525
Si -16.29300  5.43100 16.29300
Si -14.93525  6.78875 17.65075
Si -13.57750  8.14650 16.29300
Si -12.21975  9.50425 17.65075
Si -10.86200 10.86200 16.29300
Si -9.50425 12.21975 17.65075
Si -8.14650 13.57750 16.29300
Si -6.78875 14.93525 17.65075
Si -5.43100 16.29300 16.29300
Si -4.07325 17.65075 17.65075
Si -27.15500  8.14650  8.14650
Si -25.79725  9.50425  9.50425
Si -24.43950 10.86200  8.14650
Si -23.08175 12.21975  9.50425
Si -21.72400 13.57750  8.14650
Si -20.36625 14.93525  9.50425
Si -19.00850 16.29300  8.14650
Si -17.65075 17.65075  9.50425
Si -16.29300 19.00850  8.14650
Si -14.93525 20.36625  9.50425
Si -24.43950  8.14650 10.86200
Si -23.08175  9.50425 12.21975
Si -21.72400 10.86200 10.86200
Si -20.36625 12.21975 12.21975
Si -19.00850 13.57750 10.86200
Si -17.65075 14.93525 12.21975
Si -16.29300 16.29300 10.86200
Si -14.93525 17.65075 12.21975
Si -13.57750 19.00850 10.86200
Si -12.21975 20.36625 12.21975
Si -21.72400  8.14650 13.57750
Si -20.36625  9.50425 14.93525
Si -19.00850 10.86200 13.57750
Si -17.65075 12.21975 14.93525
Si -16.29300 13.57750 13.57750
Si -14.93525 14.93525 14.93525
Si -13.57750 16.29300 13.57750
Si -12.21975 17.65075 14.93525
Si -10.86200 19.00850 13.57750
Si -9.50425 20.36625 14.93525
Si -19.00850  8.14650 16.29300
Si -17.65075  9.50425 17.65075
Si -16.29300 10.86200 16.29300
Si -14.93525 12.21975 17.65075
Si -13.57750 13.57750 16.29300
Si -12.21975 14.93525 17.65075
Si -10.86200 16.29300 16.29300
Si -9.50425 17.65075 17.65075
Si -8.14650 19.00850 16.29300
Si -6.78875 20.36625 17.65075
Si -16.29300  8.14650 19.00850
Si -14.93525  9.50425 20.36625
Si -13.57750 10.86200 19.00850
Si -12.21975 12.21975 20.36625
Si -10.86200 13.57750 19.00850
Si -9.50425 14.93525 20.36625
Si -8.14650 16.29300 19.00850
Si -6.78875 17.65075 20.36625
Si -5.43100 19.00850 19.00850
Si -4.07325 20.36625 20.36625
Si -27.15500 10.86200 10.86200
Si -25.79725 12.21975 12.21975
Si -24.43950 13.57750 10.86200
Si -23.08175 14.93525 12.21975
Si -21.72400 16.29300 10.86200
Si -20.36625 17.65075 12.21975
Si -19.00850 19.00850 10.86200
Si -17.65075 20.36625 12.21975
Si -16.29300 21.72400 10.86200
Si -14.93525 23.08175 12.21975
Si -24.43950 10.86200 13.57750
Si -23.08175 12.21975 14.93525
Si -21.72400 13.57750 13.57750
Si -20.36625 14.93525 14.93525
Si -19.00850 16.29300 13.57750
Si -17.65075 17.65075 14.93525
Si -16.29300 19.00850 13.57750
Si -14.93525 20.36625 14.93525
Si -13.57750 21.72400 13.57750
Si -12.21975 23.08175 14.93525
Si -21.72400 10.86200 16.29300
Si -20.36625 12.21975 17.65075
Si -19.00850 13.57750 16.29300
Si -17.65075 14.93525 17.65075
Si -16.29300 16.29300 16.29300
Si -14.93525 17.65075 17.65075
Si -13.57750 19.00850 16.29300
Si -12.21975 20.36625 17.65075
Si -10.86200 21.72400 16.29300
Si -9.50425 23.08175 17.65075
Si -19.00850 10.86200 19.00850
Si -17.65075 12.21975 20.36625
Si -16.29300 13.57750 19.00850
Si -14.93525 14.93525 20.36625
Si -13.57750 16.29300 19.00850
Si -12.21975 17.65075 20.36625
Si -10.86200 19.00850 19.00850
Si -9.50425 20.36625 20.36625
Si -8.14650 21.72400 19.00850
Si -6.78875 23.08175 20.36625
Si -16.29300 10.86200 21.72400
Si -14.93525 12.21975 23.08175
Si -13.57750 13.57750 21.72400
Si -12.21975 14.93525 23.08175
Si -10.86200 16.29300 21.72400
Si -9.50425 17.65075 23.08175
Si -8.14650 19.00850 21.72400
Si -6.78875 20.36625 23.08175
Si -5.43100 21.72400 21.72400
Si -4.07325 23.08175 23.08175
Si -13.57750 13.57750  0.00000
Si -12.21975 14.93525  1.35775
Si -10.86200 16.29300  0.00000
Si -9.50425 17.65075  1.35775
Si -8.14650 19.00850  0.00000
Si -6.78875 20.36625  1.35775
Si -5.43100 21.72400  0.00000
Si -4.07325 23.08175  1.35775
Si -2.71550 24.43950  0.00000
Si -1.35775 25.79725  1.35775
Si -10.86200 13.57750  2.71550
Si -9.50425 14.93525  4.07325
Si -8.14650 16.29300  2.71550
Si -6.78875 17.65075  4.07325
Si -5.43100 19.00850  2.71550
Si -4.07325 20.36625  4.07325
Si -2.71550 21.72400  2.71550
Si -1.35775 23.08175  4.07325
Si  0.00000 24.43950  2.71550
Si  1.35775 25.79725  4.07325
Si -8.14650 13.57750  5.43100
Si -6.78875 14.93525  6.78875
Si -5.43100 16.29300  5.43100
Si -4.07325 17.65075  6.78875
Si -2.71550 19.00850  5.43100
Si -1.35775 20.36625  6.78875
Si  0.00000 21.72400  5.43100
Si  1.35775 23.08175  6.78875
Si  2.71550 24.43950  5.43100
Si  4.07325 25.79725  6.78875
Si -5.43100 13.57750  8.14650
Si -4.07325 14.93525  9.50425
Si -2.71550 16.29300  8.14650
Si -1.35775 17.65075  9.50425
Si  0.00000 19.00850  8.14650
Si  1.35775 20.36625  9.50425
Si  2.71550 21.72400  8.14650
Si  4.07325 23.08175  9.50425
Si  5.43100 24.43950  8.14650
Si  6.78875 25.79725  9.50425
Si -2.71550 13.57750 10.86200
Si -1.35775 14.93525 12.21975
Si -0.00000 16.29300 10.86200
Si  1.35775 17.65075 12.21975
Si  2.71550 19.00850 10.86200
Si  4.07325 20.36625 12.21975
Si  5.43100 21.72400 10.86200
Si  6.78875 23.08175 12.21975
Si  8.14650 24.43950 10.86200
Si  9.50425 25.79725 12.21975
Si -13.57750 16.29300  2.71550
Si -12.21975 17.65075  4.07325
Si -10.86200 19.00850  2.71550
Si -9.50425 20.36625  4.07325
Si -8.14650 21.72400  2.71550
Si -6.78875 23.08175  4.07325
Si -5.43100 24.43950  2.71550
Si -4.07325 25.79725  4.07325
Si -2.71550 27.15500  2.71550
Si -1.35775 28.51275  4.07325
Si -10.86200 16.29300  5.43100
Si -9.50425 17.65075  6.78875
Si -8.14650 19.00850  5.43100
Si -6.78875 20.36625  6.78875
Si -5.43100 21.72400  5.43100
Si -4.07325 23.08175  6.78875
Si -2.71550 24.43950  5.43100
Si -1.35775 25.79725  6.78875
Si  0.00000 27.15500  5.43100
Si  1.35775 28.51275  6.78875
Si -8.14650 16.29300  8.14650
Si -6.78875 17.65075  9.50425
Si -5.43100 19.00850  8.14650
Si -4.07325 20.36625  9.50425
Si -2.71550 21.72400  8.14650
Si -1.35775 23.08175  9.50425
Si  0.00000 24.43950  8.14650
Si  1.35775 25.79725  9.50425
Si  2.71550 27.15500  8.14650
Si  4.07325 28.51275  9.50425
Si -5.43100 16.29300 10.86200
Si -4.07325 17.65075 12.21975
Si -2.71550 19.00850 10.86200
Si -1.35775 20.36625 12.21975
Si  0.00000 21.72400 10.86200
Si  1.35775 23.08175 12.21975
Si  2.71550 24.43950 10.86200
Si  4.07325 25.79725 12.21975
Si  5.43100 27.15500 10.86200
Si  6.78875 28.51275 12.21975
Si -2.71550 16.29300 13.57750
Si -1.35775 17.65075 14.93525
Si -0.00000 19.00850 13.57750
Si  1.35775 20.36625 14.93525
Si  2.71550 21.72400 13.57750
Si  4.07325 23.08175 14.93525
Si  5.43100 24.43950 13.57750
Si  6.78875 25.79725 14.93525
Si  8.14650 27.15500 13.57750
Si  9.50425 28.51275 14.93525
Si -13.57750 19.00850  5.43100
Si -12.21975 20.36625  6.78875
Si -10.86200 21.72400  5.43100
Si -9.50425 23.08175  6.78875
Si -8.14650 24.43950  5.43100
Si -6.78875 25.79725  6.78875
Si -5.43100 27.15500  5.43100
Si -4.07325 28.51275  6.78875
Si -2.71550 29.87050  5.43100
Si -1.35775 31.22825  6.78875
Si -10.86200 19.00850  8.14650
Si -9.50425 20.36625  9.50425
Si -8.14650 21.72400  8.14650
Si -6.78875 23.08175  9.50425
Si -5.43100 24.43950  8.14650
Si -4.07325 25.79725  9.50425
Si -2.71550 27.15500  8.14650
Si -1.35775 28.51275  9.50425
Si  0.00000 29.87050  8.14650
Si  1.35775 31.22825  9.50425
Si -8.14650 19.00850 10.86200
Si -6.78875 20.36625 12.21975
Si -5.43100 21.72400 10.86200
Si -4.07325 23.08175 12.21975
Si -2.71550 24.43950 10.86200
Si -1.35775 25.79725 12.21975
Si  0.00000 27.15500 10.86200
Si  1.35775 28.51275 12.21975
Si  2.71550 29.87050 10.86200
Si  4.07325 31.22825 12.21975
Si -5.43100 19.00850 13.57750
Si -4.07325 20.36625 14.93525
Si -2.71550 21.72400 13.57750
Si -1.35775 23.08175 14.93525
Si  0.00000 24.43950 13.57750
Si  1.35775 25.79725 14.93525
Si  2.71550 27.15500 13.57750
Si  4.07325 28.51275 14.93525
Si  5.43100 29.87050 13.57750
Si  6.78875 31.22825 14.93525
Si -2.71550 19.00850 16.29300
Si -1.35775 20.36625 17.65075
Si  0.00000 21.72400 16.29300
Si  1.35775 23.08175 17.65075
Si  2.71550 24.43950 16.29300
Si  4.07325 25.79725 17.65075
Si  5.43100 27.15500 16.29300
Si  6.78875 28.51275 17.65075
Si  8.14650 29.87050 16.29300
Si  9.50425 31.22825 17.65075
Si -13.57750 21.72400  8.14650
Si -12.21975 23.08175  9.50425
Si -10.86200 24.43950  8.14650
Si -9.50425 25.79725  9.50425
Si -8.14650 27.15500  8.14650
Si -6.78875 28.51275  9.50425
Si -5.43100 29.87050  8.14650
Si -4.07325 31.22825  9.50425
Si -2.71550 32.58600  8.14650
Si -1.35775 33.94375  9.50425
Si -10.86200 21.72400 10.86200
Si -9.50425 23.08175 12.21975
Si -8.14650 24.43950 10.86200
Si -6.78875 25.79725 12.21975
Si -5.43100 27.15500 10.86200
Si -4.07325 28.51275 12.21975
Si -2.71550 29.87050 10.86200
Si -1.35775 31.22825 12.21975
Si  0.00000 32.58600 10.86200
Si  1.35775 33.94375 12.21975
Si -8.14650 21.72400 13.57750
Si -6.78875 23.08175 14.93525
Si -5.43100 24.43950 13.57750
Si -4.07325 25.79725 14.93525
Si -2.71550 27.15500 13.57750
Si -1.35775 28.51275 14.93525
Si  0.00000 29.87050 13.57750
Si  1.35775 31.22825 14.93525
Si  2.71550 32.58600 13.57750
Si  4.07325 33.94375 14.93525
Si -5.43100 21.72400 16.29300
Si -4.07325 23.08175 17.65075
Si -2.71550 24.43950 16.29300
Si -1.35775 25.79725 17.65075
Si  0.00000 27.15500 16.29300
Si  1.35775 28.51275 17.65075
Si  2.71550 29.87050 16.29300
Si  4.07325 31.22825 17.65075
Si  5.43100 32.58600 16.29300
Si  6.78875 33.94375 17.65075
Si -2.71550 21.72400 19.00850
Si -1.35775 23.08175 20.36625
Si  0.00000 24.43950 19.00850
Si  1.35775 25.79725 20.36625
Si  2.71550 27.15500 19.00850
Si  4.07325 28.51275 20.36625
Si  5.43100 29.87050 19.00850
Si  6.78875 31.22825 20.36625
Si  8.14650 32.58600 19.00850
Si  9.50425 33.94375 20.36625
Si -13.57750 24.43950 10.86200
Si -12.21975 25.79725 12.21975
Si -10.86200 27.15500 10.86200
Si -9.50425 28.51275 12.21975
Si -8.14650 29.87050 10.86200
Si -6.78875 31.22825 12.21975
Si -5.43100 32.58600 10.86200
Si -4.07325 33.94375 12.21975
Si -2.71550 35.30150 10.86200
Si -1.35775 36.65925 12.21975
Si -10.86200 24.43950 13.57750
Si -9.50425 25.79725 14.93525
Si -8.14650 27.15500 13.57750
Si -6.78875 28.51275 14.93525
Si -5.43100 29.87050 13.57750
Si -4.07325 31.22825 14.93525
Si -2.71550 32.58600 13.57750
Si -1.35775 33.94375 14.93525
Si -0.00000 35.30150 13.57750
Si  1.35775 36.65925 14.93525
Si -8.14650 24.43950 16.29300
Si -6.78875 25.79725 17.65075
Si -5.43100 27.15500 16.29300
Si -4.07325 28.51275 17.65075
Si -2.71550 29.87050 16.29300
Si -1.35775 31.22825 17.65075
Si  0.00000 32.58600 16.29300
Si  1.35775 33.94375 17.65075
Si  2.71550 35.30150 16.29300
Si  4.07325 36.65925 17.65075
Si -5.43100 24.43950 19.00850
Si -4.07325 25.79725 20.36625
Si -2.71550 27.15500 19.00850
Si -1.35775 28.51275 20.36625
Si  0.00000 29.87050 19.00850
Si  1.35775 31.22825 20.36625
Si  2.71550 32.58600 19.00850
Si  4.07325 33.94375 20.36625
Si  5.43100 35.30150 19.00850
Si  6.78875 36.65925 20.36625
Si -2.71550 24.43950 21.72400
Si -1.35775 25.79725 23.08175
Si  0.00000 27.15500 21.72400
Si  1.35775 28.51275 23.08175
Si  2.71550 29.87050 21.72400
Si  4.07325 31.22825 23.08175
Si  5.43100 32.58600 21.72400
Si  6.78875 33.94375 23.08175
Si  8.14650 35.30150 21.72400
Si  9.50425 36.65925 23.08175
Si  0.00000 27.15500  0.00000
Si  1.35775 28.51275  1.35775
Si  2.71550 29.87050  0.00000
Si  4.07325 31.22825  1.35775
Si  5.43100 32.58600  0.00000
Si  6.78875 33.94375  1.35775
Si  8.14650 35.30150  0.00000
Si  9.50425 36.65925  1.35775
Si 10.86200 38.01700  0.00000
Si 12.21975 39.37475  1.35775
Si  2.71550 27.15500  2.71550
Si  4.07325 28.51275  4.07325
Si  5.43100 29.87050  2.71550
Si  6.78875 31.22825  4.07325
Si  8.14650 32.58600  2.71550
Si  9.50425 33.94375  4.07325
Si 10.86200 35.30150  2.71550
Si 12.21975 36.65925  4.07325
Si 13.57750 38.01700  2.71550
Si 14.93525 39.37475  4.07325
Si  5.43100 27.15500  5.43100
Si  6.78875 28.51275  6.78875
Si  8.14650 29.87050  5.43100
Si  9.50425 31.22825  6.78875
Si 10.86200 32.58600  5.43100
Si 12.21975 33.94375  6.78875
Si 13.57750 35.30150  5.43100
Si 14.93525 36.65925  6.78875
Si 16.29300 38.01700  5.43100
Si 17.65075 39.37475  6.78875
Si  8.14650 27.15500  8.14650
Si  9.50425 28.51275  9.50425
Si 10.86200 29.87050  8.14650
Si 12.21975 31.22825  9.50425
Si 13.57750 32.58600  8.14650
Si 14.93525 33.94375  9.50425
Si 16.29300 35.30150  8.14650
Si 17.65075 36.65925  9.50425
Si 19.00850 38.01700  8.14650
Si 20.36625 39.37475  9.50425
Si 10.86200 27.15500 10.86200
Si 12.21975 28.51275 12.21975
Si 13.57750 29.87050 10.86200
Si 14.93525 31.22825 12.21975
Si 16.29300 32.58600 10.86200
Si 17.65075 33.94375 12.21975
Si 19.00850 35.30150 10.86200
Si 20.36625 36.65925 12.21975
Si 21.72400 38.01700 10.86200
Si 23.08175 39.37475 12.21975
Si  0.00000 29.87050  2.71550
Si  1.35775 31.22825  4.07325
Si  2.71550 32.58600  2.71550
Si  4.07325 33.94375  4.07325
Si  5.43100 35.30150  2.71550
Si  6.78875 36.65925  4.07325
Si  8.14650 38.01700  2.71550
Si  9.50425 39.37475  4.07325
Si 10.86200 40.73250  2.71550
Si 12.21975 42.09025  4.07325
Si  2.71550 29.87050  5.43100
Si  4.07325 31.22825  6.78875
Si  5.43100 32.58600  5.43100
Si  6.78875 33.94375  6.78875
Si  8.14650 35.30150  5.43100
Si  9.50425 36.65925  6.78875
Si 10.86200 38.01700  5.43100
Si 12.21975 39.37475  6.78875
Si 13.57750 40.73250  5.43100
Si 14.93525 42.09025  6.78875
Si  5.43100 29.87050  8.14650
Si  6.78875 31.22825  9.50425
Si  8.14650 32.58600  8.14650
Si  9.50425 33.94375  9.50425
Si 10.86200 35.30150  8.14650
Si 12.21975 36.65925  9.50425
Si 13.57750 38.01700  8.14650
Si 14.93525 39.37475  9.50425
Si 16.29300 40.73250  8.14650
Si 17.65075 42.09025  9.50425
Si  8.14650 29.87050 10.86200
Si  9.50425 31.22825 12.21975
Si 10.86200 32.58600 10.86200
Si 12.21975 33.94375 12.21975
Si 13.57750 35.30150 10.86200
Si 14.93525 36.65925 12.21975
Si 16.29300 38.01700 10.86200
Si 17.65075 39.37475 12.21975
Si 19.00850 40.73250 10.86200
Si 20.36625 42.09025 12.21975
Si 10.86200 29.87050 13.57750
Si 12.21975 31.22825 14.93525
Si 13.57750 32.58600 13.57750
Si 14.93525 33.94375 14.93525
Si 16.29300 35.30150 13.57750
Si 17.65075 36.65925 14.93525
Si 19.00850 38.01700 13.57750
Si 20.36625 39.37475 14.93525
Si 21.72400 40.73250 13.57750
Si 23.08175 42.09025 14.93525
Si  0.00000 32.58600  5.43100
Si  1.35775 33.94375  6.78875
Si  2.71550 35.30150  5.43100
Si  4.07325 36.65925  6.78875
Si  5.43100 38.01700  5.43100
Si  6.78875 39.37475  6.78875
Si  8.14650 40.73250  5.43100
Si  9.50425 42.09025  6.78875
Si 10.86200 43.44800  5.43100
Si 12.21975 44.80575  6.78875
Si  2.71550 32.58600  8.14650
Si  4.07325 33.94375  9.50425
Si  5.43100 35.30150  8.14650
Si  6.78875 36.65925  9.50425
Si  8.14650 38.01700  8.14650
Si  9.50425 39.37475  9.50425
Si 10.86200 40.73250  8.14650
Si 12.21975 42.09025  9.50425
Si 13.57750 43.44800  8.14650
Si 14.93525 44.80575  9.50425
Si  5.43100 32.58600 10.86200
Si  6.78875 33.94375 12.21975
Si  8.14650 35.30150 10.86200
Si  9.50425 36.65925 12.21975
Si 10.86200 38.01700 10.86200
Si 12.21975 39.37475 12.21975
Si 13.57750 40.73250 10.86200
Si 14.93525 42.09025 12.21975
Si 16.29300 43.44800 10.86200
Si 17.65075 44.80575 12.21975
Si  8.14650 32.58600 13.57750
Si  9.50425 33.94375 14.93525
Si 10.86200 35.30150 13.57750
Si 12.21975 36.65925 14.93525
Si 13.57750 38.01700 13.57750
Si 14.93525 39.37475 14.93525
Si 16.29300 40.73250 13.57750
Si 17.65075 42.09025 14.93525
Si 19.00850 43.44800 13.57750
Si 20.36625 44.80575 14.93525
Si 10.86200 32.58600 16.29300
Si 12.21975 33.94375 17.65075
Si 13.57750 35.30150 16.29300
Si 14.93525 36.65925 17.65075
Si 16.29300 38.01700 16.29300
Si 17.65075 39.37475 17.65075
Si 19.00850 40.73250 16.29300
Si 20.36625 42.09025 17.65075
Si 21.72400 43.44800 16.29300
Si 23.08175 44.80575 17.65075
Si  0.00000 35.30150  8.14650
Si  1.35775 36.65925  9.50425
Si  2.71550 38.01700  8.14650
Si  4.07325 39.37475  9.50425
Si  5.43100 40.73250  8.14650
Si  6.78875 42.09025  9.50425
Si  8.14650 43.44800  8.14650
Si  9.50425 44.80575  9.50425
Si 10.86200 46.16350  8.14650
Si 12.21975 47.52125  9.50425
Si  2.71550 35.30150 10.86200
Si  4.07325 36.65925 12.21975
Si  5.43100 38.01700 10.86200
Si  6.78875 39.37475 12.21975
Si  8.14650 40.73250 10.86200
Si  9.50425 42.09025 12.21975
Si 10.86200 43.44800 10.86200
Si 12.21975 44.80575 12.21975
Si 13.57750 46.16350 10.86200
Si 14.93525 47.52125 12.21975
Si  5.43100 35.30150 13.57750
Si  6.78875 36.65925 14.93525
Si  8.14650 38.01700 13.57750
Si  9.50425 39.37475 14.93525
Si 10.86200 40.73250 13.57750
Si 12.21975 42.09025 14.93525
Si 13.57750 43.44800 13.57750
Si 14.93525 44.80575 14.93525
Si 16.29300 46.16350 13.57750
Si 17.65075 47.52125 14.93525
Si  8.14650 35.30150 16.29300
Si  9.50425 36.65925 17.65075
Si 10.86200 38.01700 16.29300
Si 12.21975 39.37475 17.65075
Si 13.57750 40.73250 16.29300
Si 14.93525 42.09025 17.65075
Si 16.29300 43.44800 16.29300
Si 17.65075 44.80575 17.65075
Si 19.00850 46.16350 16.29300
Si 20.36625 47.52125 17.65075
Si 10.86200 35.30150 19.00850
Si 12.21975 36.65925 20.36625
Si 13.57750 38.01700 19.00850
Si 14.93525 39.37475 20.36625
Si 16.29300 40.73250 19.00850
Si 17.65075 42.09025 20.36625
Si 19.00850 43.44800 19.00850
Si 20.36625 44.80575 20.36625
Si 21.72400 46.16350 19.00850
Si 23.08175 47.52125 20.36625
Si  0.00000 38.01700 10.86200
Si  1.35775 39.37475 12.21975
Si  2.71550 40.73250 10.86200
Si  4.07325 42.09025 12.21975
Si  5.43100 43.44800 10.86200
Si  6.78875 44.80575 12.21975
Si  8.14650 46.16350 10.86200
Si  9.50425 47.52125 12.21975
Si 10.86200 48.87900 10.86200
Si 12.21975 50.23675 12.21975
Si  2.71550 38.01700 13.57750
Si  4.07325 39.37475 14.93525
Si  5.43100 40.73250 13.57750
Si  6.78875 42.09025 14.93525
Si  8.14650 43.44800 13.57750
Si  9.50425 44.80575 14.93525
Si 10.86200 46.16350 13.57750
Si 12.21975 47.52125 14.93525
Si 13.57750 48.87900 13.57750
Si 14.93525 50.23675 14.93525
Si  5.43100 38.01700 16.29300
Si  6.78875 39.37475 17.65075
Si  8.14650 40.73250 16.29300
Si  9.50425 42.09025 17.65075
Si 10.86200 43.44800 16.29300
Si 12.21975 44.80575 17.65075
Si 13.57750 46.16350 16.29300
Si 14.93525 47.52125 17.65075
Si 16.29300 48.87900 16.29300
Si 17.65075 50.23675 17.65075
Si  8.14650 38.01700 19.00850
Si  9.50425 39.37475 20.36625
Si 10.86200 40.73250 19.00850
Si 12.21975 42.09025 20.36625
Si 13.57750 43.44800 19.00850
Si 14.93525 44.80575 20.36625
Si 16.29300 46.16350 19.00850
Si 17.65075 47.52125 20.36625
Si 19.00850 48.87900 19.00850
Si 20.36625 50.23675 20.36625
Si 10.86200 38.01700 21.72400
Si 12.21975 39.37475 23.08175
Si 13.57750 40.73250 21.72400
Si 14.93525 42.09025 23.08175
Si 16.29300 43.44800 21.72400
Si 17.65075 44.80575 23.08175
Si 19.00850 46.16350 21.72400
Si 20.36625 47.52125 23.08175
Si 21.72400 48.87900 21.72400
Si 23.08175 50.23675 23.08175
Si -13.57750  0.00000 13.57750
Si -12.21975  1.35775 14.93525
Si -10.86200  2.71550 13.57750
Si -9.50425  4.07325 14.93525
Si -8.14650  5.43100 13.57750
Si -6.78875  6.78875 14.93525
Si -5.43100  8.14650 13.57750
Si -4.07325  9.50425 14.93525
Si -2.71550 10.86200 13.57750
Si -1.35775 12.21975 14.93525
Si -10.86200  0.00000 16.29300
Si -9.50425  1.35775 17.65075
Si -8.14650  2.71550 16.29300
Si -6.78875  4.07325 17.65075
Si -5.43100  5.43100 16.29300
Si -4.07325  6.78875 17.65075
Si -2.71550  8.14650 16.29300
Si -1.35775  9.50425 17.65075
Si  0.00000 10.86200 16.29300
Si  1.35775 12.21975 17.65075
Si -8.14650  0.00000 19.00850
Si -6.78875  1.35775 20.36625
Si -5.43100  2.71550 19.00850
Si -4.07325  4.07325 20.36625
Si -2.71550  5.43100 19.00850
Si -1.35775  6.78875 20.36625
Si  0.00000  8.14650 19.00850
Si  1.35775  9.50425 20.36625
Si  2.71550 10.86200 19.00850
Si  4.07325 12.21975 20.36625
Si -5.43100  0.00000 21.72400
Si -4.07325  1.35775 23.08175
Si -2.71550  2.71550 21.72400
Si -1.35775  4.07325 23.08175
Si  0.00000  5.43100 21.72400
Si  1.35775  6.78875 23.08175
Si  2.71550  8.14650 21.72400
Si  4.07325  9.50425 23.08175
Si  5.43100 10.86200 21.72400
Si  6.78875 12.21975 23.08175
Si -2.71550  0.00000 24.43950
Si -1.35775  1.35775 25.79725
Si -0.00000  2.71550 24.43950
Si  1.35775  4.07325 25.79725
Si  2.71550  5.43100 24.43950
Si  4.07325  6.78875 25.79725
Si  5.43100  8.14650 24.43950
Si  6.78875  9.50425 25.79725
Si  8.14650 10.86200 24.43950
Si  9.50425 12.21975 25.79725
Si -13.57750  2.71550 16.29300
Si -12.21975  4.07325 17.65075
Si -10.86200  5.43100 16.29300
Si -9.50425  6.78875 17.65075
Si -8.14650  8.14650 16.29300
Si -6.78875  9.50425 17.65075
Si -5.43100 10.86200 16.29300
Si -4.07325 12.21975 17.65075
Si -2.71550 13.57750 16.29300
Si -1.35775 14.93525 17.65075
Si -10.86200  2.71550 19.00850
Si -9.50425  4.07325 20.36625
Si -8.14650  5.43100 19.00850
Si -6.78875  6.78875 20.36625
Si -5.43100  8.14650 19.00850
Si -4.07325  9.50425 20.36625
Si -2.71550 10.86200 19.00850
Si -1.35775 12.21975 20.36625
Si  0.00000 13.57750 19.00850
Si  1.35775 14.93525 20.36625
Si -8.14650  2.71550 21.72400
Si -6.78875  4.07325 23.08175
Si -5.43100  5.43100 21.72400
Si -4.07325  6.78875 23.08175
Si -2.71550  8.14650 21.72400
Si -1.35775  9.50425 23.08175
Si  0.00000 10.86200 21.72400
Si  1.35775 12.21975 23.08175
Si  2.71550 13.57750 21.72400
Si  4.07325 14.93525 23.08175
Si -5.43100  2.71550 24.43950
Si -4.07325  4.07325 25.79725
Si -2.71550  5.43100 24.43950
Si -1.35775  6.78875 25.79725
Si  0.00000  8.14650 24.43950
Si  1.35775  9.50425 25.79725
Si  2.71550 10.86200 24.43950
Si  4.07325 12.21975 25.79725
Si  5.43100 13.57750 24.43950
Si  6.78875 14.93525 25.79725
Si -2.71550  2.71550 27.15500
Si -1.35775  4.07325 28.51275
Si -0.00000  5.43100 27.15500
Si  1.35775  6.78875 28.51275
Si  2.71550  8.14650 27.15500
Si  4.07325  9.50425 28.51275
Si  5.43100 10.86200 27.15500
Si  6.78875 12.21975 28.51275
Si  8.14650 13.57750 27.15500
Si  9.50425 14.93525 28.51275
Si -13.57750  5.43100 19.00850
Si -12.21975  6.78875 20.36625
Si -10.86200  8.14650 19.00850
Si -9.50425  9.50425 20.36625
Si -8.14650 10.86200 19.00850
Si -6.78875 12.21975 20.36625
Si -5.43100 13.57750 19.00850
Si -4.07325 14.93525 20.36625
Si -2.71550 16.29300 19.00850
Si -1.35775 17.65075 20.36625
Si -10.86200  5.43100 21.72400
Si -9.50425  6.78875 23.08175
Si -8.14650  8.14650 21.72400
Si -6.78875  9.50425 23.08175
Si -5.43100 10.86200 21.72400
Si -4.07325 12.21975 23.08175
Si -2.71550 13.57750 21.72400
Si -1.35775 14.93525 23.08175
Si  0.00000 16.29300 21.72400
Si  1.35775 17.65075 23.08175
Si -8.14650  5.43100 24.43950
Si -6.78875  6.78875 25.79725
Si -5.43100  8.14650 24.43950
Si -4.07325  9.50425 25.79725
Si -2.71550 10.86200 24.43950
Si -1.35775 12.21975 25.79725
Si  0.00000 13.57750 24.43950
Si  1.35775 14.93525 25.79725
Si  2.71550 16.29300 24.43950
Si  4.07325 17.65075 25.79725
Si -5.43100  5.43100 27.15500
Si -4.07325  6.78875 28.51275
Si -2.71550  8.14650 27.15500
Si -1.35775  9.50425 28.51275
Si  0.00000 10.86200 27.15500
Si  1.35775 12.21975 28.51275
Si  2.71550 13.57750 27.15500
Si  4.07325 14.93525 28.51275
Si  5.43100 16.29300 27.15500
Si  6.78875 17.65075 28.51275
Si -2.71550  5.43100 29.87050
Si -1.35775  6.78875 31.22825
Si  0.00000  8.14650 29.87050
Si  1.35775  9.50425 31.22825
Si  2.71550 10.86200 29.87050
Si  4.07325 12.21975 31.22825
Si  5.43100 13.57750 29.87050
Si  6.78875 14.93525 31.22825
Si  8.14650 16.29300 29.87050
Si  9.50425 17.65075 31.22825
Si -13.57750  8.14650 21.72400
Si -12.21975  9.50425 23.08175
Si -10.86200 10.86200 21.72400
Si -9.50425 12.21975 23.08175
Si -8.14650 13.57750 21.72400
Si -6.78875 14.93525 23.08175
Si -5.43100 16.29300 21.72400
Si -4.07325 17.65075 23.08175
Si -2.71550 19.00850 21.72400
Si -1.35775 20.36625 23.08175
Si -10.86200  8.14650 24.43950
Si -9.50425  9.50425 25.79725
Si -8.14650 10.86200 24.43950
Si -6.78875 12.21975 25.79725
Si -5.43100 13.57750 24.43950
Si -4.07325 14.93525 25.79725
Si -2.71550 16.29300 24.43950
Si -1.35775 17.65075 25.79725
Si  0.00000 19.00850 24.43950
Si  1.35775 20.36625 25.79725
Si -8.14650  8.14650 27.15500
Si -6.78875  9.50425 28.51275
Si -5.43100 10.86200 27.15500
Si -4.07325 12.21975 28.51275
Si -2.71550 13.57750 27.15500
Si -1.35775 14.93525 28.51275
Si  0.00000 16.29300 27.15500
Si  1.35775 17.65075 28.51275
Si  2.71550 19.00850 27.15500
Si  4.07325 20.36625 28.51275
Si -5.43100  8.14650 29.87050
Si -4.07325  9.50425 31.22825
Si -2.71550 10.86200 29.87050
Si -1.35775 12.21975 31.22825
Si  0.00000 13.57750 29.87050
Si  1.35775 14.93525 31.22825
Si  2.71550 16.29300 29.87050
Si  4.07325 17.65075 31.22825
Si  5.43100 19.00850 29.87050
Si  6.78875 20.36625 31.22825
Si -2.71550  8.14650 32.58600
Si -1.35775  9.50425 33.94375
Si  0.00000 10.86200 32.58600
Si  1.35775 12.21975 33.94375
Si  2.71550 13.57750 32.58600
Si  4.07325 14.93525 33.94375
Si  5.43100 16.29300 32.58600
Si  6.78875 17.65075 33.94375
Si  8.14650 19.00850 32.58600
Si  9.50425 20.36625 33.94375
Si -13.57750 10.86200 24.43950
Si -12.21975 12.21975 25.79725
Si -10.86200 13.57750 24.43950
Si -9.50425 14.93525 25.79725
Si -8.14650 16.29300 24.43950
Si -6.78875 17.65075 25.79725
Si -5.43100 19.00850 24.43950
Si -4.07325 20.36625 25.79725
Si -2.71550 21.72400 24.43950
Si -1.35775 23.08175 25.79725
Si -10.86200 10.86200 27.15500
Si -9.50425 12.21975 28.51275
Si -8.14650 13.57750 27.15500
Si -6.78875 14.93525 28.51275
Si -5.43100 16.29300 27.15500
Si -4.07325 17.65075 28.51275
Si -2.71550 19.00850 27.15500
Si -1.35775 20.36625 28.51275
Si -0.00000 21.72400 27.15500
Si  1.35775 23.08175 28.51275
Si -8.14650 10.86200 29.87050
Si -6.78875 12.21975 31.22825
Si -5.43100 13.57750 29.87050
Si -4.07325 14.93525 31.22825
Si -2.71550 16.29300 29.87050
Si -1.35775 17.65075 31.22825
Si  0.00000 19.00850 29.87050
Si  1.35775 20.36625 31.22825
Si  2.71550 21.72400 29.87050
Si  4.07325 23.08175 31.22825
Si -5.43100 10.86200 32.58600
Si -4.07325 12.21975 33.94375
Si -2.71550 13.57750 32.58600
Si -1.35775 14.93525 33.94375
Si  0.00000 16.29300 32.58600
Si  1.35775 17.65075 33.94375
Si  2.71550 19.00850 32.58600
Si  4.07325 20.36625 33.94375
Si  5.43100 21.72400 32.58600
Si  6.78875 23.08175 33.94375
Si -2.71550 10.86200 35.30150
Si -1.35775 12.21975 36.65925
Si  0.00000 13.57750 35.30150
Si  1.35775 14.93525 36.65925
Si  2.71550 16.29300 35.30150
Si  4.07325 17.65075 36.65925
Si  5.43100 19.00850 35.30150
Si  6.78875 20.36625 36.65925
Si  8.14650 21.72400 35.30150
Si  9.50425 23.08175 36.65925
Si  0.00000 13.57750 13.57750
Si  1.35775 14.93525 14.93525
Si  2.71550 16.29300 13.57750
Si  4.07325 17.65075 14.93525
Si  5.43100 19.00850 13.57750
Si  6.78875 20.36625 14.93525
Si  8.14650 21.72400 13.57750
Si  9.50425 23.08175 14.93525
Si 10.86200 24.43950 13.57750
Si 12.21975 25.79725 14.93525
Si  2.71550 13.57750 16.29300
Si  4.07325 14.93525 17.65075
Si  5.43100 16.29300 16.29300
Si  6.78875 17.65075 17.65075
Si  8.14650 19.00850 16.29300
Si  9.50425 20.36625 17.65075
Si 10.86200 21.72400 16.29300
Si 12.21975 23.08175 17.65075
Si 13.57750 24.43950 16.29300
Si 14.93525 25.79725 17.65075
Si  5.43100 13.57750 19.00850
Si  6.78875 14.93525 20.36625
Si  8.14650 16.29300 19.00850
Si  9.50425 17.65075 20.36625
Si 10.86200 19.00850 19.00850
Si 12.21975 20.36625 20.36625
Si 13.57750 21.72400 19.00850
Si 14.93525 23.08175 20.36625
Si 16.29300 24.43950 19.00850
Si 17.65075 25.79725 20.36625
Si  8.14650 13.57750 21.72400
Si  9.50425 14.93525 23.08175
Si 10.86200 16.29300 21.72400
Si 12.21975 17.65075 23.08175
Si 13.57750 19.00850 21.72400
Si 14.93525 20.36625 23.08175
Si 16.29300 21.72400 21.72400
Si 17.65075 23.08175 23.08175
Si 19.00850 24.43950 21.72400
Si 20.36625 25.79725 23.08175
Si 10.86200 13.57750 24.43950
Si 12.21975 14.93525 25.79725
Si 13.57750 16.29300 24.43950
Si 14.93525 17.65075 25.79725
Si 16.29300 19.00850 24.43950
Si 17.65075 20.36625 25.79725
Si 19.00850 21.72400 24.43950
Si 20.36625 23.08175 25.79725
Si 21.72400 24.43950 24.43950
Si 23.08175 25.79725 25.79725
Si  0.00000 16.29300 16.29300
Si  1.35775 17.65075 17.65075
Si  2.71550 19.00850 16.29300
Si  4.07325 20.36625 17.65075
Si  5.43100 21.72400 16.29300
Si  6.78875 23.08175 17.65075
Si  8.14650 24.43950 16.29300
Si  9.50425 25.79725 17.65075
Si 10.86200 27.15500 16.29300
Si 12.21975 28.51275 17.65075
Si  2.71550 16.29300 19.00850
Si  4.07325 17.65075 20.36625
Si  5.43100 19.00850 19.00850
Si  6.78875 20.36625 20.36625
Si  8.14650 21.72400 19.00850
Si  9.50425 23.08175 20.36625
Si 10.86200 24.43950 19.00850
Si 12.21975 25.79725 20.36625
Si 13.57750 27.15500 19.00850
Si 14.93525 28.51275 20.36625
Si  5.43100 16.29300 21.72400
Si  6.78875 17.65075 23.08175
Si  8.14650 19.00850 21.72400
Si  9.50425 20.36625 23.08175
Si 10.86200 21.72400 21.72400
Si 12.21975 23.08175 23.08175
Si 13.57750 24.43950 21.72400
Si 14.93525 25.79725 23.08175
Si 16.29300 27.15500 21.72400
Si 17.65075 28.51275 23.08175
Si  8.14650 16.29300 24.43950
Si  9.50425 17.65075 25.79725
Si 10.86200 19.00850 24.43950
Si 12.21975 20.36625 25.79725
Si 13.57750 21.72400 24.43950
Si 14.93525 23.08175 25.79725
Si 16.29300 24.43950 24.43950
Si 17.65075 25.79725 25.79725
Si 19.00850 27.15500 24.43950
Si 20.36625 28.51275 25.79725
Si 10.86200 16.29300 27.15500
Si 12.21975 17.65075 28.51275
Si 13.57750 19.00850 27.15500
Si 14.93525 20.36625 28.51275
Si 16.29300 21.72400 27.15500
Si 17.65075 23.08175 28.51275
Si 19.00850 24.43950 27.15500
Si 20.36625 25.79725 28.51275
Si 21.72400 27.15500 27.15500
Si 23.08175 28.51275 28.51275
Si  0.00000 19.00850 19.00850
Si  1.35775 20.36625 20.36625
Si  2.71550 21.72400 19.00850
Si  4.07325 23.08175 20.36625
Si  5.43100 24.43950 19.00850
Si  6.78875 25.79725 20.36625
Si  8.14650 27.15500 19.00850
Si  9.50425 28.51275 20.36625
Si 10.86200 29.87050 19.00850
Si 12.21975 31.22825 20.36625
Si  2.71550 19.00850 21.72400
Si  4.07325 20.36625 23.08175
Si  5.43100 21.72400 21.72400
Si  6.78875 23.08175 23.08175
Si  8.14650 24.43950 21.72400
Si  9.50425 25.79725 23.08175
Si 10.86200 27.15500 21.72400
Si 12.21975 28.51275 23.08175
Si 13.57750 29.87050 21.72400
Si 14.93525 31.22825 23.08175
Si  5.43100 19.00850 24.43950
Si  6.78875 20.36625 25.79725
Si  8.14650 21.72400 24.43950
Si  9.50425 23.08175 25.79725
Si 10.86200 24.43950 24.43950
Si 12.21975 25.79725 25.79725
Si 13.57750 27.15500 24.43950
Si 14.93525 28.51275 25.79725
Si 16.29300 29.87050 24.43950
Si 17.65075 31.22825 25.79725
Si  8.14650 19.00850 27.15500
Si  9.50425 20.36625 28.51275
Si 10.86200 21.72400 27.15500
Si 12.21975 23.08175 28.51275
Si 13.57750 24.43950 27.15500
Si 14.93525 25.79725 28.51275
Si 16.29300 27.15500 27.15500
Si 17.65075 28.51275 28.51275
Si 19.00850 29.87050 27.15500
Si 20.36625 31.22825 28.51275
Si 10.86200 19.00850 29.87050
Si 12.21975 20.36625 31.22825
Si 13.57750 21.72400 29.87050
Si 14.93525 23.08175 31.22825
Si 16.29300 24.43950 29.87050
Si 17.65075 25.79725 31.22825
Si 19.00850 27.15500 29.87050
Si 20.36625 28.51275 31.22825
Si 21.72400 29.87050 29.87050
Si 23.08175 31.22825 31.22825
Si  0.00000 21.72400 21.72400
Si  1.35775 23.08175 23.08175
Si  2.71550 24.43950 21.72400
Si  4.07325 25.79725 23.08175
Si  5.43100 27.15500 21.72400
Si  6.78875 28.51275 23.08175
Si  8.14650 29.87050 21.72400
Si  9.50425 31.22825 23.08175
Si 10.86200 32.58600 21.72400
Si 12.21975 33.94375 23.08175
Si  2.71550 21.72400 24.43950
Si  4.07325 23.08175 25.79725
Si  5.43100 24.43950 24.43950
Si  6.78875 25.79725 25.79725
Si  8.14650 27.15500 24.43950
Si  9.50425 28.51275 25.79725
Si 10.86200 29.87050 24.43950
Si 12.21975 31.22825 25.79725
Si 13.57750 32.58600 24.43950
Si 14.93525 33.94375 25.79725
Si  5.43100 21.72400 27.15500
Si  6.78875 23.08175 28.51275
Si  8.14650 24.43950 27.15500
Si  9.50425 25.79725 28.51275
Si 10.86200 27.15500 27.15500
Si 12.21975 28.51275 28.51275
Si 13.57750 29.87050 27.15500
Si 14.93525 31.22825 28.51275
Si 16.29300 32.58600 27.15500
Si 17.65075 33.94375 28.51275
Si  8.14650 21.72400 29.87050
Si  9.50425 23.08175 31.22825
Si 10.86200 24.43950 29.87050
Si 12.21975 25.79725 31.22825
Si 13.57750 27.15500 29.87050
Si 14.93525 28.51275 31.22825
Si 16.29300 29.87050 29.87050
Si 17.65075 31.22825 31.22825
Si 19.00850 32.58600 29.87050
Si 20.36625 33.94375 31.22825
Si 10.86200 21.72400 32.58600
Si 12.21975 23.08175 33.94375
Si 13.57750 24.43950 32.58600
Si 14.93525 25.79725 33.94375
Si 16.29300 27.15500 32.58600
Si 17.65075 28.51275 33.94375
Si 19.00850 29.87050 32.58600
Si 20.36625 31.22825 33.94375
Si 21.72400 32.58600 32.58600
Si 23.08175 33.94375 33.94375
Si  0.00000 24.43950 24.43950
Si  1.35775 25.79725 25.79725
Si  2.71550 27.15500 24.43950
Si  4.07325 28.51275 25.79725
Si  5.43100 29.87050 24.43950
Si  6.78875 31.22825 25.79725
Si  8.14650 32.58600 24.43950
Si  9.50425 33.94375 25.79725
Si 10.86200 35.30150 24.43950
Si 12.21975 36.65925 25.79725
Si  2.71550 24.43950 27.15500
Si  4.07325 25.79725 28.51275
Si  5.43100 27.15500 27.15500
Si  6.78875 28.51275 28.51275
Si  8.14650 29.87050 27.15500
Si  9.50425 31.22825 28.51275
Si 10.86200 32.58600 27.15500
Si 12.21975 33.94375 28.51275
Si 13.57750 35.30150 27.15500
Si 14.93525 36.65925 28.51275
Si  5.43100 24.43950 29.87050
Si  6.78875 25.79725 31.22825
Si  8.14650 27.15500 29.87050
Si  9.50425 28.51275 31.22825
Si 10.86200 29.87050 29.87050
Si 12.21975 31.22825 31.22825
Si 13.57750 32.58600 29.87050
Si 14.93525 33.94375 31.22825
Si 16.29300 35.30150 29.87050
Si 17.65075 36.65925 31.22825
Si  8.14650 24.43950 32.58600
Si  9.50425 25.79725 33.94375
Si 10.86200 27.15500 32.58600
Si 12.21975 28.51275 33.94375
Si 13.57750 29.87050 32.58600
Si 14.93525 31.22825 33.94375
Si 16.29300 32.58600 32.58600
Si 17.65075 33.94375 33.94375
Si 19.00850 35.30150 32.58600
Si 20.36625 36.65925 33.94375
Si 10.86200 24.43950 35.30150
Si 12.21975 25.79725 36.65925
Si 13.57750 27.15500 35.30150
Si 14.93525 28.51275 36.65925
Si 16.29300 29.87050 35.30150
Si 17.65075 31.22825 36.65925
Si 19.00850 32.58600 35.30150
Si 20.36625 33.94375 36.65925
Si 21.72400 35.30150 35.30150
Si 23.08175 36.65925 36.65925
Si 13.57750 27.15500 13.57750
Si 14.93525 28.51275 14.93525
Si 16.29300 29.87050 13.57750
Si 17.65075 31.22825 14.93525
Si 19.00850 32.58600 13.57750
Si 20.36625 33.94375 14.93525
Si 21.72400 35.30150 13.57750
Si 23.08175 36.65925 14.93525
Si 24.43950 38.01700 13.57750
Si 25.79725 39.37475 14.93525
Si 16.29300 27.15500 16.29300
Si 17.65075 28.51275 17.65075
Si 19.00850 29.87050 16.29300
Si 20.36625 31.22825 17.65075
Si 21.72400 32.58600 16.29300
Si 23.08175 33.94375 17.65075
Si 24.43950 35.30150 16.29300
Si 25.79725 36.65925 17.65075
Si 27.15500 38.01700 16.29300
Si 28.51275 39.37475 17.65075
Si 19.00850 27.15500 19.00850
Si 20.36625 28.51275 20.36625
Si 21.72400 29.87050 19.00850
Si 23.08175 31.22825 20.36625
Si 24.43950 32.58600 19.00850
Si 25.79725 33.94375 20.36625
Si 27.15500 35.30150 19.00850
Si 28.51275 36.65925 20.36625
Si 29.87050 38.01700 19.00850
Si 31.22825 39.37475 20.36625
Si 21.72400 27.15500 21.72400
Si 23.08175 28.51275 23.08175
Si 24.43950 29.87050 21.72400
Si 25.79725 31.22825 23.08175
Si 27.15500 32.58600 21.72400
Si 28.51275 33.94375 23.08175
Si 29.87050 35.30150 21.72400
Si 31.22825 36.65925 23.08175
Si 32.58600 38.01700 21.72400
Si 33.94375 39.37475 23.08175
Si 24.43950 27.15500 24.43950
Si 25.79725 28.51275 25.79725
Si 27.15500 29.87050 24.43950
Si 28.51275 31.22825 25.79725
Si 29.87050 32.58600 24.43950
Si 31.22825 33.94375 25.79725
Si 32.58600 35.30150 24.43950
Si 33.94375 36.65925 25.79725
Si 35.30150 38.01700 24.43950
Si 36.65925 39.37475 25.79725
Si 13.57750 29.87050 16.29300
Si 14.93525 31.22825 17.65075
Si 16.29300 32.58600 16.29300
Si 17.65075 33.94375 17.65075
Si 19.00850 35.30150 16.29300
Si 20.36625 36.65925 17.65075
Si 21.72400 38.01700 16.29300
Si 23.08175 39.37475 17.65075
Si 24.43950 40.73250 16.29300
Si 25.79725 42.09025 17.65075
Si 16.29300 29.87050 19.00850
Si 17.65075 31.22825 20.36625
Si 19.00850 32.58600 19.00850
Si 20.36625 33.94375 20.36625
Si 21.72400 35.30150 19.00850
Si 23.08175 36.65925 20.36625
Si 24.43950 38.01700 19.00850
Si 25.79725 39.37475 20.36625
Si 27.15500 40.73250 19.00850
Si 28.51275 42.09025 20.36625
Si 19.00850 29.87050 21.72400
Si 20.36625 31.22825 23.08175
Si 21.72400 32.58600 21.72400
Si 23.08175 33.94375 23.08175
Si 24.43950 35.30150 21.72400
Si 25.79725 36.65925 23.08175
Si 27.15500 38.01700 21.72400
Si 28.51275 39.37475 23.08175
Si 29.87050 40.73250 21.72400
Si 31.22825 42.09025 23.08175
Si 21.72400 29.87050 24.43950
Si 23.08175 31.22825 25.79725
Si 24.43950 32.58600 24.43950
Si 25.79725 33.94375 25.79725
Si 27.15500 35.30150 24.43950
Si 28.51275 36.65925 25.79725
Si 29.87050 38.01700 24.43950
Si 31.22825 39.37475 25.79725
Si 32.58600 40.73250 24.43950
Si 33.94375 42.09025 25.79725
Si 24.43950 29.87050 27.15500
Si 25.79725 31.22825 28.51275
Si 27.15500 32.58600 27.15500
Si 28.51275 33.94375 28.51275
Si 29.87050 35.30150 27.15500
Si 31.22825 36.65925 28.51275
Si 32.58600 38.01700 27.15500
Si 33.94375 39.37475 28.51275
Si 35.30150 40.73250 27.15500
Si 36.65925 42.09025 28.51275
Si 13.57750 32.58600 19.00850
Si 14.93525 33.94375 20.36625
Si 16.29300 35.30150 19.00850
Si 17.65075 36.65925 20.36625
Si 19.00850 38.01700 19.00850
Si 20.36625 39.37475 20.36625
Si 21.72400 40.73250 19.00850
Si 23.08175 42.09025 20.36625
Si 24.43950 43.44800 19.00850
Si 25.79725 44.80575 20.36625
Si 16.29300 32.58600 21.72400
Si 17.65075 33.94375 23.08175
Si 19.00850 35.30150 21.72400
Si 20.36625 36.65925 23.08175
Si 21.72400 38.01700 21.72400
Si 23.08175 39.37475 23.08175
Si 24.43950 40.73250 21.72400
Si 25.79725 42.09025 23.08175
Si 27.15500 43.44800 21.72400
Si 28.51275 44.80575 23.08175
Si 19.00850 32.58600 24.43950
Si 20.36625 33.94375 25.79725
Si 21.72400 35.30150 24.43950
Si 23.08175 36.65925 25.79725
Si 24.43950 38.01700 24.43950
Si 25.79725 39.37475 25.79725
Si 27.15500 40.73250 24.43950
Si 28.51275 42.09025 25.79725
Si 29.87050 43.44800 24.43950
Si 31.22825 44.80575 25.79725
Si 21.72400 32.58600 27.15500
Si 23.08175 33.94375 28.51275
Si 24.43950 35.30150 27.15500
Si 25.79725 36.65925 28.51275
Si 27.15500 38.01700 27.15500
Si 28.51275 39.37475 28.51275
Si 29.87050 40.73250 27.15500
Si 31.22825 42.09025 28.51275
Si 32.58600 43.44800 27.15500
Si 33.94375 44.80575 28.51275
Si 24.43950 32.58600 29.87050
Si 25.79725 33.94375 31.22825
Si 27.15500 35.30150 29.87050
Si 28.51275 36.65925 31.22825
Si 29.87050 38.01700 29.87050
Si 31.22825 39.37475 31.22825
Si 32.58600 40.73250 29.87050
Si 33.94375 42.09025 31.22825
Si 35.30150 43.44800 29.87050
Si 36.65925 44.80575 31.22825
Si 13.57750 35.30150 21.72400
Si 14.93525 36.65925 23.08175
Si 16.29300 38.01700 21.72400
Si 17.65075 39.37475 23.08175
Si 19.00850 40.73250 21.72400
Si 20.36625 42.09025 23.08175
Si 21.72400 43.44800 21.72400
Si 23.08175 44.80575 23.08175
Si 24.43950 46.16350 21.72400
Si 25.79725 47.52125 23.08175
Si 16.29300 35.30150 24.43950
Si 17.65075 36.65925 25.79725
Si 19.00850 38.01700 24.43950
Si 20.36625 39.37475 25.79725
Si 21.72400 40.73250 24.43950
Si 23.08175 42.09025 25.79725
Si 24.43950 43.44800 24.43950
Si 25.79725 44.80575 25.79725
Si 27.15500 46.16350 24.43950
Si 28.51275 47.52125 25.79725
Si 19.00850 35.30150 27.15500
Si 20.36625 36.65925 28.51275
Si 21.72400 38.01700 27.15500
Si 23.08175 39.37475 28.51275
Si 24.43950 40.73250 27.15500
Si 25.79725 42.09025 28.51275
Si 27.15500 43.44800 27.15500
Si 28.51275 44.80575 28.51275
Si 29.87050 46.16350 27.15500
Si 31.22825 47.52125 28.51275
Si 21.72400 35.30150 29.87050
Si 23.08175 36.65925 31.22825
Si 24.43950 38.01700 29.87050
Si 25.79725 39.37475 31.22825
Si 27.15500 40.73250 29.87050
Si 28.51275 42.09025 31.22825
Si 29.87050 43.44800 29.87050
Si 31.22825 44.80575 31.22825
Si 32.58600 46.16350 29.87050
Si 33.94375 47.52125 31.22825
Si 24.43950 35.30150 32.58600
Si 25.79725 36.65925 33.94375
Si 27.15500 38.01700 32.58600
Si 28.51275 39.37475 33.94375
Si 29.87050 40.73250 32.58600
Si 31.22825 42.09025 33.94375
Si 32.58600 43.44800 32.58600
Si 33.94375 44.80575 33.94375
Si 35.30150 46.16350 32.58600
Si 36.65925 47.52125 33.94375
Si 13.57750 38.01700 24.43950
Si 14.93525 39.37475 25.79725
Si 16.29300 40.73250 24.43950
Si 17.65075 42.09025 25.79725
Si 19.00850 43.44800 24.43950
Si 20.36625 44.80575 25.79725
Si 21.72400 46.16350 24.43950
Si 23.08175 47.52125 25.79725
Si 24.43950 48.87900 24.43950
Si 25.79725 50.23675 25.79725
Si 16.29300 38.01700 27.15500
Si 17.65075 39.37475 28.51275
Si 19.00850 40.73250 27.15500
Si 20.36625 42.09025 28.51275
Si 21.72400 43.44800 27.15500
Si 23.08175 44.80575 28.51275
Si 24.43950 46.16350 27.15500
Si 25.79725 47.52125 28.51275
Si 27.15500 48.87900 27.15500
Si 28.51275 50.23675 28.51275
Si 19.00850 38.01700 29.87050
Si 20.36625 39.37475 31.22825
Si 21.72400 40.73250 29.87050
Si 23.08175 42.09025 31.22825
Si 24.43950 43.44800 29.87050
Si 25.79725 44.80575 31.22825
Si 27.15500 46.16350 29.87050
Si 28.51275 47.52125 31.22825
Si 29.87050 48.87900 29.87050
Si 31.22825 50.23675 31.22825
Si 21.72400 38.01700 32.58600
Si 23.08175 39.37475 33.94375
Si 24.43950 40.73250 32.58600
Si 25.79725 42.09025 33.94375
Si 27.15500 43.44800 32.58600
Si 28.51275 44.80575 33.94375
Si 29.87050 46.16350 32.58600
Si 31.22825 47.52125 33.94375
Si 32.58600 48.87900 32.58600
Si 33.94375 50.23675 33.94375
Si 24.43950 38.01700 35.30150
Si 25.79725 39.37475 36.65925
Si 27.15500 40.73250 35.30150
Si 28.51275 42.09025 36.65925
Si 29.87050 43.44800 35.30150
Si 31.22825 44.80575 36.65925
Si 32.58600 46.16350 35.30150
Si 33.94375 47.52125 36.65925
Si 35.30150 48.87900 35.30150
Si 36.65925 50.23675 36.65925
Si  0.00000  0.00000 27.15500
Si  1.35775  1.35775 28.51275
Si  2.71550  2.71550 27.15500
Si  4.07325  4.07325 28.51275
Si  5.43100  5.43100 27.15500
Si  6.78875  6.78875 28.51275
Si  8.14650  8.14650 27.15500
Si  9.50425  9.50425 28.51275
Si 10.86200 10.86200 27.15500
Si 12.21975 12.21975 28.51275
Si  2.71550  0.00000 29.87050
Si  4.07325  1.35775 31.22825
Si  5.43100  2.71550 29.87050
Si  6.78875  4.07325 31.22825
Si  8.14650  5.43100 29.87050
Si  9.50425  6.78875 31.22825
Si 10.86200  8.14650 29.87050
Si 12.21975  9.50425 31.22825
Si 13.57750 10.86200 29.87050
Si 14.93525 12.21975 31.22825
Si  5.43100  0.00000 32.58600
Si  6.78875  1.35775 33.94375
Si  8.14650  2.71550 32.58600
Si  9.50425  4.07325 33.94375
Si 10.86200  5.43100 32.58600
Si 12.21975  6.78875 33.94375
Si 13.57750  8.14650 32.58600
Si 14.93525  9.50425 33.94375
Si 16.29300 10.86200 32.58600
Si 17.65075 12.21975 33.94375
Si  8.14650  0.00000 35.30150
Si  9.50425  1.35775 36.65925
Si 10.86200  2.71550 35.30150
Si 12.21975  4.07325 36.65925
Si 13.57750  5.43100 35.30150
Si 14.93525  6.78875 36.65925
Si 16.29300  8.14650 35.30150
Si 17.65075  9.50425 36.65925
Si 19.00850 10.86200 35.30150
Si 20.36625 12.21975 36.65925
Si 10.86200  0.00000 38.01700
Si 12.21975  1.35775 39.37475
Si 13.57750  2.71550 38.01700
Si 14.93525  4.07325 39.37475
Si 16.29300  5.43100 38.01700
Si 17.65075  6.78875 39.37475
Si 19.00850  8.14650 38.01700
Si 20.36625  9.50425 39.37475
Si 21.72400 10.86200 38.01700
Si 23.08175 12.21975 39.37475
Si  0.00000  2.71550 29.87050
Si  1.35775  4.07325 31.22825
Si  2.71550  5.43100 29.87050
Si  4.07325  6.78875 31.22825
Si  5.43100  8.14650 29.87050
Si  6.78875  9.50425 31.22825
Si  8.14650 10.86200 29.87050
Si  9.50425 12.21975 31.22825
Si 10.86200 13.57750 29.87050
Si 12.21975 14.93525 31.22825
Si  2.71550  2.71550 32.58600
Si  4.07325  4.07325 33.94375
Si  5.43100  5.43100 32.58600
Si  6.78875  6.78875 33.94375
Si  8.14650  8.14650 32.58600
Si  9.50425  9.50425 33.94375
Si 10.86200 10.86200 32.58600
Si 12.21975 12.21975 33.94375
Si 13.57750 13.57750 32.58600
Si 14.93525 14.93525 33.94375
Si  5.43100  2.71550 35.30150
Si  6.78875  4.07325 36.65925
Si  8.14650  5.43100 35.30150
Si  9.50425  6.78875 36.65925
Si 10.86200  8.14650 35.30150
Si 12.21975  9.50425 36.65925
Si 13.57750 10.86200 35.30150
Si 14.93525 12.21975 36.65925
Si 16.29300 13.57750 35.30150
Si 17.65075 14.93525 36.65925
Si  8.14650  2.71550 38.01700
Si  9.50425  4.07325 39.37475
Si 10.86200  5.43100 38.01700
Si 12.21975  6.78875 39.37475
Si 13.57750  8.14650 38.01700
Si 14.93525  9.50425 39.37475
Si 16.29300 10.86200 38.01700
Si 17.65075 12.21975 39.37475
Si 19.00850 13.57750 38.01700
Si 20.36625 14.93525 39.37475
Si 10.86200  2.71550 40.73250
Si 12.21975  4.07325 42.09025
Si 13.57750  5.43100 40.73250
Si 14.93525  6.78875 42.09025
Si 16.29300  8.14650 40.73250
Si 17.65075  9.50425 42.09025
Si 19.00850 10.86200 40.73250
Si 20.36625 12.21975 42.09025
Si 21.72400 13.57750 40.73250
Si 23.08175 14.93525 42.09025
Si  0.00000  5.43100 32.58600
Si  1.35775  6.78875 33.94375
Si  2.71550  8.14650 32.58600
Si  4.07325  9.50425 33.94375
Si  5.43100 10.86200 32.58600
Si  6.78875 12.21975 33.94375
Si  8.14650 13.57750 32.58600
Si  9.50425 14.93525 33.94375
Si 10.86200 16.29300 32.58600
Si 12.21975 17.65075 33.94375
Si  2.71550  5.43100 35.30150
Si  4.07325  6.78875 36.65925
Si  5.43100  8.14650 35.30150
Si  6.78875  9.50425 36.65925
Si  8.14650 10.86200 35.30150
Si  9.50425 12.21975 36.65925
Si 10.86200 13.57750 35.30150
Si 12.21975 14.93525 36.65925
Si 13.57750 16.29300 35.30150
Si 14.93525 17.65075 36.65925
Si  5.43100  5.43100 38.01700
Si  6.78875  6.78875 39.37475
Si  8.14650  8.14650 38.01700
Si  9.50425  9.50425 39.37475
Si 10.86200 10.86200 38.01700
Si 12.21975 12.21975 39.37475
Si 13.57750 13.57750 38.01700
Si 14.93525 14.93525 39.37475
Si 16.29300 16.29300 38.01700
Si 17.65075 17.65075 39.37475
Si  8.14650  5.43100 40.73250
Si  9.50425  6.78875 42.09025
Si 10.86200  8.14650 40.73250
Si 12.21975  9.50425 42.09025
Si 13.57750 10.86200 40.73250
Si 14.93525 12.21975 42.09025
Si 16.29300 13.57750 40.73250
Si 17.65075 14.93525 42.09025
Si 19.00850 16.29300 40.73250
Si 20.36625 17.65075 42.09025
Si 10.86200  5.43100 43.44800
Si 12.21975  6.78875 44.80575
Si 13.57750  8.14650 43.44800
Si 14.93525  9.50425 44.80575
Si 16.29300 10.86200 43.44800
Si 17.65075 12.21975 44.80575
Si 19.00850 13.57750 43.44800
Si 20.36625 14.93525 44.80575
Si 21.72400 16.29300 43.44800
Si 23.08175 17.65075 44.80575
Si  0.00000  8.14650 35.30150
Si  1.35775  9.50425 36.65925
Si  2.71550 10.86200 35.30150
Si  4.07325 12.21975 36.65925
Si  5.43100 13.57750 35.30150
Si  6.78875 14.93525 36.65925
Si  8.14650 16.29300 35.30150
Si  9.50425 17.65075 36.65925
Si 10.86200 19.00850 35.30150
Si 12.21975 20.36625 36.65925
Si  2.71550  8.14650 38.01700
Si  4.07325  9.50425 39.37475
Si  5.43100 10.86200 38.01700
Si  6.78875 12.21975 39.37475
Si  8.14650 13.57750 38.01700
Si  9.50425 14.93525 39.37475
Si 10.86200 16.29300 38.01700
Si 12.21975 17.65075 39.37475
Si 13.57750 19.00850 38.01700
Si 14.93525 20.36625 39.37475
Si  5.43100  8.14650 40.73250
Si  6.78875  9.50425 42.09025
Si  8.14650 10.86200 40.73250
Si  9.50425 12.21975 42.09025
Si 10.86200 13.57750 40.73250
Si 12.21975 14.93525 42.09025
Si 13.57750 16.29300 40.73250
Si 14.93525 17.65075 42.09025
Si 16.29300 19.00850 40.73250
Si 17.65075 20.36625 42.09025
Si  8.14650  8.14650 43.44800
Si  9.50425  9.50425 44.80575
Si 10.86200 10.86200 43.44800
Si 12.21975 12.21975 44.80575
Si 13.57750 13.57750 43.44800
Si 14.93525 14.93525 44.80575
Si 16.29300 16.29300 43.44800
Si 17.65075 17.65075 44.80575
Si 19.00850 19.00850 43.44800
Si 20.36625 20.36625 44.80575
Si 10.86200  8.14650 46.16350
Si 12.21975  9.50425 47.52125
Si 13.57750 10.86200 46.16350
Si 14.93525 12.21975 47.52125
Si 16.29300 13.57750 46.16350
Si 17.65075 14.93525 47.52125
Si 19.00850 16.29300 46.16350
Si 20.36625 17.65075 47.52125
Si 21.72400 19.00850 46.16350
Si 23.08175 20.36625 47.52125
Si  0.00000 10.86200 38.01700
Si  1.35775 12.21975 39.37475
Si  2.71550 13.57750 38.01700
Si  4.07325 14.93525 39.37475
Si  5.43100 16.29300 38.01700
Si  6.78875 17.65075 39.37475
Si  8.14650 19.00850 38.01700
Si  9.50425 20.36625 39.37475
Si 10.86200 21.72400 38.01700
Si 12.21975 23.08175 39.37475
Si  2.71550 10.86200 40.73250
Si  4.07325 12.21975 42.09025
Si  5.43100 13.57750 40.73250
Si  6.78875 14.93525 42.09025
Si  8.14650 16.29300 40.73250
Si  9.50425 17.65075 42.09025
Si 10.86200 19.00850 40.73250
Si 12.21975 20.36625 42.09025
Si 13.57750 21.72400 40.73250
Si 14.93525 23.08175 42.09025
Si  5.43100 10.86200 43.44800
Si  6.78875 12.21975 44.80575
Si  8.14650 13.57750 43.44800
Si  9.50425 14.93525 44.80575
Si 10.86200 16.29300 43.44800
Si 12.21975 17.65075 44.80575
Si 13.57750 19.00850 43.44800
Si 14.93525 20.36625 44.80575
Si 16.29300 21.72400 43.44800
Si 17.65075 23.08175 44.80575
Si  8.14650 10.86200 46.16350
Si  9.50425 12.21975 47.52125
Si 10.86200 13.57750 46.16350
Si 12.21975 14.93525 47.52125
Si 13.57750 16.29300 46.16350
Si 14.93525 17.65075 47.52125
Si 16.29300 19.00850 46.16350
Si 17.65075 20.36625 47.52125
Si 19.00850 21.72400 46.16350
Si 20.36625 23.08175 47.52125
Si 10.86200 10.86200 48.87900
Si 12.21975 12.21975 50.23675
Si 13.57750 13.57750 48.87900
Si 14.93525 14.93525 50.23675
Si 16.29300 16.29300 48.87900
Si 17.65075 17.65075 50.23675
Si 19.00850 19.00850 48.87900
Si 20.36625 20.36625 50.23675
Si 21.72400 21.72400 48.87900
Si 23.08175 23.08175 50.23675
Si 13.57750 13.57750 27.15500
Si 14.93525 14.93525 28.51275
Si 16.29300 16.29300 27.15500
Si 17.65075 17.65075 28.51275
Si 19.00850 19.00850 27.15500
Si 20.36625 20.36625 28.51275
Si 21.72400 21.72400 27.15500
Si 23.08175 23.08175 28.51275
Si 24.43950 24.43950 27.15500
Si 25.79725 25.79725 28.51275
Si 16.29300 13.57750 29.87050
Si 17.65075 14.93525 31.22825
Si 19.00850 16.29300 29.87050
Si 20.36625 17.65075 31.22825
Si 21.72400 19.00850 29.87050
Si 23.08175 20.36625 31.22825
Si 24.43950 21.72400 29.87050
Si 25.79725 23.08175 31.22825
Si 27.15500 24.43950 29.87050
Si 28.51275 25.79725 31.22825
Si 19.00850 13.57750 32.58600
Si 20.36625 14.93525 33.94375
Si 21.72400 16.29300 32.58600
Si 23.08175 17.65075 33.94375
Si 24.43950 19.00850 32.58600
Si 25.79725 20.36625 33.94375
Si 27.15500 21.72400 32.58600
Si 28.51275 23.08175 33.94375
Si 29.87050 24.43950 32.58600
Si 31.22825 25.79725 33.94375
Si 21.72400 13.57750 35.30150
Si 23.08175 14.93525 36.65925
Si 24.43950 16.29300 35.30150
Si 25.79725 17.65075 36.65925
Si 27.15500 19.00850 35.30150
Si 28.51275 20.36625 36.65925
Si 29.87050 21.72400 35.30150
Si 31.22825 23.08175 36.65925
Si 32.58600 24.43950 35.30150
Si 33.94375 25.79725 36.65925
Si 24.43950 13.57750 38.01700
Si 25.79725 14.93525 39.37475
Si 27.15500 16.29300 38.01700
Si 28.51275 17.65075 39.37475
Si 29.87050 19.00850 38.01700
Si 31.22825 20.36625 39.37475
Si 32.58600 21.72400 38.01700
Si 33.94375 23.08175 39.37475
Si 35.30150 24.43950 38.01700
Si 36.65925 25.79725 39.37475
Si 13.57750 16.29300 29.87050
Si 14.93525 17.65075 31.22825
Si 16.29300 19.00850 29.87050
Si 17.65075 20.36625 31.22825
Si 19.00850 21.72400 29.87050
Si 20.36625 23.08175 31.22825
Si 21.72400 24.43950 29.87050
Si 23.08175 25.79725 31.22825
Si 24.43950 27.15500 29.87050
Si 25.79725 28.51275 31.22825
Si 16.29300 16.29300 32.58600
Si 17.65075 17.65075 33.94375
Si 19.00850 19.00850 32.58600
Si 20.36625 20.36625 33.94375
Si 21.72400 21.72400 32.58600
Si 23.08175 23.08175 33.94375
Si 24.43950 24.43950 32.58600
Si 25.79725 25.79725 33.94375
Si 27.15500 27.15500 32.58600
Si 28.51275 28.51275 33.94375
Si 19.00850 16.29300 35.30150
Si 20.36625 17.65075 36.65925
Si 21.72400 19.00850 35.30150
Si 23.08175 20.36625 36.65925
Si 24.43950 21.72400 35.30150
Si 25.79725 23.08175 36.65925
Si 27.15500 24.43950 35.30150
Si 28.51275 25.79725 36.65925
Si 29.87050 27.15500 35.30150
Si 31.22825 28.51275 36.65925
Si 21.72400 16.29300 38.01700
Si 23.08175 17.65075 39.37475
Si 24.43950 19.00850 38.01700
Si 25.79725 20.36625 39.37475
Si 27.15500 21.72400 38.01700
Si 28.51275 23.08175 39.37475
Si 29.87050 24.43950 38.01700
Si 31.22825 25.79725 39.37475
Si 32.58600 27.15500 38.01700
Si 33.94375 28.51275 39.37475
Si 24.43950 16.29300 40.73250
Si 25.79725 17.65075 42.09025
Si 27.15500 19.00850 40.73250
Si 28.51275 20.36625 42.09025
Si 29.87050 21.72400 40.73250
Si 31.22825 23.08175 42.09025
Si 32.58600 24.43950 40.73250
Si 33.94375 25.79725 42.09025
Si 35.30150 27.15500 40.73250
Si 36.65925 28.51275 42.09025
Si 13.57750 19.00850 32.58600
Si 14.93525 20.36625 33.94375
Si 16.29300 21.72400 32.58600
Si 17.65075 23.08175 33.94375
Si 19.00850 24.43950 32.58600
Si 20.36625 25.79725 33.94375
Si 21.72400 27.15500 32.58600
Si 23.08175 28.51275 33.94375
Si 24.43950 29.87050 32.58600
Si 25.79725 31.22825 33.94375
Si 16.29300 19.00850 35.30150
Si 17.65075 20.36625 36.65925
Si 19.00850 21.72400 35.30150
Si 20.36625 23.08175 36.65925
Si 21.72400 24.43950 35.30150
Si 23.08175 25.79725 36.65925
Si 24.43950 27.15500 35.30150
Si 25.79725 28.51275 36.65925
Si 27.15500 29.87050 35.30150
Si 28.51275 31.22825 36.65925
Si 19.00850 19.00850 38.01700
Si 20.36625 20.36625 39.37475
Si 21.72400 21.72400 38.01700
Si 23.08175 23.08175 39.37475
Si 24.43950 24.43950 38.01700
Si 25.79725 25.79725 39.37475
Si 27.15500 27.15500 38.01700
Si 28.51275 28.51275 39.37475
Si 29.87050 29.87050 38.01700
Si 31.22825 31.22825 39.37475
Si 21.72400 19.00850 40.73250
Si 23.08175 20.36625 42.09025
Si 24.43950 21.72400 40.73250
Si 25.79725 23.08175 42.09025
Si 27.15500 24.43950 40.73250
Si 28.51275 25.79725 42.09025
Si 29.87050 27.15500 40.73250
Si 31.22825 28.51275 42.09025
Si 32.58600 29.87050 40.73250
Si 33.94375 31.22825 42.09025
Si 24.43950 19.00850 43.44800
Si 25.79725 20.36625 44.80575
Si 27.15500 21.72400 43.44800
Si 28.51275 23.08175 44.80575
Si 29.87050 24.43950 43.44800
Si 31.22825 25.79725 44.80575
Si 32.58600 27.15500 43.44800
Si 33.94375 28.51275 44.80575
Si 35.30150 29.87050 43.44800
Si 36.65925 31.22825 44.80575
Si 13.57750 21.72400 35.30150
Si 14.93525 23.08175 36.65925
Si 16.29300 24.43950 35.30150
Si 17.65075 25.79725 36.65925
Si 19.00850 27.15500 35.30150
Si 20.36625 28.51275 36.65925
Si 21.72400 29.87050 35.30150
Si 23.08175 31.22825 36.65925
Si 24.43950 32.58600 35.30150
Si 25.79725 33.94375 36.65925
Si 16.29300 21.72400 38.01700
Si 17.65075 23.08175 39.37475
Si 19.00850 24.43950 38.01700
Si 20.36625 25.79725 39.37475
Si 21.72400 27.15500 38.01700
Si 23.08175 28.51275 39.37475
Si 24.43950 29.87050 38.01700
Si 25.79725 31.22825 39.37475
Si 27.15500 32.58600 38.01700
Si 28.51275 33.94375 39.37475
Si 19.00850 21.72400 40.73250
Si 20.36625 23.08175 42.09025
Si 21.72400 24.43950 40.73250
Si 23.08175 25.79725 42.09025
Si 24.43950 27.15500 40.73250
Si 25.79725 28.51275 42.09025
Si 27.15500 29.87050 40.73250
Si 28.51275 31.22825 42.09025
Si 29.87050 32.58600 40.73250
Si 31.22825 33.94375 42.09025
Si 21.72400 21.72400 43.44800
Si 23.08175 23.08175 44.80575
Si 24.43950 24.43950 43.44800
Si 25.79725 25.79725 44.80575
Si 27.15500 27.15500 43.44800
Si 28.51275 28.51275 44.80575
Si 29.87050 29.87050 43.44800
Si 31.22825 31.22825 44.80575
Si 32.58600 32.58600 43.44800
Si 33.94375 33.94375 44.80575
Si 24.43950 21.72400 46.16350
Si 25.79725 23.08175 47.52125
Si 27.15500 24.43950 46.16350
Si 28.51275 25.79725 47.52125
Si 29.87050 27.15500 46.16350
Si 31.22825 28.51275 47.52125
Si 32.58600 29.87050 46.16350
Si 33.94375 31.22825 47.52125
Si 35.30150 32.58600 46.16350
Si 36.65925 33.94375 47.52125
Si 13.57750 24.43950 38.01700
Si 14.93525 25.79725 39.37475
Si 16.29300 27.15500 38.01700
Si 17.65075 28.51275 39.37475
Si 19.00850 29.87050 38.01700
Si 20.36625 31.22825 39.37475
Si 21.72400 32.58600 38.01700
Si 23.08175 33.94375 39.37475
Si 24.43950 35.30150 38.01700
Si 25.79725 36.65925 39.37475
Si 16.29300 24.43950 40.73250
Si 17.65075 25.79725 42.09025
Si 19.00850 27.15500 40.73250
Si 20.36625 28.51275 42.09025
Si 21.72400 29.87050 40.73250
Si 23.08175 31.22825 42.09025
Si 24.43950 32.58600 40.73250
Si 25.79725 33.94375 42.09025
Si 27.15500 35.30150 40.73250
Si 28.51275 36.65925 42.09025
Si 19.00850 24.43950 43.44800
Si 20.36625 25.79725 44.80575
Si 21.72400 27.15500 43.44800
Si 23.08175 28.51275 44.80575
Si 24.43950 29.87050 43.44800
Si 25.79725 31.22825 44.80575
Si 27.15500 32.58600 43.44800
Si 28.51275 33.94375 44.80575
Si 29.87050 35.30150 43.44800
Si 31.22825 36.65925 44.80575
Si 21.72400 24.43950 46.16350
Si 23.08175 25.79725 47.52125
Si 24.43950 27.15500 46.16350
Si 25.79725 28.51275 47.52125
Si 27.15500 29.87050 46.16350
Si 28.51275 31.22825 47.52125
Si 29.87050 32.58600 46.16350
Si 31.22825 33.94375 47.52125
Si 32.58600 35.30150 46.16350
Si 33.94375 36.65925 47.52125
Si 24.43950 24.43950 48.87900
Si 25.79725 25.79725 50.23675
Si 27.15500 27.15500 48.87900
Si 28.51275 28.51275 50.23675
Si 29.87050 29.87050 48.87900
Si 31.22825 31.22825 50.23675
Si 32.58600 32.58600 48.87900
Si 33.94375 33.94375 50.23675
Si 35.30150 35.30150 48.87900
Si 36.65925 36.65925 50.23675
Si 27.15500 27.15500 27.15500
Si 28.51275 28.51275 28.51275
Si 29.87050 29.87050 27.15500
Si 31.22825 31.22825 28.51275
Si 32.58600 32.58600 27.15500
Si 33.94375 33.94375 28.51275
Si 35.30150 35.30150 27.15500
Si 36.65925 36.65925 28.51275
Si 38.01700 38.01700 27.15500
Si 39.37475 39.37475 28.51275
Si 29.87050 27.15500 29.87050
Si 31.22825 28.51275 31.22825
Si 32.58600 29.87050 29.87050
Si 33.94375 31.22825 31.22825
Si 35.30150 32.58600 29.87050
Si 36.65925 33.94375 31.22825
Si 38.01700 35.30150 29.87050
Si 39.37475 36.65925 31.22825
Si 40.73250 38.01700 29.87050
Si 42.09025 39.37475 31.22825
Si 32.58600 27.15500 32.58600
Si 33.94375 28.51275 33.94375
Si 35.30150 29.87050 32.58600
Si 36.65925 31.22825 33.94375
Si 38.01700 32.58600 32.58600
Si 39.37475 33.94375 33.94375
Si 40.73250 35.30150 32.58600
Si 42.09025 36.65925 33.94375
Si 43.44800 38.01700 32.58600
Si 44.80575 39.37475 33.94375
Si 35.30150 27.15500 35.30150
Si 36.65925 28.51275 36.65925
Si 38.01700 29.87050 35.30150
Si 39.37475 31.22825 36.65925
Si 40.73250 32.58600 35.30150
Si 42.09025 33.94375 36.65925
Si 43.44800 35.30150 35.30150
Si 44.80575 36.65925 36.65925
Si 46.16350 38.01700 35.30150
Si 47.52125 39.37475 36.65925
Si 38.01700 27.15500 38.01700
Si 39.37475 28.51275 39.37475
Si 40.73250 29.87050 38.01700
Si 42.09025 31.22825 39.37475
Si 43.44800 32.58600 38.01700
Si 44.80575 33.94375 39.37475
Si 46.16350 35.30150 38.01700
Si 47.52125 36.65925 39.37475
Si 48.87900 38.01700 38.01700
Si 50.23675 39.37475 39.37475
Si 27.15500 29.87050 29.87050
Si 28.51275 31.22825 31.22825
Si 29.87050 32.58600 29.87050
Si 31.22825 33.94375 31.22825
Si 32.58600 35.30150 29.87050
Si 33.94375 36.65925 31.22825
Si 35.30150 38.01700 29.87050
Si 36.65925 39.37475 31.22825
Si 38.01700 40.73250 29.87050
Si 39.37475 42.09025 31.22825
Si 29.87050 29.87050 32.58600
Si 31.22825 31.22825 33.94375
Si 32.58600 32.58600 32.58600
Si 33.94375 33.94375 33.94375
Si 35.30150 35.30150 32.58600
Si 36.65925 36.65925 33.94375
Si 38.01700 38.01700 32.58600
Si 39.37475 39.37475 33.94375
Si 40.73250 40.73250 32.58600
Si 42.09025 42.09025 33.94375
Si 32.58600 29.87050 35.30150
Si 33.94375 31.22825 36.65925
Si 35.30150 32.58600 35.30150
Si 36.65925 33.94375 36.65925
Si 38.01700 35.30150 35.30150
Si 39.37475 36.65925 36.65925
Si 40.73250 38.01700 35.30150
Si 42.09025 39.37475 36.65925
Si 43.44800 40.73250 35.30150
Si 44.80575 42.09025 36.65925
Si 35.30150 29.87050 38.01700
Si 36.65925 31.22825 39.37475
Si 38.01700 32.58600 38.01700
Si 39.37475 33.94375 39.37475
Si 40.73250 35.30150 38.01700
Si 42.09025 36.65925 39.37475
Si 43.44800 38.01700 38.01700
Si 44.80575 39.37475 39.37475
Si 46.16350 40.73250 38.01700
Si 47.52125 42.09025 39.37475
Si 38.01700 29.87050 40.73250
Si 39.37475 31.22825 42.09025
Si 40.73250 32.58600 40.73250
Si 42.09025 33.94375 42.09025
Si 43.44800 35.30150 40.73250
Si 44.80575 36.65925 42.09025
Si 46.16350 38.01700 40.73250
Si 47.52125 39.37475 42.09025
Si 48.87900 40.73250 40.73250
Si 50.23675 42.09025 42.09025
Si 27.15500 32.58600 32.58600
Si 28.51275 33.94375 33.94375
Si 29.87050 35.30150 32.58600
Si 31.22825 36.65925 33.94375
Si 32.58600 38.01700 32.58600
Si 33.94375 39.37475 33.94375
Si 35.30150 40.73250 32.58600
Si 36.65925 42.09025 33.94375
Si 38.01700 43.44800 32.58600
Si 39.37475 44.80575 33.94375
Si 29.87050 32.58600 35.30150
Si 31.22825 33.94375 36.65925
Si 32.58600 35.30150 35.30150
Si 33.94375 36.65925 36.65925
Si 35.30150 38.01700 35.30150
Si 36.65925 39.37475 36.65925
Si 38.01700 40.73250 35.30150
Si 39.37475 42.09025 36.65925
Si 40.73250 43.44800 35.30150
Si 42.09025 44.80575 36.65925
Si 32.58600 32.58600 38.01700
Si 33.94375 33.94375 39.37475
Si 35.30150 35.30150 38.01700
Si 36.65925 36.65925 39.37475
Si 38.01700 38.01700 38.01700
Si 39.37475 39.37475 39.37475
Si 40.73250 40.73250 38.01700
Si 42.09025 42.09025 39.37475
Si 43.44800 43.44800 38.01700
Si 44.80575 44.80575 39.37475
Si 35.30150 32.58600 40.73250
Si 36.65925 33.94375 42.09025
Si 38.01700 35.30150 40.73250
Si 39.37475 36.65925 42.09025
Si 40.73250 38.01700 40.73250
Si 42.09025 39.37475 42.09025
Si 43.44800 40.73250 40.73250
Si 44.80575 42.09025 42.09025
Si 46.16350 43.44800 40.73250
Si 47.52125 44.80575 42.09025
Si 38.01700 32.58600 43.44800
Si 39.37475 33.94375 44.80575
Si 40.73250 35.30150 43.44800
Si 42.09025 36.65925 44.80575
Si 43.44800 38.01700 43.44800
Si 44.80575 39.37475 44.80575
Si 46.16350 40.73250 43.44800
Si 47.52125 42.09025 44.80575
Si 48.87900 43.44800 43.44800
Si 50.23675 44.80575 44.80575
Si 27.15500 35.30150 35.30150
Si 28.51275 36.65925 36.65925
Si 29.87050 38.01700 35.30150
Si 31.22825 39.37475 36.65925
Si 32.58600 40.73250 35.30150
Si 33.94375 42.09025 36.65925
Si 35.30150 43.44800 35.30150
Si 36.65925 44.80575 36.65925
Si 38.01700 46.16350 35.30150
Si 39.37475 47.52125 36.65925
Si 29.87050 35.30150 38.01700
Si 31.22825 36.65925 39.37475
Si 32.58600 38.01700 38.01700
Si 33.94375 39.37475 39.37475
Si 35.30150 40.73250 38.01700
Si 36.65925 42.09025 39.37475
Si 38.01700 43.44800 38.01700
Si 39.37475 44.80575 39.37475
Si 40.73250 46.16350 38.01700
Si 42.09025 47.52125 39.37475
Si 32.58600 35.30150 40.73250
Si 33.94375 36.65925 42.09025
Si 35.30150 38.01700 40.73250
Si 36.65925 39.37475 42.09025
Si 38.01700 40.73250 40.73250
Si 39.37475 42.09025 42.09025
Si 40.73250 43.44800 40.73250
Si 42.09025 44.80575 42.09025
Si 43.44800 46.16350 40.73250
Si 44.80575 47.52125 42.09025
Si 35.30150 35.30150 43.44800
Si 36.65925 36.65925 44.80575
Si 38.01700 38.01700 43.44800
Si 39.37475 39.37475 44.80575
Si 40.73250 40.73250 43.44800
Si 42.09025 42.09025 44.80575
Si 43.44800 43.44800 43.44800
Si 44.80575 44.80575 44.80575
Si 46.16350 46.16350 43.44800
Si 47.52125 47.52125 44.80575
Si 38.01700 35.30150 46.16350
Si 39.37475 36.65925 47.52125
Si 40.73250 38.01700 46.16350
Si 42.09025 39.37475 47.52125
Si 43.44800 40.73250 46.16350
Si 44.80575 42.09025 47.52125
Si 46.16350 43.44800 46.16350
Si 47.52125 44.80575 47.52125
Si 48.87900 46.16350 46.16350
Si 50.23675 47.52125 47.52125
Si 27.15500 38.01700 38.01700
Si 28.51275 39.37475 39.37475
Si 29.87050 40.73250 38.01700
Si 31.22825 42.09025 39.37475
Si 32.58600 43.44800 38.01700
Si 33.94375 44.80575 39.37475
Si 35.30150 46.16350 38.01700
Si 36.65925 47.52125 39.37475
Si 38.01700 48.87900 38.01700
Si 39.37475 50.23675 39.37475
Si 29.87050 38.01700 40.73250
Si 31.22825 39.37475 42.09025
Si 32.58600 40.73250 40.73250
Si 33.94375 42.09025 42.09025
Si 35.30150 43.44800 40.73250
Si 36.65925 44.80575 42.09025
Si 38.01700 46.16350 40.73250
Si 39.37475 47.52125 42.09025
Si 40.73250 48.87900 40.73250
Si 42.09025 50.23675 42.09025
Si 32.58600 38.01700 43.44800
Si 33.94375 39.37475 44.80575
Si 35.30150 40.73250 43.44800
Si 36.65925 42.09025 44.80575
Si 38.01700 43.44800 43.44800
Si 39.37475 44.80575 44.80575
Si 40.73250 46.16350 43.44800
Si 42.09025 47.52125 44.80575
Si 43.44800 48.87900 43.44800
Si 44.80575 50.23675 44.80575
Si 35.30150 38.01700 46.16350
Si 36.65925 39.37475 47.52125
Si 38.01700 40.73250 46.16350
Si 39.37475 42.09025 47.52125
Si 40.73250 43.44800 46.16350
Si 42.09025 44.80575 47.52125
Si 43.44800 46.16350 46.16350
Si 44.80575 47.52125 47.52125
Si 46.16350 48.87900 46.16350
Si 47.52125 50.23675 47.52125
Si 38.01700 38.01700 48.87900
Si 39.37475 39.37475 50.23675
Si 40.73250 40.73250 48.87900
Si 42.09025 42.09025 50.23675
Si 43.44800 43.44800 48.87900
Si 44.80575 44.80575 50.23675
Si 46.16350 46.16350 48.87900
Si 47.52125 47.52125 50.23675
Si 48.87900 48.87900 48.87900
Si 50.23675 50.23675 50.23675
