288 

Si    0.67888   0.67888   0.67888   0.000004665429912   0.000002044418063   0.000002038335882
Si    3.39438   0.67888   3.39437   0.000004014494358   0.000002884156314  -0.000002880490734
Si    0.67888   3.39437   3.39437   0.000004665429920  -0.000002044418078  -0.000002038335892
Si    3.39438   3.39437   0.67888   0.000004014494359  -0.000002884156325   0.000002880490716
Si    4.75212   2.03662   2.03663   0.000018983334601   0.000000000000011   0.000000000000002
Si    4.75212   4.75213   4.75213   0.000003673055321   0.000002216886117   0.000002209432531
Si    2.03662   2.03662   4.75213  -0.000003842063684   0.000000151024606   0.000000536162839
Si    2.03662   4.75213   2.03663  -0.000003852371096   0.000000524560234   0.000000153334326
Si    0.67888   0.67888   6.10987  -0.000000585755310  -0.000000140921485   0.000001306523512
Si    3.39438   0.67888   8.82538   0.000002568095790   0.000002462922123   0.000002461795229
Si    0.67888   3.39437   8.82538   0.000004490620059  -0.000001829364930   0.000001826883792
Si    3.39438   3.39437   6.10987  -0.000005687592145  -0.000005923585179  -0.000000426517965
Si    4.75212   2.03662   7.46762  -0.000000473114661   0.000000271523130  -0.000002118887136
Si    4.75212   4.75213  10.18313  -0.000000468694325   0.000002108659351  -0.000000280062682
Si    2.03662   2.03662  10.18313   0.000008914668941   0.000000000000002   0.000000000000003
Si    2.03662   4.75213   7.46762   0.000000146159049   0.000001038908904  -0.000001025076947
Si    0.67888   0.67888  11.54087   0.000004490620082   0.000001829364931  -0.000001826883776
Si    3.39438   0.67888  14.25638  -0.000005687592145   0.000005923585173   0.000000426517981
Si    0.67888   3.39437  14.25638  -0.000000585755329   0.000000140921460  -0.000001306523525
Si    3.39438   3.39437  11.54087   0.000002568095799  -0.000002462922133  -0.000002461795223
Si    4.75212   2.03662  12.89863  -0.000000473114671  -0.000000271523115   0.000002118887118
Si    4.75212   4.75213  15.61412   0.000004688746280   0.000002752691784  -0.000002748162254
Si    2.03662   2.03662  15.61412  -0.000003842063678  -0.000000151024586  -0.000000536162826
Si    2.03662   4.75213  12.89863  -0.000001140574561   0.000000536547841   0.000000537087663
Si    0.67888   6.10987   0.67888  -0.000000580643948   0.000001309410903  -0.000000133887806
Si    3.39438   6.10987   3.39437  -0.000005687948050  -0.000000433655190  -0.000005926778031
Si    0.67888   8.82538   3.39437   0.000004490620065   0.000001829364939  -0.000001826883771
Si    3.39438   8.82538   0.67888   0.000002568095809   0.000002462922122   0.000002461795250
Si    4.75212   7.46762   2.03663  -0.000000468694327  -0.000002108659345   0.000000280062703
Si    4.75212  10.18313   4.75213  -0.000000473114658  -0.000000271523130   0.000002118887136
Si    2.03662   7.46762   4.75213   0.000000146159056  -0.000001038908904   0.000001025076942
Si    2.03662  10.18313   2.03663   0.000008914668939   0.000000000000001   0.000000000000010
Si    0.67888   6.10987   6.10987   0.000005706841219   0.000000000000001   0.000000000000023
Si    3.39438   6.10987   8.82538  -0.000005687948041   0.000000433655198   0.000005926778031
Si    0.67888   8.82538   8.82538   0.000004665429900   0.000002044418067   0.000002038335863
Si    3.39438   8.82538   6.10987  -0.000005687592138   0.000005923585190   0.000000426517974
Si    4.75212   7.46762   7.46762   0.000003673055322  -0.000002216886115  -0.000002209432527
Si    4.75212  10.18313  10.18313   0.000018983334578   0.000000000000007  -0.000000000000006
Si    2.03662   7.46762  10.18313  -0.000003852371097  -0.000000524560224  -0.000000153334321
Si    2.03662  10.18313   7.46762  -0.000003842063683  -0.000000151024604  -0.000000536162834
Si    0.67888   6.10987  11.54087  -0.000000580643924  -0.000001309410891   0.000000133887803
Si    3.39438   6.10987  14.25638  -0.000001243179695  -0.000000000000011   0.000000000000003
Si    0.67888   8.82538  14.25638  -0.000000585755320  -0.000000140921454   0.000001306523529
Si    3.39438   8.82538  11.54087   0.000004014494366   0.000002884156339  -0.000002880490720
Si    4.75212   7.46762  12.89863   0.000004688746265  -0.000002752691772   0.000002748162241
Si    4.75212  10.18313  15.61412  -0.000000473114655   0.000000271523138  -0.000002118887149
Si    2.03662   7.46762  15.61412  -0.000001140574557  -0.000000536547844  -0.000000537087668
Si    2.03662  10.18313  12.89863  -0.000003842063675   0.000000151024596   0.000000536162833
Si    0.67888  11.54087   0.67888   0.000004490620062  -0.000001829364907   0.000001826883770
Si    3.39438  11.54087   3.39437   0.000002568095816  -0.000002462922127  -0.000002461795228
Si    0.67888  14.25638   3.39437  -0.000000580643920  -0.000001309410890   0.000000133887801
Si    3.39438  14.25638   0.67888  -0.000005687948043   0.000000433655187   0.000005926778029
Si    4.75212  12.89863   2.03663  -0.000000468694325   0.000002108659351  -0.000000280062678
Si    4.75212  15.61412   4.75213   0.000004688746275  -0.000002752691784   0.000002748162248
Si    2.03662  12.89863   4.75213  -0.000001140574589   0.000000536547822   0.000000537087668
Si    2.03662  15.61412   2.03663  -0.000003852371086  -0.000000524560227  -0.000000153334319
Si    0.67888  11.54087   6.10987  -0.000000585755301   0.000000140921488  -0.000001306523499
Si    3.39438  11.54087   8.82538   0.000004014494376  -0.000002884156312   0.000002880490718
Si    0.67888  14.25638   8.82538  -0.000000580643915   0.000001309410893  -0.000000133887817
Si    3.39438  14.25638   6.10987  -0.000001243179678   0.000000000000018   0.000000000000012
Si    4.75212  12.89863   7.46762   0.000004688746274   0.000002752691768  -0.000002748162220
Si    4.75212  15.61412  10.18313  -0.000000468694335  -0.000002108659351   0.000000280062694
Si    2.03662  12.89863  10.18313  -0.000003852371096   0.000000524560233   0.000000153334312
Si    2.03662  15.61412   7.46762  -0.000001140574567  -0.000000536547840  -0.000000537087660
Si    0.67888  11.54087  11.54087   0.000004665429919  -0.000002044418075  -0.000002038335874
Si    3.39438  11.54087  14.25638  -0.000005687592152  -0.000005923585191  -0.000000426517957
Si    0.67888  14.25638  14.25638   0.000005706841203   0.000000000000021  -0.000000000000013
Si    3.39438  14.25638  11.54087  -0.000005687948058  -0.000000433655178  -0.000005926778022
Si    4.75212  12.89863  12.89863   0.000003673055320   0.000002216886120   0.000002209432533
Si    4.75212  15.61412  15.61412   0.000003673055313  -0.000002216886126  -0.000002209432528
Si    2.03662  12.89863  15.61412   0.000000146159049   0.000001038908915  -0.000001025076935
Si    2.03662  15.61412  12.89863   0.000000146159063  -0.000001038908920   0.000001025076945
Si    6.10987   0.67888   0.67888   0.000003005436799   0.000002234567277   0.000002237109950
Si    8.82537   0.67888   3.39437  -0.000001686585207   0.000001318077868  -0.000001320606047
Si    6.10987   3.39437   3.39437   0.000003005436788  -0.000002234567282  -0.000002237109922
Si    8.82537   3.39437   0.67888  -0.000001686585196  -0.000001318077873   0.000001320606049
Si   10.18313   2.03662   2.03663   0.000015186114231  -0.000000000000012  -0.000000000000011
Si   10.18313   4.75213   4.75213  -0.000001445421448   0.000004460944671   0.000004457615474
Si    7.46762   2.03662   4.75213  -0.000003356864152  -0.000000819268691   0.000000829694870
Si    7.46762   4.75213   2.03663  -0.000003357644406   0.000000817069470  -0.000000822199825
Si    6.10987   0.67888   6.10987   0.000005646117738  -0.000001346408704  -0.000001133334249
Si    8.82537   0.67888   8.82538  -0.000002317111625   0.000002937661815   0.000002922204137
Si    6.10987   3.39437   8.82538   0.000003487218768  -0.000003540286381   0.000003527053270
Si    8.82537   3.39437   6.10987   0.000000138253607  -0.000000984416675  -0.000000571766489
Si   10.18313   2.03662   7.46762   0.000003189223116   0.000000332620225  -0.000000909763180
Si   10.18313   4.75213  10.18313   0.000003184457101   0.000000902703585  -0.000000321778849
Si    7.46762   2.03662  10.18313  -0.000002433899511   0.000000000000007   0.000000000000005
Si    7.46762   4.75213   7.46762  -0.000002070555854  -0.000000719994571   0.000000725234643
Si    6.10987   0.67888  11.54087   0.000003487218775   0.000003540286400  -0.000003527053278
Si    8.82537   0.67888  14.25638   0.000000138253605   0.000000984416672   0.000000571766497
Si    6.10987   3.39437  14.25638   0.000005646117750   0.000001346408712   0.000001133334261
Si    8.82537   3.39437  11.54087  -0.000002317111632  -0.000002937661815  -0.000002922204132
Si   10.18313   2.03662  12.89863   0.000003189223132  -0.000000332620230   0.000000909763167
Si   10.18313   4.75213  15.61412  -0.000001374320396   0.000004147998212  -0.000004142588652
Si    7.46762   2.03662  15.61412  -0.000003356864153   0.000000819268704  -0.000000829694853
Si    7.46762   4.75213  12.89863  -0.000002053495308  -0.000000345987422  -0.000000355012497
Si    6.10987   6.10987   0.67888   0.000005641214207  -0.000001142043103  -0.000001337408747
Si    8.82537   6.10987   3.39437   0.000000143339251  -0.000000582488509  -0.000000995555049
Si    6.10987   8.82538   3.39437   0.000003487218770   0.000003540286363  -0.000003527053266
Si    8.82537   8.82538   0.67888  -0.000002317111633   0.000002937661822   0.000002922204149
Si   10.18313   7.46762   2.03663   0.000003184457088  -0.000000902703572   0.000000321778846
Si   10.18313  10.18313   4.75213   0.000003189223102  -0.000000332620240   0.000000909763156
Si    7.46762   7.46762   4.75213  -0.000002070555851   0.000000719994585  -0.000000725234633
Si    7.46762  10.18313   2.03663  -0.000002433899502   0.000000000000006  -0.000000000000018
Si    6.10987   6.10987   6.10987   0.000006496738225   0.000000000000005  -0.000000000000001
Si    8.82537   6.10987   8.82538   0.000000143339241   0.000000582488492   0.000000995555051
Si    6.10987   8.82538   8.82538   0.000003005436771   0.000002234567266   0.000002237109924
Si    8.82537   8.82538   6.10987   0.000000138253622   0.000000984416662   0.000000571766498
Si   10.18313   7.46762   7.46762  -0.000001445421436  -0.000004460944665  -0.000004457615468
Si   10.18313  10.18313  10.18313   0.000015186114239   0.000000000000018   0.000000000000018
Si    7.46762   7.46762  10.18313  -0.000003357644391  -0.000000817069485   0.000000822199837
Si    7.46762  10.18313   7.46762  -0.000003356864148   0.000000819268700  -0.000000829694858
Si    6.10987   6.10987  11.54087   0.000005641214230   0.000001142043119   0.000001337408765
Si    8.82537   6.10987  14.25638  -0.000009159227038   0.000000000000012  -0.000000000000004
Si    6.10987   8.82538  14.25638   0.000005646117759  -0.000001346408691  -0.000001133334254
Si    8.82537   8.82538  11.54087  -0.000001686585198   0.000001318077869  -0.000001320606040
Si   10.18313   7.46762  12.89863  -0.000001374320383  -0.000004147998224   0.000004142588671
Si   10.18313  10.18313  15.61412   0.000003189223102   0.000000332620236  -0.000000909763188
Si    7.46762   7.46762  15.61412  -0.000002053495290   0.000000345987412   0.000000355012512
Si    7.46762  10.18313  12.89863  -0.000003356864155  -0.000000819268684   0.000000829694857
Si    6.10987  11.54087   0.67888   0.000003487218765  -0.000003540286388   0.000003527053259
Si    8.82537  11.54087   3.39437  -0.000002317111628  -0.000002937661817  -0.000002922204150
Si    6.10987  14.25638   3.39437   0.000005641214221   0.000001142043115   0.000001337408752
Si    8.82537  14.25638   0.67888   0.000000143339243   0.000000582488512   0.000000995555048
Si   10.18313  12.89863   2.03663   0.000003184457100   0.000000902703566  -0.000000321778831
Si   10.18313  15.61412   4.75213  -0.000001374320380  -0.000004147998200   0.000004142588661
Si    7.46762  12.89863   4.75213  -0.000002053495321  -0.000000345987405  -0.000000355012483
Si    7.46762  15.61412   2.03663  -0.000003357644396  -0.000000817069483   0.000000822199838
Si    6.10987  11.54087   6.10987   0.000005646117755   0.000001346408706   0.000001133334249
Si    8.82537  11.54087   8.82538  -0.000001686585201  -0.000001318077845   0.000001320606037
Si    6.10987  14.25638   8.82538   0.000005641214242  -0.000001142043097  -0.000001337408763
Si    8.82537  14.25638   6.10987  -0.000009159227048  -0.000000000000002  -0.000000000000006
Si   10.18313  12.89863   7.46762  -0.000001374320396   0.000004147998202  -0.000004142588649
Si   10.18313  15.61412  10.18313   0.000003184457100  -0.000000902703599   0.000000321778864
Si    7.46762  12.89863  10.18313  -0.000003357644394   0.000000817069476  -0.000000822199839
Si    7.46762  15.61412   7.46762  -0.000002053495302   0.000000345987407   0.000000355012504
Si    6.10987  11.54087  11.54087   0.000003005436796  -0.000002234567280  -0.000002237109915
Si    8.82537  11.54087  14.25638   0.000000138253593  -0.000000984416665  -0.000000571766487
Si    6.10987  14.25638  14.25638   0.000006496738216   0.000000000000002  -0.000000000000002
Si    8.82537  14.25638  11.54087   0.000000143339249  -0.000000582488504  -0.000000995555033
Si   10.18313  12.89863  12.89863  -0.000001445421435   0.000004460944669   0.000004457615481
Si   10.18313  15.61412  15.61412  -0.000001445421413  -0.000004460944673  -0.000004457615452
Si    7.46762  12.89863  15.61412  -0.000002070555846  -0.000000719994593   0.000000725234642
Si    7.46762  15.61412  12.89863  -0.000002070555844   0.000000719994579  -0.000000725234630
Si   11.54087   0.67888   0.67888   0.000001445486502   0.000004460944676   0.000004457615506
Si   14.25638   0.67888   3.39437   0.000002070620980  -0.000000719994611   0.000000725234653
Si   11.54087   3.39437   3.39437   0.000001445486527  -0.000004460944698  -0.000004457615494
Si   14.25638   3.39437   0.67888   0.000002070620960   0.000000719994613  -0.000000725234660
Si   15.61412   2.03662   2.03663  -0.000006496673104   0.000000000000006  -0.000000000000005
Si   15.61412   4.75213   4.75213  -0.000003005371689   0.000002234567242   0.000002237109873
Si   12.89862   2.03662   4.75213  -0.000000143274134   0.000000582488567   0.000000995555052
Si   12.89862   4.75213   2.03663  -0.000000138188485   0.000000984416672   0.000000571766544
Si   11.54087   0.67888   6.10987  -0.000003184392010   0.000000902703586  -0.000000321778906
Si   14.25638   0.67888   8.82538   0.000002053560417  -0.000000345987404  -0.000000355012467
Si   11.54087   3.39437   8.82538   0.000001374385484  -0.000004147998167   0.000004142588626
Si   14.25638   3.39437   6.10987   0.000003357709496  -0.000000817069458   0.000000822199888
Si   15.61412   2.03662   7.46762  -0.000005641149110   0.000001142043060   0.000001337408772
Si   15.61412   4.75213  10.18313  -0.000005646052643  -0.000001346408700  -0.000001133334198
Si   12.89862   2.03662  10.18313   0.000009159292126   0.000000000000009  -0.000000000000003
Si   12.89862   4.75213   7.46762   0.000001686650326   0.000001318077934  -0.000001320606084
Si   11.54087   0.67888  11.54087   0.000001374385486   0.000004147998174  -0.000004142588620
Si   14.25638   0.67888  14.25638   0.000003357709512   0.000000817069461  -0.000000822199872
Si   11.54087   3.39437  14.25638  -0.000003184391984  -0.000000902703593   0.000000321778910
Si   14.25638   3.39437  11.54087   0.000002053560442   0.000000345987385   0.000000355012486
Si   15.61412   2.03662  12.89863  -0.000005641149118  -0.000001142043057  -0.000001337408780
Si   15.61412   4.75213  15.61412  -0.000003487153645   0.000003540286429  -0.000003527053302
Si   12.89862   2.03662  15.61412  -0.000000143274139  -0.000000582488553  -0.000000995555064
Si   12.89862   4.75213  12.89863   0.000002317176735   0.000002937661792   0.000002922204122
Si   11.54087   6.10987   0.67888  -0.000003189158014  -0.000000332620288   0.000000909763190
Si   14.25638   6.10987   3.39437   0.000003356929246   0.000000819268768  -0.000000829694837
Si   11.54087   8.82538   3.39437   0.000001374385491   0.000004147998176  -0.000004142588617
Si   14.25638   8.82538   0.67888   0.000002053560424  -0.000000345987381  -0.000000355012467
Si   15.61412   7.46762   2.03663  -0.000005646052637   0.000001346408701   0.000001133334194
Si   15.61412  10.18313   4.75213  -0.000005641149114  -0.000001142043065  -0.000001337408770
Si   12.89862   7.46762   4.75213   0.000001686650307  -0.000001318077906   0.000001320606060
Si   12.89862  10.18313   2.03663   0.000009159292128   0.000000000000002   0.000000000000000
Si   11.54087   6.10987   6.10987  -0.000015186049136  -0.000000000000018   0.000000000000010
Si   14.25638   6.10987   8.82538   0.000003356929259  -0.000000819268772   0.000000829694872
Si   11.54087   8.82538   8.82538   0.000001445486539   0.000004460944674   0.000004457615500
Si   14.25638   8.82538   6.10987   0.000003357709515   0.000000817069483  -0.000000822199874
Si   15.61412   7.46762   7.46762  -0.000003005371676  -0.000002234567236  -0.000002237109883
Si   15.61412  10.18313  10.18313  -0.000006496673102  -0.000000000000000  -0.000000000000007
Si   12.89862   7.46762  10.18313  -0.000000138188488  -0.000000984416680  -0.000000571766557
Si   12.89862  10.18313   7.46762  -0.000000143274136  -0.000000582488551  -0.000000995555041
Si   11.54087   6.10987  11.54087  -0.000003189158025   0.000000332620309  -0.000000909763176
Si   14.25638   6.10987  14.25638   0.000002433964585  -0.000000000000008   0.000000000000005
Si   11.54087   8.82538  14.25638  -0.000003184391998   0.000000902703593  -0.000000321778908
Si   14.25638   8.82538  11.54087   0.000002070620953  -0.000000719994599   0.000000725234663
Si   15.61412   7.46762  12.89863  -0.000003487153673  -0.000003540286421   0.000003527053307
Si   15.61412  10.18313  15.61412  -0.000005641149103   0.000001142043054   0.000001337408748
Si   12.89862   7.46762  15.61412   0.000002317176756  -0.000002937661787  -0.000002922204120
Si   12.89862  10.18313  12.89863  -0.000000143274135   0.000000582488561   0.000000995555059
Si   11.54087  11.54087   0.67888   0.000001374385482  -0.000004147998149   0.000004142588621
Si   14.25638  11.54087   3.39437   0.000002053560422   0.000000345987395   0.000000355012466
Si   11.54087  14.25638   3.39437  -0.000003189158017   0.000000332620292  -0.000000909763193
Si   14.25638  14.25638   0.67888   0.000003356929263  -0.000000819268770   0.000000829694851
Si   15.61412  12.89863   2.03663  -0.000005646052641  -0.000001346408717  -0.000001133334185
Si   15.61412  15.61412   4.75213  -0.000003487153654  -0.000003540286428   0.000003527053287
Si   12.89862  12.89863   4.75213   0.000002317176725   0.000002937661786   0.000002922204130
Si   12.89862  15.61412   2.03663  -0.000000138188488  -0.000000984416670  -0.000000571766537
Si   11.54087  11.54087   6.10987  -0.000003184392001  -0.000000902703569   0.000000321778922
Si   14.25638  11.54087   8.82538   0.000002070620978   0.000000719994624  -0.000000725234665
Si   11.54087  14.25638   8.82538  -0.000003189158017  -0.000000332620290   0.000000909763180
Si   14.25638  14.25638   6.10987   0.000002433964587  -0.000000000000004  -0.000000000000006
Si   15.61412  12.89863   7.46762  -0.000003487153658   0.000003540286418  -0.000003527053287
Si   15.61412  15.61412  10.18313  -0.000005646052644   0.000001346408713   0.000001133334212
Si   12.89862  12.89863  10.18313  -0.000000138188483   0.000000984416663   0.000000571766541
Si   12.89862  15.61412   7.46762   0.000002317176733  -0.000002937661785  -0.000002922204114
Si   11.54087  11.54087  11.54087   0.000001445486539  -0.000004460944696  -0.000004457615491
Si   14.25638  11.54087  14.25638   0.000003357709496  -0.000000817069470   0.000000822199890
Si   11.54087  14.25638  14.25638  -0.000015186049120  -0.000000000000000   0.000000000000013
Si   14.25638  14.25638  11.54087   0.000003356929254   0.000000819268769  -0.000000829694859
Si   15.61412  12.89863  12.89863  -0.000003005371675   0.000002234567246   0.000002237109891
Si   15.61412  15.61412  15.61412  -0.000003005371681  -0.000002234567243  -0.000002237109893
Si   12.89862  12.89863  15.61412   0.000001686650307   0.000001318077910  -0.000001320606096
Si   12.89862  15.61412  12.89863   0.000001686650316  -0.000001318077913   0.000001320606090
Si   16.97187   0.67888   0.67888  -0.000003672990247   0.000002216886140   0.000002209432585
Si   19.68737   0.67888   3.39437  -0.000000146093963   0.000001038908886  -0.000001025076897
Si   16.97187   3.39437   3.39437  -0.000003672990238  -0.000002216886155  -0.000002209432571
Si   19.68737   3.39437   0.67888  -0.000000146093954  -0.000001038908872   0.000001025076913
Si   21.04512   2.03662   2.03663  -0.000005706776126  -0.000000000000002   0.000000000000011
Si   21.04512   4.75213   4.75213  -0.000004665364797   0.000002044418054   0.000002038335851
Si   18.32963   2.03662   4.75213   0.000005688013145   0.000000433655241   0.000005926778045
Si   18.32963   4.75213   2.03663   0.000005687657242   0.000005923585190   0.000000426518037
Si   16.97187   0.67888   6.10987   0.000000468759436   0.000002108659341  -0.000000280062758
Si   19.68737   0.67888   8.82538   0.000001140639688   0.000000536547854   0.000000537087697
Si   16.97187   3.39437   8.82538  -0.000004688681181  -0.000002752691739   0.000002748162221
Si   19.68737   3.39437   6.10987   0.000003852436203  -0.000000524560260  -0.000000153334259
Si   21.04512   2.03662   7.46762   0.000000580709035  -0.000001309410931   0.000000133887806
Si   21.04512   4.75213  10.18313   0.000000585820424  -0.000000140921463   0.000001306523571
Si   18.32963   2.03662  10.18313   0.000001243244806   0.000000000000020   0.000000000000010
Si   18.32963   4.75213   7.46762  -0.000004014429268   0.000002884156363  -0.000002880490753
Si   16.97187   0.67888  11.54087  -0.000004688681187   0.000002752691765  -0.000002748162204
Si   19.68737   0.67888  14.25638   0.000003852436217   0.000000524560247   0.000000153334269
Si   16.97187   3.39437  14.25638   0.000000468759444  -0.000002108659341   0.000000280062746
Si   19.68737   3.39437  11.54087   0.000001140639672  -0.000000536547876  -0.000000537087691
Si   21.04512   2.03662  12.89863   0.000000580709038   0.000001309410950  -0.000000133887777
Si   21.04512   4.75213  15.61412  -0.000004490554956   0.000001829364966  -0.000001826883813
Si   18.32963   2.03662  15.61412   0.000005688013151  -0.000000433655249  -0.000005926778032
Si   18.32963   4.75213  12.89863  -0.000002568030718   0.000002462922080   0.000002461795232
Si   16.97187   6.10987   0.67888   0.000000473179764  -0.000000271523182   0.000002118887149
Si   19.68737   6.10987   3.39437   0.000003842128804  -0.000000151024533  -0.000000536162848
Si   16.97187   8.82538   3.39437  -0.000004688681167   0.000002752691744  -0.000002748162212
Si   19.68737   8.82538   0.67888   0.000001140639664   0.000000536547882   0.000000537087700
Si   21.04512   7.46762   2.03663   0.000000585820418   0.000000140921474  -0.000001306523577
Si   21.04512  10.18313   4.75213   0.000000580709040   0.000001309410924  -0.000000133887797
Si   18.32963   7.46762   4.75213  -0.000004014429260  -0.000002884156351   0.000002880490771
Si   18.32963  10.18313   2.03663   0.000001243244809  -0.000000000000002  -0.000000000000004
Si   16.97187   6.10987   6.10987  -0.000018983269493   0.000000000000001  -0.000000000000010
Si   19.68737   6.10987   8.82538   0.000003842128784   0.000000151024535   0.000000536162830
Si   16.97187   8.82538   8.82538  -0.000003672990250   0.000002216886139   0.000002209432569
Si   19.68737   8.82538   6.10987   0.000003852436204   0.000000524560250   0.000000153334254
Si   21.04512   7.46762   7.46762  -0.000004665364775  -0.000002044418058  -0.000002038335830
Si   21.04512  10.18313  10.18313  -0.000005706776134   0.000000000000004   0.000000000000027
Si   18.32963   7.46762  10.18313   0.000005687657238  -0.000005923585184  -0.000000426518028
Si   18.32963  10.18313   7.46762   0.000005688013143  -0.000000433655242  -0.000005926778054
Si   16.97187   6.10987  11.54087   0.000000473179763   0.000000271523177  -0.000002118887127
Si   19.68737   6.10987  14.25638  -0.000008914603854  -0.000000000000009   0.000000000000014
Si   16.97187   8.82538  14.25638   0.000000468759433   0.000002108659349  -0.000000280062743
Si   19.68737   8.82538  11.54087  -0.000000146093960   0.000001038908861  -0.000001025076910
Si   21.04512   7.46762  12.89863  -0.000004490554938  -0.000001829364963   0.000001826883807
Si   21.04512  10.18313  15.61412   0.000000580709034  -0.000001309410956   0.000000133887792
Si   18.32963   7.46762  15.61412  -0.000002568030692  -0.000002462922105  -0.000002461795198
Si   18.32963  10.18313  12.89863   0.000005688013145   0.000000433655271   0.000005926778036
Si   16.97187  11.54087   0.67888  -0.000004688681183  -0.000002752691742   0.000002748162221
Si   19.68737  11.54087   3.39437   0.000001140639693  -0.000000536547862  -0.000000537087706
Si   16.97187  14.25638   3.39437   0.000000473179765   0.000000271523185  -0.000002118887124
Si   19.68737  14.25638   0.67888   0.000003842128787   0.000000151024531   0.000000536162849
Si   21.04512  12.89863   2.03663   0.000000585820411  -0.000000140921470   0.000001306523580
Si   21.04512  15.61412   4.75213  -0.000004490554945  -0.000001829364965   0.000001826883807
Si   18.32963  12.89863   4.75213  -0.000002568030716   0.000002462922080   0.000002461795215
Si   18.32963  15.61412   2.03663   0.000005687657249  -0.000005923585193  -0.000000426518012
Si   16.97187  11.54087   6.10987   0.000000468759462  -0.000002108659350   0.000000280062761
Si   19.68737  11.54087   8.82538  -0.000000146093961  -0.000001038908853   0.000001025076889
Si   16.97187  14.25638   8.82538   0.000000473179762  -0.000000271523187   0.000002118887126
Si   19.68737  14.25638   6.10987  -0.000008914603868   0.000000000000000   0.000000000000013
Si   21.04512  12.89863   7.46762  -0.000004490554940   0.000001829364975  -0.000001826883805
Si   21.04512  15.61412  10.18313   0.000000585820421   0.000000140921469  -0.000001306523560
Si   18.32963  12.89863  10.18313   0.000005687657246   0.000005923585194   0.000000426518041
Si   18.32963  15.61412   7.46762  -0.000002568030692  -0.000002462922090  -0.000002461795204
Si   16.97187  11.54087  11.54087  -0.000003672990230  -0.000002216886156  -0.000002209432556
Si   19.68737  11.54087  14.25638   0.000003852436204  -0.000000524560249  -0.000000153334260
Si   16.97187  14.25638  14.25638  -0.000018983269502   0.000000000000001   0.000000000000012
Si   19.68737  14.25638  11.54087   0.000003842128802  -0.000000151024547  -0.000000536162830
Si   21.04512  12.89863  12.89863  -0.000004665364802   0.000002044418042   0.000002038335847
Si   21.04512  15.61412  15.61412  -0.000004665364779  -0.000002044418049  -0.000002038335845
Si   18.32963  12.89863  15.61412  -0.000004014429273   0.000002884156358  -0.000002880490749
Si   18.32963  15.61412  12.89863  -0.000004014429269  -0.000002884156364   0.000002880490756
