300 

Si    0.00000  -0.00000  -0.00000   0.000009455478797  -0.000008764365820  -0.000008763945625
Si    1.35775   1.35775   1.35775  -0.000000103123923   0.000010145482407   0.000010129490980
Si    2.71550   2.71550   0.00000   0.000009455478904  -0.000008764366367  -0.000008763945828
Si    4.07325   4.07325   1.35775  -0.000000103123851   0.000010145481950   0.000010129490898
Si    5.43100   5.43100   0.00000   0.000009455478709  -0.000008764366792  -0.000008763945617
Si    6.78875   6.78875   1.35775  -0.000000103123985   0.000010145481939   0.000010129491192
Si    8.14650   8.14650   0.00000   0.000009455478572  -0.000008764366459  -0.000008763945277
Si    9.50425   9.50425   1.35775  -0.000000103124117   0.000010145482437   0.000010129491443
Si   10.86200  10.86200   0.00000   0.000009455478606  -0.000008764365853  -0.000008763945280
Si   12.21975  12.21975   1.35775  -0.000000103124137   0.000010145482673   0.000010129491294
Si    2.71550   0.00000   2.71550   0.000009455478443  -0.000008764365594  -0.000008763945647
Si    4.07325   1.35775   4.07325  -0.000000103124159   0.000010145482708   0.000010129491250
Si    5.43100   2.71550   2.71550   0.000009455478592  -0.000008764366053  -0.000008763945783
Si    6.78875   4.07325   4.07325  -0.000000103124092   0.000010145482254   0.000010129491243
Si    8.14650   5.43100   2.71550   0.000009455478463  -0.000008764366371  -0.000008763945595
Si    9.50425   6.78875   4.07325  -0.000000103124204   0.000010145482296   0.000010129491429
Si   10.86200   8.14650   2.71550   0.000009455478277  -0.000008764366079  -0.000008763945318
Si   12.21975   9.50425   4.07325  -0.000000103124427   0.000010145482668   0.000010129491552
Si   13.57750  10.86200   2.71550   0.000009455478213  -0.000008764365623  -0.000008763945357
Si   14.93525  12.21975   4.07325  -0.000000103124456   0.000010145482919   0.000010129491451
Si    5.43100  -0.00000   5.43100   0.000009455478358  -0.000008764365419  -0.000008763945172
Si    6.78875   1.35775   6.78875  -0.000000103124089   0.000010145482752   0.000010129491730
Si    8.14650   2.71550   5.43100   0.000009455478537  -0.000008764365940  -0.000008763945185
Si    9.50425   4.07325   6.78875  -0.000000103124006   0.000010145482203   0.000010129491724
Si   10.86200   5.43100   5.43100   0.000009455478453  -0.000008764366301  -0.000008763945058
Si   12.21975   6.78875   6.78875  -0.000000103124195   0.000010145482158   0.000010129491799
Si   13.57750   8.14650   5.43100   0.000009455478140  -0.000008764366083  -0.000008763944920
Si   14.93525   9.50425   6.78875  -0.000000103124514   0.000010145482556   0.000010129491873
Si   16.29300  10.86200   5.43100   0.000009455478061  -0.000008764365551  -0.000008763945019
Si   17.65075  12.21975   6.78875  -0.000000103124398   0.000010145482990   0.000010129491832
Si    8.14650   0.00000   8.14650   0.000009455478686  -0.000008764365569  -0.000008763944819
Si    9.50425   1.35775   9.50425  -0.000000103123770   0.000010145482477   0.000010129491702
Si   10.86200   2.71550   8.14650   0.000009455478837  -0.000008764366167  -0.000008763944918
Si   12.21975   4.07325   9.50425  -0.000000103123704   0.000010145481880   0.000010129491598
Si   13.57750   5.43100   8.14650   0.000009455478642  -0.000008764366659  -0.000008763944829
Si   14.93525   6.78875   9.50425  -0.000000103123995   0.000010145481719   0.000010129491732
Si   16.29300   8.14650   8.14650   0.000009455478280  -0.000008764366458  -0.000008763944682
Si   17.65075   9.50425   9.50425  -0.000000103124196   0.000010145482244   0.000010129491938
Si   19.00850  10.86200   8.14650   0.000009455478391  -0.000008764365727  -0.000008763944695
Si   20.36625  12.21975   9.50425  -0.000000103123991   0.000010145482790   0.000010129491918
Si   10.86200   0.00000  10.86200   0.000009455478943  -0.000008764365839  -0.000008763945133
Si   12.21975   1.35775  12.21975  -0.000000103123672   0.000010145482248   0.000010129491247
Si   13.57750   2.71550  10.86200   0.000009455479043  -0.000008764366441  -0.000008763945356
Si   14.93525   4.07325  12.21975  -0.000000103123600   0.000010145481696   0.000010129491113
Si   16.29300   5.43100  10.86200   0.000009455478815  -0.000008764366966  -0.000008763945188
Si   17.65075   6.78875  12.21975  -0.000000103123827   0.000010145481592   0.000010129491415
Si   19.00850   8.14650  10.86200   0.000009455478606  -0.000008764366697  -0.000008763944879
Si   20.36625   9.50425  12.21975  -0.000000103123930   0.000010145482180   0.000010129491717
Si   21.72400  10.86200  10.86200   0.000009455478765  -0.000008764365924  -0.000008763944836
Si   23.08175  12.21975  12.21975  -0.000000103123844   0.000010145482574   0.000010129491585
Si    0.00000   2.71550   2.71550   0.000005214161151   0.000007339556907   0.000007327681417
Si    1.35775   4.07325   4.07325   0.000005728746716   0.000003543605098   0.000003553536231
Si    2.71550   5.43100   2.71550   0.000005214161264   0.000007339556831   0.000007327681371
Si    4.07325   6.78875   4.07325   0.000005728746743   0.000003543605235   0.000003553536148
Si    5.43100   8.14650   2.71550   0.000005214161191   0.000007339557134   0.000007327681471
Si    6.78875   9.50425   4.07325   0.000005728746678   0.000003543605631   0.000003553536208
Si    8.14650  10.86200   2.71550   0.000005214161070   0.000007339557447   0.000007327681623
Si    9.50425  12.21975   4.07325   0.000005728746555   0.000003543605705   0.000003553536287
Si   10.86200  13.57750   2.71550   0.000005214160999   0.000007339557264   0.000007327681587
Si   12.21975  14.93525   4.07325   0.000005728746555   0.000003543605335   0.000003553536298
Si    2.71550   2.71550   5.43100   0.000005214160778   0.000007339557352   0.000007327681801
Si    4.07325   4.07325   6.78875   0.000005728746353   0.000003543605463   0.000003553536421
Si    5.43100   5.43100   5.43100   0.000005214160893   0.000007339557161   0.000007327681699
Si    6.78875   6.78875   6.78875   0.000005728746423   0.000003543605507   0.000003553536283
Si    8.14650   8.14650   5.43100   0.000005214160897   0.000007339557443   0.000007327681664
Si    9.50425   9.50425   6.78875   0.000005728746400   0.000003543605909   0.000003553536247
Si   10.86200  10.86200   5.43100   0.000005214160714   0.000007339557714   0.000007327681792
Si   12.21975  12.21975   6.78875   0.000005728746212   0.000003543606046   0.000003553536400
Si   13.57750  13.57750   5.43100   0.000005214160612   0.000007339557627   0.000007327681853
Si   14.93525  14.93525   6.78875   0.000005728746214   0.000003543605806   0.000003553536512
Si    5.43100   2.71550   8.14650   0.000005214160687   0.000007339557493   0.000007327681810
Si    6.78875   4.07325   9.50425   0.000005728746376   0.000003543605387   0.000003553536024
Si    8.14650   5.43100   8.14650   0.000005214160860   0.000007339557187   0.000007327681641
Si    9.50425   6.78875   9.50425   0.000005728746503   0.000003543605382   0.000003553535895
Si   10.86200   8.14650   8.14650   0.000005214160830   0.000007339557435   0.000007327681598
Si   12.21975   9.50425   9.50425   0.000005728746377   0.000003543605813   0.000003553535931
Si   13.57750  10.86200   8.14650   0.000005214160532   0.000007339557806   0.000007327681736
Si   14.93525  12.21975   9.50425   0.000005728746180   0.000003543606119   0.000003553536124
Si   16.29300  13.57750   8.14650   0.000005214160513   0.000007339557889   0.000007327681844
Si   17.65075  14.93525   9.50425   0.000005728746251   0.000003543605900   0.000003553536172
Si    8.14650   2.71550  10.86200   0.000005214161008   0.000007339557138   0.000007327681385
Si    9.50425   4.07325  12.21975   0.000005728746758   0.000003543604964   0.000003553535615
Si   10.86200   5.43100  10.86200   0.000005214161135   0.000007339556856   0.000007327681190
Si   12.21975   6.78875  12.21975   0.000005728746851   0.000003543605025   0.000003553535539
Si   13.57750   8.14650  10.86200   0.000005214161012   0.000007339557105   0.000007327681273
Si   14.93525   9.50425  12.21975   0.000005728746710   0.000003543605481   0.000003553535746
Si   16.29300  10.86200  10.86200   0.000005214160805   0.000007339557563   0.000007327681523
Si   17.65075  12.21975  12.21975   0.000005728746604   0.000003543605795   0.000003553535944
Si   19.00850  13.57750  10.86200   0.000005214160904   0.000007339557658   0.000007327681579
Si   20.36625  14.93525  12.21975   0.000005728746627   0.000003543605480   0.000003553535845
Si   10.86200   2.71550  13.57750   0.000005214161269   0.000007339556777   0.000007327681182
Si   12.21975   4.07325  14.93525   0.000005728746972   0.000003543604766   0.000003553535764
Si   13.57750   5.43100  13.57750   0.000005214161417   0.000007339556603   0.000007327681056
Si   14.93525   6.78875  14.93525   0.000005728747071   0.000003543604934   0.000003553535769
Si   16.29300   8.14650  13.57750   0.000005214161284   0.000007339556866   0.000007327681272
Si   17.65075   9.50425  14.93525   0.000005728746958   0.000003543605355   0.000003553535987
Si   19.00850  10.86200  13.57750   0.000005214161196   0.000007339557323   0.000007327681518
Si   20.36625  12.21975  14.93525   0.000005728746833   0.000003543605543   0.000003553536085
Si   21.72400  13.57750  13.57750   0.000005214161193   0.000007339557262   0.000007327681470
Si   23.08175  14.93525  14.93525   0.000005728746789   0.000003543605100   0.000003553535940
Si    0.00000   5.43100   5.43100   0.000012729718989  -0.000004486791026  -0.000004474702359
Si    1.35775   6.78875   6.78875  -0.000003128588714   0.000006967390121   0.000006972811359
Si    2.71550   8.14650   5.43100   0.000012729719020  -0.000004486790605  -0.000004474702498
Si    4.07325   9.50425   6.78875  -0.000003128588734   0.000006967390606   0.000006972811160
Si    5.43100  10.86200   5.43100   0.000012729718958  -0.000004486790233  -0.000004474702591
Si    6.78875  12.21975   6.78875  -0.000003128588727   0.000006967390773   0.000006972811176
Si    8.14650  13.57750   5.43100   0.000012729718862  -0.000004486790463  -0.000004474702467
Si    9.50425  14.93525   6.78875  -0.000003128588800   0.000006967390345   0.000006972811413
Si   10.86200  16.29300   5.43100   0.000012729718831  -0.000004486790968  -0.000004474702308
Si   12.21975  17.65075   6.78875  -0.000003128588773   0.000006967389942   0.000006972811522
Si    2.71550   5.43100   8.14650   0.000012729718377  -0.000004486790510  -0.000004474702508
Si    4.07325   6.78875   9.50425  -0.000003128589335   0.000006967390512   0.000006972810599
Si    5.43100   8.14650   8.14650   0.000012729718450  -0.000004486790178  -0.000004474702748
Si    6.78875   9.50425   9.50425  -0.000003128589199   0.000006967391047   0.000006972810433
Si    8.14650  10.86200   8.14650   0.000012729718486  -0.000004486789720  -0.000004474702792
Si    9.50425  12.21975   9.50425  -0.000003128589180   0.000006967391358   0.000006972810515
Si   10.86200  13.57750   8.14650   0.000012729718339  -0.000004486789843  -0.000004474702576
Si   12.21975  14.93525   9.50425  -0.000003128589335   0.000006967390995   0.000006972810734
Si   13.57750  16.29300   8.14650   0.000012729718294  -0.000004486790315  -0.000004474702408
Si   14.93525  17.65075   9.50425  -0.000003128589351   0.000006967390514   0.000006972810766
Si    5.43100   5.43100  10.86200   0.000012729718175  -0.000004486790472  -0.000004474703444
Si    6.78875   6.78875  12.21975  -0.000003128589295   0.000006967390446   0.000006972809650
Si    8.14650   8.14650  10.86200   0.000012729718359  -0.000004486790099  -0.000004474703602
Si    9.50425   9.50425  12.21975  -0.000003128589099   0.000006967391074   0.000006972809615
Si   10.86200  10.86200  10.86200   0.000012729718373  -0.000004486789547  -0.000004474703532
Si   12.21975  12.21975  12.21975  -0.000003128589221   0.000006967391370   0.000006972809724
Si   13.57750  13.57750  10.86200   0.000012729718163  -0.000004486789609  -0.000004474703380
Si   14.93525  14.93525  12.21975  -0.000003128589365   0.000006967391015   0.000006972809810
Si   16.29300  16.29300  10.86200   0.000012729718110  -0.000004486790115  -0.000004474703300
Si   17.65075  17.65075  12.21975  -0.000003128589400   0.000006967390447   0.000006972809774
Si    8.14650   5.43100  13.57750   0.000012729718653  -0.000004486790947  -0.000004474703827
Si    9.50425   6.78875  14.93525  -0.000003128588661   0.000006967390022   0.000006972809850
Si   10.86200   8.14650  13.57750   0.000012729718835  -0.000004486790444  -0.000004474703845
Si   12.21975   9.50425  14.93525  -0.000003128588567   0.000006967390624   0.000006972809884
Si   13.57750  10.86200  13.57750   0.000012729718780  -0.000004486789976  -0.000004474703728
Si   14.93525  12.21975  14.93525  -0.000003128588698   0.000006967390797   0.000006972809994
Si   16.29300  13.57750  13.57750   0.000012729718646  -0.000004486790083  -0.000004474703591
Si   17.65075  14.93525  14.93525  -0.000003128588826   0.000006967390365   0.000006972810003
Si   19.00850  16.29300  13.57750   0.000012729718593  -0.000004486790665  -0.000004474703663
Si   20.36625  17.65075  14.93525  -0.000003128588880   0.000006967389845   0.000006972809905
Si   10.86200   5.43100  16.29300   0.000012729719145  -0.000004486791287  -0.000004474703135
Si   12.21975   6.78875  17.65075  -0.000003128588294   0.000006967389799   0.000006972810881
Si   13.57750   8.14650  16.29300   0.000012729719274  -0.000004486790780  -0.000004474703155
Si   14.93525   9.50425  17.65075  -0.000003128588272   0.000006967390328   0.000006972810819
Si   16.29300  10.86200  16.29300   0.000012729719188  -0.000004486790410  -0.000004474703083
Si   17.65075  12.21975  17.65075  -0.000003128588399   0.000006967390400   0.000006972810856
Si   19.00850  13.57750  16.29300   0.000012729719078  -0.000004486790626  -0.000004474703055
Si   20.36625  14.93525  17.65075  -0.000003128588506   0.000006967389924   0.000006972810913
Si   21.72400  16.29300  16.29300   0.000012729719006  -0.000004486791211  -0.000004474703072
Si   23.08175  17.65075  17.65075  -0.000003128588490   0.000006967389518   0.000006972810946
Si    0.00000   8.14650   8.14650   0.000009455478434  -0.000008764366088  -0.000008763943648
Si    1.35775   9.50425   9.50425  -0.000000103124361   0.000010145482677   0.000010129492609
Si    2.71550  10.86200   8.14650   0.000009455478445  -0.000008764365502  -0.000008763943916
Si    4.07325  12.21975   9.50425  -0.000000103124300   0.000010145483242   0.000010129492533
Si    5.43100  13.57750   8.14650   0.000009455478344  -0.000008764365387  -0.000008763943759
Si    6.78875  14.93525   9.50425  -0.000000103124380   0.000010145483054   0.000010129492792
Si    8.14650  16.29300   8.14650   0.000009455478192  -0.000008764366009  -0.000008763943410
Si    9.50425  17.65075   9.50425  -0.000000103124528   0.000010145482293   0.000010129493067
Si   10.86200  19.00850   8.14650   0.000009455478274  -0.000008764366409  -0.000008763943368
Si   12.21975  20.36625   9.50425  -0.000000103124440   0.000010145482157   0.000010129492974
Si    2.71550   8.14650  10.86200   0.000009455477661  -0.000008764365568  -0.000008763944894
Si    4.07325   9.50425  12.21975  -0.000000103125003   0.000010145483277   0.000010129491230
Si    5.43100  10.86200  10.86200   0.000009455477784  -0.000008764364857  -0.000008763945029
Si    6.78875  12.21975  12.21975  -0.000000103124841   0.000010145483960   0.000010129491246
Si    8.14650  13.57750  10.86200   0.000009455477780  -0.000008764364643  -0.000008763944847
Si    9.50425  14.93525  12.21975  -0.000000103125001   0.000010145483702   0.000010129491419
Si   10.86200  16.29300  10.86200   0.000009455477557  -0.000008764365283  -0.000008763944607
Si   12.21975  17.65075  12.21975  -0.000000103125198   0.000010145482943   0.000010129491521
Si   13.57750  19.00850  10.86200   0.000009455477548  -0.000008764365791  -0.000008763944645
Si   14.93525  20.36625  12.21975  -0.000000103125182   0.000010145482726   0.000010129491421
Si    5.43100   8.14650  13.57750   0.000009455477438  -0.000008764365360  -0.000008763945798
Si    6.78875   9.50425  14.93525  -0.000000103124944   0.000010145483418   0.000010129490889
Si    8.14650  10.86200  13.57750   0.000009455477725  -0.000008764364576  -0.000008763945836
Si    9.50425  12.21975  14.93525  -0.000000103124833   0.000010145483985   0.000010129490860
Si   10.86200  13.57750  13.57750   0.000009455477583  -0.000008764364487  -0.000008763945730
Si   12.21975  14.93525  14.93525  -0.000000103125088   0.000010145483632   0.000010129490955
Si   13.57750  16.29300  13.57750   0.000009455477346  -0.000008764365120  -0.000008763945619
Si   14.93525  17.65075  14.93525  -0.000000103125258   0.000010145482930   0.000010129491037
Si   16.29300  19.00850  13.57750   0.000009455477305  -0.000008764365619  -0.000008763945673
Si   17.65075  20.36625  14.93525  -0.000000103125223   0.000010145482772   0.000010129490969
Si    8.14650   8.14650  16.29300   0.000009455478051  -0.000008764365713  -0.000008763945228
Si    9.50425   9.50425  17.65075  -0.000000103124263   0.000010145482935   0.000010129491935
Si   10.86200  10.86200  16.29300   0.000009455478221  -0.000008764365057  -0.000008763945275
Si   12.21975  12.21975  17.65075  -0.000000103124258   0.000010145483305   0.000010129491884
Si   13.57750  13.57750  16.29300   0.000009455478048  -0.000008764365119  -0.000008763945194
Si   14.93525  14.93525  17.65075  -0.000000103124486   0.000010145482929   0.000010129492032
Si   16.29300  16.29300  16.29300   0.000009455477838  -0.000008764365734  -0.000008763945085
Si   17.65075  17.65075  17.65075  -0.000000103124684   0.000010145482283   0.000010129492161
Si   19.00850  19.00850  16.29300   0.000009455477794  -0.000008764366135  -0.000008763945109
Si   20.36625  20.36625  17.65075  -0.000000103124606   0.000010145482250   0.000010129492121
Si   10.86200   8.14650  19.00850   0.000009455478674  -0.000008764366191  -0.000008763943905
Si   12.21975   9.50425  20.36625  -0.000000103123869   0.000010145482454   0.000010129493064
Si   13.57750  10.86200  19.00850   0.000009455478739  -0.000008764365646  -0.000008763944080
Si   14.93525  12.21975  20.36625  -0.000000103123909   0.000010145482847   0.000010129492937
Si   16.29300  13.57750  19.00850   0.000009455478538  -0.000008764365685  -0.000008763943994
Si   17.65075  14.93525  20.36625  -0.000000103124097   0.000010145482554   0.000010129493167
Si   19.00850  16.29300  19.00850   0.000009455478333  -0.000008764366285  -0.000008763943769
Si   20.36625  17.65075  20.36625  -0.000000103124236   0.000010145481883   0.000010129493434
Si   21.72400  19.00850  19.00850   0.000009455478392  -0.000008764366647  -0.000008763943707
Si   23.08175  20.36625  20.36625  -0.000000103124108   0.000010145481832   0.000010129493381
Si    0.00000  10.86200  10.86200   0.000005214161086   0.000007339557464   0.000007327682199
Si    1.35775  12.21975  12.21975   0.000005728746726   0.000003543605966   0.000003553536036
Si    2.71550  13.57750  10.86200   0.000005214161101   0.000007339558016   0.000007327682147
Si    4.07325  14.93525  12.21975   0.000005728746771   0.000003543606228   0.000003553536064
Si    5.43100  16.29300  10.86200   0.000005214160907   0.000007339557630   0.000007327682497
Si    6.78875  17.65075  12.21975   0.000005728746461   0.000003543605417   0.000003553536349
Si    8.14650  19.00850  10.86200   0.000005214160703   0.000007339556782   0.000007327682728
Si    9.50425  20.36625  12.21975   0.000005728746339   0.000003543604735   0.000003553536510
Si   10.86200  21.72400  10.86200   0.000005214160861   0.000007339556717   0.000007327682542
Si   12.21975  23.08175  12.21975   0.000005728746546   0.000003543605125   0.000003553536303
Si    2.71550  10.86200  13.57750   0.000005214160355   0.000007339558149   0.000007327680956
Si    4.07325  12.21975  14.93525   0.000005728746109   0.000003543606667   0.000003553535198
Si    5.43100  13.57750  13.57750   0.000005214160507   0.000007339558727   0.000007327680909
Si    6.78875  14.93525  14.93525   0.000005728746155   0.000003543606789   0.000003553535123
Si    8.14650  16.29300  13.57750   0.000005214160272   0.000007339558238   0.000007327681092
Si    9.50425  17.65075  14.93525   0.000005728745817   0.000003543605997   0.000003553535311
Si   10.86200  19.00850  13.57750   0.000005214160022   0.000007339557455   0.000007327681246
Si   12.21975  20.36625  14.93525   0.000005728745676   0.000003543605449   0.000003553535490
Si   13.57750  21.72400  13.57750   0.000005214160107   0.000007339557426   0.000007327681168
Si   14.93525  23.08175  14.93525   0.000005728745813   0.000003543605825   0.000003553535414
Si    5.43100  10.86200  16.29300   0.000005214160116   0.000007339558514   0.000007327680881
Si    6.78875  12.21975  17.65075   0.000005728746030   0.000003543606757   0.000003553535547
Si    8.14650  13.57750  16.29300   0.000005214160296   0.000007339558926   0.000007327680773
Si    9.50425  14.93525  17.65075   0.000005728746052   0.000003543606756   0.000003553535483
Si   10.86200  16.29300  16.29300   0.000005214160005   0.000007339558384   0.000007327680934
Si   12.21975  17.65075  17.65075   0.000005728745745   0.000003543606065   0.000003553535786
Si   13.57750  19.00850  16.29300   0.000005214159755   0.000007339557723   0.000007327681123
Si   14.93525  20.36625  17.65075   0.000005728745552   0.000003543605608   0.000003553535991
Si   16.29300  21.72400  16.29300   0.000005214159789   0.000007339557758   0.000007327681095
Si   17.65075  23.08175  17.65075   0.000005728745694   0.000003543605996   0.000003553535874
Si    8.14650  10.86200  19.00850   0.000005214160710   0.000007339558024   0.000007327682004
Si    9.50425  12.21975  20.36625   0.000005728746685   0.000003543606137   0.000003553536692
Si   10.86200  13.57750  19.00850   0.000005214160769   0.000007339558320   0.000007327681906
Si   12.21975  14.93525  20.36625   0.000005728746666   0.000003543606161   0.000003553536743
Si   13.57750  16.29300  19.00850   0.000005214160471   0.000007339557869   0.000007327682180
Si   14.93525  17.65075  20.36625   0.000005728746334   0.000003543605523   0.000003553537121
Si   16.29300  19.00850  19.00850   0.000005214160198   0.000007339557259   0.000007327682448
Si   17.65075  20.36625  20.36625   0.000005728746083   0.000003543605012   0.000003553537297
Si   19.00850  21.72400  19.00850   0.000005214160300   0.000007339557303   0.000007327682351
Si   20.36625  23.08175  20.36625   0.000005728746310   0.000003543605401   0.000003553537041
Si   10.86200  10.86200  21.72400   0.000005214161332   0.000007339557352   0.000007327682899
Si   12.21975  12.21975  23.08175   0.000005728747132   0.000003543605617   0.000003553537049
Si   13.57750  13.57750  21.72400   0.000005214161306   0.000007339557765   0.000007327682805
Si   14.93525  14.93525  23.08175   0.000005728747095   0.000003543605794   0.000003553537135
Si   16.29300  16.29300  21.72400   0.000005214161044   0.000007339557375   0.000007327683165
Si   17.65075  17.65075  23.08175   0.000005728746775   0.000003543605098   0.000003553537508
Si   19.00850  19.00850  21.72400   0.000005214160813   0.000007339556657   0.000007327683474
Si   20.36625  20.36625  23.08175   0.000005728746583   0.000003543604458   0.000003553537695
Si   21.72400  21.72400  21.72400   0.000005214160997   0.000007339556634   0.000007327683301
Si   23.08175  23.08175  23.08175   0.000005728746866   0.000003543604837   0.000003553537409
Si    0.00000  13.57750  13.57750   0.000012729719346  -0.000004486790291  -0.000004474703600
Si    1.35775  14.93525  14.93525  -0.000003128588176   0.000006967390616   0.000006972809478
Si    2.71550  16.29300  13.57750   0.000012729719422  -0.000004486790367  -0.000004474703722
Si    4.07325  17.65075  14.93525  -0.000003128588163   0.000006967390144   0.000006972809349
Si    5.43100  19.00850  13.57750   0.000012729719153  -0.000004486791236  -0.000004474703521
Si    6.78875  20.36625  14.93525  -0.000003128588420   0.000006967389369   0.000006972809613
Si    8.14650  21.72400  13.57750   0.000012729718955  -0.000004486791669  -0.000004474703279
Si    9.50425  23.08175  14.93525  -0.000003128588514   0.000006967389429   0.000006972809891
Si   10.86200  24.43950  13.57750   0.000012729719120  -0.000004486791064  -0.000004474703317
Si   12.21975  25.79725  14.93525  -0.000003128588379   0.000006967390184   0.000006972809773
Si    2.71550  13.57750  16.29300   0.000012729718798  -0.000004486789799  -0.000004474704198
Si    4.07325  14.93525  17.65075  -0.000003128588672   0.000006967391025   0.000006972809247
Si    5.43100  16.29300  16.29300   0.000012729718895  -0.000004486789952  -0.000004474704388
Si    6.78875  17.65075  17.65075  -0.000003128588641   0.000006967390561   0.000006972809170
Si    8.14650  19.00850  16.29300   0.000012729718624  -0.000004486790750  -0.000004474704202
Si    9.50425  20.36625  17.65075  -0.000003128588849   0.000006967389922   0.000006972809474
Si   10.86200  21.72400  16.29300   0.000012729718442  -0.000004486791021  -0.000004474703924
Si   12.21975  23.08175  17.65075  -0.000003128589011   0.000006967390015   0.000006972809732
Si   13.57750  24.43950  16.29300   0.000012729718525  -0.000004486790485  -0.000004474703913
Si   14.93525  25.79725  17.65075  -0.000003128588921   0.000006967390648   0.000006972809598
Si    5.43100  13.57750  19.00850   0.000012729718606  -0.000004486789656  -0.000004474703853
Si    6.78875  14.93525  20.36625  -0.000003128588670   0.000006967391033   0.000006972809900
Si    8.14650  16.29300  19.00850   0.000012729718699  -0.000004486789813  -0.000004474703940
Si    9.50425  17.65075  20.36625  -0.000003128588614   0.000006967390599   0.000006972809987
Si   10.86200  19.00850  19.00850   0.000012729718486  -0.000004486790505  -0.000004474703646
Si   12.21975  20.36625  20.36625  -0.000003128588869   0.000006967390014   0.000006972810326
Si   13.57750  21.72400  19.00850   0.000012729718259  -0.000004486790756  -0.000004474703365
Si   14.93525  23.08175  20.36625  -0.000003128589136   0.000006967390033   0.000006972810440
Si   16.29300  24.43950  19.00850   0.000012729718287  -0.000004486790279  -0.000004474703484
Si   17.65075  25.79725  20.36625  -0.000003128589024   0.000006967390655   0.000006972810180
Si    8.14650  13.57750  21.72400   0.000012729719065  -0.000004486790033  -0.000004474702906
Si    9.50425  14.93525  23.08175  -0.000003128588118   0.000006967390647   0.000006972810601
Si   10.86200  16.29300  21.72400   0.000012729719137  -0.000004486790181  -0.000004474702869
Si   12.21975  17.65075  23.08175  -0.000003128588132   0.000006967390226   0.000006972810709
Si   13.57750  19.00850  21.72400   0.000012729718892  -0.000004486790842  -0.000004474702548
Si   14.93525  20.36625  23.08175  -0.000003128588489   0.000006967389507   0.000006972810969
Si   16.29300  21.72400  21.72400   0.000012729718564  -0.000004486791233  -0.000004474702375
Si   17.65075  23.08175  23.08175  -0.000003128588777   0.000006967389438   0.000006972811050
Si   19.00850  24.43950  21.72400   0.000012729718693  -0.000004486790744  -0.000004474702617
Si   20.36625  25.79725  23.08175  -0.000003128588480   0.000006967390180   0.000006972810795
Si   10.86200  13.57750  24.43950   0.000012729719553  -0.000004486790441  -0.000004474702755
Si   12.21975  14.93525  25.79725  -0.000003128587826   0.000006967390372   0.000006972810284
Si   13.57750  16.29300  24.43950   0.000012729719557  -0.000004486790511  -0.000004474702770
Si   14.93525  17.65075  25.79725  -0.000003128587864   0.000006967389937   0.000006972810255
Si   16.29300  19.00850  24.43950   0.000012729719297  -0.000004486791323  -0.000004474702492
Si   17.65075  20.36625  25.79725  -0.000003128588208   0.000006967389096   0.000006972810507
Si   19.00850  21.72400  24.43950   0.000012729719041  -0.000004486791834  -0.000004474702301
Si   20.36625  23.08175  25.79725  -0.000003128588341   0.000006967389031   0.000006972810717
Si   21.72400  24.43950  24.43950   0.000012729719276  -0.000004486791251  -0.000004474702486
Si   23.08175  25.79725  25.79725  -0.000003128588059   0.000006967389860   0.000006972810525
