216 

Si    0.67888   0.67888   0.67888   0.000009230645520   0.000009230654943   0.000009212828456
Si    3.39437   0.67888   3.39437  -0.000009230668380   0.000009230662651  -0.000009212844833
Si    0.67888   3.39437   3.39437   0.000009230647700  -0.000009230657814  -0.000009212847546
Si    3.39437   3.39437   0.67888  -0.000009230656410  -0.000009230673149   0.000009212815246
Si    4.75213   2.03662   2.03662   0.000007339845097   0.000000000012788   0.000000000026215
Si    4.75213   4.75213   4.75213   0.000008381563435   0.000008381566362   0.000008385455711
Si    2.03662   2.03662   4.75213   0.000000000017393   0.000000000001317   0.000007347253260
Si    2.03662   4.75213   2.03662  -0.000000000004189   0.000007339841370  -0.000000000009695
Si    0.67888   0.67888   6.10987   0.000003092483193   0.000003092517989   0.000000875662436
Si    3.39437   0.67888   8.82538  -0.000008381567447   0.000008381574613   0.000008385485798
Si    0.67888   3.39437   8.82538   0.000008381544724  -0.000008381561517   0.000008385465817
Si    3.39437   3.39437   6.10987  -0.000003092531927  -0.000003092533064   0.000000875660655
Si    4.75213   2.03662   7.46762   0.000003110690117   0.000000880681016  -0.000003106579332
Si    4.75213   4.75213  10.18313   0.000003092509319   0.000003092521089  -0.000000875663518
Si    2.03662   2.03662  10.18313  -0.000000000015013  -0.000000000018755  -0.000000000016793
Si    2.03662   4.75213   7.46762   0.000000880659073   0.000003110690589  -0.000003106541922
Si    0.67888   0.67888  11.54087   0.000008381573190   0.000008381569513  -0.000008385459249
Si    3.39437   0.67888  14.25638  -0.000003092509584   0.000003092500317  -0.000000875660924
Si    0.67888   3.39437  14.25638   0.000003092530416  -0.000003092505736  -0.000000875664730
Si    3.39437   3.39437  11.54087  -0.000008381556517  -0.000008381577156  -0.000008385457230
Si    4.75213   2.03662  12.89863   0.000003110674890  -0.000000880658662   0.000003106545723
Si    4.75213   4.75213  15.61412   0.000009230664136   0.000009230638878  -0.000009212836734
Si    2.03662   2.03662  15.61412   0.000000000009429   0.000000000010961  -0.000007347264771
Si    2.03662   4.75213  12.89863  -0.000000880679252   0.000003110682691   0.000003106577200
Si    0.67888   6.10987   0.67888   0.000003110686713   0.000000880665108   0.000003106548436
Si    3.39437   6.10987   3.39437  -0.000003110666300   0.000000880684392  -0.000003106521218
Si    0.67888   8.82538   3.39437   0.000008381551116   0.000008381555016  -0.000008385481911
Si    3.39437   8.82538   0.67888  -0.000008381568487   0.000008381551064   0.000008385475950
Si    4.75213   7.46762   2.03662   0.000003092523978  -0.000003092537968   0.000000875629974
Si    4.75213  10.18313   4.75213   0.000003110700105  -0.000000880651526   0.000003106565122
Si    2.03662   7.46762   4.75213   0.000000880657337  -0.000003110709328   0.000003106569304
Si    2.03662  10.18313   2.03662   0.000000000007173  -0.000000000007093   0.000000000003826
Si    0.67888   6.10987   6.10987   0.000007339848238   0.000000000015958   0.000000000000944
Si    3.39437   6.10987   8.82538  -0.000003110678161  -0.000000880672675   0.000003106569542
Si    0.67888   8.82538   8.82538   0.000009230661205   0.000009230663721   0.000009212823890
Si    3.39437   8.82538   6.10987  -0.000003092487431   0.000003092495417  -0.000000875652819
Si    4.75213   7.46762   7.46762   0.000008381553768  -0.000008381571908  -0.000008385488863
Si    4.75213  10.18313  10.18313   0.000007339831117  -0.000000000012384  -0.000000000007124
Si    2.03662   7.46762  10.18313   0.000000000007925  -0.000007339851225   0.000000000001625
Si    2.03662  10.18313   7.46762  -0.000000000016296  -0.000000000003706  -0.000007347249944
Si    0.67888   6.10987  11.54087   0.000003110682097  -0.000000880684651  -0.000003106547729
Si    3.39437   6.10987  14.25638  -0.000007339824509   0.000000000010635  -0.000000000011729
Si    0.67888   8.82538  14.25638   0.000003092495560   0.000003092498852   0.000000875661537
Si    3.39437   8.82538  11.54087  -0.000009230639131   0.000009230633301  -0.000009212813024
Si    4.75213   7.46762  12.89863   0.000009230629532  -0.000009230636164   0.000009212813251
Si    4.75213  10.18313  15.61412   0.000003110680567   0.000000880658579  -0.000003106526030
Si    2.03662   7.46762  15.61412  -0.000000880660748  -0.000003110693454  -0.000003106556083
Si    2.03662  10.18313  12.89863   0.000000000002383   0.000000000002654   0.000007347257014
Si    0.67888  11.54087   0.67888   0.000008381553532  -0.000008381560223   0.000008385471183
Si    3.39437  11.54087   3.39437  -0.000008381570546  -0.000008381552739  -0.000008385461117
Si    0.67888  14.25638   3.39437   0.000003110703105  -0.000000880655321  -0.000003106560829
Si    3.39437  14.25638   0.67888  -0.000003110687796  -0.000000880661453   0.000003106560207
Si    4.75213  12.89863   2.03662   0.000003092525102   0.000003092516559  -0.000000875652834
Si    4.75213  15.61412   4.75213   0.000009230645275  -0.000009230667287   0.000009212818219
Si    2.03662  12.89863   4.75213  -0.000000880672768   0.000003110681675   0.000003106551720
Si    2.03662  15.61412   2.03662   0.000000000014009  -0.000007339842510  -0.000000000004529
Si    0.67888  11.54087   6.10987   0.000003092505783  -0.000003092520782  -0.000000875650332
Si    3.39437  11.54087   8.82538  -0.000009230653015  -0.000009230662642   0.000009212830303
Si    0.67888  14.25638   8.82538   0.000003110701626   0.000000880642734   0.000003106574733
Si    3.39437  14.25638   6.10987  -0.000007339840188   0.000000000022549  -0.000000000002036
Si    4.75213  12.89863   7.46762   0.000009230644658   0.000009230658052  -0.000009212826808
Si    4.75213  15.61412  10.18313   0.000003092523552  -0.000003092507865   0.000000875647998
Si    2.03662  12.89863  10.18313   0.000000000002773   0.000007339838168   0.000000000009496
Si    2.03662  15.61412   7.46762  -0.000000880667494  -0.000003110682444  -0.000003106546487
Si    0.67888  11.54087  11.54087   0.000009230656154  -0.000009230649253  -0.000009212838547
Si    3.39437  11.54087  14.25638  -0.000003092494986  -0.000003092515159   0.000000875634258
Si    0.67888  14.25638  14.25638   0.000007339822876  -0.000000000009666   0.000000000010507
Si    3.39437  14.25638  11.54087  -0.000003110689088   0.000000880667579  -0.000003106563732
Si    4.75213  12.89863  12.89863   0.000008381550200   0.000008381543429   0.000008385466609
Si    4.75213  15.61412  15.61412   0.000008381570781  -0.000008381555242  -0.000008385504358
Si    2.03662  12.89863  15.61412   0.000000880664882   0.000003110702850  -0.000003106540672
Si    2.03662  15.61412  12.89863   0.000000880654373  -0.000003110654268   0.000003106562962
Si    6.10987   0.67888   0.67888   0.000000880660413   0.000003110694511   0.000003106564604
Si    8.82538   0.67888   3.39437   0.000008381550358   0.000008381591708  -0.000008385481950
Si    6.10987   3.39437   3.39437   0.000000880680202  -0.000003110724862  -0.000003106569063
Si    8.82538   3.39437   0.67888   0.000008381580531  -0.000008381549674   0.000008385465445
Si   10.18313   2.03662   2.03662   0.000000000031993  -0.000000000014292   0.000000000011964
Si   10.18313   4.75213   4.75213  -0.000000880659123   0.000003110700502   0.000003106548341
Si    7.46762   2.03662   4.75213  -0.000003110705426   0.000000880648954   0.000003106567838
Si    7.46762   4.75213   2.03662  -0.000003092514169   0.000003092528373   0.000000875644906
Si    6.10987   0.67888   6.10987   0.000000000045137   0.000007339834946   0.000000000021018
Si    8.82538   0.67888   8.82538   0.000009230661616   0.000009230647979   0.000009212824449
Si    6.10987   3.39437   8.82538  -0.000000880646491  -0.000003110691306   0.000003106576728
Si    8.82538   3.39437   6.10987   0.000003092540026  -0.000003092515948  -0.000000875660203
Si   10.18313   2.03662   7.46762   0.000000000000471   0.000000000000979  -0.000007347272331
Si   10.18313   4.75213  10.18313   0.000000000004999   0.000007339832179   0.000000000006559
Si    7.46762   2.03662  10.18313  -0.000007339852086  -0.000000000000260  -0.000000000010992
Si    7.46762   4.75213   7.46762  -0.000008381576986   0.000008381553441  -0.000008385461078
Si    6.10987   0.67888  11.54087  -0.000000880657072   0.000003110675868  -0.000003106541649
Si    8.82538   0.67888  14.25638   0.000003092516788   0.000003092513513   0.000000875625824
Si    6.10987   3.39437  14.25638  -0.000000000012444  -0.000007339809598   0.000000000004666
Si    8.82538   3.39437  11.54087   0.000009230674401  -0.000009230635188  -0.000009212848197
Si   10.18313   2.03662  12.89863   0.000000000000152  -0.000000000016214   0.000007347277498
Si   10.18313   4.75213  15.61412   0.000000880643987   0.000003110718162  -0.000003106553014
Si    7.46762   2.03662  15.61412  -0.000003110690443  -0.000000880698303  -0.000003106548592
Si    7.46762   4.75213  12.89863  -0.000009230652297   0.000009230678897   0.000009212843947
Si    6.10987   6.10987   0.67888   0.000000000009022  -0.000000000003678   0.000007347276062
Si    8.82538   6.10987   3.39437   0.000003110686825  -0.000000880664407  -0.000003106534785
Si    6.10987   8.82538   3.39437  -0.000000880666580   0.000003110703906  -0.000003106541093
Si    8.82538   8.82538   0.67888   0.000009230637006   0.000009230641762   0.000009212832456
Si   10.18313   7.46762   2.03662  -0.000000000019139  -0.000007339843810   0.000000000001735
Si   10.18313  10.18313   4.75213   0.000000000011919   0.000000000020575   0.000007347258993
Si    7.46762   7.46762   4.75213  -0.000008381560381  -0.000008381552243   0.000008385464742
Si    7.46762  10.18313   2.03662  -0.000007339824272  -0.000000000000363  -0.000000000008830
Si    6.10987   6.10987   6.10987  -0.000000000002367   0.000000000022782   0.000000000000156
Si    8.82538   6.10987   8.82538   0.000003110672700   0.000000880649095   0.000003106567560
Si    6.10987   8.82538   8.82538   0.000000880663647   0.000003110717260   0.000003106551940
Si    8.82538   8.82538   6.10987   0.000003092508843   0.000003092474211   0.000000875625847
Si   10.18313   7.46762   7.46762  -0.000000880675631  -0.000003110669076  -0.000003106547561
Si   10.18313  10.18313  10.18313   0.000000000027236  -0.000000000008410  -0.000000000003320
Si    7.46762   7.46762  10.18313  -0.000003092533968  -0.000003092555212  -0.000000875631613
Si    7.46762  10.18313   7.46762  -0.000003110694361  -0.000000880664629  -0.000003106537152
Si    6.10987   6.10987  11.54087   0.000000000020586   0.000000000000477  -0.000007347310047
Si    8.82538   6.10987  14.25638   0.000007339812687  -0.000000000019075  -0.000000000001261
Si    6.10987   8.82538  14.25638   0.000000000001577   0.000007339858988  -0.000000000027621
Si    8.82538   8.82538  11.54087   0.000008381560838   0.000008381562174  -0.000008385454070
Si   10.18313   7.46762  12.89863   0.000000880666558  -0.000003110674695   0.000003106554354
Si   10.18313  10.18313  15.61412   0.000000000003920   0.000000000026691  -0.000007347278038
Si    7.46762   7.46762  15.61412  -0.000009230625477  -0.000009230684032  -0.000009212806805
Si    7.46762  10.18313  12.89863  -0.000003110699756   0.000000880665315   0.000003106550846
Si    6.10987  11.54087   0.67888  -0.000000880663492  -0.000003110684118   0.000003106547128
Si    8.82538  11.54087   3.39437   0.000009230680001  -0.000009230646207  -0.000009212825435
Si    6.10987  14.25638   3.39437  -0.000000000007124   0.000000000002864  -0.000007347250559
Si    8.82538  14.25638   0.67888   0.000003110693815   0.000000880647338   0.000003106579588
Si   10.18313  12.89863   2.03662  -0.000000000025445   0.000007339810960   0.000000000007006
Si   10.18313  15.61412   4.75213   0.000000880654929  -0.000003110708361   0.000003106570518
Si    7.46762  12.89863   4.75213  -0.000009230650472   0.000009230668016   0.000009212792543
Si    7.46762  15.61412   2.03662  -0.000003092531908  -0.000003092506767  -0.000000875654859
Si    6.10987  11.54087   6.10987  -0.000000000024917  -0.000007339853029   0.000000000003019
Si    8.82538  11.54087   8.82538   0.000008381550152  -0.000008381533717   0.000008385480184
Si    6.10987  14.25638   8.82538   0.000000000033023  -0.000000000007919   0.000007347255850
Si    8.82538  14.25638   6.10987   0.000007339849848  -0.000000000009542  -0.000000000006749
Si   10.18313  12.89863   7.46762   0.000000880665267   0.000003110671797  -0.000003106549871
Si   10.18313  15.61412  10.18313   0.000000000005750  -0.000007339842968  -0.000000000019787
Si    7.46762  12.89863  10.18313  -0.000003092503438   0.000003092489019   0.000000875652979
Si    7.46762  15.61412   7.46762  -0.000009230687472  -0.000009230640296  -0.000009212823622
Si    6.10987  11.54087  11.54087   0.000000880666656  -0.000003110679911  -0.000003106566771
Si    8.82538  11.54087  14.25638   0.000003092512533  -0.000003092487252  -0.000000875662499
Si    6.10987  14.25638  14.25638  -0.000000000016406   0.000000000010864   0.000000000009470
Si    8.82538  14.25638  11.54087   0.000003110690687  -0.000000880660439  -0.000003106538892
Si   10.18313  12.89863  12.89863  -0.000000880687552   0.000003110667582   0.000003106544251
Si   10.18313  15.61412  15.61412  -0.000000880679160  -0.000003110686480  -0.000003106578228
Si    7.46762  12.89863  15.61412  -0.000008381555192   0.000008381541925  -0.000008385466824
Si    7.46762  15.61412  12.89863  -0.000008381559051  -0.000008381538648   0.000008385480110
Si   11.54087   0.67888   0.67888  -0.000008381566441   0.000008381564887   0.000008385480539
Si   14.25638   0.67888   3.39437  -0.000000880674611   0.000003110687402  -0.000003106559699
Si   11.54087   3.39437   3.39437  -0.000008381535517  -0.000008381548816  -0.000008385442774
Si   14.25638   3.39437   0.67888  -0.000000880672177  -0.000003110694991   0.000003106551100
Si   15.61412   2.03662   2.03662  -0.000007339818066  -0.000000000004178   0.000000000012857
Si   15.61412   4.75213   4.75213  -0.000009230671505   0.000009230643249   0.000009212842006
Si   12.89863   2.03662   4.75213   0.000003110696976  -0.000000880660655   0.000003106544829
Si   12.89863   4.75213   2.03662   0.000003092510601   0.000003092516635  -0.000000875663744
Si   11.54087   0.67888   6.10987  -0.000003092514679   0.000003092507366  -0.000000875648541
Si   14.25638   0.67888   8.82538   0.000000880657269   0.000003110672841   0.000003106558529
Si   11.54087   3.39437   8.82538  -0.000009230674135  -0.000009230650845   0.000009212815733
Si   14.25638   3.39437   6.10987   0.000000000000712  -0.000007339845182   0.000000000004225
Si   15.61412   2.03662   7.46762  -0.000003110689351  -0.000000880662406  -0.000003106562613
Si   15.61412   4.75213  10.18313  -0.000003092517433   0.000003092521506   0.000000875658907
Si   12.89863   2.03662  10.18313   0.000007339854086   0.000000000009452  -0.000000000003900
Si   12.89863   4.75213   7.46762   0.000009230670758   0.000009230659453  -0.000009212807287
Si   11.54087   0.67888  11.54087  -0.000009230663263   0.000009230673559  -0.000009212794330
Si   14.25638   0.67888  14.25638  -0.000000000024858   0.000007339847920  -0.000000000001725
Si   11.54087   3.39437  14.25638  -0.000003092503652  -0.000003092514172   0.000000875633443
Si   14.25638   3.39437  11.54087   0.000000880673404  -0.000003110674253  -0.000003106547449
Si   15.61412   2.03662  12.89863  -0.000003110705851   0.000000880649087   0.000003106539762
Si   15.61412   4.75213  15.61412  -0.000008381580303   0.000008381565748  -0.000008385446227
Si   12.89863   2.03662  15.61412   0.000003110700941   0.000000880660019  -0.000003106551822
Si   12.89863   4.75213  12.89863   0.000008381570876   0.000008381553266   0.000008385476912
Si   11.54087   6.10987   0.67888  -0.000003110707554  -0.000000880686273   0.000003106549922
Si   14.25638   6.10987   3.39437   0.000000000013664   0.000000000004197  -0.000007347279077
Si   11.54087   8.82538   3.39437  -0.000009230653533   0.000009230639842  -0.000009212814189
Si   14.25638   8.82538   0.67888   0.000000880664564   0.000003110695992   0.000003106566427
Si   15.61412   7.46762   2.03662  -0.000003092508212  -0.000003092500984  -0.000000875639458
Si   15.61412  10.18313   4.75213  -0.000003110669373   0.000000880689327   0.000003106558383
Si   12.89863   7.46762   4.75213   0.000009230645776  -0.000009230650542   0.000009212823832
Si   12.89863  10.18313   2.03662   0.000007339837254  -0.000000000010389  -0.000000000022081
Si   11.54087   6.10987   6.10987  -0.000007339839903  -0.000000000004628  -0.000000000002167
Si   14.25638   6.10987   8.82538   0.000000000014146  -0.000000000005460   0.000007347250856
Si   11.54087   8.82538   8.82538  -0.000008381556590   0.000008381584357   0.000008385491484
Si   14.25638   8.82538   6.10987  -0.000000000017134   0.000007339822844   0.000000000002544
Si   15.61412   7.46762   7.46762  -0.000009230650684  -0.000009230635443  -0.000009212826827
Si   15.61412  10.18313  10.18313  -0.000007339808419  -0.000000000000083   0.000000000018548
Si   12.89863   7.46762  10.18313   0.000003092498228  -0.000003092515958   0.000000875633780
Si   12.89863  10.18313   7.46762   0.000003110692287   0.000000880683853  -0.000003106559820
Si   11.54087   6.10987  11.54087  -0.000003110703317   0.000000880683287  -0.000003106548721
Si   14.25638   6.10987  14.25638  -0.000000000005361   0.000000000005906   0.000000000006424
Si   11.54087   8.82538  14.25638  -0.000003092526340   0.000003092510855  -0.000000875640488
Si   14.25638   8.82538  11.54087  -0.000000880684479   0.000003110704272  -0.000003106564258
Si   15.61412   7.46762  12.89863  -0.000008381527424  -0.000008381557165   0.000008385453047
Si   15.61412  10.18313  15.61412  -0.000003110688064  -0.000000880680933  -0.000003106562007
Si   12.89863   7.46762  15.61412   0.000008381569795  -0.000008381576108  -0.000008385497050
Si   12.89863  10.18313  12.89863   0.000003110704919  -0.000000880674823   0.000003106556046
Si   11.54087  11.54087   0.67888  -0.000009230652877  -0.000009230645488   0.000009212823289
Si   14.25638  11.54087   3.39437   0.000000880642681  -0.000003110685681  -0.000003106549676
Si   11.54087  14.25638   3.39437  -0.000003110674750   0.000000880668137  -0.000003106568030
Si   14.25638  14.25638   0.67888   0.000000000022175  -0.000000000002229   0.000007347284720
Si   15.61412  12.89863   2.03662  -0.000003092513724   0.000003092527459   0.000000875657424
Si   15.61412  15.61412   4.75213  -0.000008381558262  -0.000008381567301   0.000008385477844
Si   12.89863  12.89863   4.75213   0.000008381554581   0.000008381551366   0.000008385486795
Si   12.89863  15.61412   2.03662   0.000003092509283  -0.000003092482197   0.000000875659112
Si   11.54087  11.54087   6.10987  -0.000003092497784  -0.000003092516568   0.000000875637225
Si   14.25638  11.54087   8.82538  -0.000000880685957  -0.000003110677949   0.000003106542281
Si   11.54087  14.25638   8.82538  -0.000003110698433  -0.000000880677870   0.000003106534674
Si   14.25638  14.25638   6.10987  -0.000000000008096  -0.000000000008892   0.000000000008191
Si   15.61412  12.89863   7.46762  -0.000008381570378   0.000008381562921  -0.000008385502853
Si   15.61412  15.61412  10.18313  -0.000003092519098  -0.000003092511540  -0.000000875648817
Si   12.89863  12.89863  10.18313   0.000003092519938   0.000003092485171  -0.000000875647240
Si   12.89863  15.61412   7.46762   0.000008381563037  -0.000008381547260  -0.000008385480632
Si   11.54087  11.54087  11.54087  -0.000008381573185  -0.000008381554712  -0.000008385462226
Si   14.25638  11.54087  14.25638   0.000000000004809  -0.000007339867246  -0.000000000014405
Si   11.54087  14.25638  14.25638  -0.000007339817688   0.000000000006876   0.000000000006132
Si   14.25638  14.25638  11.54087   0.000000000030176  -0.000000000000255  -0.000007347259682
Si   15.61412  12.89863  12.89863  -0.000009230684537   0.000009230669986   0.000009212815276
Si   15.61412  15.61412  15.61412  -0.000009230649465  -0.000009230656073  -0.000009212821823
Si   12.89863  12.89863  15.61412   0.000009230630863   0.000009230673688  -0.000009212842157
Si   12.89863  15.61412  12.89863   0.000009230657144  -0.000009230664002   0.000009212820029
