384 

Si    0.67887   0.67887   0.67888   0.000003780064703   0.000003780064910  -0.000004943501580
Si    3.39438   0.67887   3.39437  -0.000002077211064  -0.000005614852076   0.000007892037819
Si    0.67887   3.39437   3.39437  -0.000005614851482  -0.000002077210713   0.000007892038109
Si    3.39438   3.39437   0.67888   0.000002232242891   0.000002232242794  -0.000005445775953
Si    4.75212   2.03662   2.03662  -0.000000011717795   0.000000377834104  -0.000000871235529
Si    4.75212   4.75212   4.75213  -0.000002021729117  -0.000002021728985  -0.000003168547074
Si    2.03662   2.03662   4.75213  -0.000002167633159  -0.000002167633107  -0.000003637243854
Si    2.03662   4.75212   2.03662   0.000000377834281  -0.000000011717860  -0.000000871235449
Si    0.67887   0.67887   6.10987  -0.000004899091115  -0.000004899091224   0.000000333512360
Si    3.39438   0.67887   8.82537  -0.000002759450507  -0.000005114971297  -0.000009135325482
Si    0.67887   3.39437   8.82537  -0.000005114971106  -0.000002759450697  -0.000009135325426
Si    3.39438   3.39437   6.10987  -0.000004153420532  -0.000004153420526   0.000000193837704
Si    4.75212   2.03662   7.46762   0.000001267465919  -0.000000900118833   0.000001363966563
Si    4.75212   4.75212  10.18313  -0.000000895793754  -0.000000895793834   0.000001254905115
Si    2.03662   2.03662  10.18313   0.000000066589249   0.000000066589316   0.000000225523819
Si    2.03662   4.75212   7.46762  -0.000000900118937   0.000001267465672   0.000001363966516
Si    0.67887   0.67887  11.54087   0.000003757566594   0.000003757566362   0.000005236437518
Si    3.39438   0.67887  14.25638  -0.000000392859502   0.000007079113966  -0.000000029575605
Si    0.67887   3.39437  14.25638   0.000007079114409  -0.000000392859278  -0.000000029575450
Si    3.39438   3.39437  11.54087   0.000002718407068   0.000002718406897   0.000005988256085
Si    4.75212   2.03662  12.89862   0.000000209475204  -0.000000118202952  -0.000000884199211
Si    4.75212   4.75212  15.61413  -0.000001375912122  -0.000001375912138   0.000004813688468
Si    2.03662   2.03662  15.61413   0.000000043499800   0.000000043499667   0.000002438949915
Si    2.03662   4.75212  12.89862  -0.000000118202857   0.000000209475095  -0.000000884199139
Si    0.67887   6.10987   0.67888   0.000003189403746   0.000001619897899   0.000002412907849
Si    3.39438   6.10987   3.39437   0.000005635915157  -0.000005763794327   0.000003492545401
Si    0.67887   8.82537   3.39437   0.000002211770454   0.000001327122364  -0.000002615805030
Si    3.39438   8.82537   0.67888  -0.000001990646998  -0.000003965352026  -0.000004818325927
Si    4.75212   7.46762   2.03662   0.000002006653064   0.000002568633145   0.000000595870721
Si    4.75212  10.18313   4.75213  -0.000002105335885  -0.000001001261341  -0.000003115685865
Si    2.03662   7.46762   4.75213   0.000003415233207  -0.000000697099774  -0.000006810161703
Si    2.03662  10.18313   2.03662   0.000002104389998   0.000001262485610  -0.000000436827398
Si    0.67887   6.10987   6.10987  -0.000001361122779  -0.000001036634904  -0.000000510910169
Si    3.39438   6.10987   8.82537   0.000007203949511  -0.000005288577456  -0.000002219660761
Si    0.67887   8.82537   8.82537  -0.000000023394842   0.000001437699476   0.000002426069860
Si    3.39438   8.82537   6.10987   0.000000596919164   0.000004613282917  -0.000000323211245
Si    4.75212   7.46762   7.46762   0.000001037058607   0.000001966204517  -0.000002559829161
Si    4.75212  10.18313  10.18313   0.000001848746412   0.000002671574984   0.000000921001397
Si    2.03662   7.46762  10.18313  -0.000002055320804   0.000006387152492  -0.000000250076916
Si    2.03662  10.18313   7.46762  -0.000001910754922   0.000002696168786   0.000001633541131
Si    0.67887   6.10987  11.54087   0.000000087489243   0.000003407792582  -0.000000425858398
Si    3.39438   6.10987  14.25638  -0.000002940644122   0.000002000983809   0.000001111014501
Si    0.67887   8.82537  14.25638   0.000000138405382   0.000001469601612   0.000001037333522
Si    3.39438   8.82537  11.54087   0.000000147880515  -0.000003444691767   0.000003858874706
Si    4.75212   7.46762  12.89862   0.000001130830752  -0.000000432241104   0.000001687386839
Si    4.75212  10.18313  15.61413  -0.000002349535011  -0.000000184928770   0.000002208961526
Si    2.03662   7.46762  15.61413   0.000001687990467  -0.000001468088581   0.000006324340304
Si    2.03662  10.18313  12.89862  -0.000000043267851   0.000003473785322   0.000000471390821
Si    0.67887  11.54087   0.67888  -0.000006918700919   0.000006111799079  -0.000003361591805
Si    3.39438  11.54087   3.39437   0.000005332522044  -0.000002288868119  -0.000003078771414
Si    0.67887  14.25638   3.39437  -0.000002155314224   0.000000711773064   0.000005543873748
Si    3.39438  14.25638   0.67888  -0.000000329801727   0.000000518248052  -0.000002631810066
Si    4.75212  12.89862   2.03662  -0.000000234479693   0.000001157503859   0.000000300933059
Si    4.75212  15.61413   4.75213  -0.000001424313143   0.000000812552803  -0.000003373875078
Si    2.03662  12.89862   4.75213  -0.000005668989859  -0.000000563673119   0.000000868954082
Si    2.03662  15.61413   2.03662   0.000001510086079  -0.000003982459508  -0.000000588947823
Si    0.67887  11.54087   6.10987   0.000001991155764  -0.000003518314128   0.000000137620067
Si    3.39438  11.54087   8.82537   0.000005881970734  -0.000001779451889   0.000002226053507
Si    0.67887  14.25638   8.82537  -0.000003222279067   0.000001260908634  -0.000005794523572
Si    3.39438  14.25638   6.10987   0.000007352165320   0.000005928815076  -0.000000202209874
Si    4.75212  12.89862   7.46762  -0.000006277587061  -0.000002011778272  -0.000002876134723
Si    4.75212  15.61413  10.18313   0.000007656274384  -0.000001764562944   0.000000133429101
Si    2.03662  12.89862  10.18313  -0.000004023871121   0.000005474468937   0.000000748495596
Si    2.03662  15.61413   7.46762  -0.000002784641647  -0.000002365496253  -0.000000309607064
Si    0.67887  11.54087  11.54087  -0.000006353217735   0.000002712950318   0.000004752536693
Si    3.39438  11.54087  14.25638   0.000003808875072  -0.000003175547492  -0.000001515812549
Si    0.67887  14.25638  14.25638   0.000003956098231  -0.000004248385923   0.000000324351893
Si    3.39438  14.25638  11.54087  -0.000000235893434   0.000000430274383   0.000003145011117
Si    4.75212  12.89862  12.89862  -0.000004182747773  -0.000000590867559   0.000000849710117
Si    4.75212  15.61413  15.61413   0.000000379329759  -0.000001195545533   0.000005218662243
Si    2.03662  12.89862  15.61413  -0.000007774831647   0.000000262248295  -0.000000071782943
Si    2.03662  15.61413  12.89862  -0.000002713098371  -0.000002727682278  -0.000000527296085
Si    0.67887  16.97188   0.67888  -0.000000758138971   0.000002485919039  -0.000004554408638
Si    3.39438  16.97188   3.39437   0.000002559779978   0.000002276644891   0.000002444271483
Si    0.67887  19.68738   3.39437   0.000003154910524   0.000002868585432   0.000001081745962
Si    3.39438  19.68738   0.67888  -0.000007102082135  -0.000005992154632  -0.000001180780001
Si    4.75212  18.32963   2.03662  -0.000000875075613  -0.000000749866456  -0.000000968187536
Si    4.75212  21.04512   4.75213  -0.000001915300111   0.000000426759303  -0.000003552679413
Si    2.03662  18.32963   4.75213   0.000004586539030   0.000007183878099  -0.000003018337414
Si    2.03662  21.04512   2.03662   0.000002171591258   0.000000878621117   0.000000233972498
Si    0.67887  16.97188   6.10987  -0.000003480033809  -0.000010277136227   0.000000544851595
Si    3.39438  16.97188   8.82537   0.000002905131679   0.000002559981209  -0.000002081417427
Si    0.67887  19.68738   8.82537   0.000004851960209   0.000001223161512  -0.000001542190356
Si    3.39438  19.68738   6.10987   0.000002046453895  -0.000001075762824  -0.000000627915889
Si    4.75212  18.32963   7.46762  -0.000002559981196  -0.000002905131279   0.000002081417028
Si    4.75212  21.04512  10.18313   0.000010277135964   0.000003480033964  -0.000000544851668
Si    2.03662  18.32963  10.18313   0.000001075762691  -0.000002046453643   0.000000627916107
Si    2.03662  21.04512   7.46762  -0.000001223161631  -0.000004851960124   0.000001542190471
Si    0.67887  16.97188  11.54087  -0.000000426759162   0.000001915300142   0.000003552679045
Si    3.39438  16.97188  14.25638   0.000000749866656   0.000000875075456   0.000000968187459
Si    0.67887  19.68738  14.25638  -0.000000878620807  -0.000002171591190  -0.000000233972461
Si    3.39438  19.68738  11.54087  -0.000007183877693  -0.000004586539047   0.000003018337468
Si    4.75212  18.32963  12.89862  -0.000002276644977  -0.000002559779803  -0.000002444271862
Si    4.75212  21.04512  15.61413  -0.000002485918756   0.000000758139256   0.000004554408566
Si    2.03662  18.32963  15.61413   0.000005992154693   0.000007102082309   0.000001180780036
Si    2.03662  21.04512  12.89862  -0.000002868585519  -0.000003154910214  -0.000001081745667
Si    6.10987   0.67887   0.67888   0.000001619897708   0.000003189403798   0.000002412907969
Si    8.82537   0.67887   3.39437   0.000001327122650   0.000002211770185  -0.000002615805109
Si    6.10987   3.39437   3.39437  -0.000005763794023   0.000005635915163   0.000003492545352
Si    8.82537   3.39437   0.67888  -0.000003965352038  -0.000001990647115  -0.000004818326109
Si   10.18313   2.03662   2.03662   0.000001262485174   0.000002104389932  -0.000000436827642
Si   10.18313   4.75212   4.75213  -0.000001001261396  -0.000002105336294  -0.000003115685905
Si    7.46762   2.03662   4.75213  -0.000000697099751   0.000003415233247  -0.000006810161827
Si    7.46762   4.75212   2.03662   0.000002568633318   0.000002006653022   0.000000595870721
Si    6.10987   0.67887   6.10987  -0.000001036634950  -0.000001361122693  -0.000000510909934
Si    8.82537   0.67887   8.82537   0.000001437699816  -0.000000023394975   0.000002426070063
Si    6.10987   3.39437   8.82537  -0.000005288577353   0.000007203949421  -0.000002219660602
Si    8.82537   3.39437   6.10987   0.000004613283161   0.000000596919071  -0.000000323211185
Si   10.18313   2.03662   7.46762   0.000002696168537  -0.000001910754796   0.000001633540679
Si   10.18313   4.75212  10.18313   0.000002671575170   0.000001848746308   0.000000921001425
Si    7.46762   2.03662  10.18313   0.000006387152402  -0.000002055320689  -0.000000250076870
Si    7.46762   4.75212   7.46762   0.000001966204608   0.000001037058255  -0.000002559829029
Si    6.10987   0.67887  11.54087   0.000003407792576   0.000000087489548  -0.000000425858386
Si    8.82537   0.67887  14.25638   0.000001469601909   0.000000138405285   0.000001037333652
Si    6.10987   3.39437  14.25638   0.000002000983941  -0.000002940644161   0.000001111014493
Si    8.82537   3.39437  11.54087  -0.000003444691605   0.000000147880121   0.000003858874628
Si   10.18313   2.03662  12.89862   0.000003473785014  -0.000000043267703   0.000000471390324
Si   10.18313   4.75212  15.61413  -0.000000184928824  -0.000002349535389   0.000002208961491
Si    7.46762   2.03662  15.61413  -0.000001468088483   0.000001687990426   0.000006324340387
Si    7.46762   4.75212  12.89862  -0.000000432240953   0.000001130830596   0.000001687386980
Si    6.10987   6.10987   0.67888   0.000003857331902   0.000003857331915  -0.000000005646298
Si    8.82537   6.10987   3.39437   0.000008578550049   0.000001191601701  -0.000000040098387
Si    6.10987   8.82537   3.39437   0.000001191601716   0.000008578549860  -0.000000040098612
Si    8.82537   8.82537   0.67888   0.000004665228391   0.000004665228421  -0.000003516746791
Si   10.18313   7.46762   2.03662  -0.000007110935718  -0.000002472992586  -0.000000440849679
Si   10.18313  10.18313   4.75213  -0.000001483777286  -0.000001483776961   0.000001029740992
Si    7.46762   7.46762   4.75213  -0.000003672485439  -0.000003672485235   0.000006753044934
Si    7.46762  10.18313   2.03662  -0.000002472992489  -0.000007110935486  -0.000000440849641
Si    6.10987   6.10987   6.10987  -0.000004832555627  -0.000004832555650   0.000001363473110
Si    8.82537   6.10987   8.82537   0.000007651120797  -0.000000066022894   0.000000790629800
Si    6.10987   8.82537   8.82537  -0.000000066022859   0.000007651120775   0.000000790629879
Si    8.82537   8.82537   6.10987   0.000001977220751   0.000001977220569   0.000000890528470
Si   10.18313   7.46762   7.46762   0.000001813945376   0.000006325869220   0.000005756495532
Si   10.18313  10.18313  10.18313  -0.000001979725505  -0.000001979725390  -0.000001682455415
Si    7.46762   7.46762  10.18313  -0.000005643856364  -0.000005643856349   0.000000362123067
Si    7.46762  10.18313   7.46762   0.000006325869364   0.000001813945132   0.000005756495614
Si    6.10987   6.10987  11.54087   0.000002339459647   0.000002339459732  -0.000002180281670
Si    8.82537   6.10987  14.25638  -0.000005182260178   0.000001549549269  -0.000000901650413
Si    6.10987   8.82537  14.25638   0.000001549548949  -0.000005182260203  -0.000000901650553
Si    8.82537   8.82537  11.54087   0.000004016865317   0.000004016865156   0.000003474616767
Si   10.18313   7.46762  12.89862   0.000000633466354   0.000007341141710  -0.000004960604566
Si   10.18313  10.18313  15.61413  -0.000000711042675  -0.000000711042549  -0.000001295512310
Si    7.46762   7.46762  15.61413  -0.000003715434268  -0.000003715434576  -0.000006872354846
Si    7.46762  10.18313  12.89862   0.000007341141775   0.000000633466327  -0.000004960604587
Si    6.10987  11.54087   0.67888  -0.000005767123230   0.000005756889637  -0.000003143641408
Si    8.82537  11.54087   3.39437   0.000001981285011   0.000001509807251   0.000000920688224
Si    6.10987  14.25638   3.39437  -0.000002675703464  -0.000001432471419   0.000005881377870
Si    8.82537  14.25638   0.67888  -0.000000871348849  -0.000001692803326  -0.000002179482485
Si   10.18313  12.89862   2.03662   0.000000763519484  -0.000002178945221  -0.000000870463042
Si   10.18313  15.61413   4.75213  -0.000008468155415   0.000003922955663  -0.000003034595438
Si    7.46762  12.89862   4.75213   0.000001605812156   0.000000756049470  -0.000001765096765
Si    7.46762  15.61413   2.03662  -0.000005439871279  -0.000001761497383  -0.000000042051601
Si    6.10987  11.54087   6.10987   0.000002271656072  -0.000003800001105  -0.000001303076451
Si    8.82537  11.54087   8.82537   0.000001406856120   0.000002892288454  -0.000001136568693
Si    6.10987  14.25638   8.82537  -0.000002345296787  -0.000002605859327  -0.000006273411271
Si    8.82537  14.25638   6.10987   0.000001041841396   0.000002757448746  -0.000000665193912
Si   10.18313  12.89862   7.46762  -0.000002892288589  -0.000001406855841   0.000001136568552
Si   10.18313  15.61413  10.18313   0.000003800001274  -0.000002271656228   0.000001303076478
Si    7.46762  12.89862  10.18313  -0.000002757448781  -0.000001041841058   0.000000665193879
Si    7.46762  15.61413   7.46762   0.000002605859645   0.000002345296941   0.000006273411218
Si    6.10987  11.54087  11.54087  -0.000003922955684   0.000008468155449   0.000003034595510
Si    8.82537  11.54087  14.25638   0.000002178945324  -0.000000763519546   0.000000870463079
Si    6.10987  14.25638  14.25638   0.000001761497737   0.000005439871432   0.000000042051577
Si    8.82537  14.25638  11.54087  -0.000000756049172  -0.000001605812301   0.000001765096748
Si   10.18313  12.89862  12.89862  -0.000001509807333  -0.000001981284861  -0.000000920688371
Si   10.18313  15.61413  15.61413  -0.000005756889610   0.000005767123315   0.000003143641357
Si    7.46762  12.89862  15.61413   0.000001692803315   0.000000871348881   0.000002179482488
Si    7.46762  15.61413  12.89862   0.000001432471460   0.000002675703855  -0.000005881378170
Si    6.10987  16.97188   0.67888   0.000001195545737  -0.000000379329651  -0.000005218662037
Si    8.82537  16.97188   3.39437   0.000000590867682   0.000004182747717  -0.000000849710010
Si    6.10987  19.68738   3.39437   0.000002727682357   0.000002713098435   0.000000527295996
Si    8.82537  19.68738   0.67888  -0.000000262248165   0.000007774831786   0.000000071782937
Si   10.18313  18.32963   2.03662   0.000003175547284  -0.000003808875038   0.000001515812406
Si   10.18313  21.04512   4.75213  -0.000002712950397   0.000006353218054  -0.000004752536872
Si    7.46762  18.32963   4.75213  -0.000000430274740   0.000000235893457  -0.000003145011109
Si    7.46762  21.04512   2.03662   0.000004248386431  -0.000003956097962  -0.000000324351668
Si    6.10987  16.97188   6.10987   0.000001764562938  -0.000007656274266  -0.000000133428950
Si    8.82537  16.97188   8.82537   0.000002011778338   0.000006277587053   0.000002876134676
Si    6.10987  19.68738   8.82537   0.000002365496379   0.000002784641613   0.000000309607195
Si    8.82537  19.68738   6.10987  -0.000005474468575   0.000004023871440  -0.000000748495616
Si   10.18313  18.32963   7.46762   0.000001779451733  -0.000005881970826  -0.000002226053489
Si   10.18313  21.04512  10.18313   0.000003518314088  -0.000001991155865  -0.000000137620435
Si    7.46762  18.32963  10.18313  -0.000005928814970  -0.000007352165241   0.000000202209935
Si    7.46762  21.04512   7.46762  -0.000001260908574   0.000003222278842   0.000005794523752
Si    6.10987  16.97188  11.54087  -0.000000812552627   0.000001424313313   0.000003373875317
Si    8.82537  16.97188  14.25638  -0.000001157503844   0.000000234479910  -0.000000300933030
Si    6.10987  19.68738  14.25638   0.000003982459555  -0.000001510085916   0.000000588948011
Si    8.82537  19.68738  11.54087   0.000000563673265   0.000005668989817  -0.000000868954140
Si   10.18313  18.32963  12.89862   0.000002288868017  -0.000005332522100   0.000003078771427
Si   10.18313  21.04512  15.61413  -0.000006111799157   0.000006918701171   0.000003361591689
Si    7.46762  18.32963  15.61413  -0.000000518248056   0.000000329801689   0.000002631810164
Si    7.46762  21.04512  12.89862  -0.000000711772840   0.000002155314204  -0.000005543873310
Si   11.54087   0.67887   0.67888   0.000006111799078  -0.000006918700826  -0.000003361591755
Si   14.25638   0.67887   3.39437   0.000000711772846  -0.000002155314336   0.000005543873316
Si   11.54087   3.39437   3.39437  -0.000002288867913   0.000005332522168  -0.000003078770926
Si   14.25638   3.39437   0.67888   0.000000518248121  -0.000000329801802  -0.000002631810057
Si   15.61413   2.03662   2.03662  -0.000003982459357   0.000001510086066  -0.000000588947664
Si   15.61413   4.75212   4.75213   0.000000812552703  -0.000001424313047  -0.000003373875064
Si   12.89862   2.03662   4.75213  -0.000000563673067  -0.000005668989886   0.000000868954059
Si   12.89862   4.75212   2.03662   0.000001157503863  -0.000000234479810   0.000000300932863
Si   11.54087   0.67887   6.10987  -0.000003518314161   0.000001991155796   0.000000137620055
Si   14.25638   0.67887   8.82537   0.000001260908633  -0.000003222278953  -0.000005794523677
Si   11.54087   3.39437   8.82537  -0.000001779451990   0.000005881970702   0.000002226053635
Si   14.25638   3.39437   6.10987   0.000005928815099   0.000007352165247  -0.000000202209822
Si   15.61413   2.03662   7.46762  -0.000002365496221  -0.000002784641366  -0.000000309606993
Si   15.61413   4.75212  10.18313  -0.000001764562920   0.000007656274393   0.000000133429097
Si   12.89862   2.03662  10.18313   0.000005474469079  -0.000004023871249   0.000000748495628
Si   12.89862   4.75212   7.46762  -0.000002011778552  -0.000006277587101  -0.000002876134861
Si   11.54087   0.67887  11.54087   0.000002712950312  -0.000006353217854   0.000004752536619
Si   14.25638   0.67887  14.25638  -0.000004248386151   0.000003956098145   0.000000324351591
Si   11.54087   3.39437  14.25638  -0.000003175547398   0.000003808875279  -0.000001515812275
Si   14.25638   3.39437  11.54087   0.000000430274608  -0.000000235893684   0.000003145011116
Si   15.61413   2.03662  12.89862  -0.000002727682233  -0.000002713098268  -0.000000527295889
Si   15.61413   4.75212  15.61413  -0.000001195545650   0.000000379329847   0.000005218662307
Si   12.89862   2.03662  15.61413   0.000000262248344  -0.000007774831758  -0.000000071782923
Si   12.89862   4.75212  12.89862  -0.000000590867673  -0.000004182747813   0.000000849709904
Si   11.54087   6.10987   0.67888   0.000005756889785  -0.000005767123168  -0.000003143641469
Si   14.25638   6.10987   3.39437  -0.000001432471173  -0.000002675703675   0.000005881377989
Si   11.54087   8.82537   3.39437   0.000001509807349   0.000001981284659   0.000000920688428
Si   14.25638   8.82537   0.67888  -0.000001692803277  -0.000000871348841  -0.000002179482491
Si   15.61413   7.46762   2.03662  -0.000001761497609  -0.000005439871670  -0.000000042051623
Si   15.61413  10.18313   4.75213   0.000003922955720  -0.000008468155283  -0.000003034595800
Si   12.89862   7.46762   4.75213   0.000000756049352   0.000001605812366  -0.000001765096720
Si   12.89862  10.18313   2.03662  -0.000002178945033   0.000000763519832  -0.000000870462917
Si   11.54087   6.10987   6.10987  -0.000003800000992   0.000002271656087  -0.000001303076520
Si   14.25638   6.10987   8.82537  -0.000002605859008  -0.000002345296889  -0.000006273411378
Si   11.54087   8.82537   8.82537   0.000002892288556   0.000001406855783  -0.000001136568746
Si   14.25638   8.82537   6.10987   0.000002757448834   0.000001041841082  -0.000000665193876
Si   15.61413   7.46762   7.46762   0.000002345296917   0.000002605859431   0.000006273410939
Si   15.61413  10.18313  10.18313  -0.000002271656307   0.000003800001161   0.000001303076461
Si   12.89862   7.46762  10.18313  -0.000001041841231  -0.000002757448584   0.000000665194099
Si   12.89862  10.18313   7.46762  -0.000001406855894  -0.000002892288470   0.000001136568859
Si   11.54087   6.10987  11.54087   0.000008468155456  -0.000003922955650   0.000003034595488
Si   14.25638   6.10987  14.25638   0.000005439871802   0.000001761497581   0.000000042051557
Si   11.54087   8.82537  14.25638  -0.000000763519589   0.000002178945072   0.000000870462997
Si   14.25638   8.82537  11.54087  -0.000001605812018  -0.000000756049390   0.000001765096778
Si   15.61413   7.46762  12.89862   0.000002675703562   0.000001432471219  -0.000005881378396
Si   15.61413  10.18313  15.61413   0.000005767123497  -0.000005756889475   0.000003143641241
Si   12.89862   7.46762  15.61413   0.000000871348767   0.000001692803413   0.000002179482559
Si   12.89862  10.18313  12.89862  -0.000001981284762  -0.000001509807024  -0.000000920688148
Si   11.54087  11.54087   0.67888   0.000000711042843   0.000000711042707   0.000001295512145
Si   14.25638  11.54087   3.39437  -0.000007341141615  -0.000000633466581   0.000004960604651
Si   11.54087  14.25638   3.39437  -0.000000633466136  -0.000007341141555   0.000004960604858
Si   14.25638  14.25638   0.67888   0.000003715434429   0.000003715434400   0.000006872354935
Si   15.61413  12.89862   2.03662  -0.000001549548883   0.000005182260034   0.000000901650191
Si   15.61413  15.61413   4.75213  -0.000002339459844  -0.000002339459688   0.000002180281883
Si   12.89862  12.89862   4.75213  -0.000004016865306  -0.000004016865183  -0.000003474616872
Si   12.89862  15.61413   2.03662   0.000005182260238  -0.000001549548991   0.000000901650333
Si   11.54087  11.54087   6.10987   0.000001979725417   0.000001979725306   0.000001682455152
Si   14.25638  11.54087   8.82537  -0.000006325869119  -0.000001813945363  -0.000005756495531
Si   11.54087  14.25638   8.82537  -0.000001813945149  -0.000006325869283  -0.000005756495451
Si   14.25638  14.25638   6.10987   0.000005643856592   0.000005643856531  -0.000000362123096
Si   15.61413  12.89862   7.46762   0.000000066022993  -0.000007651120942  -0.000000790629841
Si   15.61413  15.61413  10.18313   0.000004832555620   0.000004832555557  -0.000001363473052
Si   12.89862  12.89862  10.18313  -0.000001977220407  -0.000001977220305  -0.000000890528200
Si   12.89862  15.61413   7.46762  -0.000007651121032   0.000000066022766  -0.000000790629871
Si   11.54087  11.54087  11.54087   0.000001483777552   0.000001483777362  -0.000001029741054
Si   14.25638  11.54087  14.25638   0.000002472992775   0.000007110935417   0.000000440849796
Si   11.54087  14.25638  14.25638   0.000007110935859   0.000002472992973   0.000000440849944
Si   14.25638  14.25638  11.54087   0.000003672485351   0.000003672485167  -0.000006753045126
Si   15.61413  12.89862  12.89862  -0.000001191601630  -0.000008578549918   0.000000040098339
Si   15.61413  15.61413  15.61413  -0.000003857331919  -0.000003857331936   0.000000005646583
Si   12.89862  12.89862  15.61413  -0.000004665228169  -0.000004665228260   0.000003516746845
Si   12.89862  15.61413  12.89862  -0.000008578549827  -0.000001191601762   0.000000040098370
Si   11.54087  16.97188   0.67888   0.000000184928792   0.000002349535272  -0.000002208961495
Si   14.25638  16.97188   3.39437   0.000000432241048  -0.000001130830680  -0.000001687386962
Si   11.54087  19.68738   3.39437  -0.000003473784982   0.000000043267702  -0.000000471390238
Si   14.25638  19.68738   0.67888   0.000001468088707  -0.000001687990356  -0.000006324340431
Si   15.61413  18.32963   2.03662  -0.000002000983693   0.000002940644015  -0.000001111014547
Si   15.61413  21.04512   4.75213  -0.000003407792414  -0.000000087489541   0.000000425858406
Si   12.89862  18.32963   4.75213   0.000003444691906  -0.000000147880180  -0.000003858874968
Si   12.89862  21.04512   2.03662  -0.000001469601643  -0.000000138405141  -0.000001037333408
Si   11.54087  16.97188   6.10987  -0.000002671575063  -0.000001848746525  -0.000000921001447
Si   14.25638  16.97188   8.82537  -0.000001966204269  -0.000001037058276   0.000002559829243
Si   11.54087  19.68738   8.82537  -0.000002696168748   0.000001910755115  -0.000001633540336
Si   14.25638  19.68738   6.10987  -0.000006387152335   0.000002055320967   0.000000250076713
Si   15.61413  18.32963   7.46762   0.000005288577751  -0.000007203949225   0.000002219660677
Si   15.61413  21.04512  10.18313   0.000001036634821   0.000001361122679   0.000000510910168
Si   12.89862  18.32963  10.18313  -0.000004613283191  -0.000000596919003   0.000000323210407
Si   12.89862  21.04512   7.46762  -0.000001437699557   0.000000023394974  -0.000002426069658
Si   11.54087  16.97188  11.54087   0.000001001261061   0.000002105336042   0.000003115686021
Si   14.25638  16.97188  14.25638  -0.000002568633213  -0.000002006652957  -0.000000595870773
Si   11.54087  19.68738  14.25638  -0.000001262485385  -0.000002104390029   0.000000436827546
Si   14.25638  19.68738  11.54087   0.000000697099965  -0.000003415233070   0.000006810161073
Si   15.61413  18.32963  12.89862   0.000005763794343  -0.000005635915141  -0.000003492545476
Si   15.61413  21.04512  15.61413  -0.000001619897625  -0.000003189403732  -0.000002412907849
Si   12.89862  18.32963  15.61413   0.000003965352157   0.000001990647164   0.000004818325800
Si   12.89862  21.04512  12.89862  -0.000001327122519  -0.000002211770147   0.000002615805662
Si   16.97188   0.67887   0.67888   0.000002485919029  -0.000000758139082  -0.000004554408594
Si   19.68738   0.67887   3.39437   0.000002868585795   0.000003154910092   0.000001081745865
Si   16.97188   3.39437   3.39437   0.000002276645087   0.000002559779727   0.000002444271370
Si   19.68738   3.39437   0.67888  -0.000005992154515  -0.000007102083554  -0.000001180779537
Si   21.04512   2.03662   2.03662   0.000000878619948   0.000002171590996   0.000000233972326
Si   21.04512   4.75212   4.75213   0.000000426759155  -0.000001915300130  -0.000003552679007
Si   18.32963   2.03662   4.75213   0.000007183877872   0.000004586539186  -0.000003018337494
Si   18.32963   4.75212   2.03662  -0.000000749866068  -0.000000875075370  -0.000000968187580
Si   16.97188   0.67887   6.10987  -0.000010277136180  -0.000003480033943   0.000000544851669
Si   19.68738   0.67887   8.82537   0.000001223161835   0.000004851960112  -0.000001542190330
Si   16.97188   3.39437   8.82537   0.000002559981370   0.000002905131295  -0.000002081417326
Si   19.68738   3.39437   6.10987  -0.000001075762537   0.000002046453809  -0.000000627915915
Si   21.04512   2.03662   7.46762  -0.000004851960280  -0.000001223161540   0.000001542190168
Si   21.04512   4.75212  10.18313   0.000003480034096   0.000010277136086  -0.000000544851646
Si   18.32963   2.03662  10.18313  -0.000002046453858   0.000001075762896   0.000000627915903
Si   18.32963   4.75212   7.46762  -0.000002905131039  -0.000002559981165   0.000002081417284
Si   16.97188   0.67887  11.54087   0.000001915300075  -0.000000426759154   0.000003552679075
Si   19.68738   0.67887  14.25638  -0.000002171590948  -0.000000878620783  -0.000000233972371
Si   16.97188   3.39437  14.25638   0.000000875075632   0.000000749866196   0.000000968187457
Si   19.68738   3.39437  11.54087  -0.000004586538822  -0.000007183877961   0.000003018337467
Si   21.04512   2.03662  12.89862  -0.000003154910494  -0.000002868585611  -0.000001081745911
Si   21.04512   4.75212  15.61413   0.000000758139137  -0.000002485918971   0.000004554408631
Si   18.32963   2.03662  15.61413   0.000007102082186   0.000005992154925   0.000001180779917
Si   18.32963   4.75212  12.89862  -0.000002559779589  -0.000002276644697  -0.000002444271600
Si   16.97188   6.10987   0.67888  -0.000000379329533   0.000001195545621  -0.000005218662025
Si   19.68738   6.10987   3.39437   0.000002713098410   0.000002727682207   0.000000527295929
Si   16.97188   8.82537   3.39437   0.000004182747882   0.000000590867691  -0.000000849709917
Si   19.68738   8.82537   0.67888   0.000007774831869  -0.000000262248231   0.000000071782950
Si   21.04512   7.46762   2.03662  -0.000003956098337   0.000004248386092  -0.000000324351648
Si   21.04512  10.18313   4.75213   0.000006353217621  -0.000002712949930  -0.000004752536848
Si   18.32963   7.46762   4.75213   0.000000235893354  -0.000000430274658  -0.000003145011114
Si   18.32963  10.18313   2.03662  -0.000003808874791   0.000003175547584   0.000001515812378
Si   16.97188   6.10987   6.10987  -0.000007656274379   0.000001764563044  -0.000000133428930
Si   19.68738   6.10987   8.82537   0.000002784641487   0.000002365496186   0.000000309606847
Si   16.97188   8.82537   8.82537   0.000006277587227   0.000002011778509   0.000002876135083
Si   19.68738   8.82537   6.10987   0.000004023871672  -0.000005474468759  -0.000000748495637
Si   21.04512   7.46762   7.46762   0.000003222278837  -0.000001260908716   0.000005794523732
Si   21.04512  10.18313  10.18313  -0.000001991157074   0.000003518314327  -0.000000137620554
Si   18.32963   7.46762  10.18313  -0.000007352165202  -0.000005928815009   0.000000202209935
Si   18.32963  10.18313   7.46762  -0.000005881970697   0.000001779451698  -0.000002226053476
Si   16.97188   6.10987  11.54087   0.000001424313193  -0.000000812552563   0.000003373875284
Si   19.68738   6.10987  14.25638  -0.000001510086032   0.000003982459589   0.000000588947716
Si   16.97188   8.82537  14.25638   0.000000234479861  -0.000001157503699  -0.000000300932772
Si   19.68738   8.82537  11.54087   0.000005668989986   0.000000563673029  -0.000000868954226
Si   21.04512   7.46762  12.89862   0.000002155314182  -0.000000711772939  -0.000005543873260
Si   21.04512  10.18313  15.61413   0.000006918700844  -0.000006111798878   0.000003361591711
Si   18.32963   7.46762  15.61413   0.000000329801825  -0.000000518248148   0.000002631810173
Si   18.32963  10.18313  12.89862  -0.000005332522016   0.000002288867982   0.000003078771375
Si   16.97188  11.54087   0.67888   0.000002349535120   0.000000184928870  -0.000002208961395
Si   19.68738  11.54087   3.39437   0.000000043268136  -0.000003473785092  -0.000000471389349
Si   16.97188  14.25638   3.39437  -0.000001130830380   0.000000432241058  -0.000001687386996
Si   19.68738  14.25638   0.67888  -0.000001687990250   0.000001468088645  -0.000006324340571
Si   21.04512  12.89862   2.03662  -0.000000138405469  -0.000001469601710  -0.000001037333688
Si   21.04512  15.61413   4.75213  -0.000000087489557  -0.000003407792780   0.000000425858346
Si   18.32963  12.89862   4.75213  -0.000000147880107   0.000003444691843  -0.000003858875075
Si   18.32963  15.61413   2.03662   0.000002940644192  -0.000002000983729  -0.000001111014520
Si   16.97188  11.54087   6.10987  -0.000001848746573  -0.000002671574981  -0.000000921001194
Si   19.68738  11.54087   8.82537   0.000001910755371  -0.000002696169024  -0.000001633540171
Si   16.97188  14.25638   8.82537  -0.000001037058115  -0.000001966204298   0.000002559829412
Si   19.68738  14.25638   6.10987   0.000002055321185  -0.000006387152428   0.000000250076750
Si   21.04512  12.89862   7.46762   0.000000023394754  -0.000001437699425  -0.000002426070092
Si   21.04512  15.61413  10.18313   0.000001361122889   0.000001036634743   0.000000510910237
Si   18.32963  12.89862  10.18313  -0.000000596919120  -0.000004613283103   0.000000323210446
Si   18.32963  15.61413   7.46762  -0.000007203949133   0.000005288577425   0.000002219660797
Si   16.97188  11.54087  11.54087   0.000002105335981   0.000001001261362   0.000003115685985
Si   19.68738  11.54087  14.25638  -0.000002104389769  -0.000001262485478   0.000000436827696
Si   16.97188  14.25638  14.25638  -0.000002006652848  -0.000002568633280  -0.000000595870767
Si   19.68738  14.25638  11.54087  -0.000003415232932   0.000000697099555   0.000006810160997
Si   21.04512  12.89862  12.89862  -0.000002211770420  -0.000001327122384   0.000002615805149
Si   21.04512  15.61413  15.61413  -0.000003189403876  -0.000001619898026  -0.000002412907898
Si   18.32963  12.89862  15.61413   0.000001990647275   0.000003965352133   0.000004818325901
Si   18.32963  15.61413  12.89862  -0.000005635915009   0.000005763794192  -0.000003492545363
Si   16.97188  16.97188   0.67888   0.000001375912138   0.000001375912123  -0.000004813688096
Si   19.68738  16.97188   3.39437   0.000000118203071  -0.000000209475103   0.000000884199189
Si   16.97188  19.68738   3.39437  -0.000000209475091   0.000000118202886   0.000000884198893
Si   19.68738  19.68738   0.67888  -0.000000043499539  -0.000000043499497  -0.000002438949944
Si   21.04512  18.32963   2.03662  -0.000007079114257   0.000000392859659   0.000000029575700
Si   21.04512  21.04512   4.75213  -0.000003757566458  -0.000003757566098  -0.000005236437521
Si   18.32963  18.32963   4.75213  -0.000002718407147  -0.000002718406969  -0.000005988256253
Si   18.32963  21.04512   2.03662   0.000000392859745  -0.000007079114020   0.000000029575746
Si   16.97188  16.97188   6.10987   0.000000895793772   0.000000895793750  -0.000001254904999
Si   19.68738  16.97188   8.82537   0.000000900118680  -0.000001267465824  -0.000001363966649
Si   16.97188  19.68738   8.82537  -0.000001267465780   0.000000900118661  -0.000001363966577
Si   19.68738  19.68738   6.10987  -0.000000066588860  -0.000000066589038  -0.000000225523572
Si   21.04512  18.32963   7.46762   0.000005114971265   0.000002759450610   0.000009135325511
Si   21.04512  21.04512  10.18313   0.000004899091073   0.000004899091125  -0.000000333512655
Si   18.32963  18.32963  10.18313   0.000004153420725   0.000004153420727  -0.000000193837749
Si   18.32963  21.04512   7.46762   0.000002759450765   0.000005114971073   0.000009135325583
Si   16.97188  16.97188  11.54087   0.000002021728961   0.000002021729051   0.000003168547233
Si   19.68738  16.97188  14.25638  -0.000000377834206   0.000000011718125   0.000000871235304
Si   16.97188  19.68738  14.25638   0.000000011717803  -0.000000377834250   0.000000871235210
Si   19.68738  19.68738  11.54087   0.000002167633194   0.000002167633010   0.000003637243693
Si   21.04512  18.32963  12.89862   0.000005614851782   0.000002077211238  -0.000007892037706
Si   21.04512  21.04512  15.61413  -0.000003780064642  -0.000003780064505   0.000004943501509
Si   18.32963  18.32963  15.61413  -0.000002232242704  -0.000002232243043   0.000005445776068
Si   18.32963  21.04512  12.89862   0.000002077211253   0.000005614851751  -0.000007892037683
