216 

Si    0.72888   0.67888   0.67888   0.013631497225389   0.000002001508731   0.000002001633788
Si    3.39437   0.67888   3.39437  -0.000195062194299   0.000124674058400  -0.000201385160589
Si    0.67888   3.39437   3.39437   0.000433613922079  -0.000118049909223  -0.000118379219244
Si    3.39437   3.39437   0.67888  -0.000195098225275  -0.000201497828456   0.000125084701160
Si    4.75213   2.03662   2.03662   0.000008528811055   0.000027583005680   0.000027703912555
Si    4.75213   4.75213   4.75213   0.000015183947273   0.000008182062488   0.000008179269334
Si    2.03662   2.03662   4.75213   0.000034201421363  -0.000037162274373   0.000036357292987
Si    2.03662   4.75213   2.03662   0.000034100553039   0.000036445477205  -0.000037241419654
Si    0.67888   0.67888   6.10987  -0.000020657483037   0.000002865314464   0.000000639573249
Si    3.39437   0.67888   8.82538  -0.000019862486083   0.000008157645022   0.000008160492008
Si    0.67888   3.39437   8.82538  -0.000005492634502  -0.000008080979253   0.000010810310905
Si    3.39437   3.39437   6.10987  -0.000016814589960   0.000020982213033  -0.000003350431465
Si    4.75213   2.03662   7.46762  -0.000000012480797  -0.000007640597405  -0.000000924034853
Si    4.75213   4.75213  10.18313   0.000003069802945  -0.000019389314925  -0.000004684407735
Si    2.03662   2.03662  10.18313   0.000016305330685   0.000000110292480   0.000002748974649
Si    2.03662   4.75213   7.46762   0.000010341303018  -0.000005955090996   0.000007312151956
Si    0.67888   0.67888  11.54087  -0.000015370090293   0.000008186798135  -0.000007929547078
Si    3.39437   0.67888  14.25638  -0.000189138526021  -0.000112700092556   0.000191716150887
Si    0.67888   3.39437  14.25638   0.000432168677247   0.000113040275397  -0.000117147218479
Si    3.39437   3.39437  11.54087  -0.000022187293538   0.000016445249725   0.000003309576368
Si    4.75213   2.03662  12.89863  -0.000016975841817   0.000054663251426   0.000024688450142
Si    4.75213   4.75213  15.61412  -0.000010845139560  -0.000012843139534  -0.000064391462133
Si    2.03662   2.03662  15.61412  -0.003409351500018  -0.002468380003319   0.002461238061237
Si    2.03662   4.75213  12.89863  -0.000177938709476   0.000057691093494  -0.000051981021852
Si    0.67888   6.10987   0.67888  -0.000020495627585   0.000000650388462   0.000002888488964
Si    3.39437   6.10987   3.39437  -0.000016846211938  -0.000003358718541   0.000020964704136
Si    0.67888   8.82538   3.39437  -0.000005641394029   0.000010755006268  -0.000008079799328
Si    3.39437   8.82538   0.67888  -0.000019774385753   0.000008156367877   0.000008161532166
Si    4.75213   7.46762   2.03662  -0.000000001034746  -0.000000909691621  -0.000007645584227
Si    4.75213  10.18313   4.75213   0.000003190724441  -0.000004692175101  -0.000019381574231
Si    2.03662   7.46762   4.75213   0.000010346889211   0.000007286598274  -0.000005919878061
Si    2.03662  10.18313   2.03662   0.000016281700795   0.000002732353288   0.000000284960636
Si    0.67888   6.10987   6.10987   0.000110657298967  -0.000020536077694  -0.000020567794300
Si    3.39437   6.10987   8.82538  -0.000005688608020   0.000014365609374   0.000004395360145
Si    0.67888   8.82538   8.82538   0.000105434278171   0.000008974838809   0.000008956349146
Si    3.39437   8.82538   6.10987  -0.000005682098528   0.000004382353379   0.000014370262705
Si    4.75213   7.46762   7.46762   0.000008934014639  -0.000012505992217  -0.000012506417574
Si    4.75213  10.18313  10.18313   0.000007894197073   0.000004349423001   0.000004345759811
Si    2.03662   7.46762  10.18313  -0.000061816481518  -0.000005671303173  -0.000001444843747
Si    2.03662  10.18313   7.46762  -0.000061816605304  -0.000001449535204  -0.000005682376743
Si    0.67888   6.10987  11.54087   0.000107992454480   0.000019463745575  -0.000023260116123
Si    3.39437   6.10987  14.25638  -0.000021122630871  -0.000011454027370  -0.000024517707288
Si    0.67888   8.82538  14.25638  -0.000010923527241   0.000000275201872   0.000000788898835
Si    3.39437   8.82538  11.54087  -0.000011783410102   0.000007464299303  -0.000024196569305
Si    4.75213   7.46762  12.89863   0.000009271703360  -0.000005158577127   0.000031224344764
Si    4.75213  10.18313  15.61412   0.000000017290448  -0.000001087925609   0.000005627184523
Si    2.03662   7.46762  15.61412   0.000015406984970  -0.000005623874791  -0.000003170397960
Si    2.03662  10.18313  12.89863   0.000009470757666  -0.000010175493883   0.000015931927433
Si    0.67888  11.54087   0.67888  -0.000015236817176  -0.000007930544444   0.000008162724582
Si    3.39437  11.54087   3.39437  -0.000022169720268   0.000003300609075   0.000016351521557
Si    0.67888  14.25638   3.39437   0.000432189486000  -0.000116811387378   0.000113369817744
Si    3.39437  14.25638   0.67888  -0.000189182607162   0.000191805773135  -0.000113116077190
Si    4.75213  12.89863   2.03662  -0.000016949193910   0.000024687512144   0.000054547346540
Si    4.75213  15.61412   4.75213  -0.000010890254714  -0.000064531461411  -0.000012849533432
Si    2.03662  12.89863   4.75213  -0.000177938742681  -0.000051920240967   0.000057741995770
Si    2.03662  15.61412   2.03662  -0.003409349100935   0.002461149764048  -0.002468475967433
Si    0.67888  11.54087   6.10987   0.000107974778778  -0.000023210347534   0.000019506279172
Si    3.39437  11.54087   8.82538  -0.000011772869851  -0.000024216012918   0.000007445723978
Si    0.67888  14.25638   8.82538  -0.000010757677530   0.000000799487227   0.000000236943900
Si    3.39437  14.25638   6.10987  -0.000021136999505  -0.000024610411325  -0.000011466969770
Si    4.75213  12.89863   7.46762   0.000009168485785   0.000031237160399  -0.000005142365458
Si    4.75213  15.61412  10.18313  -0.000000027807640   0.000005640387281  -0.000001092029519
Si    2.03662  12.89863  10.18313   0.000009465307140   0.000015964959110  -0.000010196806604
Si    2.03662  15.61412   7.46762   0.000015430075246  -0.000003000450872  -0.000005636283086
Si    0.67888  11.54087  11.54087   0.000112513168022   0.000011564905007   0.000011615123081
Si    3.39437  11.54087  14.25638  -0.000016819895759   0.000001357117825  -0.000022980412995
Si    0.67888  14.25638  14.25638   0.000431700069117   0.000108982472155   0.000109328818034
Si    3.39437  14.25638  11.54087  -0.000016823500327  -0.000022977336995   0.000001330150494
Si    4.75213  12.89863  12.89863   0.000015184865301   0.000008131014822   0.000008141443640
Si    4.75213  15.61412  15.61412   0.000009493516888  -0.000035701209552  -0.000035826571711
Si    2.03662  12.89863  15.61412   0.000034991933443  -0.000026419526094   0.000034359913693
Si    2.03662  15.61412  12.89863   0.000035091178091   0.000034276394277  -0.000026327780745
Si    6.10987   0.67888   0.67888  -0.000004684789626   0.000002878081207   0.000002874589310
Si    8.82538   0.67888   3.39437   0.000006440684320   0.000005526342594  -0.000008017294554
Si    6.10987   3.39437   3.39437   0.000002871062190  -0.000014372716705  -0.000014374238667
Si    8.82538   3.39437   0.67888   0.000006456306552  -0.000008012417192   0.000005510747070
Si   10.18313   2.03662   2.03662  -0.000001362445539   0.000002681639895   0.000002708352406
Si   10.18313   4.75213   4.75213   0.000000768102781  -0.000000867685387  -0.000000906728374
Si    7.46762   2.03662   4.75213   0.000000597007020   0.000011294092033   0.000004672505614
Si    7.46762   4.75213   2.03662   0.000000630702948   0.000004674379010   0.000011296004124
Si    6.10987   0.67888   6.10987  -0.000004368349244   0.000028318754436  -0.000014472437348
Si    8.82538   0.67888   8.82538   0.000006832192735   0.000008978095140   0.000008956297524
Si    6.10987   3.39437   8.82538  -0.000000573838051   0.000012235389355   0.000001088408619
Si    8.82538   3.39437   6.10987   0.000005871577869  -0.000004461004497   0.000000857795709
Si   10.18313   2.03662   7.46762  -0.000003953943199  -0.000000884593233  -0.000006380737860
Si   10.18313   4.75213  10.18313   0.000005006285466   0.000011508937382  -0.000007287173008
Si    7.46762   2.03662  10.18313  -0.000011372755873   0.000001941319509   0.000001100563747
Si    7.46762   4.75213   7.46762  -0.000003115484941   0.000004010902657  -0.000015434997061
Si    6.10987   0.67888  11.54087  -0.000005242649966  -0.000018305579621   0.000011585989165
Si    8.82538   0.67888  14.25638   0.000001156214950   0.000005503996253   0.000000726115385
Si    6.10987   3.39437  14.25638   0.000002107888670  -0.000011603966769   0.000004464956161
Si    8.82538   3.39437  11.54087   0.000012132888449  -0.000007487600046  -0.000007134537938
Si   10.18313   2.03662  12.89863   0.000003412343658  -0.000010148885905   0.000009080786323
Si   10.18313   4.75213  15.61412   0.000004303225101   0.000000918243404   0.000007270828782
Si    7.46762   2.03662  15.61412  -0.000003982113738  -0.000003803146352   0.000000064544499
Si    7.46762   4.75213  12.89863  -0.000007359562494   0.000012887880369   0.000005008505080
Si    6.10987   6.10987   0.67888  -0.000004483671226  -0.000014485720456   0.000028283046310
Si    8.82538   6.10987   3.39437   0.000005889496526   0.000000851268894  -0.000004468162981
Si    6.10987   8.82538   3.39437  -0.000000582648483   0.000001093829850   0.000012224440282
Si    8.82538   8.82538   0.67888   0.000006786089797   0.000008974785654   0.000008959541506
Si   10.18313   7.46762   2.03662  -0.000003943497637  -0.000006384870714  -0.000000902276630
Si   10.18313  10.18313   4.75213   0.000005000624993  -0.000007275460762   0.000011533297532
Si    7.46762   7.46762   4.75213  -0.000003120150716  -0.000015418302311   0.000003997013768
Si    7.46762  10.18313   2.03662  -0.000011359602505   0.000001090852920   0.000001958718827
Si    6.10987   6.10987   6.10987  -0.000003926953295   0.000003383817278   0.000003383367508
Si    8.82538   6.10987   8.82538   0.000001963806707   0.000000843204166   0.000002878907915
Si    6.10987   8.82538   8.82538  -0.000000921274596   0.000002889309753   0.000002885036619
Si    8.82538   8.82538   6.10987   0.000001953563311   0.000002852853124   0.000000837834358
Si   10.18313   7.46762   7.46762  -0.000001931127968  -0.000002006852021  -0.000002024922602
Si   10.18313  10.18313  10.18313  -0.000001056038368  -0.000000882581721  -0.000000860327827
Si    7.46762   7.46762  10.18313  -0.000003879773752  -0.000003818533269   0.000000054063688
Si    7.46762  10.18313   7.46762  -0.000003896936095   0.000000070765095  -0.000003809146062
Si    6.10987   6.10987  11.54087  -0.000003809687099   0.000003478728452  -0.000010593158594
Si    8.82538   6.10987  14.25638   0.000010274157439  -0.000001821124619  -0.000001481298522
Si    6.10987   8.82538  14.25638   0.000000293662363   0.000008916193658  -0.000015110977500
Si    8.82538   8.82538  11.54087   0.000007238152247   0.000008177218150  -0.000008129498126
Si   10.18313   7.46762  12.89863   0.000005875113315   0.000004386261823  -0.000001522018232
Si   10.18313  10.18313  15.61412  -0.000003943397738  -0.000000734329385  -0.000006227804620
Si    7.46762   7.46762  15.61412  -0.000013219128595  -0.000010066733394  -0.000010916927173
Si    7.46762  10.18313  12.89863   0.000002147480651   0.000008135030619   0.000007051445643
Si    6.10987  11.54087   0.67888  -0.000005357489517   0.000011595109809  -0.000018268459273
Si    8.82538  11.54087   3.39437   0.000012131703228  -0.000007154207259  -0.000007474119732
Si    6.10987  14.25638   3.39437   0.000002108055523   0.000004485812338  -0.000011589420932
Si    8.82538  14.25638   0.67888   0.000001188956462   0.000000730969578   0.000005536698472
Si   10.18313  12.89863   2.03662   0.000003428608975   0.000009091264497  -0.000010157911111
Si   10.18313  15.61412   4.75213   0.000004287274409   0.000007257530685   0.000000930853140
Si    7.46762  12.89863   4.75213  -0.000007359663590   0.000005059838284   0.000012902198406
Si    7.46762  15.61412   2.03662  -0.000003964677012   0.000000052473032  -0.000003822452830
Si    6.10987  11.54087   6.10987  -0.000003809608905  -0.000010599617320   0.000003465894575
Si    8.82538  11.54087   8.82538   0.000007231158875  -0.000008125163259   0.000008168206958
Si    6.10987  14.25638   8.82538   0.000000302414549  -0.000015125993602   0.000008923816956
Si    8.82538  14.25638   6.10987   0.000010275320428  -0.000001486271293  -0.000001822281066
Si   10.18313  12.89863   7.46762   0.000005880831344  -0.000001499831355   0.000004402270708
Si   10.18313  15.61412  10.18313  -0.000003953754346  -0.000006238930670  -0.000000744870120
Si    7.46762  12.89863  10.18313   0.000002169383678   0.000007020562886   0.000008142019377
Si    7.46762  15.61412   7.46762  -0.000013232404097  -0.000010917841970  -0.000010057981174
Si    6.10987  11.54087  11.54087  -0.000003053126595  -0.000006273038199  -0.000006268307383
Si    8.82538  11.54087  14.25638   0.000005870558528  -0.000004598866227   0.000000710877981
Si    6.10987  14.25638  14.25638   0.000002004425901   0.000011476191829   0.000011482034385
Si    8.82538  14.25638  11.54087   0.000005887115268   0.000000710996250  -0.000004612755907
Si   10.18313  12.89863  12.89863   0.000000770395814   0.000006651428959   0.000006682022508
Si   10.18313  15.61412  15.61412  -0.000002235754506  -0.000005570128658  -0.000005592480332
Si    7.46762  12.89863  15.61412  -0.000004653867193   0.000006355272320  -0.000018588764432
Si    7.46762  15.61412  12.89863  -0.000004670580539  -0.000018577219703   0.000006374280015
Si   11.54087   0.67888   0.67888  -0.000013430613775   0.000008148472338   0.000008152484579
Si   14.25638   0.67888   3.39437  -0.000179302634142   0.000112581915900   0.000182479633073
Si   11.54087   3.39437   3.39437  -0.000006631935607  -0.000003526896938  -0.000003550695197
Si   14.25638   3.39437   0.67888  -0.000179335747634   0.000182550567178   0.000112988498780
Si   15.61412   2.03662   2.03662  -0.003262986976602   0.002166834639539   0.002166947010924
Si   15.61412   4.75213   4.75213  -0.000180887504216  -0.000045690672914  -0.000045774339961
Si   12.89863   2.03662   4.75213  -0.000014360059595  -0.000055144879858   0.000022776011244
Si   12.89863   4.75213   2.03662  -0.000014319677682   0.000022767732761  -0.000055021736608
Si   11.54087   0.67888   6.10987  -0.000006655289667   0.000022729987526   0.000013096738550
Si   14.25638   0.67888   8.82538  -0.000011135295534   0.000002890961860   0.000002884729810
Si   11.54087   3.39437   8.82538  -0.000008759383121  -0.000024312330448   0.000007223307732
Si   14.25638   3.39437   6.10987  -0.000014146444973  -0.000031373777734   0.000011736242669
Si   15.61412   2.03662   7.46762   0.000013584900038  -0.000001241343105  -0.000000010426943
Si   15.61412   4.75213  10.18313   0.000006422350969   0.000011814128097   0.000011218625396
Si   12.89863   2.03662  10.18313   0.000004465239611   0.000009196682388   0.000001799828404
Si   12.89863   4.75213   7.46762   0.000009166375031   0.000031444546110  -0.000012883230276
Si   11.54087   0.67888  11.54087  -0.000012754780014  -0.000010878012307  -0.000022918177814
Si   14.25638   0.67888  14.25638  -0.000178485625972  -0.000102463353735  -0.000185407098154
Si   11.54087   3.39437  14.25638  -0.000001003329202   0.000008819385318  -0.000010828620678
Si   14.25638   3.39437  11.54087  -0.000013387831037  -0.000027760388811  -0.000007716691646
Si   15.61412   2.03662  12.89863   0.000029299336633   0.000040267871252   0.000029996739396
Si   15.61412   4.75213  15.61412   0.000023874971560  -0.000019102131598  -0.000047606527603
Si   12.89863   2.03662  15.61412   0.000005118818950  -0.000027794067269   0.000025945397372
Si   12.89863   4.75213  12.89863   0.000015162356757   0.000008323626967   0.000007996915124
Si   11.54087   6.10987   0.67888  -0.000006777115260   0.000013103425390   0.000022701676516
Si   14.25638   6.10987   3.39437  -0.000014130516020   0.000011722185065  -0.000031300650659
Si   11.54087   8.82538   3.39437  -0.000008768729638   0.000007242235848  -0.000024281463642
Si   14.25638   8.82538   0.67888  -0.000011051582770   0.000002889008738   0.000002886618973
Si   15.61412   7.46762   2.03662   0.000013591705563  -0.000000014858552  -0.000001429361532
Si   15.61412  10.18313   4.75213   0.000006404880117   0.000011201363450   0.000011795767340
Si   12.89863   7.46762   4.75213   0.000009265938095  -0.000012904775889   0.000031433725114
Si   12.89863  10.18313   2.03662   0.000004490367906   0.000001801630726   0.000009191566625
Si   11.54087   6.10987   6.10987  -0.000010947592336  -0.000003424835057  -0.000003413563998
Si   14.25638   6.10987   8.82538  -0.000002618308188  -0.000015197983985   0.000008675231435
Si   11.54087   8.82538   8.82538  -0.000009858291234   0.000008157066877   0.000008161176097
Si   14.25638   8.82538   6.10987  -0.000002628930863   0.000008669037270  -0.000015197301573
Si   15.61412   7.46762   7.46762  -0.000070097863219  -0.000010400384542  -0.000010376439870
Si   15.61412  10.18313  10.18313  -0.000068234287159   0.000001422501839   0.000001417017932
Si   12.89863   7.46762  10.18313   0.000003453055624   0.000001348849552  -0.000003349112200
Si   12.89863  10.18313   7.46762   0.000003470242598  -0.000003348141006   0.000001331216852
Si   11.54087   6.10987  11.54087  -0.000006664765815  -0.000002627928200   0.000000616246814
Si   14.25638   6.10987  14.25638  -0.000014278458382   0.000004845329635   0.000024881048021
Si   11.54087   8.82538  14.25638  -0.000002667126173   0.000004604995849   0.000014455114796
Si   14.25638   8.82538  11.54087  -0.000003504065017   0.000001340254096   0.000012309273232
Si   15.61412   7.46762  12.89863   0.000001137892718  -0.000018484838582  -0.000000747664158
Si   15.61412  10.18313  15.61412   0.000013574509744  -0.000003733844693  -0.000002330928412
Si   12.89863   7.46762  15.61412   0.000005526323267  -0.000009957152885  -0.000017353882908
Si   12.89863  10.18313  12.89863   0.000003189511320   0.000003059094875  -0.000019591644768
Si   11.54087  11.54087   0.67888  -0.000012858981015  -0.000022948948940  -0.000010855163739
Si   14.25638  11.54087   3.39437  -0.000013401704651  -0.000007735921942  -0.000027760528575
Si   11.54087  14.25638   3.39437  -0.000001020608041  -0.000010815632648   0.000008813759755
Si   14.25638  14.25638   0.67888  -0.000178511379949  -0.000185483220603  -0.000102867671372
Si   15.61412  12.89863   2.03662   0.000029149940123   0.000030080630476   0.000040343420047
Si   15.61412  15.61412   4.75213   0.000024040856110  -0.000047527342877  -0.000019001554442
Si   12.89863  12.89863   4.75213   0.000015161999323   0.000007989526384   0.000008324725345
Si   12.89863  15.61412   2.03662   0.000005102269854   0.000025846435772  -0.000027912086034
Si   11.54087  11.54087   6.10987  -0.000006647505862   0.000000630191049  -0.000002632511396
Si   14.25638  11.54087   8.82538  -0.000003493403588   0.000012305642367   0.000001336266791
Si   11.54087  14.25638   8.82538  -0.000002675091123   0.000014461893840   0.000004618371675
Si   14.25638  14.25638   6.10987  -0.000014266221699   0.000024876056432   0.000004830589794
Si   15.61412  12.89863   7.46762   0.000001138209389  -0.000000782869926  -0.000018511772340
Si   15.61412  15.61412  10.18313   0.000013603553235  -0.000002511457457  -0.000003745623187
Si   12.89863  12.89863  10.18313   0.000003073403473  -0.000019596295526   0.000003061867852
Si   12.89863  15.61412   7.46762   0.000005500639635  -0.000017354991218  -0.000009959621573
Si   11.54087  11.54087  11.54087  -0.000011984491855  -0.000004731381738  -0.000004746764279
Si   14.25638  11.54087  14.25638  -0.000014137773862  -0.000018839087228   0.000024175843377
Si   11.54087  14.25638  14.25638  -0.000005601250104  -0.000004638633546  -0.000004618865859
Si   14.25638  14.25638  11.54087  -0.000014151554163   0.000024256988582  -0.000018859877773
Si   15.61412  12.89863  12.89863  -0.000180892685873   0.000063663312278   0.000063710557839
Si   15.61412  15.61412  15.61412  -0.003264902658843  -0.002175711568786  -0.002175811248513
Si   12.89863  12.89863  15.61412  -0.000008193508522  -0.000010909870893   0.000045152467669
Si   12.89863  15.61412  12.89863  -0.000008250864129   0.000045251077768  -0.000010923351314
