384 

Si    0.67887   0.67887   0.67888   0.000003780065009   0.000003780064978  -0.000004943501484
Si    3.39438   0.67887   3.39437  -0.000002077210960  -0.000005614851910   0.000007892037880
Si    0.67887   3.39437   3.39437  -0.000005614851606  -0.000002077210656   0.000007892038035
Si    3.39438   3.39437   0.67888   0.000002232243235   0.000002232243111  -0.000005445776256
Si    4.75212   2.03662   2.03662  -0.000000011717613   0.000000377834051  -0.000000871235037
Si    4.75212   4.75212   4.75213  -0.000002021728850  -0.000002021729151  -0.000003168547371
Si    2.03662   2.03662   4.75213  -0.000002167633281  -0.000002167633261  -0.000003637243884
Si    2.03662   4.75212   2.03662   0.000000377834134  -0.000000011717721  -0.000000871235182
Si    0.67887   0.67887   6.10987  -0.000004899090868  -0.000004899090999   0.000000333512624
Si    3.39438   0.67887   8.82537  -0.000002759450734  -0.000005114971313  -0.000009135325821
Si    0.67887   3.39437   8.82537  -0.000005114970985  -0.000002759450818  -0.000009135325475
Si    3.39438   3.39437   6.10987  -0.000004153420494  -0.000004153420460   0.000000193837665
Si    4.75212   2.03662   7.46762   0.000001267465950  -0.000000900118836   0.000001363966393
Si    4.75212   4.75212  10.18313  -0.000000895793667  -0.000000895793743   0.000001254904781
Si    2.03662   2.03662  10.18313   0.000000066588773   0.000000066589079   0.000000225523462
Si    2.03662   4.75212   7.46762  -0.000000900118934   0.000001267465831   0.000001363966479
Si    0.67887   0.67887  11.54087   0.000003757566352   0.000003757566140   0.000005236437435
Si    3.39438   0.67887  14.25638  -0.000000392859277   0.000007079114210  -0.000000029575433
Si    0.67887   3.39437  14.25638   0.000007079114400  -0.000000392859386  -0.000000029575412
Si    3.39438   3.39437  11.54087   0.000002718407429   0.000002718407262   0.000005988256111
Si    4.75212   2.03662  12.89862   0.000000209475168  -0.000000118203040  -0.000000884198844
Si    4.75212   4.75212  15.61413  -0.000001375912242  -0.000001375912174   0.000004813688291
Si    2.03662   2.03662  15.61413   0.000000043499494   0.000000043499611   0.000002438949803
Si    2.03662   4.75212  12.89862  -0.000000118203000   0.000000209475032  -0.000000884198800
Si    0.67887   6.10987   0.67888   0.000003189403941   0.000001619898450   0.000002412907657
Si    3.39438   6.10987   3.39437   0.000005635915131  -0.000005763794005   0.000003492545314
Si    0.67887   8.82537   3.39437   0.000002211770335   0.000001327122183  -0.000002615805428
Si    3.39438   8.82537   0.67888  -0.000001990647439  -0.000003965351979  -0.000004818325781
Si    4.75212   7.46762   2.03662   0.000002006652863   0.000002568633215   0.000000595870774
Si    4.75212  10.18313   4.75213  -0.000002105336197  -0.000001001261060  -0.000003115686013
Si    2.03662   7.46762   4.75213   0.000003415233035  -0.000000697099951  -0.000006810161666
Si    2.03662  10.18313   2.03662   0.000002104389883   0.000001262485522  -0.000000436827693
Si    0.67887   6.10987   6.10987  -0.000001361122712  -0.000001036634896  -0.000000510910711
Si    3.39438   6.10987   8.82537   0.000007203949523  -0.000005288577409  -0.000002219660822
Si    0.67887   8.82537   8.82537  -0.000000023394817   0.000001437699483   0.000002426069811
Si    3.39438   8.82537   6.10987   0.000000596919187   0.000004613282879  -0.000000323211401
Si    4.75212   7.46762   7.46762   0.000001037058407   0.000001966204441  -0.000002559829292
Si    4.75212  10.18313  10.18313   0.000001848746409   0.000002671575034   0.000000921001327
Si    2.03662   7.46762  10.18313  -0.000002055320859   0.000006387152538  -0.000000250076599
Si    2.03662  10.18313   7.46762  -0.000001910754935   0.000002696168911   0.000001633540792
Si    0.67887   6.10987  11.54087   0.000000087489398   0.000003407792810  -0.000000425858760
Si    3.39438   6.10987  14.25638  -0.000002940644106   0.000002000983937   0.000001111014716
Si    0.67887   8.82537  14.25638   0.000000138405232   0.000001469601513   0.000001037333533
Si    3.39438   8.82537  11.54087   0.000000147880418  -0.000003444691900   0.000003858874881
Si    4.75212   7.46762  12.89862   0.000001130830736  -0.000000432241023   0.000001687386940
Si    4.75212  10.18313  15.61413  -0.000002349535436  -0.000000184928607   0.000002208961609
Si    2.03662   7.46762  15.61413   0.000001687990390  -0.000001468088598   0.000006324340973
Si    2.03662  10.18313  12.89862  -0.000000043268050   0.000003473785474   0.000000471390662
Si    0.67887  11.54087   0.67888  -0.000006918700630   0.000006111799103  -0.000003361591694
Si    3.39438  11.54087   3.39437   0.000005332522242  -0.000002288868462  -0.000003078771277
Si    0.67887  14.25638   3.39437  -0.000002155314328   0.000000711773001   0.000005543873299
Si    3.39438  14.25638   0.67888  -0.000000329801473   0.000000518247943  -0.000002631810336
Si    4.75212  12.89862   2.03662  -0.000000234479375   0.000001157503822   0.000000300932833
Si    4.75212  15.61413   4.75213  -0.000001424313065   0.000000812552762  -0.000003373875203
Si    2.03662  12.89862   4.75213  -0.000005668990011  -0.000000563673375   0.000000868954097
Si    2.03662  15.61413   2.03662   0.000001510085730  -0.000003982459527  -0.000000588947759
Si    0.67887  11.54087   6.10987   0.000001991156100  -0.000003518314237   0.000000137620070
Si    3.39438  11.54087   8.82537   0.000005881970689  -0.000001779452235   0.000002226053470
Si    0.67887  14.25638   8.82537  -0.000003222278939   0.000001260908657  -0.000005794523308
Si    3.39438  14.25638   6.10987   0.000007352165563   0.000005928815015  -0.000000202210221
Si    4.75212  12.89862   7.46762  -0.000006277586603  -0.000002011778475  -0.000002876134763
Si    4.75212  15.61413  10.18313   0.000007656274107  -0.000001764562940   0.000000133429007
Si    2.03662  12.89862  10.18313  -0.000004023871543   0.000005474469041   0.000000748495463
Si    2.03662  15.61413   7.46762  -0.000002784641885  -0.000002365496134  -0.000000309606810
Si    0.67887  11.54087  11.54087  -0.000006353217909   0.000002712950414   0.000004752537230
Si    3.39438  11.54087  14.25638   0.000003808875199  -0.000003175547470  -0.000001515812531
Si    0.67887  14.25638  14.25638   0.000003956098202  -0.000004248386054   0.000000324351814
Si    3.39438  14.25638  11.54087  -0.000000235893259   0.000000430274764   0.000003145011300
Si    4.75212  12.89862  12.89862  -0.000004182747556  -0.000000590867458   0.000000849710558
Si    4.75212  15.61413  15.61413   0.000000379329498  -0.000001195545764   0.000005218662120
Si    2.03662  12.89862  15.61413  -0.000007774831973   0.000000262248374  -0.000000071783122
Si    2.03662  15.61413  12.89862  -0.000002713098589  -0.000002727682611  -0.000000527295679
Si    0.67887  16.97188   0.67888  -0.000000758138591   0.000002485918868  -0.000004554408717
Si    3.39438  16.97188   3.39437   0.000002559780177   0.000002276644974   0.000002444271476
Si    0.67887  19.68738   3.39437   0.000003154910524   0.000002868585585   0.000001081745722
Si    3.39438  19.68738   0.67888  -0.000007102081941  -0.000005992154777  -0.000001180780070
Si    4.75212  18.32963   2.03662  -0.000000875075391  -0.000000749866397  -0.000000968187472
Si    4.75212  21.04512   4.75213  -0.000001915299755   0.000000426759456  -0.000003552679448
Si    2.03662  18.32963   4.75213   0.000004586539001   0.000007183877860  -0.000003018337577
Si    2.03662  21.04512   2.03662   0.000002171591129   0.000000878621218   0.000000233972716
Si    0.67887  16.97188   6.10987  -0.000003480033633  -0.000010277136174   0.000000544851589
Si    3.39438  16.97188   8.82537   0.000002905131640   0.000002559981276  -0.000002081417019
Si    0.67887  19.68738   8.82537   0.000004851960225   0.000001223161711  -0.000001542190242
Si    3.39438  19.68738   6.10987   0.000002046454032  -0.000001075762749  -0.000000627915864
Si    4.75212  18.32963   7.46762  -0.000002559981184  -0.000002905131311   0.000002081417160
Si    4.75212  21.04512  10.18313   0.000010277136205   0.000003480033592  -0.000000544851735
Si    2.03662  18.32963  10.18313   0.000001075762638  -0.000002046453821   0.000000627916069
Si    2.03662  21.04512   7.46762  -0.000001223161830  -0.000004851959914   0.000001542190242
Si    0.67887  16.97188  11.54087  -0.000000426759133   0.000001915299985   0.000003552679050
Si    3.39438  16.97188  14.25638   0.000000749866695   0.000000875075360   0.000000968187644
Si    0.67887  19.68738  14.25638  -0.000000878620807  -0.000002171591288  -0.000000233972405
Si    3.39438  19.68738  11.54087  -0.000007183877588  -0.000004586539203   0.000003018337363
Si    4.75212  18.32963  12.89862  -0.000002276644790  -0.000002559780094  -0.000002444271637
Si    4.75212  21.04512  15.61413  -0.000002485918626   0.000000758138932   0.000004554408637
Si    2.03662  18.32963  15.61413   0.000005992154897   0.000007102081949   0.000001180779976
Si    2.03662  21.04512  12.89862  -0.000002868585822  -0.000003154910178  -0.000001081745777
Si    6.10987   0.67887   0.67888   0.000001619898167   0.000003189403784   0.000002412908029
Si    8.82537   0.67887   3.39437   0.000001327122373   0.000002211770320  -0.000002615805372
Si    6.10987   3.39437   3.39437  -0.000005763794095   0.000005635915016   0.000003492545615
Si    8.82537   3.39437   0.67888  -0.000003965352182  -0.000001990647405  -0.000004818325876
Si   10.18313   2.03662   2.03662   0.000001262485129   0.000002104389922  -0.000000436827635
Si   10.18313   4.75212   4.75213  -0.000001001261177  -0.000002105336281  -0.000003115685978
Si    7.46762   2.03662   4.75213  -0.000000697099880   0.000003415233192  -0.000006810161924
Si    7.46762   4.75212   2.03662   0.000002568633462   0.000002006652877   0.000000595870880
Si    6.10987   0.67887   6.10987  -0.000001036634886  -0.000001361122765  -0.000000510910317
Si    8.82537   0.67887   8.82537   0.000001437699579  -0.000000023394771   0.000002426069889
Si    6.10987   3.39437   8.82537  -0.000005288577487   0.000007203949417  -0.000002219660823
Si    8.82537   3.39437   6.10987   0.000004613282974   0.000000596918893  -0.000000323211164
Si   10.18313   2.03662   7.46762   0.000002696168561  -0.000001910755029   0.000001633540270
Si   10.18313   4.75212  10.18313   0.000002671575255   0.000001848746571   0.000000921001173
Si    7.46762   2.03662  10.18313   0.000006387152579  -0.000002055321045  -0.000000250076690
Si    7.46762   4.75212   7.46762   0.000001966204593   0.000001037058457  -0.000002559829270
Si    6.10987   0.67887  11.54087   0.000003407792941   0.000000087489638  -0.000000425858369
Si    8.82537   0.67887  14.25638   0.000001469601822   0.000000138405576   0.000001037333862
Si    6.10987   3.39437  14.25638   0.000002000983962  -0.000002940644258   0.000001111014665
Si    8.82537   3.39437  11.54087  -0.000003444691804   0.000000147879830   0.000003858875145
Si   10.18313   2.03662  12.89862   0.000003473785328  -0.000000043268063   0.000000471390397
Si   10.18313   4.75212  15.61413  -0.000000184928558  -0.000002349535589   0.000002208961369
Si    7.46762   2.03662  15.61413  -0.000001468088314   0.000001687990112   0.000006324340603
Si    7.46762   4.75212  12.89862  -0.000000432241038   0.000001130830772   0.000001687386763
Si    6.10987   6.10987   0.67888   0.000003857332101   0.000003857332011  -0.000000005646181
Si    8.82537   6.10987   3.39437   0.000008578549754   0.000001191601572  -0.000000040098517
Si    6.10987   8.82537   3.39437   0.000001191601576   0.000008578549878  -0.000000040098482
Si    8.82537   8.82537   0.67888   0.000004665228467   0.000004665228361  -0.000003516746760
Si   10.18313   7.46762   2.03662  -0.000007110935564  -0.000002472992496  -0.000000440849656
Si   10.18313  10.18313   4.75213  -0.000001483777259  -0.000001483777226   0.000001029740829
Si    7.46762   7.46762   4.75213  -0.000003672485401  -0.000003672485579   0.000006753045043
Si    7.46762  10.18313   2.03662  -0.000002472992580  -0.000007110935463  -0.000000440849742
Si    6.10987   6.10987   6.10987  -0.000004832555608  -0.000004832555523   0.000001363473081
Si    8.82537   6.10987   8.82537   0.000007651120602  -0.000000066022839   0.000000790629744
Si    6.10987   8.82537   8.82537  -0.000000066022839   0.000007651120842   0.000000790629701
Si    8.82537   8.82537   6.10987   0.000001977220464   0.000001977220426   0.000000890528207
Si   10.18313   7.46762   7.46762   0.000001813945300   0.000006325869168   0.000005756495434
Si   10.18313  10.18313  10.18313  -0.000001979725640  -0.000001979725487  -0.000001682454890
Si    7.46762   7.46762  10.18313  -0.000005643856526  -0.000005643856798   0.000000362123107
Si    7.46762  10.18313   7.46762   0.000006325869108   0.000001813945380   0.000005756495720
Si    6.10987   6.10987  11.54087   0.000002339459896   0.000002339460082  -0.000002180281355
Si    8.82537   6.10987  14.25638  -0.000005182260318   0.000001549549178  -0.000000901650146
Si    6.10987   8.82537  14.25638   0.000001549549070  -0.000005182260239  -0.000000901650845
Si    8.82537   8.82537  11.54087   0.000004016865419   0.000004016865145   0.000003474616899
Si   10.18313   7.46762  12.89862   0.000000633466351   0.000007341141943  -0.000004960604690
Si   10.18313  10.18313  15.61413  -0.000000711042805  -0.000000711042708  -0.000001295512145
Si    7.46762   7.46762  15.61413  -0.000003715434417  -0.000003715434611  -0.000006872354877
Si    7.46762  10.18313  12.89862   0.000007341141641   0.000000633466496  -0.000004960604746
Si    6.10987  11.54087   0.67888  -0.000005767123475   0.000005756889915  -0.000003143641235
Si    8.82537  11.54087   3.39437   0.000001981284823   0.000001509807124   0.000000920688010
Si    6.10987  14.25638   3.39437  -0.000002675703522  -0.000001432471502   0.000005881377949
Si    8.82537  14.25638   0.67888  -0.000000871349333  -0.000001692802987  -0.000002179482759
Si   10.18313  12.89862   2.03662   0.000000763519738  -0.000002178945343  -0.000000870462848
Si   10.18313  15.61413   4.75213  -0.000008468155324   0.000003922955930  -0.000003034595462
Si    7.46762  12.89862   4.75213   0.000001605811893   0.000000756049630  -0.000001765096812
Si    7.46762  15.61413   2.03662  -0.000005439871318  -0.000001761497470  -0.000000042051571
Si    6.10987  11.54087   6.10987   0.000002271655853  -0.000003800001106  -0.000001303076804
Si    8.82537  11.54087   8.82537   0.000001406855727   0.000002892288531  -0.000001136568594
Si    6.10987  14.25638   8.82537  -0.000002345296841  -0.000002605859415  -0.000006273411073
Si    8.82537  14.25638   6.10987   0.000001041841130   0.000002757448841  -0.000000665194304
Si   10.18313  12.89862   7.46762  -0.000002892288626  -0.000001406855667   0.000001136568395
Si   10.18313  15.61413  10.18313   0.000003800001249  -0.000002271655737   0.000001303076570
Si    7.46762  12.89862  10.18313  -0.000002757448902  -0.000001041841241   0.000000665194249
Si    7.46762  15.61413   7.46762   0.000002605859581   0.000002345296899   0.000006273411276
Si    6.10987  11.54087  11.54087  -0.000003922955541   0.000008468155695   0.000003034595617
Si    8.82537  11.54087  14.25638   0.000002178945294  -0.000000763519436   0.000000870463145
Si    6.10987  14.25638  14.25638   0.000001761497646   0.000005439871398   0.000000042051399
Si    8.82537  14.25638  11.54087  -0.000000756049538  -0.000001605812321   0.000001765096773
Si   10.18313  12.89862  12.89862  -0.000001509807078  -0.000001981284862  -0.000000920688078
Si   10.18313  15.61413  15.61413  -0.000005756889746   0.000005767123337   0.000003143641430
Si    7.46762  12.89862  15.61413   0.000001692803201   0.000000871349090   0.000002179482730
Si    7.46762  15.61413  12.89862   0.000001432471273   0.000002675703692  -0.000005881378094
Si    6.10987  16.97188   0.67888   0.000001195546135  -0.000000379329528  -0.000005218661954
Si    8.82537  16.97188   3.39437   0.000000590867417   0.000004182747571  -0.000000849710352
Si    6.10987  19.68738   3.39437   0.000002727682371   0.000002713098483   0.000000527295876
Si    8.82537  19.68738   0.67888  -0.000000262248324   0.000007774831827   0.000000071783100
Si   10.18313  18.32963   2.03662   0.000003175547347  -0.000003808874760   0.000001515812416
Si   10.18313  21.04512   4.75213  -0.000002712950452   0.000006353217964  -0.000004752536774
Si    7.46762  18.32963   4.75213  -0.000000430274588   0.000000235893568  -0.000003145011273
Si    7.46762  21.04512   2.03662   0.000004248386407  -0.000003956098120  -0.000000324351763
Si    6.10987  16.97188   6.10987   0.000001764562919  -0.000007656274316  -0.000000133429426
Si    8.82537  16.97188   8.82537   0.000002011778517   0.000006277586909   0.000002876134966
Si    6.10987  19.68738   8.82537   0.000002365496229   0.000002784641823   0.000000309607038
Si    8.82537  19.68738   6.10987  -0.000005474468920   0.000004023871728  -0.000000748495925
Si   10.18313  18.32963   7.46762   0.000001779452027  -0.000005881970675  -0.000002226053328
Si   10.18313  21.04512  10.18313   0.000003518314403  -0.000001991155807  -0.000000137620228
Si    7.46762  18.32963  10.18313  -0.000005928815133  -0.000007352165604   0.000000202209968
Si    7.46762  21.04512   7.46762  -0.000001260908395   0.000003222279069   0.000005794523538
Si    6.10987  16.97188  11.54087  -0.000000812552724   0.000001424313417   0.000003373875601
Si    8.82537  16.97188  14.25638  -0.000001157503852   0.000000234479820  -0.000000300932798
Si    6.10987  19.68738  14.25638   0.000003982459682  -0.000001510086065   0.000000588947953
Si    8.82537  19.68738  11.54087   0.000000563673328   0.000005668990088  -0.000000868954014
Si   10.18313  18.32963  12.89862   0.000002288868352  -0.000005332521988   0.000003078771412
Si   10.18313  21.04512  15.61413  -0.000006111799207   0.000006918701100   0.000003361591991
Si    7.46762  18.32963  15.61413  -0.000000518248192   0.000000329801721   0.000002631810450
Si    7.46762  21.04512  12.89862  -0.000000711772712   0.000002155314283  -0.000005543873341
Si   11.54087   0.67887   0.67888   0.000006111799450  -0.000006918700912  -0.000003361591647
Si   14.25638   0.67887   3.39437   0.000000711772932  -0.000002155314609   0.000005543873304
Si   11.54087   3.39437   3.39437  -0.000002288868063   0.000005332522198  -0.000003078771237
Si   14.25638   3.39437   0.67888   0.000000518248268  -0.000000329801838  -0.000002631810316
Si   15.61413   2.03662   2.03662  -0.000003982459239   0.000001510086020  -0.000000588947920
Si   15.61413   4.75212   4.75213   0.000000812552630  -0.000001424312966  -0.000003373875196
Si   12.89862   2.03662   4.75213  -0.000000563673376  -0.000005668989990   0.000000868954082
Si   12.89862   4.75212   2.03662   0.000001157503555  -0.000000234479655   0.000000300932963
Si   11.54087   0.67887   6.10987  -0.000003518313990   0.000001991155894   0.000000137620038
Si   14.25638   0.67887   8.82537   0.000001260908641  -0.000003222279391  -0.000005794523466
Si   11.54087   3.39437   8.82537  -0.000001779451769   0.000005881970694   0.000002226053665
Si   14.25638   3.39437   6.10987   0.000005928815210   0.000007352165324  -0.000000202210195
Si   15.61413   2.03662   7.46762  -0.000002365495739  -0.000002784641568  -0.000000309606892
Si   15.61413   4.75212  10.18313  -0.000001764563266   0.000007656274408   0.000000133429013
Si   12.89862   2.03662  10.18313   0.000005474468878  -0.000004023871367   0.000000748495491
Si   12.89862   4.75212   7.46762  -0.000002011778796  -0.000006277587006  -0.000002876134730
Si   11.54087   0.67887  11.54087   0.000002712950383  -0.000006353217977   0.000004752537171
Si   14.25638   0.67887  14.25638  -0.000004248386011   0.000003956097940   0.000000324351480
Si   11.54087   3.39437  14.25638  -0.000003175547217   0.000003808875117  -0.000001515812239
Si   14.25638   3.39437  11.54087   0.000000430274879  -0.000000235893398   0.000003145011312
Si   15.61413   2.03662  12.89862  -0.000002727682200  -0.000002713098449  -0.000000527295547
Si   15.61413   4.75212  15.61413  -0.000001195546226   0.000000379329904   0.000005218662166
Si   12.89862   2.03662  15.61413   0.000000262248199  -0.000007774831817  -0.000000071783115
Si   12.89862   4.75212  12.89862  -0.000000590867570  -0.000004182747982   0.000000849710391
Si   11.54087   6.10987   0.67888   0.000005756890299  -0.000005767123187  -0.000003143641471
Si   14.25638   6.10987   3.39437  -0.000001432471001  -0.000002675703462   0.000005881377918
Si   11.54087   8.82537   3.39437   0.000001509807302   0.000001981284710   0.000000920687971
Si   14.25638   8.82537   0.67888  -0.000001692803093  -0.000000871349179  -0.000002179482653
Si   15.61413   7.46762   2.03662  -0.000001761497534  -0.000005439871639  -0.000000042051664
Si   15.61413  10.18313   4.75213   0.000003922955871  -0.000008468155395  -0.000003034595844
Si   12.89862   7.46762   4.75213   0.000000756049392   0.000001605812025  -0.000001765097043
Si   12.89862  10.18313   2.03662  -0.000002178945259   0.000000763519852  -0.000000870462833
Si   11.54087   6.10987   6.10987  -0.000003800000833   0.000002271655983  -0.000001303076661
Si   14.25638   6.10987   8.82537  -0.000002605859028  -0.000002345296757  -0.000006273410931
Si   11.54087   8.82537   8.82537   0.000002892288819   0.000001406855621  -0.000001136568558
Si   14.25638   8.82537   6.10987   0.000002757449046   0.000001041840993  -0.000000665193924
Si   15.61413   7.46762   7.46762   0.000002345296888   0.000002605859389   0.000006273411074
Si   15.61413  10.18313  10.18313  -0.000002271655939   0.000003800000805   0.000001303076527
Si   12.89862   7.46762  10.18313  -0.000001041841122  -0.000002757448820   0.000000665194113
Si   12.89862  10.18313   7.46762  -0.000001406855744  -0.000002892288506   0.000001136568559
Si   11.54087   6.10987  11.54087   0.000008468155720  -0.000003922955623   0.000003034595505
Si   14.25638   6.10987  14.25638   0.000005439871872   0.000001761497640   0.000000042051854
Si   11.54087   8.82537  14.25638  -0.000000763519495   0.000002178945079   0.000000870463180
Si   14.25638   8.82537  11.54087  -0.000001605811778  -0.000000756049611   0.000001765096827
Si   15.61413   7.46762  12.89862   0.000002675703625   0.000001432470979  -0.000005881378104
Si   15.61413  10.18313  15.61413   0.000005767123477  -0.000005756889926   0.000003143641208
Si   12.89862   7.46762  15.61413   0.000000871349164   0.000001692803096   0.000002179482587
Si   12.89862  10.18313  12.89862  -0.000001981284949  -0.000001509806929  -0.000000920688056
Si   11.54087  11.54087   0.67888   0.000000711043078   0.000000711042742   0.000001295512176
Si   14.25638  11.54087   3.39437  -0.000007341141686  -0.000000633466373   0.000004960604534
Si   11.54087  14.25638   3.39437  -0.000000633466221  -0.000007341141700   0.000004960604631
Si   14.25638  14.25638   0.67888   0.000003715434664   0.000003715434601   0.000006872354668
Si   15.61413  12.89862   2.03662  -0.000001549549016   0.000005182260001   0.000000901650556
Si   15.61413  15.61413   4.75213  -0.000002339459704  -0.000002339460017   0.000002180281662
Si   12.89862  12.89862   4.75213  -0.000004016865376  -0.000004016865268  -0.000003474617126
Si   12.89862  15.61413   2.03662   0.000005182260107  -0.000001549549129   0.000000901650491
Si   11.54087  11.54087   6.10987   0.000001979725758   0.000001979725600   0.000001682455035
Si   14.25638  11.54087   8.82537  -0.000006325869045  -0.000001813945261  -0.000005756495686
Si   11.54087  14.25638   8.82537  -0.000001813944898  -0.000006325869084  -0.000005756495316
Si   14.25638  14.25638   6.10987   0.000005643856668   0.000005643856674  -0.000000362123040
Si   15.61413  12.89862   7.46762   0.000000066023007  -0.000007651120781  -0.000000790629777
Si   15.61413  15.61413  10.18313   0.000004832555629   0.000004832555564  -0.000001363473232
Si   12.89862  12.89862  10.18313  -0.000001977220595  -0.000001977220245  -0.000000890528274
Si   12.89862  15.61413   7.46762  -0.000007651120865   0.000000066022886  -0.000000790629700
Si   11.54087  11.54087  11.54087   0.000001483777471   0.000001483777279  -0.000001029740751
Si   14.25638  11.54087  14.25638   0.000002472992926   0.000007110935572   0.000000440849931
Si   11.54087  14.25638  14.25638   0.000007110935757   0.000002472992770   0.000000440849936
Si   14.25638  14.25638  11.54087   0.000003672485814   0.000003672485618  -0.000006753045169
Si   15.61413  12.89862  12.89862  -0.000001191601619  -0.000008578549949   0.000000040098564
Si   15.61413  15.61413  15.61413  -0.000003857331991  -0.000003857331933   0.000000005646212
Si   12.89862  12.89862  15.61413  -0.000004665228588  -0.000004665228414   0.000003516746732
Si   12.89862  15.61413  12.89862  -0.000008578549911  -0.000001191601759   0.000000040098571
Si   11.54087  16.97188   0.67888   0.000000184928941   0.000002349535622  -0.000002208961901
Si   14.25638  16.97188   3.39437   0.000000432241080  -0.000001130830513  -0.000001687387073
Si   11.54087  19.68738   3.39437  -0.000003473785134   0.000000043267804  -0.000000471390690
Si   14.25638  19.68738   0.67888   0.000001468088325  -0.000001687990130  -0.000006324340560
Si   15.61413  18.32963   2.03662  -0.000002000983776   0.000002940644175  -0.000001111014676
Si   15.61413  21.04512   4.75213  -0.000003407792719  -0.000000087489206   0.000000425858281
Si   12.89862  18.32963   4.75213   0.000003444691852  -0.000000147880268  -0.000003858874816
Si   12.89862  21.04512   2.03662  -0.000001469601750  -0.000000138405053  -0.000001037333862
Si   11.54087  16.97188   6.10987  -0.000002671575013  -0.000001848746540  -0.000000921001764
Si   14.25638  16.97188   8.82537  -0.000001966204233  -0.000001037058338   0.000002559829407
Si   11.54087  19.68738   8.82537  -0.000002696168731   0.000001910755144  -0.000001633540181
Si   14.25638  19.68738   6.10987  -0.000006387152307   0.000002055320949   0.000000250076747
Si   15.61413  18.32963   7.46762   0.000005288577428  -0.000007203949274   0.000002219660769
Si   15.61413  21.04512  10.18313   0.000001036634788   0.000001361122721   0.000000510910298
Si   12.89862  18.32963  10.18313  -0.000004613283237  -0.000000596918979   0.000000323210891
Si   12.89862  21.04512   7.46762  -0.000001437699547   0.000000023395083  -0.000002426069818
Si   11.54087  16.97188  11.54087   0.000001001261272   0.000002105336280   0.000003115685662
Si   14.25638  16.97188  14.25638  -0.000002568633132  -0.000002006652720  -0.000000595870780
Si   11.54087  19.68738  14.25638  -0.000001262485360  -0.000002104390129   0.000000436827442
Si   14.25638  19.68738  11.54087   0.000000697099951  -0.000003415233059   0.000006810161380
Si   15.61413  18.32963  12.89862   0.000005763794188  -0.000005635915037  -0.000003492545398
Si   15.61413  21.04512  15.61413  -0.000001619898262  -0.000003189403596  -0.000002412907957
Si   12.89862  18.32963  15.61413   0.000003965352272   0.000001990647220   0.000004818326211
Si   12.89862  21.04512  12.89862  -0.000001327122427  -0.000002211770030   0.000002615805451
Si   16.97188   0.67887   0.67888   0.000002485918636  -0.000000758138955  -0.000004554408514
Si   19.68738   0.67887   3.39437   0.000002868585732   0.000003154910041   0.000001081745879
Si   16.97188   3.39437   3.39437   0.000002276644897   0.000002559779690   0.000002444271507
Si   19.68738   3.39437   0.67888  -0.000005992154813  -0.000007102083181  -0.000001180779722
Si   21.04512   2.03662   2.03662   0.000000878620271   0.000002171590958   0.000000233972654
Si   21.04512   4.75212   4.75213   0.000000426759499  -0.000001915299663  -0.000003552679014
Si   18.32963   2.03662   4.75213   0.000007183877712   0.000004586539275  -0.000003018337413
Si   18.32963   4.75212   2.03662  -0.000000749866084  -0.000000875075307  -0.000000968187436
Si   16.97188   0.67887   6.10987  -0.000010277136296  -0.000003480033927   0.000000544851450
Si   19.68738   0.67887   8.82537   0.000001223161804   0.000004851959955  -0.000001542190301
Si   16.97188   3.39437   8.82537   0.000002559981259   0.000002905131188  -0.000002081417140
Si   19.68738   3.39437   6.10987  -0.000001075762615   0.000002046453831  -0.000000627916232
Si   21.04512   2.03662   7.46762  -0.000004851960087  -0.000001223161721   0.000001542190079
Si   21.04512   4.75212  10.18313   0.000003480034051   0.000010277136443  -0.000000544851682
Si   18.32963   2.03662  10.18313  -0.000002046453914   0.000001075762527   0.000000627916219
Si   18.32963   4.75212   7.46762  -0.000002905131063  -0.000002559981172   0.000002081417363
Si   16.97188   0.67887  11.54087   0.000001915300012  -0.000000426759144   0.000003552679165
Si   19.68738   0.67887  14.25638  -0.000002171591089  -0.000000878620762  -0.000000233972425
Si   16.97188   3.39437  14.25638   0.000000875075420   0.000000749866114   0.000000968187186
Si   19.68738   3.39437  11.54087  -0.000004586539131  -0.000007183878104   0.000003018337321
Si   21.04512   2.03662  12.89862  -0.000003154910311  -0.000002868585719  -0.000001081745810
Si   21.04512   4.75212  15.61413   0.000000758139143  -0.000002485918793   0.000004554408805
Si   18.32963   2.03662  15.61413   0.000007102082042   0.000005992154955   0.000001180780064
Si   18.32963   4.75212  12.89862  -0.000002559779834  -0.000002276644713  -0.000002444271607
Si   16.97188   6.10987   0.67888  -0.000000379329398   0.000001195546038  -0.000005218661944
Si   19.68738   6.10987   3.39437   0.000002713098464   0.000002727682257   0.000000527295673
Si   16.97188   8.82537   3.39437   0.000004182747726   0.000000590867438  -0.000000849710114
Si   19.68738   8.82537   0.67888   0.000007774831881  -0.000000262248346   0.000000071783114
Si   21.04512   7.46762   2.03662  -0.000003956098067   0.000004248386329  -0.000000324351514
Si   21.04512  10.18313   4.75213   0.000006353217800  -0.000002712950229  -0.000004752536753
Si   18.32963   7.46762   4.75213   0.000000235893596  -0.000000430274636  -0.000003145011258
Si   18.32963  10.18313   2.03662  -0.000003808874769   0.000003175547222   0.000001515812152
Si   16.97188   6.10987   6.10987  -0.000007656274437   0.000001764563082  -0.000000133429419
Si   19.68738   6.10987   8.82537   0.000002784641641   0.000002365496005   0.000000309607011
Si   16.97188   8.82537   8.82537   0.000006277587090   0.000002011778729   0.000002876135055
Si   19.68738   8.82537   6.10987   0.000004023871536  -0.000005474468706  -0.000000748495953
Si   21.04512   7.46762   7.46762   0.000003222279196  -0.000001260908604   0.000005794523661
Si   21.04512  10.18313  10.18313  -0.000001991156895   0.000003518314548  -0.000000137620345
Si   18.32963   7.46762  10.18313  -0.000007352165500  -0.000005928815217   0.000000202209958
Si   18.32963  10.18313   7.46762  -0.000005881970486   0.000001779451823  -0.000002226053470
Si   16.97188   6.10987  11.54087   0.000001424312975  -0.000000812552312   0.000003373875558
Si   19.68738   6.10987  14.25638  -0.000001510086023   0.000003982459694   0.000000588947980
Si   16.97188   8.82537  14.25638   0.000000234479794  -0.000001157503899  -0.000000300932837
Si   19.68738   8.82537  11.54087   0.000005668989903   0.000000563673454  -0.000000868954090
Si   21.04512   7.46762  12.89862   0.000002155314465  -0.000000711772737  -0.000005543873132
Si   21.04512  10.18313  15.61413   0.000006918700874  -0.000006111799033   0.000003361591992
Si   18.32963   7.46762  15.61413   0.000000329801584  -0.000000518248039   0.000002631810462
Si   18.32963  10.18313  12.89862  -0.000005332521976   0.000002288868119   0.000003078771198
Si   16.97188  11.54087   0.67888   0.000002349535366   0.000000184928798  -0.000002208961521
Si   19.68738  11.54087   3.39437   0.000000043268127  -0.000003473784989  -0.000000471389677
Si   16.97188  14.25638   3.39437  -0.000001130830590   0.000000432240990  -0.000001687386795
Si   19.68738  14.25638   0.67888  -0.000001687990232   0.000001468088421  -0.000006324340595
Si   21.04512  12.89862   2.03662  -0.000000138405333  -0.000001469601722  -0.000001037333840
Si   21.04512  15.61413   4.75213  -0.000000087489287  -0.000003407792765   0.000000425858278
Si   18.32963  12.89862   4.75213  -0.000000147880165   0.000003444691897  -0.000003858875075
Si   18.32963  15.61413   2.03662   0.000002940644416  -0.000002000983809  -0.000001111014578
Si   16.97188  11.54087   6.10987  -0.000001848746550  -0.000002671575075  -0.000000921001334
Si   19.68738  11.54087   8.82537   0.000001910755158  -0.000002696168806  -0.000001633540145
Si   16.97188  14.25638   8.82537  -0.000001037058363  -0.000001966204325   0.000002559829412
Si   19.68738  14.25638   6.10987   0.000002055321030  -0.000006387152600   0.000000250076954
Si   21.04512  12.89862   7.46762   0.000000023394770  -0.000001437699610  -0.000002426070308
Si   21.04512  15.61413  10.18313   0.000001361122963   0.000001036634955   0.000000510910213
Si   18.32963  12.89862  10.18313  -0.000000596918965  -0.000004613283404   0.000000323210802
Si   18.32963  15.61413   7.46762  -0.000007203949138   0.000005288577506   0.000002219660785
Si   16.97188  11.54087  11.54087   0.000002105336368   0.000001001261508   0.000003115686023
Si   19.68738  11.54087  14.25638  -0.000002104389868  -0.000001262484993   0.000000436827749
Si   16.97188  14.25638  14.25638  -0.000002006652728  -0.000002568633305  -0.000000595870829
Si   19.68738  14.25638  11.54087  -0.000003415233014   0.000000697099348   0.000006810161634
Si   21.04512  12.89862  12.89862  -0.000002211770170  -0.000001327122456   0.000002615805177
Si   21.04512  15.61413  15.61413  -0.000003189403659  -0.000001619898411  -0.000002412908213
Si   18.32963  12.89862  15.61413   0.000001990647528   0.000003965351980   0.000004818325856
Si   18.32963  15.61413  12.89862  -0.000005635915032   0.000005763794218  -0.000003492545604
Si   16.97188  16.97188   0.67888   0.000001375912394   0.000001375912290  -0.000004813688190
Si   19.68738  16.97188   3.39437   0.000000118202839  -0.000000209475202   0.000000884198913
Si   16.97188  19.68738   3.39437  -0.000000209475189   0.000000118202955   0.000000884198873
Si   19.68738  19.68738   0.67888  -0.000000043499598  -0.000000043499680  -0.000002438949945
Si   21.04512  18.32963   2.03662  -0.000007079114221   0.000000392859692   0.000000029575690
Si   21.04512  21.04512   4.75213  -0.000003757566255  -0.000003757566202  -0.000005236437308
Si   18.32963  18.32963   4.75213  -0.000002718407018  -0.000002718407186  -0.000005988256214
Si   18.32963  21.04512   2.03662   0.000000392859590  -0.000007079114080   0.000000029575581
Si   16.97188  16.97188   6.10987   0.000000895793677   0.000000895793790  -0.000001254904878
Si   19.68738  16.97188   8.82537   0.000000900118627  -0.000001267465796  -0.000001363966460
Si   16.97188  19.68738   8.82537  -0.000001267465783   0.000000900118868  -0.000001363966531
Si   19.68738  19.68738   6.10987  -0.000000066588865  -0.000000066588890  -0.000000225523560
Si   21.04512  18.32963   7.46762   0.000005114971312   0.000002759450883   0.000009135325576
Si   21.04512  21.04512  10.18313   0.000004899091005   0.000004899091089  -0.000000333512477
Si   18.32963  18.32963  10.18313   0.000004153420647   0.000004153420373  -0.000000193837626
Si   18.32963  21.04512   7.46762   0.000002759450832   0.000005114971439   0.000009135325864
Si   16.97188  16.97188  11.54087   0.000002021729058   0.000002021729237   0.000003168547600
Si   19.68738  16.97188  14.25638  -0.000000377834323   0.000000011717737   0.000000871235457
Si   16.97188  19.68738  14.25638   0.000000011717636  -0.000000377834283   0.000000871234811
Si   19.68738  19.68738  11.54087   0.000002167633342   0.000002167633035   0.000003637243604
Si   21.04512  18.32963  12.89862   0.000005614851823   0.000002077211285  -0.000007892037993
Si   21.04512  21.04512  15.61413  -0.000003780064836  -0.000003780064692   0.000004943501618
Si   18.32963  18.32963  15.61413  -0.000002232242972  -0.000002232243178   0.000005445776082
Si   18.32963  21.04512  12.89862   0.000002077210994   0.000005614851952  -0.000007892038030
