300 

Si    0.00000  -0.00000  -0.00000   0.000012637805184  -0.000013716306989  -0.000013716509973
Si    1.35775   1.35775   1.35775  -0.000004560006629   0.000014200700157   0.000014183769824
Si    2.71550   2.71550   0.00000   0.000012637805187  -0.000013716307001  -0.000013716509958
Si    4.07325   4.07325   1.35775  -0.000004560006631   0.000014200700133   0.000014183769818
Si    5.43100   5.43100   0.00000   0.000012637805188  -0.000013716306993  -0.000013716509945
Si    6.78875   6.78875   1.35775  -0.000004560006637   0.000014200700149   0.000014183769841
Si    8.14650   8.14650   0.00000   0.000012637805175  -0.000013716306989  -0.000013716509948
Si    9.50425   9.50425   1.35775  -0.000004560006620   0.000014200700147   0.000014183769823
Si   10.86200  10.86200   0.00000   0.000012637805182  -0.000013716306983  -0.000013716509962
Si   12.21975  12.21975   1.35775  -0.000004560006630   0.000014200700148   0.000014183769824
Si    2.71550   0.00000   2.71550   0.000012637805185  -0.000013716306992  -0.000013716509938
Si    4.07325   1.35775   4.07325  -0.000004560006625   0.000014200700150   0.000014183769823
Si    5.43100   2.71550   2.71550   0.000012637805193  -0.000013716306988  -0.000013716509963
Si    6.78875   4.07325   4.07325  -0.000004560006616   0.000014200700145   0.000014183769816
Si    8.14650   5.43100   2.71550   0.000012637805174  -0.000013716306972  -0.000013716509959
Si    9.50425   6.78875   4.07325  -0.000004560006632   0.000014200700134   0.000014183769835
Si   10.86200   8.14650   2.71550   0.000012637805190  -0.000013716306988  -0.000013716509965
Si   12.21975   9.50425   4.07325  -0.000004560006623   0.000014200700140   0.000014183769832
Si   13.57750  10.86200   2.71550   0.000012637805163  -0.000013716306980  -0.000013716509938
Si   14.93525  12.21975   4.07325  -0.000004560006618   0.000014200700154   0.000014183769816
Si    5.43100  -0.00000   5.43100   0.000012637805193  -0.000013716306999  -0.000013716509966
Si    6.78875   1.35775   6.78875  -0.000004560006623   0.000014200700148   0.000014183769821
Si    8.14650   2.71550   5.43100   0.000012637805182  -0.000013716306988  -0.000013716509946
Si    9.50425   4.07325   6.78875  -0.000004560006636   0.000014200700152   0.000014183769827
Si   10.86200   5.43100   5.43100   0.000012637805183  -0.000013716306988  -0.000013716509950
Si   12.21975   6.78875   6.78875  -0.000004560006639   0.000014200700152   0.000014183769831
Si   13.57750   8.14650   5.43100   0.000012637805176  -0.000013716306987  -0.000013716509958
Si   14.93525   9.50425   6.78875  -0.000004560006627   0.000014200700130   0.000014183769823
Si   16.29300  10.86200   5.43100   0.000012637805184  -0.000013716306998  -0.000013716509951
Si   17.65075  12.21975   6.78875  -0.000004560006625   0.000014200700146   0.000014183769824
Si    8.14650   0.00000   8.14650   0.000012637805172  -0.000013716306989  -0.000013716509950
Si    9.50425   1.35775   9.50425  -0.000004560006636   0.000014200700144   0.000014183769829
Si   10.86200   2.71550   8.14650   0.000012637805185  -0.000013716306992  -0.000013716509955
Si   12.21975   4.07325   9.50425  -0.000004560006622   0.000014200700129   0.000014183769829
Si   13.57750   5.43100   8.14650   0.000012637805175  -0.000013716306991  -0.000013716509955
Si   14.93525   6.78875   9.50425  -0.000004560006631   0.000014200700149   0.000014183769841
Si   16.29300   8.14650   8.14650   0.000012637805182  -0.000013716306990  -0.000013716509956
Si   17.65075   9.50425   9.50425  -0.000004560006615   0.000014200700140   0.000014183769811
Si   19.00850  10.86200   8.14650   0.000012637805176  -0.000013716306989  -0.000013716509947
Si   20.36625  12.21975   9.50425  -0.000004560006633   0.000014200700147   0.000014183769816
Si   10.86200   0.00000  10.86200   0.000012637805181  -0.000013716306993  -0.000013716509959
Si   12.21975   1.35775  12.21975  -0.000004560006633   0.000014200700146   0.000014183769834
Si   13.57750   2.71550  10.86200   0.000012637805176  -0.000013716306991  -0.000013716509957
Si   14.93525   4.07325  12.21975  -0.000004560006628   0.000014200700152   0.000014183769824
Si   16.29300   5.43100  10.86200   0.000012637805174  -0.000013716306991  -0.000013716509951
Si   17.65075   6.78875  12.21975  -0.000004560006640   0.000014200700143   0.000014183769823
Si   19.00850   8.14650  10.86200   0.000012637805170  -0.000013716306984  -0.000013716509955
Si   20.36625   9.50425  12.21975  -0.000004560006632   0.000014200700149   0.000014183769814
Si   21.72400  10.86200  10.86200   0.000012637805175  -0.000013716306986  -0.000013716509947
Si   23.08175  12.21975  12.21975  -0.000004560006625   0.000014200700147   0.000014183769819
Si    0.00000   2.71550   2.71550   0.000010577341946   0.000001394547880   0.000001381558548
Si    1.35775   4.07325   4.07325   0.000000433338979   0.000009533688350   0.000009546191688
Si    2.71550   5.43100   2.71550   0.000010577341956   0.000001394547886   0.000001381558577
Si    4.07325   6.78875   4.07325   0.000000433338968   0.000009533688341   0.000009546191681
Si    5.43100   8.14650   2.71550   0.000010577341953   0.000001394547871   0.000001381558578
Si    6.78875   9.50425   4.07325   0.000000433338971   0.000009533688341   0.000009546191672
Si    8.14650  10.86200   2.71550   0.000010577341950   0.000001394547888   0.000001381558566
Si    9.50425  12.21975   4.07325   0.000000433338964   0.000009533688354   0.000009546191686
Si   10.86200  13.57750   2.71550   0.000010577341953   0.000001394547886   0.000001381558568
Si   12.21975  14.93525   4.07325   0.000000433338961   0.000009533688356   0.000009546191682
Si    2.71550   2.71550   5.43100   0.000010577341959   0.000001394547886   0.000001381558586
Si    4.07325   4.07325   6.78875   0.000000433338968   0.000009533688342   0.000009546191689
Si    5.43100   5.43100   5.43100   0.000010577341953   0.000001394547872   0.000001381558556
Si    6.78875   6.78875   6.78875   0.000000433338975   0.000009533688359   0.000009546191678
Si    8.14650   8.14650   5.43100   0.000010577341944   0.000001394547886   0.000001381558572
Si    9.50425   9.50425   6.78875   0.000000433338971   0.000009533688361   0.000009546191700
Si   10.86200  10.86200   5.43100   0.000010577341951   0.000001394547875   0.000001381558558
Si   12.21975  12.21975   6.78875   0.000000433338965   0.000009533688364   0.000009546191698
Si   13.57750  13.57750   5.43100   0.000010577341943   0.000001394547869   0.000001381558576
Si   14.93525  14.93525   6.78875   0.000000433338975   0.000009533688362   0.000009546191689
Si    5.43100   2.71550   8.14650   0.000010577341937   0.000001394547889   0.000001381558558
Si    6.78875   4.07325   9.50425   0.000000433338965   0.000009533688359   0.000009546191698
Si    8.14650   5.43100   8.14650   0.000010577341964   0.000001394547867   0.000001381558573
Si    9.50425   6.78875   9.50425   0.000000433338958   0.000009533688353   0.000009546191697
Si   10.86200   8.14650   8.14650   0.000010577341947   0.000001394547873   0.000001381558568
Si   12.21975   9.50425   9.50425   0.000000433338969   0.000009533688360   0.000009546191697
Si   13.57750  10.86200   8.14650   0.000010577341950   0.000001394547885   0.000001381558580
Si   14.93525  12.21975   9.50425   0.000000433338966   0.000009533688339   0.000009546191689
Si   16.29300  13.57750   8.14650   0.000010577341958   0.000001394547892   0.000001381558578
Si   17.65075  14.93525   9.50425   0.000000433338961   0.000009533688350   0.000009546191676
Si    8.14650   2.71550  10.86200   0.000010577341948   0.000001394547880   0.000001381558565
Si    9.50425   4.07325  12.21975   0.000000433338985   0.000009533688367   0.000009546191689
Si   10.86200   5.43100  10.86200   0.000010577341941   0.000001394547889   0.000001381558561
Si   12.21975   6.78875  12.21975   0.000000433338970   0.000009533688351   0.000009546191684
Si   13.57750   8.14650  10.86200   0.000010577341960   0.000001394547873   0.000001381558557
Si   14.93525   9.50425  12.21975   0.000000433338984   0.000009533688353   0.000009546191684
Si   16.29300  10.86200  10.86200   0.000010577341938   0.000001394547885   0.000001381558570
Si   17.65075  12.21975  12.21975   0.000000433338979   0.000009533688348   0.000009546191682
Si   19.00850  13.57750  10.86200   0.000010577341963   0.000001394547878   0.000001381558567
Si   20.36625  14.93525  12.21975   0.000000433338965   0.000009533688346   0.000009546191678
Si   10.86200   2.71550  13.57750   0.000010577341943   0.000001394547871   0.000001381558563
Si   12.21975   4.07325  14.93525   0.000000433338968   0.000009533688354   0.000009546191686
Si   13.57750   5.43100  13.57750   0.000010577341946   0.000001394547871   0.000001381558564
Si   14.93525   6.78875  14.93525   0.000000433338974   0.000009533688366   0.000009546191689
Si   16.29300   8.14650  13.57750   0.000010577341955   0.000001394547878   0.000001381558583
Si   17.65075   9.50425  14.93525   0.000000433338973   0.000009533688356   0.000009546191685
Si   19.00850  10.86200  13.57750   0.000010577341947   0.000001394547887   0.000001381558571
Si   20.36625  12.21975  14.93525   0.000000433338958   0.000009533688368   0.000009546191682
Si   21.72400  13.57750  13.57750   0.000010577341958   0.000001394547888   0.000001381558580
Si   23.08175  14.93525  14.93525   0.000000433338960   0.000009533688346   0.000009546191682
Si    0.00000   5.43100   5.43100   0.000017803754966  -0.000007500003768  -0.000007486080952
Si    1.35775   6.78875   6.78875  -0.000007202799492   0.000007912942000   0.000007916636826
Si    2.71550   8.14650   5.43100   0.000017803754964  -0.000007500003770  -0.000007486080944
Si    4.07325   9.50425   6.78875  -0.000007202799494   0.000007912942009   0.000007916636842
Si    5.43100  10.86200   5.43100   0.000017803754967  -0.000007500003767  -0.000007486080960
Si    6.78875  12.21975   6.78875  -0.000007202799480   0.000007912942006   0.000007916636848
Si    8.14650  13.57750   5.43100   0.000017803754967  -0.000007500003775  -0.000007486080968
Si    9.50425  14.93525   6.78875  -0.000007202799492   0.000007912941991   0.000007916636830
Si   10.86200  16.29300   5.43100   0.000017803754973  -0.000007500003769  -0.000007486080956
Si   12.21975  17.65075   6.78875  -0.000007202799484   0.000007912941988   0.000007916636833
Si    2.71550   5.43100   8.14650   0.000017803754955  -0.000007500003776  -0.000007486080967
Si    4.07325   6.78875   9.50425  -0.000007202799483   0.000007912942004   0.000007916636840
Si    5.43100   8.14650   8.14650   0.000017803754959  -0.000007500003756  -0.000007486080959
Si    6.78875   9.50425   9.50425  -0.000007202799488   0.000007912941995   0.000007916636837
Si    8.14650  10.86200   8.14650   0.000017803754959  -0.000007500003776  -0.000007486080961
Si    9.50425  12.21975   9.50425  -0.000007202799495   0.000007912942005   0.000007916636840
Si   10.86200  13.57750   8.14650   0.000017803754950  -0.000007500003770  -0.000007486080962
Si   12.21975  14.93525   9.50425  -0.000007202799491   0.000007912942000   0.000007916636855
Si   13.57750  16.29300   8.14650   0.000017803754948  -0.000007500003751  -0.000007486080963
Si   14.93525  17.65075   9.50425  -0.000007202799498   0.000007912941989   0.000007916636847
Si    5.43100   5.43100  10.86200   0.000017803754938  -0.000007500003776  -0.000007486080969
Si    6.78875   6.78875  12.21975  -0.000007202799484   0.000007912941998   0.000007916636846
Si    8.14650   8.14650  10.86200   0.000017803754950  -0.000007500003762  -0.000007486080966
Si    9.50425   9.50425  12.21975  -0.000007202799492   0.000007912941991   0.000007916636833
Si   10.86200  10.86200  10.86200   0.000017803754962  -0.000007500003775  -0.000007486080952
Si   12.21975  12.21975  12.21975  -0.000007202799498   0.000007912942004   0.000007916636834
Si   13.57750  13.57750  10.86200   0.000017803754951  -0.000007500003764  -0.000007486080958
Si   14.93525  14.93525  12.21975  -0.000007202799485   0.000007912941992   0.000007916636834
Si   16.29300  16.29300  10.86200   0.000017803754957  -0.000007500003760  -0.000007486080963
Si   17.65075  17.65075  12.21975  -0.000007202799503   0.000007912941993   0.000007916636834
Si    8.14650   5.43100  13.57750   0.000017803754959  -0.000007500003763  -0.000007486080971
Si    9.50425   6.78875  14.93525  -0.000007202799491   0.000007912942016   0.000007916636836
Si   10.86200   8.14650  13.57750   0.000017803754949  -0.000007500003768  -0.000007486080958
Si   12.21975   9.50425  14.93525  -0.000007202799490   0.000007912941999   0.000007916636835
Si   13.57750  10.86200  13.57750   0.000017803754959  -0.000007500003759  -0.000007486080955
Si   14.93525  12.21975  14.93525  -0.000007202799481   0.000007912941988   0.000007916636825
Si   16.29300  13.57750  13.57750   0.000017803754945  -0.000007500003769  -0.000007486080937
Si   17.65075  14.93525  14.93525  -0.000007202799497   0.000007912942004   0.000007916636835
Si   19.00850  16.29300  13.57750   0.000017803754965  -0.000007500003764  -0.000007486080960
Si   20.36625  17.65075  14.93525  -0.000007202799488   0.000007912942003   0.000007916636839
Si   10.86200   5.43100  16.29300   0.000017803754958  -0.000007500003758  -0.000007486080965
Si   12.21975   6.78875  17.65075  -0.000007202799493   0.000007912941988   0.000007916636836
Si   13.57750   8.14650  16.29300   0.000017803754957  -0.000007500003768  -0.000007486080967
Si   14.93525   9.50425  17.65075  -0.000007202799494   0.000007912942011   0.000007916636842
Si   16.29300  10.86200  16.29300   0.000017803754960  -0.000007500003766  -0.000007486080959
Si   17.65075  12.21975  17.65075  -0.000007202799498   0.000007912941997   0.000007916636821
Si   19.00850  13.57750  16.29300   0.000017803754967  -0.000007500003753  -0.000007486080962
Si   20.36625  14.93525  17.65075  -0.000007202799488   0.000007912941994   0.000007916636829
Si   21.72400  16.29300  16.29300   0.000017803754952  -0.000007500003755  -0.000007486080945
Si   23.08175  17.65075  17.65075  -0.000007202799509   0.000007912942004   0.000007916636834
Si    0.00000   8.14650   8.14650   0.000012637805167  -0.000013716306985  -0.000013716509951
Si    1.35775   9.50425   9.50425  -0.000004560006628   0.000014200700153   0.000014183769842
Si    2.71550  10.86200   8.14650   0.000012637805204  -0.000013716306997  -0.000013716509955
Si    4.07325  12.21975   9.50425  -0.000004560006625   0.000014200700144   0.000014183769830
Si    5.43100  13.57750   8.14650   0.000012637805190  -0.000013716306984  -0.000013716509942
Si    6.78875  14.93525   9.50425  -0.000004560006627   0.000014200700148   0.000014183769818
Si    8.14650  16.29300   8.14650   0.000012637805180  -0.000013716306972  -0.000013716509932
Si    9.50425  17.65075   9.50425  -0.000004560006628   0.000014200700147   0.000014183769825
Si   10.86200  19.00850   8.14650   0.000012637805182  -0.000013716306979  -0.000013716509969
Si   12.21975  20.36625   9.50425  -0.000004560006611   0.000014200700159   0.000014183769841
Si    2.71550   8.14650  10.86200   0.000012637805165  -0.000013716306992  -0.000013716509954
Si    4.07325   9.50425  12.21975  -0.000004560006619   0.000014200700142   0.000014183769821
Si    5.43100  10.86200  10.86200   0.000012637805155  -0.000013716306977  -0.000013716509951
Si    6.78875  12.21975  12.21975  -0.000004560006637   0.000014200700152   0.000014183769827
Si    8.14650  13.57750  10.86200   0.000012637805179  -0.000013716306990  -0.000013716509958
Si    9.50425  14.93525  12.21975  -0.000004560006621   0.000014200700147   0.000014183769832
Si   10.86200  16.29300  10.86200   0.000012637805167  -0.000013716306982  -0.000013716509941
Si   12.21975  17.65075  12.21975  -0.000004560006634   0.000014200700137   0.000014183769837
Si   13.57750  19.00850  10.86200   0.000012637805174  -0.000013716306980  -0.000013716509961
Si   14.93525  20.36625  12.21975  -0.000004560006623   0.000014200700153   0.000014183769821
Si    5.43100   8.14650  13.57750   0.000012637805159  -0.000013716306988  -0.000013716509934
Si    6.78875   9.50425  14.93525  -0.000004560006619   0.000014200700150   0.000014183769812
Si    8.14650  10.86200  13.57750   0.000012637805179  -0.000013716306997  -0.000013716509938
Si    9.50425  12.21975  14.93525  -0.000004560006628   0.000014200700133   0.000014183769830
Si   10.86200  13.57750  13.57750   0.000012637805168  -0.000013716306994  -0.000013716509968
Si   12.21975  14.93525  14.93525  -0.000004560006631   0.000014200700159   0.000014183769839
Si   13.57750  16.29300  13.57750   0.000012637805162  -0.000013716306991  -0.000013716509939
Si   14.93525  17.65075  14.93525  -0.000004560006624   0.000014200700137   0.000014183769823
Si   16.29300  19.00850  13.57750   0.000012637805178  -0.000013716306994  -0.000013716509939
Si   17.65075  20.36625  14.93525  -0.000004560006629   0.000014200700156   0.000014183769841
Si    8.14650   8.14650  16.29300   0.000012637805167  -0.000013716306994  -0.000013716509944
Si    9.50425   9.50425  17.65075  -0.000004560006622   0.000014200700150   0.000014183769830
Si   10.86200  10.86200  16.29300   0.000012637805149  -0.000013716306984  -0.000013716509946
Si   12.21975  12.21975  17.65075  -0.000004560006623   0.000014200700141   0.000014183769826
Si   13.57750  13.57750  16.29300   0.000012637805171  -0.000013716306996  -0.000013716509935
Si   14.93525  14.93525  17.65075  -0.000004560006618   0.000014200700143   0.000014183769826
Si   16.29300  16.29300  16.29300   0.000012637805170  -0.000013716306989  -0.000013716509958
Si   17.65075  17.65075  17.65075  -0.000004560006631   0.000014200700136   0.000014183769833
Si   19.00850  19.00850  16.29300   0.000012637805169  -0.000013716306990  -0.000013716509955
Si   20.36625  20.36625  17.65075  -0.000004560006627   0.000014200700148   0.000014183769823
Si   10.86200   8.14650  19.00850   0.000012637805172  -0.000013716306979  -0.000013716509933
Si   12.21975   9.50425  20.36625  -0.000004560006625   0.000014200700145   0.000014183769837
Si   13.57750  10.86200  19.00850   0.000012637805164  -0.000013716306989  -0.000013716509946
Si   14.93525  12.21975  20.36625  -0.000004560006632   0.000014200700163   0.000014183769831
Si   16.29300  13.57750  19.00850   0.000012637805168  -0.000013716306988  -0.000013716509951
Si   17.65075  14.93525  20.36625  -0.000004560006623   0.000014200700152   0.000014183769822
Si   19.00850  16.29300  19.00850   0.000012637805167  -0.000013716306978  -0.000013716509941
Si   20.36625  17.65075  20.36625  -0.000004560006628   0.000014200700137   0.000014183769831
Si   21.72400  19.00850  19.00850   0.000012637805181  -0.000013716306998  -0.000013716509951
Si   23.08175  20.36625  20.36625  -0.000004560006624   0.000014200700128   0.000014183769822
Si    0.00000  10.86200  10.86200   0.000010577341952   0.000001394547874   0.000001381558560
Si    1.35775  12.21975  12.21975   0.000000433338979   0.000009533688367   0.000009546191684
Si    2.71550  13.57750  10.86200   0.000010577341949   0.000001394547873   0.000001381558570
Si    4.07325  14.93525  12.21975   0.000000433338969   0.000009533688348   0.000009546191683
Si    5.43100  16.29300  10.86200   0.000010577341961   0.000001394547887   0.000001381558574
Si    6.78875  17.65075  12.21975   0.000000433338965   0.000009533688354   0.000009546191674
Si    8.14650  19.00850  10.86200   0.000010577341953   0.000001394547882   0.000001381558558
Si    9.50425  20.36625  12.21975   0.000000433338976   0.000009533688351   0.000009546191673
Si   10.86200  21.72400  10.86200   0.000010577341937   0.000001394547874   0.000001381558560
Si   12.21975  23.08175  12.21975   0.000000433338969   0.000009533688362   0.000009546191699
Si    2.71550  10.86200  13.57750   0.000010577341962   0.000001394547888   0.000001381558581
Si    4.07325  12.21975  14.93525   0.000000433338957   0.000009533688359   0.000009546191676
Si    5.43100  13.57750  13.57750   0.000010577341953   0.000001394547891   0.000001381558568
Si    6.78875  14.93525  14.93525   0.000000433338959   0.000009533688351   0.000009546191683
Si    8.14650  16.29300  13.57750   0.000010577341960   0.000001394547884   0.000001381558582
Si    9.50425  17.65075  14.93525   0.000000433338955   0.000009533688359   0.000009546191694
Si   10.86200  19.00850  13.57750   0.000010577341948   0.000001394547888   0.000001381558572
Si   12.21975  20.36625  14.93525   0.000000433338972   0.000009533688367   0.000009546191683
Si   13.57750  21.72400  13.57750   0.000010577341944   0.000001394547870   0.000001381558588
Si   14.93525  23.08175  14.93525   0.000000433338975   0.000009533688354   0.000009546191683
Si    5.43100  10.86200  16.29300   0.000010577341961   0.000001394547873   0.000001381558571
Si    6.78875  12.21975  17.65075   0.000000433338959   0.000009533688346   0.000009546191692
Si    8.14650  13.57750  16.29300   0.000010577341958   0.000001394547889   0.000001381558579
Si    9.50425  14.93525  17.65075   0.000000433338971   0.000009533688358   0.000009546191678
Si   10.86200  16.29300  16.29300   0.000010577341957   0.000001394547872   0.000001381558559
Si   12.21975  17.65075  17.65075   0.000000433338958   0.000009533688359   0.000009546191688
Si   13.57750  19.00850  16.29300   0.000010577341954   0.000001394547889   0.000001381558574
Si   14.93525  20.36625  17.65075   0.000000433338968   0.000009533688356   0.000009546191680
Si   16.29300  21.72400  16.29300   0.000010577341954   0.000001394547883   0.000001381558555
Si   17.65075  23.08175  17.65075   0.000000433338971   0.000009533688352   0.000009546191694
Si    8.14650  10.86200  19.00850   0.000010577341942   0.000001394547876   0.000001381558587
Si    9.50425  12.21975  20.36625   0.000000433338975   0.000009533688351   0.000009546191684
Si   10.86200  13.57750  19.00850   0.000010577341945   0.000001394547875   0.000001381558573
Si   12.21975  14.93525  20.36625   0.000000433338972   0.000009533688357   0.000009546191688
Si   13.57750  16.29300  19.00850   0.000010577341952   0.000001394547887   0.000001381558578
Si   14.93525  17.65075  20.36625   0.000000433338965   0.000009533688353   0.000009546191676
Si   16.29300  19.00850  19.00850   0.000010577341950   0.000001394547879   0.000001381558573
Si   17.65075  20.36625  20.36625   0.000000433338972   0.000009533688356   0.000009546191685
Si   19.00850  21.72400  19.00850   0.000010577341950   0.000001394547878   0.000001381558584
Si   20.36625  23.08175  20.36625   0.000000433338969   0.000009533688357   0.000009546191678
Si   10.86200  10.86200  21.72400   0.000010577341959   0.000001394547884   0.000001381558573
Si   12.21975  12.21975  23.08175   0.000000433338960   0.000009533688352   0.000009546191689
Si   13.57750  13.57750  21.72400   0.000010577341963   0.000001394547884   0.000001381558561
Si   14.93525  14.93525  23.08175   0.000000433338980   0.000009533688339   0.000009546191690
Si   16.29300  16.29300  21.72400   0.000010577341953   0.000001394547885   0.000001381558575
Si   17.65075  17.65075  23.08175   0.000000433338968   0.000009533688355   0.000009546191685
Si   19.00850  19.00850  21.72400   0.000010577341949   0.000001394547893   0.000001381558574
Si   20.36625  20.36625  23.08175   0.000000433338967   0.000009533688347   0.000009546191679
Si   21.72400  21.72400  21.72400   0.000010577341958   0.000001394547879   0.000001381558565
Si   23.08175  23.08175  23.08175   0.000000433338966   0.000009533688364   0.000009546191701
Si    0.00000  13.57750  13.57750   0.000017803754962  -0.000007500003782  -0.000007486080943
Si    1.35775  14.93525  14.93525  -0.000007202799484   0.000007912941994   0.000007916636830
Si    2.71550  16.29300  13.57750   0.000017803754960  -0.000007500003772  -0.000007486080948
Si    4.07325  17.65075  14.93525  -0.000007202799488   0.000007912942009   0.000007916636840
Si    5.43100  19.00850  13.57750   0.000017803754969  -0.000007500003766  -0.000007486080959
Si    6.78875  20.36625  14.93525  -0.000007202799499   0.000007912941992   0.000007916636840
Si    8.14650  21.72400  13.57750   0.000017803754961  -0.000007500003754  -0.000007486080954
Si    9.50425  23.08175  14.93525  -0.000007202799487   0.000007912941991   0.000007916636838
Si   10.86200  24.43950  13.57750   0.000017803754966  -0.000007500003756  -0.000007486080958
Si   12.21975  25.79725  14.93525  -0.000007202799486   0.000007912942006   0.000007916636839
Si    2.71550  13.57750  16.29300   0.000017803754972  -0.000007500003764  -0.000007486080966
Si    4.07325  14.93525  17.65075  -0.000007202799487   0.000007912942006   0.000007916636830
Si    5.43100  16.29300  16.29300   0.000017803754945  -0.000007500003768  -0.000007486080954
Si    6.78875  17.65075  17.65075  -0.000007202799503   0.000007912942007   0.000007916636845
Si    8.14650  19.00850  16.29300   0.000017803754953  -0.000007500003762  -0.000007486080968
Si    9.50425  20.36625  17.65075  -0.000007202799498   0.000007912941986   0.000007916636835
Si   10.86200  21.72400  16.29300   0.000017803754957  -0.000007500003773  -0.000007486080958
Si   12.21975  23.08175  17.65075  -0.000007202799483   0.000007912942014   0.000007916636836
Si   13.57750  24.43950  16.29300   0.000017803754943  -0.000007500003759  -0.000007486080965
Si   14.93525  25.79725  17.65075  -0.000007202799489   0.000007912941994   0.000007916636843
Si    5.43100  13.57750  19.00850   0.000017803754963  -0.000007500003769  -0.000007486080947
Si    6.78875  14.93525  20.36625  -0.000007202799503   0.000007912942004   0.000007916636849
Si    8.14650  16.29300  19.00850   0.000017803754958  -0.000007500003762  -0.000007486080962
Si    9.50425  17.65075  20.36625  -0.000007202799484   0.000007912941988   0.000007916636830
Si   10.86200  19.00850  19.00850   0.000017803754950  -0.000007500003764  -0.000007486080954
Si   12.21975  20.36625  20.36625  -0.000007202799485   0.000007912942009   0.000007916636837
Si   13.57750  21.72400  19.00850   0.000017803754954  -0.000007500003777  -0.000007486080950
Si   14.93525  23.08175  20.36625  -0.000007202799489   0.000007912942007   0.000007916636828
Si   16.29300  24.43950  19.00850   0.000017803754951  -0.000007500003761  -0.000007486080957
Si   17.65075  25.79725  20.36625  -0.000007202799487   0.000007912942007   0.000007916636836
Si    8.14650  13.57750  21.72400   0.000017803754947  -0.000007500003761  -0.000007486080953
Si    9.50425  14.93525  23.08175  -0.000007202799485   0.000007912942001   0.000007916636845
Si   10.86200  16.29300  21.72400   0.000017803754948  -0.000007500003770  -0.000007486080958
Si   12.21975  17.65075  23.08175  -0.000007202799487   0.000007912942005   0.000007916636836
Si   13.57750  19.00850  21.72400   0.000017803754936  -0.000007500003763  -0.000007486080958
Si   14.93525  20.36625  23.08175  -0.000007202799483   0.000007912941990   0.000007916636822
Si   16.29300  21.72400  21.72400   0.000017803754955  -0.000007500003767  -0.000007486080952
Si   17.65075  23.08175  23.08175  -0.000007202799497   0.000007912942020   0.000007916636832
Si   19.00850  24.43950  21.72400   0.000017803754945  -0.000007500003778  -0.000007486080946
Si   20.36625  25.79725  23.08175  -0.000007202799489   0.000007912941995   0.000007916636840
Si   10.86200  13.57750  24.43950   0.000017803754965  -0.000007500003763  -0.000007486080960
Si   12.21975  14.93525  25.79725  -0.000007202799494   0.000007912941996   0.000007916636833
Si   13.57750  16.29300  24.43950   0.000017803754952  -0.000007500003757  -0.000007486080944
Si   14.93525  17.65075  25.79725  -0.000007202799500   0.000007912942012   0.000007916636833
Si   16.29300  19.00850  24.43950   0.000017803754973  -0.000007500003762  -0.000007486080975
Si   17.65075  20.36625  25.79725  -0.000007202799491   0.000007912941989   0.000007916636833
Si   19.00850  21.72400  24.43950   0.000017803754948  -0.000007500003773  -0.000007486080959
Si   20.36625  23.08175  25.79725  -0.000007202799492   0.000007912942009   0.000007916636830
Si   21.72400  24.43950  24.43950   0.000017803754956  -0.000007500003782  -0.000007486080954
Si   23.08175  25.79725  25.79725  -0.000007202799483   0.000007912941991   0.000007916636841
