216 

Si    0.72888   0.67888   0.67888   0.013554452281290   0.000001990648760   0.000001990768047
Si    3.39437   0.67888   3.39437  -0.000199990072328   0.000120264754396  -0.000193514415820
Si    0.67888   3.39437   3.39437   0.000422774779588  -0.000114170466550  -0.000114504532679
Si    3.39437   3.39437   0.67888  -0.000200042613008  -0.000193659289980   0.000120664624565
Si    4.75213   2.03662   2.03662   0.000010573415164   0.000025269048644   0.000025400469132
Si    4.75213   4.75213   4.75213   0.000016293681160   0.000007131083438   0.000007121689912
Si    2.03662   2.03662   4.75213   0.000033542263323  -0.000036257059206   0.000033866720609
Si    2.03662   4.75213   2.03662   0.000033457049747   0.000033946110024  -0.000036346237737
Si    0.67888   0.67888   6.10987  -0.000019085112387   0.000002861018538   0.000000653025976
Si    3.39437   0.67888   8.82538  -0.000020012150967   0.000008154452109   0.000008156471100
Si    0.67888   3.39437   8.82538  -0.000003688258781  -0.000008033162488   0.000011483760001
Si    3.39437   3.39437   6.10987  -0.000019401071324   0.000022372306879  -0.000003060496784
Si    4.75213   2.03662   7.46762   0.000001034443554  -0.000009021103332  -0.000000596540574
Si    4.75213   4.75213  10.18313   0.000002565743399  -0.000017228310928  -0.000003758681616
Si    2.03662   2.03662  10.18313   0.000015281528378   0.000001235473824   0.000002273367258
Si    2.03662   4.75213   7.46762   0.000012656307509  -0.000007457300068   0.000008757445470
Si    0.67888   0.67888  11.54087  -0.000013795352334   0.000008181440140  -0.000007934167191
Si    3.39437   0.67888  14.25638  -0.000194039321577  -0.000108274609305   0.000183818811751
Si    0.67888   3.39437  14.25638   0.000422019470618   0.000108390724704  -0.000112502180452
Si    3.39437   3.39437  11.54087  -0.000024786485487   0.000017866100721   0.000003898446186
Si    4.75213   2.03662  12.89863  -0.000016027712065   0.000051354633064   0.000024940548204
Si    4.75213   4.75213  15.61412  -0.000009865943460  -0.000013068168956  -0.000061114632418
Si    2.03662   2.03662  15.61412  -0.003371499478745  -0.002473717097478   0.002466598706759
Si    2.03662   4.75213  12.89863  -0.000177685185423   0.000054526652134  -0.000048805078911
Si    0.67888   6.10987   0.67888  -0.000018924365269   0.000000662469748   0.000002868394113
Si    3.39437   6.10987   3.39437  -0.000019465273549  -0.000003059858974   0.000022347605940
Si    0.67888   8.82538   3.39437  -0.000003744048383   0.000011457019056  -0.000008032067253
Si    3.39437   8.82538   0.67888  -0.000019972900320   0.000008152960675   0.000008157702630
Si    4.75213   7.46762   2.03662   0.000001048572833  -0.000000599628100  -0.000009040475679
Si    4.75213  10.18313   4.75213   0.000002690057973  -0.000003774797226  -0.000017207938089
Si    2.03662   7.46762   4.75213   0.000012644285506   0.000008752727824  -0.000007407523319
Si    2.03662  10.18313   2.03662   0.000015290869151   0.000002252528090   0.000001448273401
Si    0.67888   6.10987   6.10987   0.000108631658314  -0.000020937804164  -0.000020956318720
Si    3.39437   6.10987   8.82538  -0.000007164049789   0.000014916619664   0.000006023774936
Si    0.67888   8.82538   8.82538   0.000118913912211   0.000008999702260   0.000008981288441
Si    3.39437   8.82538   6.10987  -0.000007156043042   0.000006014454553   0.000014921536570
Si    4.75213   7.46762   7.46762   0.000009618942617  -0.000012782485666  -0.000012791407496
Si    4.75213  10.18313  10.18313   0.000008580627385   0.000004629413838   0.000004634853136
Si    2.03662   7.46762  10.18313  -0.000063035325291  -0.000005493964038  -0.000001644697927
Si    2.03662  10.18313   7.46762  -0.000063035431464  -0.000001624169259  -0.000005480096772
Si    0.67888   6.10987  11.54087   0.000106103015209   0.000019950383161  -0.000023732752271
Si    3.39437   6.10987  14.25638  -0.000023729866869  -0.000012047544929  -0.000025910637930
Si    0.67888   8.82538  14.25638  -0.000009029084351  -0.000000436034267   0.000000750357296
Si    3.39437   8.82538  11.54087  -0.000013287579226   0.000005852091105  -0.000024778478746
Si    4.75213   7.46762  12.89863   0.000008801779098  -0.000006105446078   0.000029071004187
Si    4.75213  10.18313  15.61412   0.000001066962596  -0.000001387701683   0.000007033755630
Si    2.03662   7.46762  15.61412   0.000014411969305  -0.000005137381630  -0.000004327566993
Si    2.03662  10.18313  12.89863   0.000011764072392  -0.000011636369647   0.000017410563939
Si    0.67888  11.54087   0.67888  -0.000013664202223  -0.000007934912374   0.000008173151217
Si    3.39437  11.54087   3.39437  -0.000024777007269   0.000003897534551   0.000017747387576
Si    0.67888  14.25638   3.39437   0.000422041057512  -0.000112160511162   0.000108725136789
Si    3.39437  14.25638   0.67888  -0.000194100264937   0.000183941120901  -0.000108679213941
Si    4.75213  12.89863   2.03662  -0.000016001898408   0.000024932949324   0.000051242599745
Si    4.75213  15.61412   4.75213  -0.000009910695446  -0.000061250065697  -0.000013080624230
Si    2.03662  12.89863   4.75213  -0.000177685291392  -0.000048767287151   0.000054554164810
Si    2.03662  15.61412   2.03662  -0.003371497004725   0.002466482622306  -0.002473841166022
Si    0.67888  11.54087   6.10987   0.000106084639905  -0.000023696572223   0.000019978342505
Si    3.39437  11.54087   8.82538  -0.000013277768203  -0.000024797034145   0.000005837785883
Si    0.67888  14.25638   8.82538  -0.000008955674505   0.000000759718346  -0.000000445834274
Si    3.39437  14.25638   6.10987  -0.000023736121050  -0.000026028939286  -0.000012051826161
Si    4.75213  12.89863   7.46762   0.000008695752424   0.000029096010191  -0.000006098138215
Si    4.75213  15.61412  10.18313   0.000001017781946   0.000007032564640  -0.000001409256103
Si    2.03662  12.89863  10.18313   0.000011776136927   0.000017458026548  -0.000011636680050
Si    2.03662  15.61412   7.46762   0.000014402295800  -0.000004119873297  -0.000005153862264
Si    0.67888  11.54087  11.54087   0.000110515021361   0.000011941474762   0.000011978385625
Si    3.39437  11.54087  14.25638  -0.000019437260294   0.000001068643848  -0.000024352266255
Si    0.67888  14.25638  14.25638   0.000420831247549   0.000105077428904   0.000105428384766
Si    3.39437  14.25638  11.54087  -0.000019409660917  -0.000024356279108   0.000001050649370
Si    4.75213  12.89863  12.89863   0.000016294737341   0.000009175079669   0.000009191009396
Si    4.75213  15.61412  15.61412   0.000011539825126  -0.000033386600292  -0.000033521760844
Si    2.03662  12.89863  15.61412   0.000034355800651  -0.000023932329457   0.000033472291094
Si    2.03662  15.61412  12.89863   0.000034438923800   0.000033378780676  -0.000023849173663
Si    6.10987   0.67888   0.67888  -0.000005158910982   0.000002872321823   0.000002868708473
Si    8.82538   0.67888   3.39437   0.000005832452493   0.000004819361727  -0.000008021890946
Si    6.10987   3.39437   3.39437   0.000002262170488  -0.000015119011973  -0.000015112984794
Si    8.82538   3.39437   0.67888   0.000005857008870  -0.000008017942513   0.000004833597022
Si   10.18313   2.03662   2.03662   0.000000019651149   0.000002239739829   0.000002253421546
Si   10.18313   4.75213   4.75213  -0.000001024334189   0.000000059050896   0.000000045053316
Si    7.46762   2.03662   4.75213   0.000000523130074   0.000012655379422   0.000004996521055
Si    7.46762   4.75213   2.03662   0.000000534065716   0.000004986267003   0.000012657649865
Si    6.10987   0.67888   6.10987  -0.000000627715302   0.000028679785015  -0.000012289392150
Si    8.82538   0.67888   8.82538   0.000010652299913   0.000009002687480   0.000008981075291
Si    6.10987   3.39437   8.82538   0.000000207281641   0.000012736762891   0.000001214373622
Si    8.82538   3.39437   6.10987   0.000004795227141  -0.000006103995121   0.000000743368836
Si   10.18313   2.03662   7.46762  -0.000004936064538  -0.000001186386366  -0.000007873291187
Si   10.18313   4.75213  10.18313   0.000002552747860   0.000011796071891  -0.000005326755743
Si    7.46762   2.03662  10.18313  -0.000012411776042   0.000002251228710  -0.000000343552001
Si    7.46762   4.75213   7.46762  -0.000005574665747   0.000003643779020  -0.000013450908111
Si    6.10987   0.67888  11.54087  -0.000001506833673  -0.000018674777745   0.000009407686859
Si    8.82538   0.67888  14.25638   0.000000544982445   0.000006201721916   0.000000738999455
Si    6.10987   3.39437  14.25638   0.000001632276997  -0.000011263991645   0.000004141740706
Si    8.82538   3.39437  11.54087   0.000011108705412  -0.000005886190376  -0.000007353103470
Si   10.18313   2.03662  12.89863   0.000003291909722  -0.000011538445428   0.000009485396343
Si   10.18313   4.75213  15.61412   0.000004164495290   0.000000518035108   0.000008664708185
Si    7.46762   2.03662  15.61412  -0.000002636465892  -0.000003256161130  -0.000000492622851
Si    7.46762   4.75213  12.89863  -0.000009076930908   0.000011936149773   0.000006035540436
Si    6.10987   6.10987   0.67888  -0.000000744658178  -0.000012300332488   0.000028679585362
Si    8.82538   6.10987   3.39437   0.000004813868757   0.000000745564245  -0.000006109984957
Si    6.10987   8.82538   3.39437   0.000000198130077   0.000001217973552   0.000012732362431
Si    8.82538   8.82538   0.67888   0.000010607144815   0.000008999501189   0.000008984187066
Si   10.18313   7.46762   2.03662  -0.000004929795406  -0.000007884344068  -0.000001191244368
Si   10.18313  10.18313   4.75213   0.000002559544327  -0.000005328818787   0.000011808038000
Si    7.46762   7.46762   4.75213  -0.000005567309884  -0.000013448582836   0.000003642276124
Si    7.46762  10.18313   2.03662  -0.000012402152363  -0.000000360759880   0.000002257544439
Si    6.10987   6.10987   6.10987  -0.000002075833046   0.000003403404171   0.000003406631763
Si    8.82538   6.10987   8.82538   0.000001051434937   0.000000856615235   0.000002880532250
Si    6.10987   8.82538   8.82538  -0.000000936063657   0.000002884052891   0.000002879606517
Si    8.82538   8.82538   6.10987   0.000001031577687   0.000002857639627   0.000000851408978
Si   10.18313   7.46762   7.46762  -0.000000947553977  -0.000002693041125  -0.000002704398826
Si   10.18313  10.18313  10.18313  -0.000000067755578  -0.000000191026943  -0.000000175303779
Si    7.46762   7.46762  10.18313  -0.000002917298465  -0.000003045156861  -0.000000712027006
Si    7.46762  10.18313   7.46762  -0.000002935153983  -0.000000701093811  -0.000003042566676
Si    6.10987   6.10987  11.54087  -0.000001922748750   0.000003523288610  -0.000010631182083
Si    8.82538   6.10987  14.25638   0.000009221800455  -0.000001636344092  -0.000003106313393
Si    6.10987   8.82538  14.25638   0.000001078454180   0.000008783167124  -0.000015613723151
Si    8.82538   8.82538  11.54087   0.000006318696275   0.000008163111707  -0.000008134279289
Si   10.18313   7.46762  12.89863   0.000003438806691   0.000002444574338  -0.000001805987544
Si   10.18313  10.18313  15.61412  -0.000004929573055   0.000000768924632  -0.000005935619322
Si    7.46762   7.46762  15.61412  -0.000014290319755  -0.000008640421122  -0.000011242386434
Si    7.46762  10.18313  12.89863  -0.000000297714892   0.000006173310259   0.000007396493933
Si    6.10987  11.54087   0.67888  -0.000001623576099   0.000009414334440  -0.000018673077518
Si    8.82538  11.54087   3.39437   0.000011107964187  -0.000007364134484  -0.000005874777480
Si    6.10987  14.25638   3.39437   0.000001632459706   0.000004148870467  -0.000011263509990
Si    8.82538  14.25638   0.67888   0.000000587371642   0.000000743635161   0.000006204509489
Si   10.18313  12.89863   2.03662   0.000003285757575   0.000009483027452  -0.000011547265376
Si   10.18313  15.61412   4.75213   0.000004170841314   0.000008651432834   0.000000517961205
Si    7.46762  12.89863   4.75213  -0.000009077019762   0.000006062170021   0.000011925924780
Si    7.46762  15.61412   2.03662  -0.000002618425750  -0.000000492907160  -0.000003264742564
Si    6.10987  11.54087   6.10987  -0.000001922644179  -0.000010638709219   0.000003509119642
Si    8.82538  11.54087   8.82538   0.000006320629946  -0.000008130911267   0.000008157170889
Si    6.10987  14.25638   8.82538   0.000001087581970  -0.000015622451438   0.000008789109450
Si    8.82538  14.25638   6.10987   0.000009222520699  -0.000003113300333  -0.000001628942508
Si   10.18313  12.89863   7.46762   0.000003432010751  -0.000001796358235   0.000002446983565
Si   10.18313  15.61412  10.18313  -0.000004935703348  -0.000005933562436   0.000000751138781
Si    7.46762  12.89863  10.18313  -0.000000287074914   0.000007378020013   0.000006167034782
Si    7.46762  15.61412   7.46762  -0.000014299988964  -0.000011254366472  -0.000008639211942
Si    6.10987  11.54087  11.54087  -0.000001196343572  -0.000006287881749  -0.000006286659408
Si    8.82538  11.54087  14.25638   0.000004794328552  -0.000004491331629   0.000002352859395
Si    6.10987  14.25638  14.25638   0.000001391244443   0.000012228477084   0.000012226880406
Si    8.82538  14.25638  11.54087   0.000004811508122   0.000002355210314  -0.000004497520397
Si   10.18313  12.89863  12.89863  -0.000001021505992   0.000005714738678   0.000005719894914
Si   10.18313  15.61412  15.61412  -0.000000859141065  -0.000005123821638  -0.000005132934449
Si    7.46762  12.89863  15.61412  -0.000004752697958   0.000006034287364  -0.000019940652599
Si    7.46762  15.61412  12.89863  -0.000004745866224  -0.000019929860314   0.000006040970297
Si   11.54087   0.67888   0.67888  -0.000013899586939   0.000008144060849   0.000008147520877
Si   14.25638   0.67888   3.39437  -0.000183757489565   0.000108388827661   0.000174871158776
Si   11.54087   3.39437   3.39437  -0.000007172416936  -0.000003904784095  -0.000003914443687
Si   14.25638   3.39437   0.67888  -0.000183804103709   0.000174969723034   0.000108790106513
Si   15.61412   2.03662   2.03662  -0.003224256435807   0.002172625294695   0.002172765728400
Si   15.61412   4.75213   4.75213  -0.000181686135490  -0.000042204523759  -0.000042263609941
Si   12.89863   2.03662   4.75213  -0.000013466910863  -0.000051769071568   0.000022759899002
Si   12.89863   4.75213   2.03662  -0.000013429005332   0.000022746565455  -0.000051651256406
Si   11.54087   0.67888   6.10987  -0.000002778622432   0.000023141152119   0.000010923644780
Si   14.25638   0.67888   8.82538  -0.000011239971749   0.000002885477720   0.000002879380539
Si   11.54087   3.39437   8.82538  -0.000008044350354  -0.000024953627329   0.000007405289874
Si   14.25638   3.39437   6.10987  -0.000016564434483  -0.000032762749303   0.000012368051560
Si   15.61412   2.03662   7.46762   0.000012501750451  -0.000002320262800  -0.000000523268724
Si   15.61412   4.75213  10.18313   0.000008549610033   0.000013130471318   0.000012535108077
Si   12.89863   2.03662  10.18313   0.000005492633273   0.000010582019392   0.000002198500879
Si   12.89863   4.75213   7.46762   0.000008743361660   0.000029202032440  -0.000011881514222
Si   11.54087   0.67888  11.54087  -0.000008909464986  -0.000011269598835  -0.000020775715658
Si   14.25638   0.67888  14.25638  -0.000182933013602  -0.000098281713424  -0.000177788395760
Si   11.54087   3.39437  14.25638  -0.000001405131237   0.000009310831918  -0.000011301022647
Si   14.25638   3.39437  11.54087  -0.000015776668911  -0.000029183038142  -0.000007307927613
Si   15.61412   2.03662  12.89863   0.000028279191755   0.000039291149071   0.000027480890970
Si   15.61412   4.75213  15.61412   0.000022872473673  -0.000016587771018  -0.000046631016452
Si   12.89863   2.03662  15.61412   0.000007077442872  -0.000025095657584   0.000023270901957
Si   12.89863   4.75213  12.89863   0.000016292986378   0.000009337095276   0.000006967698511
Si   11.54087   6.10987   0.67888  -0.000002904429270   0.000010930412795   0.000023148074552
Si   14.25638   6.10987   3.39437  -0.000016554162753   0.000012362322232  -0.000032667241056
Si   11.54087   8.82538   3.39437  -0.000008054234385   0.000007423171458  -0.000024929179193
Si   14.25638   8.82538   0.67888  -0.000011204155885   0.000002883824089   0.000002881078397
Si   15.61412   7.46762   2.03662   0.000012544590819  -0.000000532258316  -0.000002546493916
Si   15.61412  10.18313   4.75213   0.000008518226541   0.000012539397561   0.000013096205477
Si   12.89863   7.46762   4.75213   0.000008846832575  -0.000011912111480   0.000029178751904
Si   12.89863  10.18313   2.03662   0.000005522832538   0.000002180927587   0.000010591398896
Si   11.54087   6.10987   6.10987  -0.000009112353054  -0.000003444985836  -0.000003430331787
Si   14.25638   6.10987   8.82538  -0.000004090617987  -0.000015753570374   0.000010297189058
Si   11.54087   8.82538   8.82538  -0.000009906082733   0.000008153520219   0.000008157020497
Si   14.25638   8.82538   6.10987  -0.000004098645037   0.000010294914752  -0.000015754783510
Si   15.61412   7.46762   7.46762  -0.000071653776911  -0.000010789331881  -0.000010792601681
Si   15.61412  10.18313  10.18313  -0.000069762759861   0.000001786386923   0.000001808028109
Si   12.89863   7.46762  10.18313   0.000004184933196   0.000001695942352  -0.000003694818233
Si   12.89863  10.18313   7.46762   0.000004202833265  -0.000003684181694   0.000001688003486
Si   11.54087   6.10987  11.54087  -0.000004807715239  -0.000002648297318   0.000000649966049
Si   14.25638   6.10987  14.25638  -0.000016700947751   0.000004431572384   0.000026304260160
Si   11.54087   8.82538  14.25638  -0.000001920867305   0.000004442977784   0.000015071946000
Si   14.25638   8.82538  11.54087  -0.000004978432374  -0.000000294058827   0.000012872803221
Si   15.61412   7.46762  12.89863   0.000003248548535  -0.000019813267067  -0.000002058474674
Si   15.61412  10.18313  15.61412   0.000012527910496  -0.000003216718098  -0.000001213307154
Si   12.89863   7.46762  15.61412   0.000006558663623  -0.000010332513307  -0.000018749892178
Si   12.89863  10.18313  12.89863   0.000002739190301   0.000002036319916  -0.000017315594686
Si   11.54087  11.54087   0.67888  -0.000009017179729  -0.000020806019723  -0.000011281461844
Si   14.25638  11.54087   3.39437  -0.000015819734471  -0.000007317145550  -0.000029177896145
Si   11.54087  14.25638   3.39437  -0.000001423095426  -0.000011295743653   0.000009297516388
Si   14.25638  14.25638   0.67888  -0.000182972041065  -0.000177892241322  -0.000098680704186
Si   15.61412  12.89863   2.03662   0.000028150664997   0.000027556138233   0.000039376847812
Si   15.61412  15.61412   4.75213   0.000023018209099  -0.000046542661947  -0.000016495899289
Si   12.89863  12.89863   4.75213   0.000016292584009   0.000006968862710   0.000009345568988
Si   12.89863  15.61412   2.03662   0.000007060260028   0.000023162729979  -0.000025222844258
Si   11.54087  11.54087   6.10987  -0.000004789793074   0.000000660605699  -0.000002656182707
Si   14.25638  11.54087   8.82538  -0.000004970303569   0.000012867159247  -0.000000293994366
Si   11.54087  14.25638   8.82538  -0.000001928909751   0.000015072977789   0.000004455885521
Si   14.25638  14.25638   6.10987  -0.000016659750245   0.000026304190981   0.000004427055409
Si   15.61412  12.89863   7.46762   0.000003262133980  -0.000002109480785  -0.000019817513911
Si   15.61412  15.61412  10.18313   0.000012522279769  -0.000001431027493  -0.000003234069996
Si   12.89863  12.89863  10.18313   0.000002618428121  -0.000017333305328   0.000002029383196
Si   12.89863  15.61412   7.46762   0.000006527986138  -0.000018737083417  -0.000010353697748
Si   11.54087  11.54087  11.54087  -0.000010149159723  -0.000004709645747  -0.000004727835982
Si   14.25638  11.54087  14.25638  -0.000016561720514  -0.000019475805138   0.000025546604438
Si   11.54087  14.25638  14.25638  -0.000006141276900  -0.000004256687233  -0.000004250375226
Si   14.25638  14.25638  11.54087  -0.000016569769338   0.000025650550844  -0.000019488563425
Si   15.61412  12.89863  12.89863  -0.000181690416055   0.000060224262824   0.000060247034406
Si   15.61412  15.61412  15.61412  -0.003226191361762  -0.002181521593377  -0.002181649264278
Si   12.89863  12.89863  15.61412  -0.000007268631851  -0.000010866033867   0.000041758416002
Si   12.89863  15.61412  12.89863  -0.000007324459662   0.000041852289252  -0.000010884052322
