216 

Si    0.72888   0.67888   0.67888   0.013554452286006   0.000001990644843   0.000001990775786
Si    3.39437   0.67888   3.39437  -0.000199990072409   0.000120264747426  -0.000193514426700
Si    0.67888   3.39437   3.39437   0.000422774806277  -0.000114170480573  -0.000114504547842
Si    3.39437   3.39437   0.67888  -0.000200042600401  -0.000193659302061   0.000120664626119
Si    4.75213   2.03662   2.03662   0.000010573410297   0.000025269069330   0.000025400457234
Si    4.75213   4.75213   4.75213   0.000016293674213   0.000007131070716   0.000007121689085
Si    2.03662   2.03662   4.75213   0.000033542301189  -0.000036257050959   0.000033866722590
Si    2.03662   4.75213   2.03662   0.000033457058776   0.000033946117652  -0.000036346238606
Si    0.67888   0.67888   6.10987  -0.000019085118490   0.000002861006502   0.000000653047262
Si    3.39437   0.67888   8.82538  -0.000020012180287   0.000008154443847   0.000008156475767
Si    0.67888   3.39437   8.82538  -0.000003688259046  -0.000008033170203   0.000011483741821
Si    3.39437   3.39437   6.10987  -0.000019401066459   0.000022372302063  -0.000003060513093
Si    4.75213   2.03662   7.46762   0.000001034448516  -0.000009021115156  -0.000000596545577
Si    4.75213   4.75213  10.18313   0.000002565726972  -0.000017228308670  -0.000003758684741
Si    2.03662   2.03662  10.18313   0.000015281542076   0.000001235485540   0.000002273355671
Si    2.03662   4.75213   7.46762   0.000012656320055  -0.000007457285812   0.000008757442754
Si    0.67888   0.67888  11.54087  -0.000013795347818   0.000008181426930  -0.000007934162590
Si    3.39437   0.67888  14.25638  -0.000194039327258  -0.000108274606658   0.000183818799819
Si    0.67888   3.39437  14.25638   0.000422019496404   0.000108390711845  -0.000112502193339
Si    3.39437   3.39437  11.54087  -0.000024786509293   0.000017866116354   0.000003898440926
Si    4.75213   2.03662  12.89863  -0.000016027730767   0.000051354619133   0.000024940562297
Si    4.75213   4.75213  15.61412  -0.000009865945472  -0.000013068172254  -0.000061114632564
Si    2.03662   2.03662  15.61412  -0.003371499474494  -0.002473717108286   0.002466598689948
Si    2.03662   4.75213  12.89863  -0.000177685191626   0.000054526659783  -0.000048805089458
Si    0.67888   6.10987   0.67888  -0.000018924376320   0.000000662455861   0.000002868401302
Si    3.39437   6.10987   3.39437  -0.000019465247683  -0.000003059861557   0.000022347593145
Si    0.67888   8.82538   3.39437  -0.000003744038948   0.000011457038288  -0.000008032046857
Si    3.39437   8.82538   0.67888  -0.000019972897381   0.000008152952931   0.000008157691242
Si    4.75213   7.46762   2.03662   0.000001048573547  -0.000000599632193  -0.000009040475035
Si    4.75213  10.18313   4.75213   0.000002690056614  -0.000003774821743  -0.000017207923815
Si    2.03662   7.46762   4.75213   0.000012644261766   0.000008752732368  -0.000007407494883
Si    2.03662  10.18313   2.03662   0.000015290866899   0.000002252522992   0.000001448268577
Si    0.67888   6.10987   6.10987   0.000108631679618  -0.000020937801875  -0.000020956326769
Si    3.39437   6.10987   8.82538  -0.000007164042293   0.000014916596696   0.000006023771040
Si    0.67888   8.82538   8.82538   0.000118913910043   0.000008999702683   0.000008981273622
Si    3.39437   8.82538   6.10987  -0.000007156045903   0.000006014466497   0.000014921536744
Si    4.75213   7.46762   7.46762   0.000009618953797  -0.000012782496816  -0.000012791414096
Si    4.75213  10.18313  10.18313   0.000008580625021   0.000004629419338   0.000004634839794
Si    2.03662   7.46762  10.18313  -0.000063035314914  -0.000005493966957  -0.000001644682068
Si    2.03662  10.18313   7.46762  -0.000063035429393  -0.000001624182503  -0.000005480090879
Si    0.67888   6.10987  11.54087   0.000106103032232   0.000019950363061  -0.000023732744298
Si    3.39437   6.10987  14.25638  -0.000023729871587  -0.000012047517464  -0.000025910643043
Si    0.67888   8.82538  14.25638  -0.000009029080358  -0.000000436023117   0.000000750352945
Si    3.39437   8.82538  11.54087  -0.000013287596356   0.000005852085800  -0.000024778471030
Si    4.75213   7.46762  12.89863   0.000008801778147  -0.000006105430196   0.000029071001803
Si    4.75213  10.18313  15.61412   0.000001066978269  -0.000001387707545   0.000007033765801
Si    2.03662   7.46762  15.61412   0.000014411975307  -0.000005137378364  -0.000004327586830
Si    2.03662  10.18313  12.89863   0.000011764073947  -0.000011636377131   0.000017410567408
Si    0.67888  11.54087   0.67888  -0.000013664204385  -0.000007934922831   0.000008173146358
Si    3.39437  11.54087   3.39437  -0.000024777016745   0.000003897539550   0.000017747384467
Si    0.67888  14.25638   3.39437   0.000422041056362  -0.000112160524541   0.000108725140411
Si    3.39437  14.25638   0.67888  -0.000194100260357   0.000183941146716  -0.000108679221343
Si    4.75213  12.89863   2.03662  -0.000016001899762   0.000024932949354   0.000051242598472
Si    4.75213  15.61412   4.75213  -0.000009910711261  -0.000061250050946  -0.000013080621354
Si    2.03662  12.89863   4.75213  -0.000177685294379  -0.000048767287781   0.000054554148882
Si    2.03662  15.61412   2.03662  -0.003371496962808   0.002466482619625  -0.002473841158498
Si    0.67888  11.54087   6.10987   0.000106084621281  -0.000023696576458   0.000019978333853
Si    3.39437  11.54087   8.82538  -0.000013277771338  -0.000024797014471   0.000005837800802
Si    0.67888  14.25638   8.82538  -0.000008955648100   0.000000759705141  -0.000000445817490
Si    3.39437  14.25638   6.10987  -0.000023736129892  -0.000026028955179  -0.000012051827202
Si    4.75213  12.89863   7.46762   0.000008695747967   0.000029096021540  -0.000006098134224
Si    4.75213  15.61412  10.18313   0.000001017789274   0.000007032556611  -0.000001409251842
Si    2.03662  12.89863  10.18313   0.000011776129209   0.000017458025709  -0.000011636689670
Si    2.03662  15.61412   7.46762   0.000014402304040  -0.000004119851825  -0.000005153886535
Si    0.67888  11.54087  11.54087   0.000110515046363   0.000011941491067   0.000011978371563
Si    3.39437  11.54087  14.25638  -0.000019437259301   0.000001068661783  -0.000024352260809
Si    0.67888  14.25638  14.25638   0.000420831252561   0.000105077438944   0.000105428385028
Si    3.39437  14.25638  11.54087  -0.000019409642602  -0.000024356269934   0.000001050635095
Si    4.75213  12.89863  12.89863   0.000016294745872   0.000009175071443   0.000009191039225
Si    4.75213  15.61412  15.61412   0.000011539813610  -0.000033386596363  -0.000033521739476
Si    2.03662  12.89863  15.61412   0.000034355826208  -0.000023932310598   0.000033472292020
Si    2.03662  15.61412  12.89863   0.000034438931542   0.000033378780120  -0.000023849184816
Si    6.10987   0.67888   0.67888  -0.000005158918977   0.000002872314999   0.000002868702368
Si    8.82538   0.67888   3.39437   0.000005832452995   0.000004819390389  -0.000008021903866
Si    6.10987   3.39437   3.39437   0.000002262158355  -0.000015119002333  -0.000015112968649
Si    8.82538   3.39437   0.67888   0.000005856998841  -0.000008017955157   0.000004833594709
Si   10.18313   2.03662   2.03662   0.000000019651944   0.000002239723370   0.000002253414899
Si   10.18313   4.75213   4.75213  -0.000001024343466   0.000000059036773   0.000000045042845
Si    7.46762   2.03662   4.75213   0.000000523104387   0.000012655380074   0.000004996523656
Si    7.46762   4.75213   2.03662   0.000000534076403   0.000004986258456   0.000012657661202
Si    6.10987   0.67888   6.10987  -0.000000627730411   0.000028679789470  -0.000012289390211
Si    8.82538   0.67888   8.82538   0.000010652289455   0.000009002674689   0.000008981078487
Si    6.10987   3.39437   8.82538   0.000000207257891   0.000012736767655   0.000001214368825
Si    8.82538   3.39437   6.10987   0.000004795225230  -0.000006103977162   0.000000743349163
Si   10.18313   2.03662   7.46762  -0.000004936055259  -0.000001186361882  -0.000007873307603
Si   10.18313   4.75213  10.18313   0.000002552737274   0.000011796064334  -0.000005326780727
Si    7.46762   2.03662  10.18313  -0.000012411786489   0.000002251210392  -0.000000343565459
Si    7.46762   4.75213   7.46762  -0.000005574675635   0.000003643774824  -0.000013450945194
Si    6.10987   0.67888  11.54087  -0.000001506814601  -0.000018674774726   0.000009407710333
Si    8.82538   0.67888  14.25638   0.000000544977874   0.000006201708591   0.000000739005464
Si    6.10987   3.39437  14.25638   0.000001632286867  -0.000011264008018   0.000004141764605
Si    8.82538   3.39437  11.54087   0.000011108703237  -0.000005886179714  -0.000007353108389
Si   10.18313   2.03662  12.89863   0.000003291899992  -0.000011538451762   0.000009485403832
Si   10.18313   4.75213  15.61412   0.000004164490886   0.000000518038707   0.000008664727084
Si    7.46762   2.03662  15.61412  -0.000002636475527  -0.000003256137758  -0.000000492616440
Si    7.46762   4.75213  12.89863  -0.000009076937773   0.000011936138205   0.000006035521583
Si    6.10987   6.10987   0.67888  -0.000000744648374  -0.000012300317840   0.000028679584854
Si    8.82538   6.10987   3.39437   0.000004813854893   0.000000745546164  -0.000006109956376
Si    6.10987   8.82538   3.39437   0.000000198110926   0.000001217963555   0.000012732362989
Si    8.82538   8.82538   0.67888   0.000010607135478   0.000008999502183   0.000008984187283
Si   10.18313   7.46762   2.03662  -0.000004929802965  -0.000007884349291  -0.000001191242709
Si   10.18313  10.18313   4.75213   0.000002559546638  -0.000005328839133   0.000011808026944
Si    7.46762   7.46762   4.75213  -0.000005567300992  -0.000013448586913   0.000003642243433
Si    7.46762  10.18313   2.03662  -0.000012402159215  -0.000000360771286   0.000002257531458
Si    6.10987   6.10987   6.10987  -0.000002075825324   0.000003403405523   0.000003406624085
Si    8.82538   6.10987   8.82538   0.000001051409425   0.000000856618049   0.000002880536502
Si    6.10987   8.82538   8.82538  -0.000000936062433   0.000002884053530   0.000002879609377
Si    8.82538   8.82538   6.10987   0.000001031583080   0.000002857612378   0.000000851397628
Si   10.18313   7.46762   7.46762  -0.000000947551374  -0.000002693040118  -0.000002704393730
Si   10.18313  10.18313  10.18313  -0.000000067779304  -0.000000191020498  -0.000000175305491
Si    7.46762   7.46762  10.18313  -0.000002917281602  -0.000003045138276  -0.000000712049891
Si    7.46762  10.18313   7.46762  -0.000002935160331  -0.000000701110020  -0.000003042571366
Si    6.10987   6.10987  11.54087  -0.000001922764083   0.000003523297179  -0.000010631169398
Si    8.82538   6.10987  14.25638   0.000009221797319  -0.000001636344622  -0.000003106316314
Si    6.10987   8.82538  14.25638   0.000001078426055   0.000008783162297  -0.000015613695592
Si    8.82538   8.82538  11.54087   0.000006318694465   0.000008163103070  -0.000008134289724
Si   10.18313   7.46762  12.89863   0.000003438814604   0.000002444567376  -0.000001805997372
Si   10.18313  10.18313  15.61412  -0.000004929576542   0.000000768914267  -0.000005935624486
Si    7.46762   7.46762  15.61412  -0.000014290353001  -0.000008640446834  -0.000011242365930
Si    7.46762  10.18313  12.89863  -0.000000297703771   0.000006173345887   0.000007396491254
Si    6.10987  11.54087   0.67888  -0.000001623585838   0.000009414338356  -0.000018673072613
Si    8.82538  11.54087   3.39437   0.000011107956745  -0.000007364130143  -0.000005874793804
Si    6.10987  14.25638   3.39437   0.000001632443855   0.000004148876064  -0.000011263520190
Si    8.82538  14.25638   0.67888   0.000000587373738   0.000000743646424   0.000006204506564
Si   10.18313  12.89863   2.03662   0.000003285757294   0.000009483023545  -0.000011547286964
Si   10.18313  15.61412   4.75213   0.000004170841612   0.000008651434587   0.000000517954634
Si    7.46762  12.89863   4.75213  -0.000009077013998   0.000006062164619   0.000011925907482
Si    7.46762  15.61412   2.03662  -0.000002618435102  -0.000000492903606  -0.000003264752352
Si    6.10987  11.54087   6.10987  -0.000001922648717  -0.000010638695042   0.000003509117970
Si    8.82538  11.54087   8.82538   0.000006320625316  -0.000008130924693   0.000008157169114
Si    6.10987  14.25638   8.82538   0.000001087569679  -0.000015622471408   0.000008789126866
Si    8.82538  14.25638   6.10987   0.000009222530282  -0.000003113289300  -0.000001628939006
Si   10.18313  12.89863   7.46762   0.000003431987521  -0.000001796372005   0.000002446982366
Si   10.18313  15.61412  10.18313  -0.000004935716209  -0.000005933571038   0.000000751130575
Si    7.46762  12.89863  10.18313  -0.000000287086485   0.000007378045940   0.000006167053865
Si    7.46762  15.61412   7.46762  -0.000014299995683  -0.000011254351214  -0.000008639219258
Si    6.10987  11.54087  11.54087  -0.000001196344121  -0.000006287856829  -0.000006286679629
Si    8.82538  11.54087  14.25638   0.000004794313513  -0.000004491350343   0.000002352855948
Si    6.10987  14.25638  14.25638   0.000001391249269   0.000012228469216   0.000012226862463
Si    8.82538  14.25638  11.54087   0.000004811503760   0.000002355207412  -0.000004497516077
Si   10.18313  12.89863  12.89863  -0.000001021508130   0.000005714733654   0.000005719889871
Si   10.18313  15.61412  15.61412  -0.000000859169516  -0.000005123825340  -0.000005132953419
Si    7.46762  12.89863  15.61412  -0.000004752719889   0.000006034267940  -0.000019940637710
Si    7.46762  15.61412  12.89863  -0.000004745874579  -0.000019929876724   0.000006040976973
Si   11.54087   0.67888   0.67888  -0.000013899614985   0.000008144046419   0.000008147515137
Si   14.25638   0.67888   3.39437  -0.000183757490451   0.000108388816047   0.000174871164023
Si   11.54087   3.39437   3.39437  -0.000007172396770  -0.000003904776494  -0.000003914424252
Si   14.25638   3.39437   0.67888  -0.000183804092942   0.000174969709859   0.000108790126060
Si   15.61412   2.03662   2.03662  -0.003224256440355   0.002172625299362   0.002172765736139
Si   15.61412   4.75213   4.75213  -0.000181686154906  -0.000042204520854  -0.000042263593558
Si   12.89863   2.03662   4.75213  -0.000013466915980  -0.000051769084955   0.000022759884777
Si   12.89863   4.75213   2.03662  -0.000013429018492   0.000022746563235  -0.000051651228504
Si   11.54087   0.67888   6.10987  -0.000002778628631   0.000023141158903   0.000010923639283
Si   14.25638   0.67888   8.82538  -0.000011239950943   0.000002885460487   0.000002879399522
Si   11.54087   3.39437   8.82538  -0.000008044372900  -0.000024953623464   0.000007405281496
Si   14.25638   3.39437   6.10987  -0.000016564421206  -0.000032762720946   0.000012368062962
Si   15.61412   2.03662   7.46762   0.000012501754619  -0.000002320236063  -0.000000523280271
Si   15.61412   4.75213  10.18313   0.000008549622731   0.000013130488678   0.000012535099352
Si   12.89863   2.03662  10.18313   0.000005492653415   0.000010582017841   0.000002198519253
Si   12.89863   4.75213   7.46762   0.000008743347632   0.000029202031599  -0.000011881512462
Si   11.54087   0.67888  11.54087  -0.000008909459778  -0.000011269588346  -0.000020775725520
Si   14.25638   0.67888  14.25638  -0.000182933014604  -0.000098281707024  -0.000177788372801
Si   11.54087   3.39437  14.25638  -0.000001405138551   0.000009310829773  -0.000011301037225
Si   14.25638   3.39437  11.54087  -0.000015776647329  -0.000029183056396  -0.000007307937241
Si   15.61412   2.03662  12.89863   0.000028279205645   0.000039291175487   0.000027480897039
Si   15.61412   4.75213  15.61412   0.000022872468611  -0.000016587758205  -0.000046631012441
Si   12.89863   2.03662  15.61412   0.000007077443009  -0.000025095688481   0.000023270885199
Si   12.89863   4.75213  12.89863   0.000016292982610   0.000009337109460   0.000006967704319
Si   11.54087   6.10987   0.67888  -0.000002904441837   0.000010930435074   0.000023148073733
Si   14.25638   6.10987   3.39437  -0.000016554155322   0.000012362314449  -0.000032667241898
Si   11.54087   8.82538   3.39437  -0.000008054225510   0.000007423165705  -0.000024929187413
Si   14.25638   8.82538   0.67888  -0.000011204144630   0.000002883831802   0.000002881079755
Si   15.61412   7.46762   2.03662   0.000012544600857  -0.000000532241801  -0.000002546500390
Si   15.61412  10.18313   4.75213   0.000008518243949   0.000012539391422   0.000013096215881
Si   12.89863   7.46762   4.75213   0.000008846819138  -0.000011912124991   0.000029178739905
Si   12.89863  10.18313   2.03662   0.000005522826076   0.000002180915410   0.000010591418294
Si   11.54087   6.10987   6.10987  -0.000009112361137  -0.000003445000382  -0.000003430322907
Si   14.25638   6.10987   8.82538  -0.000004090591473  -0.000015753571946   0.000010297176243
Si   11.54087   8.82538   8.82538  -0.000009906086972   0.000008153510057   0.000008156999768
Si   14.25638   8.82538   6.10987  -0.000004098638630   0.000010294932793  -0.000015754771003
Si   15.61412   7.46762   7.46762  -0.000071653773948  -0.000010789316086  -0.000010792589368
Si   15.61412  10.18313  10.18313  -0.000069762743476   0.000001786375450   0.000001808015796
Si   12.89863   7.46762  10.18313   0.000004184937603   0.000001695941031  -0.000003694820510
Si   12.89863  10.18313   7.46762   0.000004202842478  -0.000003684176069   0.000001687975627
Si   11.54087   6.10987  11.54087  -0.000004807715166  -0.000002648273302   0.000000649974707
Si   14.25638   6.10987  14.25638  -0.000016700924191   0.000004431564253   0.000026304252157
Si   11.54087   8.82538  14.25638  -0.000001920869668   0.000004442987642   0.000015071952083
Si   14.25638   8.82538  11.54087  -0.000004978444379  -0.000000294047585   0.000012872801956
Si   15.61412   7.46762  12.89863   0.000003248580642  -0.000019813263402  -0.000002058483480
Si   15.61412  10.18313  15.61412   0.000012527918391  -0.000003216739210  -0.000001213291763
Si   12.89863   7.46762  15.61412   0.000006558647623  -0.000010332515839  -0.000018749890773
Si   12.89863  10.18313  12.89863   0.000002739190585   0.000002036312533  -0.000017315606217
Si   11.54087  11.54087   0.67888  -0.000009017187889  -0.000020806022406  -0.000011281455907
Si   14.25638  11.54087   3.39437  -0.000015819724763  -0.000007317154812  -0.000029177918560
Si   11.54087  14.25638   3.39437  -0.000001423105301  -0.000011295713302   0.000009297500345
Si   14.25638  14.25638   0.67888  -0.000182972037230  -0.000177892233096  -0.000098680691887
Si   15.61412  12.89863   2.03662   0.000028150679852   0.000027556128422   0.000039376875505
Si   15.61412  15.61412   4.75213   0.000023018214762  -0.000046542666877  -0.000016495892962
Si   12.89863  12.89863   4.75213   0.000016292578611   0.000006968835139   0.000009345578958
Si   12.89863  15.61412   2.03662   0.000007060267608   0.000023162738824  -0.000025222849857
Si   11.54087  11.54087   6.10987  -0.000004789781176   0.000000660594722  -0.000002656172370
Si   14.25638  11.54087   8.82538  -0.000004970323278   0.000012867176558  -0.000000293988943
Si   11.54087  14.25638   8.82538  -0.000001928893276   0.000015072986315   0.000004455879278
Si   14.25638  14.25638   6.10987  -0.000016659752555   0.000026304223493   0.000004427046657
Si   15.61412  12.89863   7.46762   0.000003262149573  -0.000002109473816  -0.000019817518145
Si   15.61412  15.61412  10.18313   0.000012522265832  -0.000001431013864  -0.000003234095923
Si   12.89863  12.89863  10.18313   0.000002618423383  -0.000017333314910   0.000002029364977
Si   12.89863  15.61412   7.46762   0.000006527972536  -0.000018737096750  -0.000010353693676
Si   11.54087  11.54087  11.54087  -0.000010149155872  -0.000004709639110  -0.000004727840675
Si   14.25638  11.54087  14.25638  -0.000016561739853  -0.000019475823997   0.000025546592935
Si   11.54087  14.25638  14.25638  -0.000006141271241  -0.000004256690884  -0.000004250390881
Si   14.25638  14.25638  11.54087  -0.000016569759891   0.000025650540536  -0.000019488564891
Si   15.61412  12.89863  12.89863  -0.000181690398749   0.000060224275045   0.000060247021997
Si   15.61412  15.61412  15.61412  -0.003226191343840  -0.002181521578420  -0.002181649261031
Si   12.89863  12.89863  15.61412  -0.000007268647006  -0.000010866042933   0.000041758406243
Si   12.89863  15.61412  12.89863  -0.000007324456803   0.000041852291630  -0.000010884055388
