384 

Si    0.67887   0.67887   0.67888   0.000003779841725   0.000003780169802  -0.000004943704924
Si    3.39438   0.67887   3.39437  -0.000002077234014  -0.000005615006719   0.000007891891145
Si    0.67887   3.39437   3.39437  -0.000005615105480  -0.000002077067489   0.000007891977734
Si    3.39438   3.39437   0.67888   0.000002232097817   0.000002232342800  -0.000005445951527
Si    4.75212   2.03662   2.03662  -0.000000011820928   0.000000377852611  -0.000000871220445
Si    4.75212   4.75212   4.75213  -0.000002021837971  -0.000002021647964  -0.000003168510414
Si    2.03662   2.03662   4.75213  -0.000002167843198  -0.000002167536004  -0.000003637246212
Si    2.03662   4.75212   2.03662   0.000000377658145  -0.000000011758322  -0.000000871319358
Si    0.67887   0.67887   6.10987  -0.000004899170107  -0.000004898835554   0.000000333521979
Si    3.39438   0.67887   8.82537  -0.000002759453719  -0.000005114891659  -0.000009135250314
Si    0.67887   3.39437   8.82537  -0.000005115045891  -0.000002759387086  -0.000009135253942
Si    3.39438   3.39437   6.10987  -0.000004153599058  -0.000004153404010   0.000000193943524
Si    4.75212   2.03662   7.46762   0.000001267391413  -0.000000900155240   0.000001364101106
Si    4.75212   4.75212  10.18313  -0.000000896004557  -0.000000895757542   0.000001254984265
Si    2.03662   2.03662  10.18313   0.000000066491503   0.000000066741262   0.000000225554504
Si    2.03662   4.75212   7.46762  -0.000000900265551   0.000001267539621   0.000001364141053
Si    0.67887   0.67887  11.54087   0.000003757555979   0.000003757800009   0.000005236481130
Si    3.39438   0.67887  14.25638  -0.000000393005471   0.000007079180475  -0.000000029568439
Si    0.67887   3.39437  14.25638   0.000007078962421  -0.000000392924457  -0.000000029482610
Si    3.39438   3.39437  11.54087   0.000002718336779   0.000002718415717   0.000005988367393
Si    4.75212   2.03662  12.89862   0.000000209268861  -0.000000118086084  -0.000000884219552
Si    4.75212   4.75212  15.61413  -0.000001376195353  -0.000001376024897   0.000004813639043
Si    2.03662   2.03662  15.61413   0.000000043239721   0.000000043620484   0.000002438730682
Si    2.03662   4.75212  12.89862  -0.000000118237430   0.000000209380722  -0.000000884099171
Si    0.67887   6.10987   0.67888   0.000003189279343   0.000001619769427   0.000002412808152
Si    3.39438   6.10987   3.39437   0.000005635740574  -0.000005763866566   0.000003492489865
Si    0.67887   8.82537   3.39437   0.000002211712967   0.000001327039017  -0.000002615874463
Si    3.39438   8.82537   0.67888  -0.000001990710663  -0.000003965496412  -0.000004818370338
Si    4.75212   7.46762   2.03662   0.000002006534223   0.000002568656461   0.000000595833374
Si    4.75212  10.18313   4.75213  -0.000002105366412  -0.000001001076147  -0.000003115593994
Si    2.03662   7.46762   4.75213   0.000003415178368  -0.000000697272822  -0.000006810126588
Si    2.03662  10.18313   2.03662   0.000002104359805   0.000001262396799  -0.000000436771805
Si    0.67887   6.10987   6.10987  -0.000001361148345  -0.000001036754704  -0.000000510850526
Si    3.39438   6.10987   8.82537   0.000007203802781  -0.000005288589970  -0.000002219643428
Si    0.67887   8.82537   8.82537  -0.000000023444017   0.000001437689794   0.000002426191610
Si    3.39438   8.82537   6.10987   0.000000596876181   0.000004613315449  -0.000000323055770
Si    4.75212   7.46762   7.46762   0.000001036967681   0.000001966141908  -0.000002559811686
Si    4.75212  10.18313  10.18313   0.000001848840492   0.000002671554431   0.000000920872829
Si    2.03662   7.46762  10.18313  -0.000002055246472   0.000006387034904  -0.000000250025278
Si    2.03662  10.18313   7.46762  -0.000001910650222   0.000002696254053   0.000001633511035
Si    0.67887   6.10987  11.54087   0.000000087496404   0.000003407721469  -0.000000425876069
Si    3.39438   6.10987  14.25638  -0.000002940832695   0.000002000863574   0.000001110989038
Si    0.67887   8.82537  14.25638   0.000000138492320   0.000001469479895   0.000001037302252
Si    3.39438   8.82537  11.54087   0.000000147713343  -0.000003444960125   0.000003858839192
Si    4.75212   7.46762  12.89862   0.000001130617870  -0.000000432324584   0.000001687306628
Si    4.75212  10.18313  15.61413  -0.000002349429982  -0.000000184964839   0.000002208996717
Si    2.03662   7.46762  15.61413   0.000001687901911  -0.000001468235951   0.000006324226789
Si    2.03662  10.18313  12.89862  -0.000000043367454   0.000003473543329   0.000000471381190
Si    0.67887  11.54087   0.67888  -0.000006918779851   0.000006111734386  -0.000003361569726
Si    3.39438  11.54087   3.39437   0.000005332569626  -0.000002288758164  -0.000003078604391
Si    0.67887  14.25638   3.39437  -0.000002155213552   0.000000711706701   0.000005543833445
Si    3.39438  14.25638   0.67888  -0.000000329698796   0.000000518275073  -0.000002631793156
Si    4.75212  12.89862   2.03662  -0.000000234462438   0.000001157523063   0.000000300967827
Si    4.75212  15.61413   4.75213  -0.000001424137567   0.000000812557746  -0.000003373766266
Si    2.03662  12.89862   4.75213  -0.000005668820656  -0.000000563779895   0.000000868981401
Si    2.03662  15.61413   2.03662   0.000001510195007  -0.000003982293754  -0.000000588984967
Si    0.67887  11.54087   6.10987   0.000001991260865  -0.000003518388405   0.000000137670560
Si    3.39438  11.54087   8.82537   0.000005882018791  -0.000001779530248   0.000002225931126
Si    0.67887  14.25638   8.82537  -0.000003222203623   0.000001260821093  -0.000005794655676
Si    3.39438  14.25638   6.10987   0.000007352437964   0.000005928872376  -0.000000202253638
Si    4.75212  12.89862   7.46762  -0.000006277478607  -0.000002011750738  -0.000002876287830
Si    4.75212  15.61413  10.18313   0.000007656487704  -0.000001764558754   0.000000133491707
Si    2.03662  12.89862  10.18313  -0.000004023765862   0.000005474225956   0.000000748405943
Si    2.03662  15.61413   7.46762  -0.000002784425761  -0.000002365318778  -0.000000309783078
Si    0.67887  11.54087  11.54087  -0.000006353260925   0.000002712602710   0.000004752496139
Si    3.39438  11.54087  14.25638   0.000003808917180  -0.000003175599002  -0.000001515815492
Si    0.67887  14.25638  14.25638   0.000003956248906  -0.000004248459866   0.000000324499738
Si    3.39438  14.25638  11.54087  -0.000000235568197   0.000000430397143   0.000003145061283
Si    4.75212  12.89862  12.89862  -0.000004182638574  -0.000000590696036   0.000000849663147
Si    4.75212  15.61413  15.61413   0.000000379379702  -0.000001195577408   0.000005218579946
Si    2.03662  12.89862  15.61413  -0.000007774836535   0.000000262294849  -0.000000071756889
Si    2.03662  15.61413  12.89862  -0.000002712819918  -0.000002727668742  -0.000000527227369
Si    0.67887  16.97188   0.67888  -0.000000758018391   0.000002486127261  -0.000004554354548
Si    3.39438  16.97188   3.39437   0.000002559878333   0.000002276765012   0.000002444364115
Si    0.67887  19.68738   3.39437   0.000003154970050   0.000002868647823   0.000001081590104
Si    3.39438  19.68738   0.67888  -0.000007102249545  -0.000005992055234  -0.000001180738454
Si    4.75212  18.32963   2.03662  -0.000000875065086  -0.000000749807934  -0.000000968056687
Si    4.75212  21.04512   4.75213  -0.000001915310006   0.000000426647878  -0.000003552782566
Si    2.03662  18.32963   4.75213   0.000004586724627   0.000007183859950  -0.000003018453254
Si    2.03662  21.04512   2.03662   0.000002171603195   0.000000878456165   0.000000233950750
Si    0.67887  16.97188   6.10987  -0.000003479879644  -0.000010277065803   0.000000544856869
Si    3.39438  16.97188   8.82537   0.000002905359910   0.000002560002123  -0.000002081550796
Si    0.67887  19.68738   8.82537   0.000004852087151   0.000001223284082  -0.000001542226569
Si    3.39438  19.68738   6.10987   0.000002046492894  -0.000001075981518  -0.000000628024715
Si    4.75212  18.32963   7.46762  -0.000002559978464  -0.000002905302127   0.000002081363784
Si    4.75212  21.04512  10.18313   0.000010277112094   0.000003480070774  -0.000000544794808
Si    2.03662  18.32963  10.18313   0.000001075940687  -0.000002046398258   0.000000627940806
Si    2.03662  21.04512   7.46762  -0.000001223116920  -0.000004851887481   0.000001542287233
Si    0.67887  16.97188  11.54087  -0.000000426581068   0.000001915486887   0.000003552734667
Si    3.39438  16.97188  14.25638   0.000000749999840   0.000000875100580   0.000000968199868
Si    0.67887  19.68738  14.25638  -0.000000878511135  -0.000002171467567  -0.000000233877010
Si    3.39438  19.68738  11.54087  -0.000007183780723  -0.000004586468617   0.000003018395504
Si    4.75212  18.32963  12.89862  -0.000002276527291  -0.000002559697757  -0.000002444314280
Si    4.75212  21.04512  15.61413  -0.000002486051032   0.000000758106289   0.000004554386669
Si    2.03662  18.32963  15.61413   0.000005992084107   0.000007102290571   0.000001180914401
Si    2.03662  21.04512  12.89862  -0.000002868506128  -0.000003154793930  -0.000001081609901
Si    6.10987   0.67887   0.67888   0.000001619649221   0.000003189301302   0.000002412812300
Si    8.82537   0.67887   3.39437   0.000001327103110   0.000002211655592  -0.000002615619574
Si    6.10987   3.39437   3.39437  -0.000005763829058   0.000005635908481   0.000003492458085
Si    8.82537   3.39437   0.67888  -0.000003965443146  -0.000001990383883  -0.000004818350354
Si   10.18313   2.03662   2.03662   0.000001262681300   0.000002104428743  -0.000000436776645
Si   10.18313   4.75212   4.75213  -0.000001001287389  -0.000002105276531  -0.000003115677504
Si    7.46762   2.03662   4.75213  -0.000000697202078   0.000003415221727  -0.000006810114394
Si    7.46762   4.75212   2.03662   0.000002568588093   0.000002006637918   0.000000595804016
Si    6.10987   0.67887   6.10987  -0.000001036679425  -0.000001361144749  -0.000000510857171
Si    8.82537   0.67887   8.82537   0.000001437648798  -0.000000023477451   0.000002426127673
Si    6.10987   3.39437   8.82537  -0.000005288673191   0.000007203889046  -0.000002219515433
Si    8.82537   3.39437   6.10987   0.000004613285304   0.000000596881649  -0.000000323160027
Si   10.18313   2.03662   7.46762   0.000002696187143  -0.000001910811795   0.000001633489312
Si   10.18313   4.75212  10.18313   0.000002671587301   0.000001848816534   0.000000920941829
Si    7.46762   2.03662  10.18313   0.000006386992090  -0.000002055311234  -0.000000250089639
Si    7.46762   4.75212   7.46762   0.000001966155603   0.000001037159849  -0.000002559761568
Si    6.10987   0.67887  11.54087   0.000003407640141   0.000000087549114  -0.000000425956787
Si    8.82537   0.67887  14.25638   0.000001469634950   0.000000138293610   0.000001037237805
Si    6.10987   3.39437  14.25638   0.000002000766894  -0.000002940740400   0.000001111003791
Si    8.82537   3.39437  11.54087  -0.000003444800046   0.000000147903095   0.000003858807160
Si   10.18313   2.03662  12.89862   0.000003473796359  -0.000000043358623   0.000000471406996
Si   10.18313   4.75212  15.61413  -0.000000184928906  -0.000002349452953   0.000002209015453
Si    7.46762   2.03662  15.61413  -0.000001468338808   0.000001688073474   0.000006324214341
Si    7.46762   4.75212  12.89862  -0.000000432307440   0.000001130824429   0.000001687327960
Si    6.10987   6.10987   0.67888   0.000003857166889   0.000003857239134  -0.000000005703960
Si    8.82537   6.10987   3.39437   0.000008578608936   0.000001191564531  -0.000000040149416
Si    6.10987   8.82537   3.39437   0.000001191706955   0.000008578652781  -0.000000040067178
Si    8.82537   8.82537   0.67888   0.000004665379343   0.000004665516637  -0.000003516530786
Si   10.18313   7.46762   2.03662  -0.000007110845503  -0.000002472790633  -0.000000440874463
Si   10.18313  10.18313   4.75213  -0.000001483819964  -0.000001483600923   0.000001029599392
Si    7.46762   7.46762   4.75213  -0.000003672440661  -0.000003672306068   0.000006753113900
Si    7.46762  10.18313   2.03662  -0.000002472743635  -0.000007110780938  -0.000000440787960
Si    6.10987   6.10987   6.10987  -0.000004832680275  -0.000004832485202   0.000001363659927
Si    8.82537   6.10987   8.82537   0.000007651108707  -0.000000065967391   0.000000790672224
Si    6.10987   8.82537   8.82537  -0.000000066081372   0.000007651204683   0.000000790683415
Si    8.82537   8.82537   6.10987   0.000001977277342   0.000001977374051   0.000000890534666
Si   10.18313   7.46762   7.46762   0.000001814046956   0.000006325973936   0.000005756517699
Si   10.18313  10.18313  10.18313  -0.000001979539852  -0.000001979582172  -0.000001682525726
Si    7.46762   7.46762  10.18313  -0.000005643892735  -0.000005643796703   0.000000362115468
Si    7.46762  10.18313   7.46762   0.000006325940079   0.000001814106951   0.000005756453892
Si    6.10987   6.10987  11.54087   0.000002339279467   0.000002339433639  -0.000002180384837
Si    8.82537   6.10987  14.25638  -0.000005182250202   0.000001549543722  -0.000000901734285
Si    6.10987   8.82537  14.25638   0.000001549482996  -0.000005182208337  -0.000000901671232
Si    8.82537   8.82537  11.54087   0.000004016904951   0.000004016918345   0.000003474584843
Si   10.18313   7.46762  12.89862   0.000000633511047   0.000007341229571  -0.000004960738238
Si   10.18313  10.18313  15.61413  -0.000000710874470  -0.000000710662702  -0.000001295507969
Si    7.46762   7.46762  15.61413  -0.000003715519301  -0.000003715433400  -0.000006872425325
Si    7.46762  10.18313  12.89862   0.000007341154585   0.000000633531795  -0.000004960691486
Si    6.10987  11.54087   0.67888  -0.000005767056429   0.000005756910620  -0.000003143669017
Si    8.82537  11.54087   3.39437   0.000001981511562   0.000001509797806   0.000000920628418
Si    6.10987  14.25638   3.39437  -0.000002675658139  -0.000001432310214   0.000005881650071
Si    8.82537  14.25638   0.67888  -0.000000871062297  -0.000001692656648  -0.000002179290935
Si   10.18313  12.89862   2.03662   0.000000763559470  -0.000002178993644  -0.000000870346396
Si   10.18313  15.61413   4.75213  -0.000008468199266   0.000003922805547  -0.000003034590470
Si    7.46762  12.89862   4.75213   0.000001605917068   0.000000756168134  -0.000001764983801
Si    7.46762  15.61413   2.03662  -0.000005439638582  -0.000001761332220  -0.000000041945917
Si    6.10987  11.54087   6.10987   0.000002271653504  -0.000003799854827  -0.000001303064812
Si    8.82537  11.54087   8.82537   0.000001406964382   0.000002892515067  -0.000001136662047
Si    6.10987  14.25638   8.82537  -0.000002345149343  -0.000002605806713  -0.000006273451567
Si    8.82537  14.25638   6.10987   0.000001041883429   0.000002757460595  -0.000000665222419
Si   10.18313  12.89862   7.46762  -0.000002892281912  -0.000001406758303   0.000001136592100
Si   10.18313  15.61413  10.18313   0.000003799942920  -0.000002271704203   0.000001303026802
Si    7.46762  12.89862  10.18313  -0.000002757431214  -0.000001041718138   0.000000665068622
Si    7.46762  15.61413   7.46762   0.000002605913991   0.000002345278076   0.000006273408227
Si    6.10987  11.54087  11.54087  -0.000003922859571   0.000008468191027   0.000003034441888
Si    8.82537  11.54087  14.25638   0.000002179237009  -0.000000763517679   0.000000870522405
Si    6.10987  14.25638  14.25638   0.000001761397089   0.000005439928525   0.000000042026979
Si    8.82537  14.25638  11.54087  -0.000000755881172  -0.000001605686725   0.000001764922478
Si   10.18313  12.89862  12.89862  -0.000001509438860  -0.000001981346921  -0.000000920640340
Si   10.18313  15.61413  15.61413  -0.000005756743443   0.000005767314581   0.000003143747105
Si    7.46762  12.89862  15.61413   0.000001692830250   0.000000871269354   0.000002179506958
Si    7.46762  15.61413  12.89862   0.000001432556616   0.000002675804996  -0.000005881545286
Si    6.10987  16.97188   0.67888   0.000001195776141  -0.000000379266643  -0.000005218580179
Si    8.82537  16.97188   3.39437   0.000000590864228   0.000004182581863  -0.000000849770264
Si    6.10987  19.68738   3.39437   0.000002727593772   0.000002712909797   0.000000527288541
Si    8.82537  19.68738   0.67888  -0.000000262223616   0.000007774505636   0.000000071686251
Si   10.18313  18.32963   2.03662   0.000003175636468  -0.000003809186061   0.000001515715393
Si   10.18313  21.04512   4.75213  -0.000002712824584   0.000006353033159  -0.000004752391293
Si    7.46762  18.32963   4.75213  -0.000000430269600   0.000000235692439  -0.000003145013813
Si    7.46762  21.04512   2.03662   0.000004248239167  -0.000003956433646  -0.000000324329562
Si    6.10987  16.97188   6.10987   0.000001764592487  -0.000007656384027  -0.000000133513721
Si    8.82537  16.97188   8.82537   0.000002011764537   0.000006277590720   0.000002876154653
Si    6.10987  19.68738   8.82537   0.000002365572212   0.000002784468807   0.000000309675904
Si    8.82537  19.68738   6.10987  -0.000005474347001   0.000004023568519  -0.000000748399317
Si   10.18313  18.32963   7.46762   0.000001779300164  -0.000005882007060  -0.000002226004329
Si   10.18313  21.04512  10.18313   0.000003518347386  -0.000001991485395  -0.000000137617624
Si    7.46762  18.32963  10.18313  -0.000005928617445  -0.000007352278703   0.000000202138693
Si    7.46762  21.04512   7.46762  -0.000001260901830   0.000003222146661   0.000005794587288
Si    6.10987  16.97188  11.54087  -0.000000812448101   0.000001424268388   0.000003373759457
Si    8.82537  16.97188  14.25638  -0.000001157290072   0.000000234626767  -0.000000300891519
Si    6.10987  19.68738  14.25638   0.000003982385874  -0.000001510227362   0.000000588890435
Si    8.82537  19.68738  11.54087   0.000000563733906   0.000005668736928  -0.000000869045864
Si   10.18313  18.32963  12.89862   0.000002288791560  -0.000005332650319   0.000003078823789
Si   10.18313  21.04512  15.61413  -0.000006111669311   0.000006918465516   0.000003361532716
Si    7.46762  18.32963  15.61413  -0.000000518065602   0.000000329668784   0.000002631820760
Si    7.46762  21.04512  12.89862  -0.000000711749919   0.000002155113382  -0.000005543962054
Si   11.54087   0.67887   0.67888   0.000006112018313  -0.000006918942698  -0.000003361645829
Si   14.25638   0.67887   3.39437   0.000000712027313  -0.000002155363766   0.000005543792757
Si   11.54087   3.39437   3.39437  -0.000002288799381   0.000005332497590  -0.000003078794455
Si   14.25638   3.39437   0.67888   0.000000518494304  -0.000000329786186  -0.000002631799826
Si   15.61413   2.03662   2.03662  -0.000003982223159   0.000001510048566  -0.000000588983709
Si   15.61413   4.75212   4.75213   0.000000812773667  -0.000001424430503  -0.000003373839378
Si   12.89862   2.03662   4.75213  -0.000000563544126  -0.000005669076438   0.000000868918784
Si   12.89862   4.75212   2.03662   0.000001157663633  -0.000000234516954   0.000000300769808
Si   11.54087   0.67887   6.10987  -0.000003518321050   0.000001991025798   0.000000137589291
Si   14.25638   0.67887   8.82537   0.000001260988603  -0.000003222303122  -0.000005794502803
Si   11.54087   3.39437   8.82537  -0.000001779425431   0.000005882085568   0.000002226052408
Si   14.25638   3.39437   6.10987   0.000005929131577   0.000007352183484  -0.000000202254597
Si   15.61413   2.03662   7.46762  -0.000002365208636  -0.000002784419897  -0.000000309763959
Si   15.61413   4.75212  10.18313  -0.000001764319172   0.000007656242119   0.000000133327161
Si   12.89862   2.03662  10.18313   0.000005474481644  -0.000004023838658   0.000000748613698
Si   12.89862   4.75212   7.46762  -0.000002011662356  -0.000006277488031  -0.000002876047680
Si   11.54087   0.67887  11.54087   0.000002713015594  -0.000006353350955   0.000004752559825
Si   14.25638   0.67887  14.25638  -0.000004248196180   0.000003956073976   0.000000324454366
Si   11.54087   3.39437  14.25638  -0.000003175443985   0.000003808854434  -0.000001515849253
Si   14.25638   3.39437  11.54087   0.000000430433722  -0.000000235977263   0.000003145072713
Si   15.61413   2.03662  12.89862  -0.000002727454237  -0.000002713181897  -0.000000527277201
Si   15.61413   4.75212  15.61413  -0.000001195417161   0.000000379354356   0.000005218820693
Si   12.89862   2.03662  15.61413   0.000000262465118  -0.000007774908580  -0.000000071760769
Si   12.89862   4.75212  12.89862  -0.000000590742802  -0.000004182801936   0.000000849728717
Si   11.54087   6.10987   0.67888   0.000005756914951  -0.000005767064888  -0.000003143614866
Si   14.25638   6.10987   3.39437  -0.000001432161469  -0.000002675651329   0.000005881324266
Si   11.54087   8.82537   3.39437   0.000001509758068   0.000001981533521   0.000000920629022
Si   14.25638   8.82537   0.67888  -0.000001692709717  -0.000000871258963  -0.000002179425847
Si   15.61413   7.46762   2.03662  -0.000001761347639  -0.000005439823706  -0.000000042086666
Si   15.61413  10.18313   4.75213   0.000003922846252  -0.000008468170625  -0.000003034592657
Si   12.89862   7.46762   4.75213   0.000000756107468   0.000001606042069  -0.000001765015541
Si   12.89862  10.18313   2.03662  -0.000002179018470   0.000000763636791  -0.000000870430075
Si   11.54087   6.10987   6.10987  -0.000003800030353   0.000002271820374  -0.000001302954976
Si   14.25638   6.10987   8.82537  -0.000002605803756  -0.000002345363870  -0.000006273434292
Si   11.54087   8.82537   8.82537   0.000002892343640   0.000001407015983  -0.000001136575994
Si   14.25638   8.82537   6.10987   0.000002757390473   0.000001042019624  -0.000000665306818
Si   15.61413   7.46762   7.46762   0.000002345362977   0.000002605847251   0.000006273422676
Si   15.61413  10.18313  10.18313  -0.000002271568680   0.000003799935065   0.000001303133015
Si   12.89862   7.46762  10.18313  -0.000001041913812  -0.000002757324356   0.000000665162858
Si   12.89862  10.18313   7.46762  -0.000001406869022  -0.000002892208894   0.000001136543322
Si   11.54087   6.10987  11.54087   0.000008468162387  -0.000003922807651   0.000003034505982
Si   14.25638   6.10987  14.25638   0.000005440056663   0.000001761496449   0.000000042125288
Si   11.54087   8.82537  14.25638  -0.000000763415895   0.000002179277327   0.000000870403354
Si   14.25638   8.82537  11.54087  -0.000001605847396  -0.000000755885206   0.000001765044349
Si   15.61413   7.46762  12.89862   0.000002675922619   0.000001432467284  -0.000005881338310
Si   15.61413  10.18313  15.61413   0.000005767199509  -0.000005756849119   0.000003143602270
Si   12.89862   7.46762  15.61413   0.000000871420408   0.000001692880550   0.000002179517539
Si   12.89862  10.18313  12.89862  -0.000001981451999  -0.000001509540566  -0.000000920687293
Si   11.54087  11.54087   0.67888   0.000000710917540   0.000000711136814   0.000001295467061
Si   14.25638  11.54087   3.39437  -0.000007341233770  -0.000000633425800   0.000004960700794
Si   11.54087  14.25638   3.39437  -0.000000633645725  -0.000007341168793   0.000004960665150
Si   14.25638  14.25638   0.67888   0.000003715346753   0.000003715496629   0.000006872378316
Si   15.61413  12.89862   2.03662  -0.000001549628219   0.000005182205377   0.000000901660024
Si   15.61413  15.61413   4.75213  -0.000002339617717  -0.000002339496203   0.000002180154757
Si   12.89862  12.89862   4.75213  -0.000004016937064  -0.000004016842954  -0.000003474572295
Si   12.89862  15.61413   2.03662   0.000005182105852  -0.000001549475355   0.000000901500938
Si   11.54087  11.54087   6.10987   0.000001979762423   0.000001979858507   0.000001682483787
Si   14.25638  11.54087   8.82537  -0.000006326017967  -0.000001813984770  -0.000005756564354
Si   11.54087  14.25638   8.82537  -0.000001814082791  -0.000006325867882  -0.000005756503609
Si   14.25638  14.25638   6.10987   0.000005643557142   0.000005643737212  -0.000000362253125
Si   15.61413  12.89862   7.46762   0.000000065797671  -0.000007651241038  -0.000000790647252
Si   15.61413  15.61413  10.18313   0.000004832298256   0.000004832425730  -0.000001363505010
Si   12.89862  12.89862  10.18313  -0.000001977497063  -0.000001977275635  -0.000000890486460
Si   12.89862  15.61413   7.46762  -0.000007651325691   0.000000066014653  -0.000000790655890
Si   11.54087  11.54087  11.54087   0.000001483881659   0.000001483954258  -0.000001029640677
Si   14.25638  11.54087  14.25638   0.000002472888729   0.000007110982889   0.000000440831478
Si   11.54087  14.25638  14.25638   0.000007110930791   0.000002472887979   0.000000440854898
Si   14.25638  14.25638  11.54087   0.000003672149647   0.000003672420051  -0.000006753063349
Si   15.61413  12.89862  12.89862  -0.000001191651187  -0.000008578802705   0.000000040225585
Si   15.61413  15.61413  15.61413  -0.000003857438500  -0.000003857253320   0.000000005761117
Si   12.89862  12.89862  15.61413  -0.000004665415793  -0.000004665294215   0.000003516651268
Si   12.89862  15.61413  12.89862  -0.000008578799406  -0.000001191658242   0.000000040131394
Si   11.54087  16.97188   0.67888   0.000000184855690   0.000002349446373  -0.000002208987271
Si   14.25638  16.97188   3.39437   0.000000432148965  -0.000001130704843  -0.000001687441547
Si   11.54087  19.68738   3.39437  -0.000003473622618   0.000000043064769  -0.000000471430561
Si   14.25638  19.68738   0.67888   0.000001468014991  -0.000001688085044  -0.000006324237562
Si   15.61413  18.32963   2.03662  -0.000002001060785   0.000002940726329  -0.000001110991827
Si   15.61413  21.04512   4.75213  -0.000003407692381  -0.000000087381169   0.000000425606693
Si   12.89862  18.32963   4.75213   0.000003444703653  -0.000000147944093  -0.000003859005593
Si   12.89862  21.04512   2.03662  -0.000001469481645  -0.000000138637433  -0.000001037378710
Si   11.54087  16.97188   6.10987  -0.000002671631637  -0.000001848877316  -0.000000920984052
Si   14.25638  16.97188   8.82537  -0.000001966473720  -0.000001037161930   0.000002559695798
Si   11.54087  19.68738   8.82537  -0.000002696374652   0.000001910617922  -0.000001633517673
Si   14.25638  19.68738   6.10987  -0.000006387217569   0.000002055165748   0.000000250001463
Si   15.61413  18.32963   7.46762   0.000005288416555  -0.000007203872238   0.000002219486156
Si   15.61413  21.04512  10.18313   0.000001036703402   0.000001361177941   0.000000510956354
Si   12.89862  18.32963  10.18313  -0.000004613553318  -0.000000596970588   0.000000323198337
Si   12.89862  21.04512   7.46762  -0.000001437833219   0.000000023246523  -0.000002426118020
Si   11.54087  16.97188  11.54087   0.000001001096219   0.000002105320921   0.000003115725575
Si   14.25638  16.97188  14.25638  -0.000002568762453  -0.000002006603927  -0.000000595763173
Si   11.54087  19.68738  14.25638  -0.000001262647131  -0.000002104607016   0.000000436827722
Si   14.25638  19.68738  11.54087   0.000000697043326  -0.000003415279184   0.000006810365042
Si   15.61413  18.32963  12.89862   0.000005763695646  -0.000005635835432  -0.000003492434767
Si   15.61413  21.04512  15.61413  -0.000001619757468  -0.000003189227313  -0.000002412802821
Si   12.89862  18.32963  15.61413   0.000003965295242   0.000001990472538   0.000004818461388
Si   12.89862  21.04512  12.89862  -0.000001327139783  -0.000002211829108   0.000002615781424
Si   16.97188   0.67887   0.67888   0.000002486077212  -0.000000758065518  -0.000004554452465
Si   19.68738   0.67887   3.39437   0.000002868361754   0.000003155005063   0.000001081600782
Si   16.97188   3.39437   3.39437   0.000002276679853   0.000002559642951   0.000002444265360
Si   19.68738   3.39437   0.67888  -0.000005991966927  -0.000007102264130  -0.000001180891910
Si   21.04512   2.03662   2.03662   0.000000878358628   0.000002171709374   0.000000233795922
Si   21.04512   4.75212   4.75213   0.000000426743258  -0.000001915424990  -0.000003552772686
Si   18.32963   2.03662   4.75213   0.000007183878362   0.000004586486357  -0.000003018466329
Si   18.32963   4.75212   2.03662  -0.000000749804747  -0.000000875204975  -0.000000968329156
Si   16.97188   0.67887   6.10987  -0.000010277037978  -0.000003479809465   0.000000544629176
Si   19.68738   0.67887   8.82537   0.000001223233665   0.000004852242112  -0.000001542081711
Si   16.97188   3.39437   8.82537   0.000002560146586   0.000002905298534  -0.000002081489057
Si   19.68738   3.39437   6.10987  -0.000001075780383   0.000002046438656  -0.000000627923576
Si   21.04512   2.03662   7.46762  -0.000004851943848  -0.000001222951088   0.000001542253482
Si   21.04512   4.75212  10.18313   0.000003479996525   0.000010277061671  -0.000000544890626
Si   18.32963   2.03662  10.18313  -0.000002046365718   0.000001075955792   0.000000628008218
Si   18.32963   4.75212   7.46762  -0.000002905159641  -0.000002560112041   0.000002081532641
Si   16.97188   0.67887  11.54087   0.000001915477282  -0.000000426611171   0.000003552905007
Si   19.68738   0.67887  14.25638  -0.000002171681895  -0.000000878276038  -0.000000233785820
Si   16.97188   3.39437  14.25638   0.000000875344990   0.000000749757736   0.000000968193129
Si   19.68738   3.39437  11.54087  -0.000004586579847  -0.000007183822554   0.000003018486944
Si   21.04512   2.03662  12.89862  -0.000003154998810  -0.000002868441064  -0.000001081505843
Si   21.04512   4.75212  15.61413   0.000000758100842  -0.000002486174804   0.000004554344874
Si   18.32963   2.03662  15.61413   0.000007102355725   0.000005992021800   0.000001180740916
Si   18.32963   4.75212  12.89862  -0.000002559481038  -0.000002276700047  -0.000002444309483
Si   16.97188   6.10987   0.67888  -0.000000379286279   0.000001195512375  -0.000005218703380
Si   19.68738   6.10987   3.39437   0.000002713180412   0.000002727535506   0.000000527181194
Si   16.97188   8.82537   3.39437   0.000004182688277   0.000000590848766  -0.000000849739653
Si   19.68738   8.82537   0.67888   0.000007774814799  -0.000000262482785   0.000000071740484
Si   21.04512   7.46762   2.03662  -0.000003956139897   0.000004248281284  -0.000000324420695
Si   21.04512  10.18313   4.75213   0.000006353080206  -0.000002712983021  -0.000004752550868
Si   18.32963   7.46762   4.75213   0.000000235827296  -0.000000430293965  -0.000003145014290
Si   18.32963  10.18313   2.03662  -0.000003808972973   0.000003175392101   0.000001515890153
Si   16.97188   6.10987   6.10987  -0.000007656229918   0.000001764394422  -0.000000133390697
Si   19.68738   6.10987   8.82537   0.000002784625958   0.000002365346130   0.000000309699743
Si   16.97188   8.82537   8.82537   0.000006277686642   0.000002011779021   0.000002876314055
Si   19.68738   8.82537   6.10987   0.000004023838450  -0.000005474443004  -0.000000748494533
Si   21.04512   7.46762   7.46762   0.000003222258878  -0.000001261049390   0.000005794547227
Si   21.04512  10.18313  10.18313  -0.000001991272241   0.000003518202883  -0.000000137613042
Si   18.32963   7.46762  10.18313  -0.000007352161122  -0.000005928775222   0.000000202350631
Si   18.32963  10.18313   7.46762  -0.000005881886144   0.000001779336841  -0.000002226017120
Si   16.97188   6.10987  11.54087   0.000001424620908  -0.000000812512130   0.000003373831723
Si   19.68738   6.10987  14.25638  -0.000001510090288   0.000003982208395   0.000000588895521
Si   16.97188   8.82537  14.25638   0.000000234513747  -0.000001157505752  -0.000000300892017
Si   19.68738   8.82537  11.54087   0.000005668794807   0.000000563630178  -0.000000869054460
Si   21.04512   7.46762  12.89862   0.000002155240286  -0.000000711970075  -0.000005543885052
Si   21.04512  10.18313  15.61413   0.000006918711418  -0.000006111985170   0.000003361537667
Si   18.32963   7.46762  15.61413   0.000000329730535  -0.000000518339105   0.000002631845856
Si   18.32963  10.18313  12.89862  -0.000005332614630   0.000002288747737   0.000003078614167
Si   16.97188  11.54087   0.67888   0.000002349344604   0.000000184914692  -0.000002209055295
Si   19.68738  11.54087   3.39437   0.000000043247262  -0.000003473923515  -0.000000471253431
Si   16.97188  14.25638   3.39437  -0.000001130937645   0.000000432175282  -0.000001687381551
Si   19.68738  14.25638   0.67888  -0.000001688160011   0.000001468166839  -0.000006324272561
Si   21.04512  12.89862   2.03662  -0.000000138332250  -0.000001469676678  -0.000001037322727
Si   21.04512  15.61413   4.75213  -0.000000087550300  -0.000003407708033   0.000000425941349
Si   18.32963  12.89862   4.75213  -0.000000147977921   0.000003444634803  -0.000003858996297
Si   18.32963  15.61413   2.03662   0.000002940607920  -0.000002000901462  -0.000001111063354
Si   16.97188  11.54087   6.10987  -0.000001848895904  -0.000002671699935  -0.000000921116245
Si   19.68738  11.54087   8.82537   0.000001910774216  -0.000002696524707  -0.000001633459092
Si   16.97188  14.25638   8.82537  -0.000001037225077  -0.000001966343291   0.000002559828574
Si   19.68738  14.25638   6.10987   0.000002055326958  -0.000006387128501   0.000000249982843
Si   21.04512  12.89862   7.46762   0.000000023433363  -0.000001437967984  -0.000002426110762
Si   21.04512  15.61413  10.18313   0.000001361157353   0.000001036616487   0.000000510800937
Si   18.32963  12.89862  10.18313  -0.000000596967936  -0.000004613554173   0.000000323263222
Si   18.32963  15.61413   7.46762  -0.000007203897014   0.000005288543957   0.000002219531647
Si   16.97188  11.54087  11.54087   0.000002105349267   0.000001000996840   0.000003115820296
Si   19.68738  11.54087  14.25638  -0.000002104498264  -0.000001262646598   0.000000436772289
Si   16.97188  14.25638  14.25638  -0.000002006694567  -0.000002568795713  -0.000000595714055
Si   19.68738  14.25638  11.54087  -0.000003415402021   0.000000696934409   0.000006810151554
Si   21.04512  12.89862  12.89862  -0.000002211839367  -0.000001327377002   0.000002615830685
Si   21.04512  15.61413  15.61413  -0.000003189345550  -0.000001619813322  -0.000002412678527
Si   18.32963  12.89862  15.61413   0.000001990372675   0.000003965351387   0.000004818262810
Si   18.32963  15.61413  12.89862  -0.000005636164481   0.000005763777448  -0.000003492437062
Si   16.97188  16.97188   0.67888   0.000001375902422   0.000001376005189  -0.000004813641850
Si   19.68738  16.97188   3.39437   0.000000118060656  -0.000000209290751   0.000000884085516
Si   16.97188  19.68738   3.39437  -0.000000209368935   0.000000118425475   0.000000884047042
Si   19.68738  19.68738   0.67888  -0.000000043573447  -0.000000043375057  -0.000002438719145
Si   21.04512  18.32963   2.03662  -0.000007079217006   0.000000393069055   0.000000029467058
Si   21.04512  21.04512   4.75213  -0.000003757747010  -0.000003757477118  -0.000005236631686
Si   18.32963  18.32963   4.75213  -0.000002718409763  -0.000002718220961  -0.000005988522371
Si   18.32963  21.04512   2.03662   0.000000392954717  -0.000007079028798   0.000000029646783
Si   16.97188  16.97188   6.10987   0.000000895643497   0.000000895874473  -0.000001255048848
Si   19.68738  16.97188   8.82537   0.000000900191444  -0.000001267506871  -0.000001364237589
Si   16.97188  19.68738   8.82537  -0.000001267559936   0.000000900338126  -0.000001364064028
Si   19.68738  19.68738   6.10987  -0.000000066603124  -0.000000066481703  -0.000000225737082
Si   21.04512  18.32963   7.46762   0.000005115025023   0.000002759418387   0.000009135137913
Si   21.04512  21.04512  10.18313   0.000004899143321   0.000004899408828  -0.000000333440826
Si   18.32963  18.32963  10.18313   0.000004153294622   0.000004153611163  -0.000000193745707
Si   18.32963  21.04512   7.46762   0.000002759344129   0.000005115113236   0.000009135258077
Si   16.97188  16.97188  11.54087   0.000002021574518   0.000002021746602   0.000003168789855
Si   19.68738  16.97188  14.25638  -0.000000378007786   0.000000011971876   0.000000871373335
Si   16.97188  19.68738  14.25638   0.000000011692995  -0.000000377661719   0.000000871243576
Si   19.68738  19.68738  11.54087   0.000002167598567   0.000002167902432   0.000003637475474
Si   21.04512  18.32963  12.89862   0.000005614924457   0.000002077471868  -0.000007891881877
Si   21.04512  21.04512  15.61413  -0.000003780115112  -0.000003779784276   0.000004943602462
Si   18.32963  18.32963  15.61413  -0.000002232250467  -0.000002232206223   0.000005446015479
Si   18.32963  21.04512  12.89862   0.000002077160203   0.000005615190556  -0.000007891891601
