3456

Si -21.04512 -21.04512 -21.04512
Si -19.68737 -19.68737 -19.68737
Si -18.32963 -18.32963 -21.04512
Si -16.97187 -16.97187 -19.68737
Si -15.61412 -15.61412 -21.04512
Si -14.25638 -14.25638 -19.68737
Si -12.89862 -12.89862 -21.04512
Si -11.54087 -11.54087 -19.68737
Si -18.32963 -21.04512 -18.32963
Si -16.97187 -19.68737 -16.97187
Si -15.61412 -18.32963 -18.32963
Si -14.25638 -16.97187 -16.97187
Si -12.89862 -15.61412 -18.32963
Si -11.54087 -14.25637 -16.97187
Si -10.18313 -12.89862 -18.32963
Si -8.82537 -11.54087 -16.97187
Si -15.61412 -21.04512 -15.61412
Si -14.25638 -19.68737 -14.25638
Si -12.89862 -18.32963 -15.61412
Si -11.54087 -16.97187 -14.25637
Si -10.18313 -15.61412 -15.61412
Si -8.82537 -14.25638 -14.25638
Si -7.46763 -12.89862 -15.61412
Si -6.10987 -11.54087 -14.25638
Si -12.89862 -21.04512 -12.89862
Si -11.54087 -19.68737 -11.54087
Si -10.18313 -18.32963 -12.89862
Si -8.82537 -16.97187 -11.54087
Si -7.46763 -15.61412 -12.89862
Si -6.10988 -14.25638 -11.54087
Si -4.75213 -12.89862 -12.89862
Si -3.39437 -11.54087 -11.54087
Si -21.04512 -18.32963 -18.32963
Si -19.68737 -16.97187 -16.97187
Si -18.32963 -15.61412 -18.32963
Si -16.97187 -14.25638 -16.97187
Si -15.61412 -12.89862 -18.32963
Si -14.25637 -11.54087 -16.97187
Si -12.89862 -10.18313 -18.32963
Si -11.54087 -8.82537 -16.97187
Si -18.32963 -18.32963 -15.61412
Si -16.97187 -16.97187 -14.25638
Si -15.61412 -15.61412 -15.61412
Si -14.25638 -14.25638 -14.25638
Si -12.89862 -12.89862 -15.61412
Si -11.54087 -11.54087 -14.25638
Si -10.18313 -10.18313 -15.61412
Si -8.82537 -8.82537 -14.25638
Si -15.61412 -18.32963 -12.89862
Si -14.25637 -16.97187 -11.54087
Si -12.89862 -15.61412 -12.89862
Si -11.54087 -14.25638 -11.54087
Si -10.18313 -12.89862 -12.89862
Si -8.82537 -11.54087 -11.54087
Si -7.46763 -10.18313 -12.89862
Si -6.10987 -8.82537 -11.54087
Si -12.89862 -18.32963 -10.18313
Si -11.54087 -16.97187 -8.82537
Si -10.18313 -15.61412 -10.18313
Si -8.82537 -14.25638 -8.82537
Si -7.46763 -12.89862 -10.18313
Si -6.10987 -11.54087 -8.82537
Si -4.75213 -10.18313 -10.18313
Si -3.39437 -8.82537 -8.82537
Si -21.04512 -15.61412 -15.61412
Si -19.68737 -14.25638 -14.25638
Si -18.32963 -12.89862 -15.61412
Si -16.97187 -11.54087 -14.25637
Si -15.61412 -10.18313 -15.61412
Si -14.25638 -8.82537 -14.25638
Si -12.89862 -7.46763 -15.61412
Si -11.54087 -6.10987 -14.25638
Si -18.32963 -15.61412 -12.89862
Si -16.97187 -14.25637 -11.54087
Si -15.61412 -12.89862 -12.89862
Si -14.25638 -11.54087 -11.54087
Si -12.89862 -10.18313 -12.89862
Si -11.54087 -8.82537 -11.54087
Si -10.18313 -7.46763 -12.89862
Si -8.82537 -6.10987 -11.54087
Si -15.61412 -15.61412 -10.18313
Si -14.25638 -14.25638 -8.82537
Si -12.89862 -12.89862 -10.18313
Si -11.54087 -11.54087 -8.82537
Si -10.18313 -10.18313 -10.18313
Si -8.82537 -8.82537 -8.82537
Si -7.46763 -7.46763 -10.18313
Si -6.10987 -6.10987 -8.82537
Si -12.89862 -15.61412 -7.46763
Si -11.54087 -14.25638 -6.10987
Si -10.18313 -12.89862 -7.46763
Si -8.82538 -11.54087 -6.10987
Si -7.46763 -10.18313 -7.46763
Si -6.10988 -8.82537 -6.10987
Si -4.75213 -7.46763 -7.46763
Si -3.39437 -6.10987 -6.10987
Si -21.04512 -12.89862 -12.89862
Si -19.68737 -11.54087 -11.54087
Si -18.32963 -10.18313 -12.89862
Si -16.97187 -8.82537 -11.54087
Si -15.61412 -7.46763 -12.89862
Si -14.25638 -6.10987 -11.54087
Si -12.89862 -4.75213 -12.89862
Si -11.54087 -3.39437 -11.54087
Si -18.32963 -12.89862 -10.18313
Si -16.97187 -11.54087 -8.82537
Si -15.61412 -10.18313 -10.18313
Si -14.25638 -8.82537 -8.82537
Si -12.89862 -7.46763 -10.18313
Si -11.54087 -6.10987 -8.82538
Si -10.18313 -4.75213 -10.18313
Si -8.82537 -3.39437 -8.82537
Si -15.61412 -12.89862 -7.46763
Si -14.25638 -11.54087 -6.10987
Si -12.89862 -10.18313 -7.46763
Si -11.54087 -8.82538 -6.10987
Si -10.18313 -7.46763 -7.46763
Si -8.82537 -6.10987 -6.10987
Si -7.46763 -4.75213 -7.46763
Si -6.10987 -3.39437 -6.10987
Si -12.89862 -12.89862 -4.75213
Si -11.54087 -11.54087 -3.39437
Si -10.18313 -10.18313 -4.75213
Si -8.82537 -8.82537 -3.39437
Si -7.46763 -7.46763 -4.75213
Si -6.10987 -6.10987 -3.39437
Si -4.75213 -4.75213 -4.75213
Si -3.39437 -3.39437 -3.39437
Si -10.18312 -10.18313 -21.04512
Si -8.82537 -8.82537 -19.68737
Si -7.46762 -7.46762 -21.04512
Si -6.10987 -6.10987 -19.68737
Si -4.75212 -4.75212 -21.04512
Si -3.39437 -3.39437 -19.68737
Si -2.03662 -2.03662 -21.04512
Si -0.67887 -0.67887 -19.68737
Si -7.46762 -10.18313 -18.32963
Si -6.10987 -8.82537 -16.97187
Si -4.75212 -7.46762 -18.32963
Si -3.39437 -6.10987 -16.97187
Si -2.03662 -4.75212 -18.32963
Si -0.67887 -3.39437 -16.97187
Si  0.67887 -2.03662 -18.32963
Si  2.03662 -0.67887 -16.97187
Si -4.75213 -10.18313 -15.61412
Si -3.39437 -8.82537 -14.25638
Si -2.03662 -7.46762 -15.61412
Si -0.67887 -6.10987 -14.25637
Si  0.67887 -4.75212 -15.61412
Si  2.03662 -3.39437 -14.25638
Si  3.39437 -2.03662 -15.61412
Si  4.75212 -0.67887 -14.25638
Si -2.03662 -10.18312 -12.89862
Si -0.67887 -8.82537 -11.54087
Si  0.67887 -7.46762 -12.89862
Si  2.03662 -6.10987 -11.54087
Si  3.39437 -4.75212 -12.89862
Si  4.75212 -3.39437 -11.54087
Si  6.10987 -2.03662 -12.89862
Si  7.46763 -0.67887 -11.54087
Si -10.18313 -7.46762 -18.32963
Si -8.82537 -6.10987 -16.97187
Si -7.46762 -4.75212 -18.32963
Si -6.10987 -3.39437 -16.97187
Si -4.75212 -2.03662 -18.32963
Si -3.39437 -0.67887 -16.97187
Si -2.03662  0.67887 -18.32963
Si -0.67887  2.03662 -16.97187
Si -7.46762 -7.46762 -15.61412
Si -6.10987 -6.10987 -14.25638
Si -4.75212 -4.75212 -15.61412
Si -3.39437 -3.39437 -14.25638
Si -2.03662 -2.03662 -15.61412
Si -0.67887 -0.67887 -14.25638
Si  0.67887  0.67887 -15.61412
Si  2.03662  2.03662 -14.25638
Si -4.75212 -7.46762 -12.89862
Si -3.39437 -6.10987 -11.54087
Si -2.03662 -4.75212 -12.89862
Si -0.67887 -3.39437 -11.54087
Si  0.67887 -2.03662 -12.89862
Si  2.03662 -0.67887 -11.54087
Si  3.39437  0.67887 -12.89862
Si  4.75212  2.03662 -11.54087
Si -2.03662 -7.46762 -10.18313
Si -0.67887 -6.10987 -8.82537
Si  0.67887 -4.75212 -10.18313
Si  2.03662 -3.39437 -8.82537
Si  3.39437 -2.03662 -10.18313
Si  4.75212 -0.67887 -8.82537
Si  6.10987  0.67887 -10.18313
Si  7.46763  2.03662 -8.82537
Si -10.18312 -4.75212 -15.61412
Si -8.82537 -3.39437 -14.25638
Si -7.46762 -2.03662 -15.61412
Si -6.10987 -0.67887 -14.25637
Si -4.75212  0.67887 -15.61412
Si -3.39437  2.03662 -14.25638
Si -2.03662  3.39437 -15.61412
Si -0.67887  4.75212 -14.25638
Si -7.46762 -4.75212 -12.89862
Si -6.10987 -3.39437 -11.54087
Si -4.75212 -2.03662 -12.89862
Si -3.39437 -0.67887 -11.54087
Si -2.03662  0.67887 -12.89862
Si -0.67887  2.03662 -11.54087
Si  0.67887  3.39437 -12.89862
Si  2.03662  4.75212 -11.54087
Si -4.75212 -4.75212 -10.18313
Si -3.39437 -3.39437 -8.82537
Si -2.03662 -2.03662 -10.18313
Si -0.67887 -0.67887 -8.82537
Si  0.67887  0.67887 -10.18313
Si  2.03662  2.03662 -8.82537
Si  3.39437  3.39437 -10.18313
Si  4.75212  4.75212 -8.82537
Si -2.03662 -4.75213 -7.46763
Si -0.67887 -3.39437 -6.10987
Si  0.67887 -2.03662 -7.46763
Si  2.03662 -0.67887 -6.10987
Si  3.39437  0.67887 -7.46763
Si  4.75212  2.03662 -6.10987
Si  6.10987  3.39437 -7.46763
Si  7.46763  4.75212 -6.10987
Si -10.18312 -2.03662 -12.89862
Si -8.82537 -0.67887 -11.54087
Si -7.46762  0.67887 -12.89862
Si -6.10987  2.03662 -11.54087
Si -4.75212  3.39437 -12.89862
Si -3.39438  4.75212 -11.54087
Si -2.03662  6.10987 -12.89862
Si -0.67887  7.46763 -11.54087
Si -7.46762 -2.03662 -10.18313
Si -6.10987 -0.67887 -8.82537
Si -4.75212  0.67887 -10.18313
Si -3.39437  2.03662 -8.82537
Si -2.03662  3.39437 -10.18313
Si -0.67887  4.75212 -8.82538
Si  0.67887  6.10987 -10.18313
Si  2.03662  7.46763 -8.82537
Si -4.75213 -2.03662 -7.46763
Si -3.39437 -0.67887 -6.10987
Si -2.03662  0.67887 -7.46763
Si -0.67887  2.03662 -6.10987
Si  0.67887  3.39437 -7.46763
Si  2.03662  4.75212 -6.10987
Si  3.39437  6.10987 -7.46763
Si  4.75212  7.46763 -6.10987
Si -2.03662 -2.03662 -4.75213
Si -0.67887 -0.67887 -3.39437
Si  0.67887  0.67887 -4.75213
Si  2.03662  2.03662 -3.39437
Si  3.39437  3.39437 -4.75213
Si  4.75212  4.75212 -3.39437
Si  6.10987  6.10987 -4.75213
Si  7.46763  7.46763 -3.39437
Si  0.67888  0.67887 -21.04512
Si  2.03662  2.03662 -19.68737
Si  3.39438  3.39438 -21.04512
Si  4.75212  4.75212 -19.68737
Si  6.10988  6.10988 -21.04512
Si  7.46762  7.46762 -19.68737
Si  8.82538  8.82538 -21.04512
Si 10.18313 10.18313 -19.68737
Si  3.39438  0.67887 -18.32963
Si  4.75212  2.03662 -16.97187
Si  6.10987  3.39438 -18.32963
Si  7.46762  4.75213 -16.97187
Si  8.82537  6.10987 -18.32963
Si 10.18313  7.46763 -16.97187
Si 11.54087  8.82537 -18.32963
Si 12.89862 10.18313 -16.97187
Si  6.10987  0.67887 -15.61412
Si  7.46762  2.03662 -14.25638
Si  8.82537  3.39438 -15.61412
Si 10.18313  4.75213 -14.25637
Si 11.54087  6.10987 -15.61412
Si 12.89862  7.46762 -14.25638
Si 14.25637  8.82537 -15.61412
Si 15.61412 10.18313 -14.25638
Si  8.82537  0.67888 -12.89862
Si 10.18313  2.03662 -11.54087
Si 11.54087  3.39437 -12.89862
Si 12.89862  4.75212 -11.54087
Si 14.25637  6.10987 -12.89862
Si 15.61412  7.46762 -11.54087
Si 16.97187  8.82537 -12.89862
Si 18.32963 10.18313 -11.54087
Si  0.67887  3.39437 -18.32963
Si  2.03662  4.75212 -16.97187
Si  3.39437  6.10987 -18.32963
Si  4.75213  7.46762 -16.97187
Si  6.10987  8.82537 -18.32963
Si  7.46763 10.18313 -16.97187
Si  8.82537 11.54087 -18.32963
Si 10.18313 12.89862 -16.97187
Si  3.39438  3.39438 -15.61412
Si  4.75213  4.75213 -14.25638
Si  6.10987  6.10987 -15.61412
Si  7.46762  7.46762 -14.25638
Si  8.82537  8.82537 -15.61412
Si 10.18313 10.18313 -14.25638
Si 11.54087 11.54087 -15.61412
Si 12.89862 12.89862 -14.25638
Si  6.10987  3.39438 -12.89862
Si  7.46763  4.75213 -11.54087
Si  8.82537  6.10987 -12.89862
Si 10.18313  7.46762 -11.54087
Si 11.54087  8.82537 -12.89862
Si 12.89862 10.18313 -11.54087
Si 14.25637 11.54087 -12.89862
Si 15.61412 12.89862 -11.54087
Si  8.82537  3.39438 -10.18313
Si 10.18313  4.75212 -8.82537
Si 11.54087  6.10987 -10.18313
Si 12.89862  7.46762 -8.82537
Si 14.25637  8.82537 -10.18313
Si 15.61412 10.18313 -8.82537
Si 16.97187 11.54087 -10.18313
Si 18.32963 12.89862 -8.82537
Si  0.67888  6.10987 -15.61412
Si  2.03662  7.46762 -14.25638
Si  3.39438  8.82537 -15.61412
Si  4.75213 10.18313 -14.25637
Si  6.10987 11.54087 -15.61412
Si  7.46762 12.89862 -14.25638
Si  8.82537 14.25637 -15.61412
Si 10.18313 15.61412 -14.25638
Si  3.39438  6.10987 -12.89862
Si  4.75213  7.46763 -11.54087
Si  6.10987  8.82537 -12.89862
Si  7.46762 10.18313 -11.54087
Si  8.82537 11.54087 -12.89862
Si 10.18313 12.89862 -11.54087
Si 11.54087 14.25637 -12.89862
Si 12.89862 15.61412 -11.54087
Si  6.10987  6.10987 -10.18313
Si  7.46762  7.46762 -8.82537
Si  8.82537  8.82537 -10.18313
Si 10.18313 10.18313 -8.82537
Si 11.54087 11.54087 -10.18313
Si 12.89862 12.89862 -8.82537
Si 14.25637 14.25637 -10.18313
Si 15.61412 15.61412 -8.82537
Si  8.82537  6.10987 -7.46763
Si 10.18313  7.46762 -6.10987
Si 11.54087  8.82537 -7.46763
Si 12.89862 10.18313 -6.10987
Si 14.25637 11.54087 -7.46763
Si 15.61412 12.89862 -6.10987
Si 16.97187 14.25637 -7.46763
Si 18.32963 15.61412 -6.10987
Si  0.67888  8.82537 -12.89862
Si  2.03662 10.18313 -11.54087
Si  3.39437 11.54087 -12.89862
Si  4.75212 12.89862 -11.54087
Si  6.10987 14.25637 -12.89862
Si  7.46762 15.61412 -11.54087
Si  8.82537 16.97187 -12.89862
Si 10.18313 18.32963 -11.54087
Si  3.39438  8.82537 -10.18313
Si  4.75213 10.18313 -8.82537
Si  6.10987 11.54087 -10.18313
Si  7.46762 12.89862 -8.82537
Si  8.82537 14.25637 -10.18313
Si 10.18313 15.61412 -8.82538
Si 11.54087 16.97187 -10.18313
Si 12.89862 18.32963 -8.82537
Si  6.10987  8.82537 -7.46763
Si  7.46762 10.18313 -6.10987
Si  8.82537 11.54087 -7.46763
Si 10.18313 12.89862 -6.10987
Si 11.54087 14.25637 -7.46763
Si 12.89862 15.61412 -6.10987
Si 14.25637 16.97187 -7.46763
Si 15.61412 18.32963 -6.10987
Si  8.82537  8.82537 -4.75213
Si 10.18313 10.18313 -3.39437
Si 11.54087 11.54087 -4.75213
Si 12.89862 12.89862 -3.39437
Si 14.25637 14.25637 -4.75213
Si 15.61412 15.61412 -3.39437
Si 16.97187 16.97187 -4.75213
Si 18.32963 18.32963 -3.39437
Si -10.18312 -21.04512 -10.18313
Si -8.82537 -19.68737 -8.82537
Si -7.46762 -18.32963 -10.18312
Si -6.10987 -16.97187 -8.82537
Si -4.75212 -15.61412 -10.18312
Si -3.39437 -14.25638 -8.82537
Si -2.03662 -12.89862 -10.18312
Si -0.67887 -11.54087 -8.82537
Si -7.46762 -21.04512 -7.46763
Si -6.10987 -19.68737 -6.10987
Si -4.75212 -18.32963 -7.46762
Si -3.39437 -16.97187 -6.10987
Si -2.03662 -15.61412 -7.46762
Si -0.67887 -14.25637 -6.10987
Si  0.67887 -12.89862 -7.46762
Si  2.03662 -11.54087 -6.10987
Si -4.75213 -21.04512 -4.75212
Si -3.39437 -19.68737 -3.39437
Si -2.03662 -18.32963 -4.75212
Si -0.67887 -16.97187 -3.39437
Si  0.67887 -15.61412 -4.75212
Si  2.03662 -14.25638 -3.39437
Si  3.39437 -12.89862 -4.75212
Si  4.75212 -11.54087 -3.39437
Si -2.03662 -21.04512 -2.03662
Si -0.67887 -19.68737 -0.67887
Si  0.67887 -18.32963 -2.03662
Si  2.03662 -16.97187 -0.67887
Si  3.39437 -15.61412 -2.03662
Si  4.75212 -14.25638 -0.67887
Si  6.10987 -12.89862 -2.03662
Si  7.46763 -11.54087 -0.67887
Si -10.18313 -18.32963 -7.46762
Si -8.82537 -16.97187 -6.10987
Si -7.46762 -15.61412 -7.46762
Si -6.10987 -14.25638 -6.10987
Si -4.75212 -12.89862 -7.46762
Si -3.39437 -11.54087 -6.10987
Si -2.03662 -10.18313 -7.46762
Si -0.67887 -8.82537 -6.10987
Si -7.46762 -18.32963 -4.75212
Si -6.10987 -16.97187 -3.39437
Si -4.75212 -15.61412 -4.75212
Si -3.39437 -14.25638 -3.39437
Si -2.03662 -12.89862 -4.75212
Si -0.67887 -11.54087 -3.39437
Si  0.67887 -10.18313 -4.75212
Si  2.03662 -8.82537 -3.39437
Si -4.75212 -18.32963 -2.03662
Si -3.39437 -16.97187 -0.67887
Si -2.03662 -15.61412 -2.03662
Si -0.67887 -14.25638 -0.67887
Si  0.67887 -12.89862 -2.03662
Si  2.03662 -11.54087 -0.67887
Si  3.39437 -10.18313 -2.03662
Si  4.75212 -8.82537 -0.67887
Si -2.03662 -18.32963  0.67887
Si -0.67887 -16.97187  2.03662
Si  0.67887 -15.61412  0.67887
Si  2.03662 -14.25638  2.03662
Si  3.39437 -12.89862  0.67887
Si  4.75212 -11.54087  2.03662
Si  6.10987 -10.18313  0.67887
Si  7.46763 -8.82537  2.03662
Si -10.18312 -15.61412 -4.75212
Si -8.82537 -14.25638 -3.39437
Si -7.46762 -12.89862 -4.75212
Si -6.10987 -11.54087 -3.39437
Si -4.75212 -10.18313 -4.75212
Si -3.39437 -8.82537 -3.39437
Si -2.03662 -7.46763 -4.75212
Si -0.67887 -6.10987 -3.39437
Si -7.46762 -15.61412 -2.03662
Si -6.10987 -14.25637 -0.67887
Si -4.75212 -12.89862 -2.03662
Si -3.39437 -11.54087 -0.67887
Si -2.03662 -10.18313 -2.03662
Si -0.67887 -8.82537 -0.67887
Si  0.67887 -7.46763 -2.03662
Si  2.03662 -6.10987 -0.67887
Si -4.75212 -15.61412  0.67887
Si -3.39437 -14.25638  2.03662
Si -2.03662 -12.89862  0.67887
Si -0.67887 -11.54087  2.03662
Si  0.67887 -10.18313  0.67887
Si  2.03662 -8.82537  2.03662
Si  3.39437 -7.46763  0.67887
Si  4.75212 -6.10987  2.03662
Si -2.03662 -15.61412  3.39437
Si -0.67887 -14.25638  4.75212
Si  0.67887 -12.89862  3.39437
Si  2.03662 -11.54087  4.75212
Si  3.39437 -10.18313  3.39437
Si  4.75212 -8.82537  4.75212
Si  6.10987 -7.46763  3.39437
Si  7.46763 -6.10987  4.75212
Si -10.18312 -12.89862 -2.03662
Si -8.82537 -11.54087 -0.67887
Si -7.46762 -10.18313 -2.03662
Si -6.10987 -8.82537 -0.67887
Si -4.75212 -7.46763 -2.03662
Si -3.39438 -6.10987 -0.67887
Si -2.03662 -4.75213 -2.03662
Si -0.67887 -3.39437 -0.67887
Si -7.46762 -12.89862  0.67887
Si -6.10987 -11.54087  2.03662
Si -4.75212 -10.18313  0.67887
Si -3.39437 -8.82537  2.03662
Si -2.03662 -7.46763  0.67887
Si -0.67887 -6.10987  2.03662
Si  0.67887 -4.75213  0.67887
Si  2.03662 -3.39437  2.03662
Si -4.75213 -12.89862  3.39437
Si -3.39437 -11.54087  4.75212
Si -2.03662 -10.18313  3.39437
Si -0.67887 -8.82538  4.75212
Si  0.67887 -7.46763  3.39437
Si  2.03662 -6.10987  4.75212
Si  3.39437 -4.75213  3.39437
Si  4.75212 -3.39437  4.75212
Si -2.03662 -12.89862  6.10987
Si -0.67887 -11.54087  7.46763
Si  0.67887 -10.18313  6.10987
Si  2.03662 -8.82537  7.46763
Si  3.39437 -7.46763  6.10987
Si  4.75212 -6.10987  7.46763
Si  6.10987 -4.75213  6.10987
Si  7.46763 -3.39437  7.46763
Si  0.67888 -10.18313 -10.18313
Si  2.03662 -8.82537 -8.82537
Si  3.39438 -7.46762 -10.18312
Si  4.75212 -6.10987 -8.82537
Si  6.10988 -4.75212 -10.18312
Si  7.46762 -3.39437 -8.82537
Si  8.82538 -2.03662 -10.18312
Si 10.18313 -0.67887 -8.82537
Si  3.39438 -10.18313 -7.46763
Si  4.75212 -8.82537 -6.10987
Si  6.10987 -7.46762 -7.46762
Si  7.46762 -6.10987 -6.10987
Si  8.82537 -4.75212 -7.46762
Si 10.18313 -3.39437 -6.10987
Si 11.54087 -2.03662 -7.46762
Si 12.89862 -0.67887 -6.10987
Si  6.10987 -10.18313 -4.75212
Si  7.46762 -8.82537 -3.39437
Si  8.82537 -7.46762 -4.75212
Si 10.18313 -6.10987 -3.39437
Si 11.54087 -4.75212 -4.75212
Si 12.89862 -3.39437 -3.39437
Si 14.25637 -2.03662 -4.75212
Si 15.61412 -0.67887 -3.39437
Si  8.82537 -10.18312 -2.03662
Si 10.18313 -8.82537 -0.67887
Si 11.54087 -7.46762 -2.03662
Si 12.89862 -6.10987 -0.67887
Si 14.25637 -4.75212 -2.03662
Si 15.61412 -3.39437 -0.67887
Si 16.97187 -2.03662 -2.03662
Si 18.32963 -0.67887 -0.67887
Si  0.67887 -7.46762 -7.46762
Si  2.03662 -6.10987 -6.10987
Si  3.39437 -4.75212 -7.46762
Si  4.75213 -3.39437 -6.10987
Si  6.10987 -2.03662 -7.46762
Si  7.46763 -0.67887 -6.10987
Si  8.82537  0.67887 -7.46762
Si 10.18313  2.03662 -6.10987
Si  3.39438 -7.46762 -4.75212
Si  4.75213 -6.10987 -3.39437
Si  6.10987 -4.75212 -4.75212
Si  7.46762 -3.39437 -3.39437
Si  8.82537 -2.03662 -4.75212
Si 10.18313 -0.67887 -3.39437
Si 11.54087  0.67887 -4.75212
Si 12.89862  2.03662 -3.39437
Si  6.10987 -7.46762 -2.03662
Si  7.46763 -6.10987 -0.67887
Si  8.82537 -4.75212 -2.03662
Si 10.18313 -3.39437 -0.67887
Si 11.54087 -2.03662 -2.03662
Si 12.89862 -0.67887 -0.67887
Si 14.25637  0.67887 -2.03662
Si 15.61412  2.03662 -0.67887
Si  8.82537 -7.46762  0.67887
Si 10.18313 -6.10987  2.03662
Si 11.54087 -4.75212  0.67887
Si 12.89862 -3.39437  2.03662
Si 14.25637 -2.03662  0.67887
Si 15.61412 -0.67887  2.03662
Si 16.97187  0.67887  0.67887
Si 18.32963  2.03662  2.03662
Si  0.67888 -4.75212 -4.75212
Si  2.03662 -3.39437 -3.39437
Si  3.39438 -2.03662 -4.75212
Si  4.75213 -0.67887 -3.39437
Si  6.10987  0.67887 -4.75212
Si  7.46762  2.03662 -3.39437
Si  8.82537  3.39437 -4.75212
Si 10.18313  4.75212 -3.39437
Si  3.39438 -4.75212 -2.03662
Si  4.75213 -3.39437 -0.67887
Si  6.10987 -2.03662 -2.03662
Si  7.46762 -0.67887 -0.67887
Si  8.82537  0.67887 -2.03662
Si 10.18313  2.03662 -0.67887
Si 11.54087  3.39437 -2.03662
Si 12.89862  4.75212 -0.67887
Si  6.10987 -4.75212  0.67887
Si  7.46762 -3.39437  2.03662
Si  8.82537 -2.03662  0.67887
Si 10.18313 -0.67887  2.03662
Si 11.54087  0.67887  0.67887
Si 12.89862  2.03662  2.03662
Si 14.25637  3.39437  0.67887
Si 15.61412  4.75212  2.03662
Si  8.82537 -4.75213  3.39437
Si 10.18313 -3.39437  4.75212
Si 11.54087 -2.03662  3.39437
Si 12.89862 -0.67887  4.75212
Si 14.25637  0.67887  3.39437
Si 15.61412  2.03662  4.75212
Si 16.97187  3.39437  3.39437
Si 18.32963  4.75212  4.75212
Si  0.67888 -2.03662 -2.03662
Si  2.03662 -0.67887 -0.67887
Si  3.39437  0.67887 -2.03662
Si  4.75212  2.03662 -0.67887
Si  6.10987  3.39437 -2.03662
Si  7.46762  4.75212 -0.67887
Si  8.82537  6.10987 -2.03662
Si 10.18313  7.46763 -0.67887
Si  3.39438 -2.03662  0.67887
Si  4.75213 -0.67887  2.03662
Si  6.10987  0.67887  0.67887
Si  7.46762  2.03662  2.03662
Si  8.82537  3.39437  0.67887
Si 10.18313  4.75212  2.03662
Si 11.54087  6.10987  0.67887
Si 12.89862  7.46763  2.03662
Si  6.10987 -2.03662  3.39437
Si  7.46762 -0.67887  4.75212
Si  8.82537  0.67887  3.39437
Si 10.18313  2.03662  4.75212
Si 11.54087  3.39437  3.39437
Si 12.89862  4.75212  4.75212
Si 14.25637  6.10987  3.39437
Si 15.61412  7.46763  4.75212
Si  8.82537 -2.03662  6.10987
Si 10.18313 -0.67887  7.46763
Si 11.54087  0.67887  6.10987
Si 12.89862  2.03662  7.46763
Si 14.25637  3.39437  6.10987
Si 15.61412  4.75212  7.46763
Si 16.97187  6.10987  6.10987
Si 18.32963  7.46763  7.46763
Si 11.54087  0.67887 -10.18313
Si 12.89862  2.03662 -8.82537
Si 14.25638  3.39438 -10.18312
Si 15.61412  4.75212 -8.82537
Si 16.97188  6.10988 -10.18312
Si 18.32963  7.46762 -8.82537
Si 19.68738  8.82538 -10.18312
Si 21.04512 10.18313 -8.82537
Si 14.25638  0.67887 -7.46763
Si 15.61412  2.03662 -6.10987
Si 16.97187  3.39438 -7.46762
Si 18.32963  4.75213 -6.10987
Si 19.68737  6.10987 -7.46762
Si 21.04512  7.46763 -6.10987
Si 22.40287  8.82537 -7.46762
Si 23.76062 10.18313 -6.10987
Si 16.97187  0.67887 -4.75212
Si 18.32963  2.03662 -3.39437
Si 19.68737  3.39438 -4.75212
Si 21.04512  4.75213 -3.39437
Si 22.40287  6.10987 -4.75212
Si 23.76062  7.46762 -3.39437
Si 25.11837  8.82537 -4.75212
Si 26.47612 10.18313 -3.39437
Si 19.68737  0.67888 -2.03662
Si 21.04512  2.03662 -0.67887
Si 22.40287  3.39437 -2.03662
Si 23.76062  4.75212 -0.67887
Si 25.11837  6.10987 -2.03662
Si 26.47612  7.46762 -0.67887
Si 27.83387  8.82537 -2.03662
Si 29.19162 10.18313 -0.67887
Si 11.54087  3.39437 -7.46762
Si 12.89862  4.75212 -6.10987
Si 14.25638  6.10987 -7.46762
Si 15.61412  7.46762 -6.10987
Si 16.97187  8.82537 -7.46762
Si 18.32963 10.18313 -6.10987
Si 19.68737 11.54087 -7.46762
Si 21.04512 12.89862 -6.10987
Si 14.25638  3.39438 -4.75212
Si 15.61412  4.75213 -3.39437
Si 16.97187  6.10987 -4.75212
Si 18.32963  7.46762 -3.39437
Si 19.68737  8.82537 -4.75212
Si 21.04512 10.18313 -3.39437
Si 22.40287 11.54087 -4.75212
Si 23.76062 12.89862 -3.39437
Si 16.97187  3.39438 -2.03662
Si 18.32963  4.75213 -0.67887
Si 19.68737  6.10987 -2.03662
Si 21.04512  7.46762 -0.67887
Si 22.40287  8.82537 -2.03662
Si 23.76062 10.18313 -0.67887
Si 25.11837 11.54087 -2.03662
Si 26.47612 12.89862 -0.67887
Si 19.68737  3.39438  0.67887
Si 21.04512  4.75212  2.03662
Si 22.40287  6.10987  0.67887
Si 23.76062  7.46762  2.03662
Si 25.11837  8.82537  0.67887
Si 26.47612 10.18313  2.03662
Si 27.83387 11.54087  0.67887
Si 29.19162 12.89862  2.03662
Si 11.54087  6.10987 -4.75212
Si 12.89862  7.46762 -3.39437
Si 14.25638  8.82537 -4.75212
Si 15.61412 10.18313 -3.39437
Si 16.97187 11.54087 -4.75212
Si 18.32963 12.89862 -3.39437
Si 19.68737 14.25637 -4.75212
Si 21.04512 15.61412 -3.39437
Si 14.25638  6.10987 -2.03662
Si 15.61412  7.46763 -0.67887
Si 16.97187  8.82537 -2.03662
Si 18.32963 10.18313 -0.67887
Si 19.68737 11.54087 -2.03662
Si 21.04512 12.89862 -0.67887
Si 22.40287 14.25637 -2.03662
Si 23.76062 15.61412 -0.67887
Si 16.97187  6.10987  0.67887
Si 18.32963  7.46762  2.03662
Si 19.68737  8.82537  0.67887
Si 21.04512 10.18313  2.03662
Si 22.40287 11.54087  0.67887
Si 23.76062 12.89862  2.03662
Si 25.11837 14.25637  0.67887
Si 26.47612 15.61412  2.03662
Si 19.68737  6.10987  3.39437
Si 21.04512  7.46762  4.75212
Si 22.40287  8.82537  3.39437
Si 23.76062 10.18313  4.75212
Si 25.11837 11.54087  3.39437
Si 26.47612 12.89862  4.75212
Si 27.83387 14.25637  3.39437
Si 29.19162 15.61412  4.75212
Si 11.54087  8.82537 -2.03662
Si 12.89862 10.18313 -0.67887
Si 14.25638 11.54087 -2.03662
Si 15.61412 12.89862 -0.67887
Si 16.97187 14.25637 -2.03662
Si 18.32963 15.61412 -0.67887
Si 19.68737 16.97187 -2.03662
Si 21.04512 18.32963 -0.67887
Si 14.25638  8.82537  0.67887
Si 15.61412 10.18313  2.03662
Si 16.97187 11.54087  0.67887
Si 18.32963 12.89862  2.03662
Si 19.68737 14.25637  0.67887
Si 21.04512 15.61412  2.03662
Si 22.40287 16.97187  0.67887
Si 23.76062 18.32963  2.03662
Si 16.97187  8.82537  3.39437
Si 18.32963 10.18313  4.75212
Si 19.68737 11.54087  3.39437
Si 21.04512 12.89862  4.75212
Si 22.40287 14.25637  3.39437
Si 23.76062 15.61412  4.75212
Si 25.11837 16.97187  3.39437
Si 26.47612 18.32963  4.75212
Si 19.68737  8.82537  6.10987
Si 21.04512 10.18313  7.46763
Si 22.40287 11.54087  6.10987
Si 23.76062 12.89862  7.46763
Si 25.11837 14.25637  6.10987
Si 26.47612 15.61412  7.46763
Si 27.83387 16.97187  6.10987
Si 29.19162 18.32963  7.46763
Si  0.67888 -21.04512  0.67887
Si  2.03662 -19.68737  2.03662
Si  3.39438 -18.32963  0.67888
Si  4.75212 -16.97187  2.03662
Si  6.10988 -15.61412  0.67888
Si  7.46762 -14.25638  2.03662
Si  8.82538 -12.89862  0.67888
Si 10.18313 -11.54087  2.03662
Si  3.39438 -21.04512  3.39437
Si  4.75212 -19.68737  4.75212
Si  6.10987 -18.32963  3.39438
Si  7.46762 -16.97187  4.75213
Si  8.82537 -15.61412  3.39438
Si 10.18313 -14.25637  4.75213
Si 11.54087 -12.89862  3.39437
Si 12.89862 -11.54087  4.75212
Si  6.10987 -21.04512  6.10987
Si  7.46762 -19.68737  7.46762
Si  8.82537 -18.32963  6.10987
Si 10.18313 -16.97187  7.46763
Si 11.54087 -15.61412  6.10987
Si 12.89862 -14.25638  7.46762
Si 14.25637 -12.89862  6.10987
Si 15.61412 -11.54087  7.46762
Si  8.82537 -21.04512  8.82538
Si 10.18313 -19.68737 10.18313
Si 11.54087 -18.32963  8.82538
Si 12.89862 -16.97187 10.18313
Si 14.25637 -15.61412  8.82537
Si 15.61412 -14.25638 10.18313
Si 16.97187 -12.89862  8.82537
Si 18.32963 -11.54087 10.18313
Si  0.67887 -18.32963  3.39438
Si  2.03662 -16.97187  4.75212
Si  3.39437 -15.61412  3.39438
Si  4.75213 -14.25638  4.75212
Si  6.10987 -12.89862  3.39438
Si  7.46763 -11.54087  4.75213
Si  8.82537 -10.18313  3.39438
Si 10.18313 -8.82537  4.75212
Si  3.39438 -18.32963  6.10987
Si  4.75213 -16.97187  7.46762
Si  6.10987 -15.61412  6.10987
Si  7.46762 -14.25638  7.46762
Si  8.82537 -12.89862  6.10987
Si 10.18313 -11.54087  7.46762
Si 11.54087 -10.18313  6.10987
Si 12.89862 -8.82537  7.46762
Si  6.10987 -18.32963  8.82537
Si  7.46763 -16.97187 10.18313
Si  8.82537 -15.61412  8.82537
Si 10.18313 -14.25638 10.18313
Si 11.54087 -12.89862  8.82537
Si 12.89862 -11.54087 10.18313
Si 14.25637 -10.18313  8.82537
Si 15.61412 -8.82537 10.18313
Si  8.82537 -18.32963 11.54087
Si 10.18313 -16.97187 12.89862
Si 11.54087 -15.61412 11.54087
Si 12.89862 -14.25638 12.89862
Si 14.25637 -12.89862 11.54087
Si 15.61412 -11.54087 12.89862
Si 16.97187 -10.18313 11.54087
Si 18.32963 -8.82537 12.89862
Si  0.67888 -15.61412  6.10987
Si  2.03662 -14.25638  7.46762
Si  3.39438 -12.89862  6.10987
Si  4.75213 -11.54087  7.46763
Si  6.10987 -10.18313  6.10987
Si  7.46762 -8.82537  7.46762
Si  8.82537 -7.46763  6.10987
Si 10.18313 -6.10987  7.46762
Si  3.39438 -15.61412  8.82537
Si  4.75213 -14.25637 10.18313
Si  6.10987 -12.89862  8.82537
Si  7.46762 -11.54087 10.18313
Si  8.82537 -10.18313  8.82537
Si 10.18313 -8.82537 10.18313
Si 11.54087 -7.46763  8.82537
Si 12.89862 -6.10987 10.18313
Si  6.10987 -15.61412 11.54087
Si  7.46762 -14.25638 12.89862
Si  8.82537 -12.89862 11.54087
Si 10.18313 -11.54087 12.89862
Si 11.54087 -10.18313 11.54087
Si 12.89862 -8.82537 12.89862
Si 14.25637 -7.46763 11.54087
Si 15.61412 -6.10987 12.89862
Si  8.82537 -15.61412 14.25637
Si 10.18313 -14.25638 15.61412
Si 11.54087 -12.89862 14.25637
Si 12.89862 -11.54087 15.61412
Si 14.25637 -10.18313 14.25637
Si 15.61412 -8.82537 15.61412
Si 16.97187 -7.46763 14.25637
Si 18.32963 -6.10987 15.61412
Si  0.67888 -12.89862  8.82537
Si  2.03662 -11.54087 10.18313
Si  3.39437 -10.18313  8.82537
Si  4.75212 -8.82537 10.18313
Si  6.10987 -7.46763  8.82537
Si  7.46762 -6.10987 10.18313
Si  8.82537 -4.75213  8.82537
Si 10.18313 -3.39437 10.18313
Si  3.39438 -12.89862 11.54087
Si  4.75213 -11.54087 12.89862
Si  6.10987 -10.18313 11.54087
Si  7.46762 -8.82537 12.89862
Si  8.82537 -7.46763 11.54087
Si 10.18313 -6.10987 12.89862
Si 11.54087 -4.75213 11.54087
Si 12.89862 -3.39437 12.89862
Si  6.10987 -12.89862 14.25637
Si  7.46762 -11.54087 15.61412
Si  8.82537 -10.18313 14.25637
Si 10.18313 -8.82538 15.61412
Si 11.54087 -7.46763 14.25637
Si 12.89862 -6.10987 15.61412
Si 14.25637 -4.75213 14.25637
Si 15.61412 -3.39437 15.61412
Si  8.82537 -12.89862 16.97187
Si 10.18313 -11.54087 18.32963
Si 11.54087 -10.18313 16.97187
Si 12.89862 -8.82537 18.32963
Si 14.25637 -7.46763 16.97187
Si 15.61412 -6.10987 18.32963
Si 16.97187 -4.75213 16.97187
Si 18.32963 -3.39437 18.32963
Si 11.54087 -10.18313  0.67887
Si 12.89862 -8.82537  2.03662
Si 14.25638 -7.46762  0.67888
Si 15.61412 -6.10987  2.03662
Si 16.97188 -4.75212  0.67888
Si 18.32963 -3.39437  2.03662
Si 19.68738 -2.03662  0.67888
Si 21.04512 -0.67887  2.03662
Si 14.25638 -10.18313  3.39437
Si 15.61412 -8.82537  4.75212
Si 16.97187 -7.46762  3.39438
Si 18.32963 -6.10987  4.75213
Si 19.68737 -4.75212  3.39438
Si 21.04512 -3.39437  4.75213
Si 22.40287 -2.03662  3.39437
Si 23.76062 -0.67887  4.75212
Si 16.97187 -10.18313  6.10987
Si 18.32963 -8.82537  7.46762
Si 19.68737 -7.46762  6.10987
Si 21.04512 -6.10987  7.46763
Si 22.40287 -4.75212  6.10987
Si 23.76062 -3.39437  7.46762
Si 25.11837 -2.03662  6.10987
Si 26.47612 -0.67887  7.46762
Si 19.68737 -10.18312  8.82538
Si 21.04512 -8.82537 10.18313
Si 22.40287 -7.46762  8.82538
Si 23.76062 -6.10987 10.18313
Si 25.11837 -4.75212  8.82537
Si 26.47612 -3.39437 10.18313
Si 27.83387 -2.03662  8.82537
Si 29.19162 -0.67887 10.18313
Si 11.54087 -7.46762  3.39438
Si 12.89862 -6.10987  4.75212
Si 14.25638 -4.75212  3.39438
Si 15.61412 -3.39437  4.75212
Si 16.97187 -2.03662  3.39438
Si 18.32963 -0.67887  4.75213
Si 19.68737  0.67887  3.39438
Si 21.04512  2.03662  4.75212
Si 14.25638 -7.46762  6.10987
Si 15.61412 -6.10987  7.46762
Si 16.97187 -4.75212  6.10987
Si 18.32963 -3.39437  7.46762
Si 19.68737 -2.03662  6.10987
Si 21.04512 -0.67887  7.46762
Si 22.40287  0.67887  6.10987
Si 23.76062  2.03662  7.46762
Si 16.97187 -7.46762  8.82537
Si 18.32963 -6.10987 10.18313
Si 19.68737 -4.75212  8.82537
Si 21.04512 -3.39437 10.18313
Si 22.40287 -2.03662  8.82537
Si 23.76062 -0.67887 10.18313
Si 25.11837  0.67887  8.82537
Si 26.47612  2.03662 10.18313
Si 19.68737 -7.46762 11.54087
Si 21.04512 -6.10987 12.89862
Si 22.40287 -4.75212 11.54087
Si 23.76062 -3.39437 12.89862
Si 25.11837 -2.03662 11.54087
Si 26.47612 -0.67887 12.89862
Si 27.83387  0.67887 11.54087
Si 29.19162  2.03662 12.89862
Si 11.54087 -4.75212  6.10987
Si 12.89862 -3.39437  7.46762
Si 14.25638 -2.03662  6.10987
Si 15.61412 -0.67887  7.46763
Si 16.97187  0.67887  6.10987
Si 18.32963  2.03662  7.46762
Si 19.68737  3.39437  6.10987
Si 21.04512  4.75212  7.46762
Si 14.25638 -4.75212  8.82537
Si 15.61412 -3.39437 10.18313
Si 16.97187 -2.03662  8.82537
Si 18.32963 -0.67887 10.18313
Si 19.68737  0.67887  8.82537
Si 21.04512  2.03662 10.18313
Si 22.40287  3.39437  8.82537
Si 23.76062  4.75212 10.18313
Si 16.97187 -4.75212 11.54087
Si 18.32963 -3.39437 12.89862
Si 19.68737 -2.03662 11.54087
Si 21.04512 -0.67887 12.89862
Si 22.40287  0.67887 11.54087
Si 23.76062  2.03662 12.89862
Si 25.11837  3.39437 11.54087
Si 26.47612  4.75212 12.89862
Si 19.68737 -4.75213 14.25637
Si 21.04512 -3.39437 15.61412
Si 22.40287 -2.03662 14.25637
Si 23.76062 -0.67887 15.61412
Si 25.11837  0.67887 14.25637
Si 26.47612  2.03662 15.61412
Si 27.83387  3.39437 14.25637
Si 29.19162  4.75212 15.61412
Si 11.54087 -2.03662  8.82537
Si 12.89862 -0.67887 10.18313
Si 14.25638  0.67887  8.82537
Si 15.61412  2.03662 10.18313
Si 16.97187  3.39437  8.82537
Si 18.32963  4.75212 10.18313
Si 19.68737  6.10987  8.82537
Si 21.04512  7.46763 10.18313
Si 14.25638 -2.03662 11.54087
Si 15.61412 -0.67887 12.89862
Si 16.97187  0.67887 11.54087
Si 18.32963  2.03662 12.89862
Si 19.68737  3.39437 11.54087
Si 21.04512  4.75212 12.89862
Si 22.40287  6.10987 11.54087
Si 23.76062  7.46763 12.89862
Si 16.97187 -2.03662 14.25637
Si 18.32963 -0.67887 15.61412
Si 19.68737  0.67887 14.25637
Si 21.04512  2.03662 15.61412
Si 22.40287  3.39437 14.25637
Si 23.76062  4.75212 15.61412
Si 25.11837  6.10987 14.25637
Si 26.47612  7.46763 15.61412
Si 19.68737 -2.03662 16.97187
Si 21.04512 -0.67887 18.32963
Si 22.40287  0.67887 16.97187
Si 23.76062  2.03662 18.32963
Si 25.11837  3.39437 16.97187
Si 26.47612  4.75212 18.32963
Si 27.83387  6.10987 16.97187
Si 29.19162  7.46763 18.32963
Si 22.40287  0.67887  0.67887
Si 23.76062  2.03662  2.03662
Si 25.11837  3.39438  0.67888
Si 26.47612  4.75212  2.03662
Si 27.83387  6.10988  0.67888
Si 29.19162  7.46762  2.03662
Si 30.54938  8.82538  0.67888
Si 31.90712 10.18313  2.03662
Si 25.11837  0.67887  3.39437
Si 26.47612  2.03662  4.75212
Si 27.83387  3.39438  3.39438
Si 29.19162  4.75213  4.75213
Si 30.54938  6.10987  3.39438
Si 31.90712  7.46763  4.75213
Si 33.26487  8.82537  3.39437
Si 34.62262 10.18313  4.75212
Si 27.83387  0.67887  6.10987
Si 29.19162  2.03662  7.46762
Si 30.54938  3.39438  6.10987
Si 31.90712  4.75213  7.46763
Si 33.26487  6.10987  6.10987
Si 34.62262  7.46762  7.46762
Si 35.98037  8.82537  6.10987
Si 37.33812 10.18313  7.46762
Si 30.54938  0.67888  8.82538
Si 31.90712  2.03662 10.18313
Si 33.26487  3.39437  8.82538
Si 34.62262  4.75212 10.18313
Si 35.98037  6.10987  8.82537
Si 37.33812  7.46762 10.18313
Si 38.69588  8.82537  8.82537
Si 40.05362 10.18313 10.18313
Si 22.40287  3.39437  3.39438
Si 23.76062  4.75212  4.75212
Si 25.11837  6.10987  3.39438
Si 26.47612  7.46762  4.75212
Si 27.83387  8.82537  3.39438
Si 29.19162 10.18313  4.75213
Si 30.54938 11.54087  3.39438
Si 31.90712 12.89862  4.75212
Si 25.11837  3.39438  6.10987
Si 26.47612  4.75213  7.46762
Si 27.83387  6.10987  6.10987
Si 29.19162  7.46762  7.46762
Si 30.54938  8.82537  6.10987
Si 31.90712 10.18313  7.46762
Si 33.26487 11.54087  6.10987
Si 34.62262 12.89862  7.46762
Si 27.83387  3.39438  8.82537
Si 29.19162  4.75213 10.18313
Si 30.54938  6.10987  8.82537
Si 31.90712  7.46762 10.18313
Si 33.26487  8.82537  8.82537
Si 34.62262 10.18313 10.18313
Si 35.98037 11.54087  8.82537
Si 37.33812 12.89862 10.18313
Si 30.54938  3.39438 11.54087
Si 31.90712  4.75212 12.89862
Si 33.26487  6.10987 11.54087
Si 34.62262  7.46762 12.89862
Si 35.98037  8.82537 11.54087
Si 37.33812 10.18313 12.89862
Si 38.69588 11.54087 11.54087
Si 40.05362 12.89862 12.89862
Si 22.40287  6.10987  6.10987
Si 23.76062  7.46762  7.46762
Si 25.11837  8.82537  6.10987
Si 26.47612 10.18313  7.46763
Si 27.83387 11.54087  6.10987
Si 29.19162 12.89862  7.46762
Si 30.54938 14.25637  6.10987
Si 31.90712 15.61412  7.46762
Si 25.11837  6.10987  8.82537
Si 26.47612  7.46763 10.18313
Si 27.83387  8.82537  8.82537
Si 29.19162 10.18313 10.18313
Si 30.54938 11.54087  8.82537
Si 31.90712 12.89862 10.18313
Si 33.26487 14.25637  8.82537
Si 34.62262 15.61412 10.18313
Si 27.83387  6.10987 11.54087
Si 29.19162  7.46762 12.89862
Si 30.54938  8.82537 11.54087
Si 31.90712 10.18313 12.89862
Si 33.26487 11.54087 11.54087
Si 34.62262 12.89862 12.89862
Si 35.98037 14.25637 11.54087
Si 37.33812 15.61412 12.89862
Si 30.54938  6.10987 14.25637
Si 31.90712  7.46762 15.61412
Si 33.26487  8.82537 14.25637
Si 34.62262 10.18313 15.61412
Si 35.98037 11.54087 14.25637
Si 37.33812 12.89862 15.61412
Si 38.69588 14.25637 14.25637
Si 40.05362 15.61412 15.61412
Si 22.40287  8.82537  8.82537
Si 23.76062 10.18313 10.18313
Si 25.11837 11.54087  8.82537
Si 26.47612 12.89862 10.18313
Si 27.83387 14.25637  8.82537
Si 29.19162 15.61412 10.18313
Si 30.54938 16.97187  8.82537
Si 31.90712 18.32963 10.18313
Si 25.11837  8.82537 11.54087
Si 26.47612 10.18313 12.89862
Si 27.83387 11.54087 11.54087
Si 29.19162 12.89862 12.89862
Si 30.54938 14.25637 11.54087
Si 31.90712 15.61412 12.89862
Si 33.26487 16.97187 11.54087
Si 34.62262 18.32963 12.89862
Si 27.83387  8.82537 14.25637
Si 29.19162 10.18313 15.61412
Si 30.54938 11.54087 14.25637
Si 31.90712 12.89862 15.61412
Si 33.26487 14.25637 14.25637
Si 34.62262 15.61412 15.61412
Si 35.98037 16.97187 14.25637
Si 37.33812 18.32963 15.61412
Si 30.54938  8.82537 16.97187
Si 31.90712 10.18313 18.32963
Si 33.26487 11.54087 16.97187
Si 34.62262 12.89862 18.32963
Si 35.98037 14.25637 16.97187
Si 37.33812 15.61412 18.32963
Si 38.69588 16.97187 16.97187
Si 40.05362 18.32963 18.32963
Si -21.04512 -10.18313 -10.18313
Si -19.68737 -8.82537 -8.82537
Si -18.32963 -7.46762 -10.18312
Si -16.97187 -6.10987 -8.82537
Si -15.61412 -4.75212 -10.18312
Si -14.25638 -3.39437 -8.82537
Si -12.89862 -2.03662 -10.18312
Si -11.54087 -0.67887 -8.82537
Si -18.32963 -10.18313 -7.46763
Si -16.97187 -8.82537 -6.10987
Si -15.61412 -7.46762 -7.46762
Si -14.25638 -6.10987 -6.10987
Si -12.89862 -4.75212 -7.46762
Si -11.54087 -3.39437 -6.10987
Si -10.18313 -2.03662 -7.46762
Si -8.82537 -0.67887 -6.10987
Si -15.61412 -10.18313 -4.75212
Si -14.25638 -8.82537 -3.39437
Si -12.89862 -7.46762 -4.75212
Si -11.54087 -6.10987 -3.39437
Si -10.18313 -4.75212 -4.75212
Si -8.82537 -3.39437 -3.39437
Si -7.46763 -2.03662 -4.75212
Si -6.10987 -0.67887 -3.39437
Si -12.89862 -10.18312 -2.03662
Si -11.54087 -8.82537 -0.67887
Si -10.18313 -7.46762 -2.03662
Si -8.82537 -6.10987 -0.67887
Si -7.46763 -4.75212 -2.03662
Si -6.10988 -3.39437 -0.67887
Si -4.75213 -2.03662 -2.03662
Si -3.39437 -0.67887 -0.67887
Si -21.04512 -7.46762 -7.46762
Si -19.68737 -6.10987 -6.10987
Si -18.32963 -4.75212 -7.46762
Si -16.97187 -3.39437 -6.10987
Si -15.61412 -2.03662 -7.46762
Si -14.25637 -0.67887 -6.10987
Si -12.89862  0.67887 -7.46762
Si -11.54087  2.03662 -6.10987
Si -18.32963 -7.46762 -4.75212
Si -16.97187 -6.10987 -3.39437
Si -15.61412 -4.75212 -4.75212
Si -14.25638 -3.39437 -3.39437
Si -12.89862 -2.03662 -4.75212
Si -11.54087 -0.67887 -3.39437
Si -10.18313  0.67887 -4.75212
Si -8.82537  2.03662 -3.39437
Si -15.61412 -7.46762 -2.03662
Si -14.25637 -6.10987 -0.67887
Si -12.89862 -4.75212 -2.03662
Si -11.54087 -3.39437 -0.67887
Si -10.18313 -2.03662 -2.03662
Si -8.82537 -0.67887 -0.67887
Si -7.46763  0.67887 -2.03662
Si -6.10987  2.03662 -0.67887
Si -12.89862 -7.46762  0.67887
Si -11.54087 -6.10987  2.03662
Si -10.18313 -4.75212  0.67887
Si -8.82537 -3.39437  2.03662
Si -7.46763 -2.03662  0.67887
Si -6.10987 -0.67887  2.03662
Si -4.75213  0.67887  0.67887
Si -3.39437  2.03662  2.03662
Si -21.04512 -4.75212 -4.75212
Si -19.68737 -3.39437 -3.39437
Si -18.32963 -2.03662 -4.75212
Si -16.97187 -0.67887 -3.39437
Si -15.61412  0.67887 -4.75212
Si -14.25638  2.03662 -3.39437
Si -12.89862  3.39437 -4.75212
Si -11.54087  4.75212 -3.39437
Si -18.32963 -4.75212 -2.03662
Si -16.97187 -3.39437 -0.67887
Si -15.61412 -2.03662 -2.03662
Si -14.25638 -0.67887 -0.67887
Si -12.89862  0.67887 -2.03662
Si -11.54087  2.03662 -0.67887
Si -10.18313  3.39437 -2.03662
Si -8.82537  4.75212 -0.67887
Si -15.61412 -4.75212  0.67887
Si -14.25638 -3.39437  2.03662
Si -12.89862 -2.03662  0.67887
Si -11.54087 -0.67887  2.03662
Si -10.18313  0.67887  0.67887
Si -8.82537  2.03662  2.03662
Si -7.46763  3.39437  0.67887
Si -6.10987  4.75212  2.03662
Si -12.89862 -4.75213  3.39437
Si -11.54087 -3.39437  4.75212
Si -10.18313 -2.03662  3.39437
Si -8.82538 -0.67887  4.75212
Si -7.46763  0.67887  3.39437
Si -6.10988  2.03662  4.75212
Si -4.75213  3.39437  3.39437
Si -3.39437  4.75212  4.75212
Si -21.04512 -2.03662 -2.03662
Si -19.68737 -0.67887 -0.67887
Si -18.32963  0.67887 -2.03662
Si -16.97187  2.03662 -0.67887
Si -15.61412  3.39437 -2.03662
Si -14.25638  4.75212 -0.67887
Si -12.89862  6.10987 -2.03662
Si -11.54087  7.46763 -0.67887
Si -18.32963 -2.03662  0.67887
Si -16.97187 -0.67887  2.03662
Si -15.61412  0.67887  0.67887
Si -14.25638  2.03662  2.03662
Si -12.89862  3.39437  0.67887
Si -11.54087  4.75212  2.03662
Si -10.18313  6.10987  0.67887
Si -8.82537  7.46763  2.03662
Si -15.61412 -2.03662  3.39437
Si -14.25638 -0.67887  4.75212
Si -12.89862  0.67887  3.39437
Si -11.54087  2.03662  4.75212
Si -10.18313  3.39437  3.39437
Si -8.82537  4.75212  4.75212
Si -7.46763  6.10987  3.39437
Si -6.10987  7.46763  4.75212
Si -12.89862 -2.03662  6.10987
Si -11.54087 -0.67887  7.46763
Si -10.18313  0.67887  6.10987
Si -8.82537  2.03662  7.46763
Si -7.46763  3.39437  6.10987
Si -6.10987  4.75212  7.46763
Si -4.75213  6.10987  6.10987
Si -3.39437  7.46763  7.46763
Si -10.18312  0.67887 -10.18313
Si -8.82537  2.03662 -8.82537
Si -7.46762  3.39438 -10.18312
Si -6.10987  4.75212 -8.82537
Si -4.75212  6.10988 -10.18312
Si -3.39437  7.46762 -8.82537
Si -2.03662  8.82538 -10.18312
Si -0.67887 10.18313 -8.82537
Si -7.46762  0.67887 -7.46763
Si -6.10987  2.03662 -6.10987
Si -4.75212  3.39438 -7.46762
Si -3.39437  4.75213 -6.10987
Si -2.03662  6.10987 -7.46762
Si -0.67887  7.46763 -6.10987
Si  0.67887  8.82537 -7.46762
Si  2.03662 10.18313 -6.10987
Si -4.75213  0.67887 -4.75212
Si -3.39437  2.03662 -3.39437
Si -2.03662  3.39438 -4.75212
Si -0.67887  4.75213 -3.39437
Si  0.67887  6.10987 -4.75212
Si  2.03662  7.46762 -3.39437
Si  3.39437  8.82537 -4.75212
Si  4.75212 10.18313 -3.39437
Si -2.03662  0.67888 -2.03662
Si -0.67887  2.03662 -0.67887
Si  0.67887  3.39437 -2.03662
Si  2.03662  4.75212 -0.67887
Si  3.39437  6.10987 -2.03662
Si  4.75212  7.46762 -0.67887
Si  6.10987  8.82537 -2.03662
Si  7.46763 10.18313 -0.67887
Si -10.18313  3.39437 -7.46762
Si -8.82537  4.75212 -6.10987
Si -7.46762  6.10987 -7.46762
Si -6.10987  7.46762 -6.10987
Si -4.75212  8.82537 -7.46762
Si -3.39437 10.18313 -6.10987
Si -2.03662 11.54087 -7.46762
Si -0.67887 12.89862 -6.10987
Si -7.46762  3.39438 -4.75212
Si -6.10987  4.75213 -3.39437
Si -4.75212  6.10987 -4.75212
Si -3.39437  7.46762 -3.39437
Si -2.03662  8.82537 -4.75212
Si -0.67887 10.18313 -3.39437
Si  0.67887 11.54087 -4.75212
Si  2.03662 12.89862 -3.39437
Si -4.75212  3.39438 -2.03662
Si -3.39437  4.75213 -0.67887
Si -2.03662  6.10987 -2.03662
Si -0.67887  7.46762 -0.67887
Si  0.67887  8.82537 -2.03662
Si  2.03662 10.18313 -0.67887
Si  3.39437 11.54087 -2.03662
Si  4.75212 12.89862 -0.67887
Si -2.03662  3.39438  0.67887
Si -0.67887  4.75212  2.03662
Si  0.67887  6.10987  0.67887
Si  2.03662  7.46762  2.03662
Si  3.39437  8.82537  0.67887
Si  4.75212 10.18313  2.03662
Si  6.10987 11.54087  0.67887
Si  7.46763 12.89862  2.03662
Si -10.18312  6.10987 -4.75212
Si -8.82537  7.46762 -3.39437
Si -7.46762  8.82537 -4.75212
Si -6.10987 10.18313 -3.39437
Si -4.75212 11.54087 -4.75212
Si -3.39437 12.89862 -3.39437
Si -2.03662 14.25637 -4.75212
Si -0.67887 15.61412 -3.39437
Si -7.46762  6.10987 -2.03662
Si -6.10987  7.46763 -0.67887
Si -4.75212  8.82537 -2.03662
Si -3.39437 10.18313 -0.67887
Si -2.03662 11.54087 -2.03662
Si -0.67887 12.89862 -0.67887
Si  0.67887 14.25637 -2.03662
Si  2.03662 15.61412 -0.67887
Si -4.75212  6.10987  0.67887
Si -3.39437  7.46762  2.03662
Si -2.03662  8.82537  0.67887
Si -0.67887 10.18313  2.03662
Si  0.67887 11.54087  0.67887
Si  2.03662 12.89862  2.03662
Si  3.39437 14.25637  0.67887
Si  4.75212 15.61412  2.03662
Si -2.03662  6.10987  3.39437
Si -0.67887  7.46762  4.75212
Si  0.67887  8.82537  3.39437
Si  2.03662 10.18313  4.75212
Si  3.39437 11.54087  3.39437
Si  4.75212 12.89862  4.75212
Si  6.10987 14.25637  3.39437
Si  7.46763 15.61412  4.75212
Si -10.18312  8.82537 -2.03662
Si -8.82537 10.18313 -0.67887
Si -7.46762 11.54087 -2.03662
Si -6.10987 12.89862 -0.67887
Si -4.75212 14.25637 -2.03662
Si -3.39438 15.61412 -0.67887
Si -2.03662 16.97187 -2.03662
Si -0.67887 18.32963 -0.67887
Si -7.46762  8.82537  0.67887
Si -6.10987 10.18313  2.03662
Si -4.75212 11.54087  0.67887
Si -3.39437 12.89862  2.03662
Si -2.03662 14.25637  0.67887
Si -0.67887 15.61412  2.03662
Si  0.67887 16.97187  0.67887
Si  2.03662 18.32963  2.03662
Si -4.75213  8.82537  3.39437
Si -3.39437 10.18313  4.75212
Si -2.03662 11.54087  3.39437
Si -0.67887 12.89862  4.75212
Si  0.67887 14.25637  3.39437
Si  2.03662 15.61412  4.75212
Si  3.39437 16.97187  3.39437
Si  4.75212 18.32963  4.75212
Si -2.03662  8.82537  6.10987
Si -0.67887 10.18313  7.46763
Si  0.67887 11.54087  6.10987
Si  2.03662 12.89862  7.46763
Si  3.39437 14.25637  6.10987
Si  4.75212 15.61412  7.46763
Si  6.10987 16.97187  6.10987
Si  7.46763 18.32963  7.46763
Si  0.67888 11.54087 -10.18313
Si  2.03662 12.89862 -8.82537
Si  3.39438 14.25638 -10.18312
Si  4.75212 15.61412 -8.82537
Si  6.10988 16.97188 -10.18312
Si  7.46762 18.32963 -8.82537
Si  8.82538 19.68738 -10.18312
Si 10.18313 21.04512 -8.82537
Si  3.39438 11.54087 -7.46763
Si  4.75212 12.89862 -6.10987
Si  6.10987 14.25638 -7.46762
Si  7.46762 15.61412 -6.10987
Si  8.82537 16.97187 -7.46762
Si 10.18313 18.32963 -6.10987
Si 11.54087 19.68737 -7.46762
Si 12.89862 21.04512 -6.10987
Si  6.10987 11.54087 -4.75212
Si  7.46762 12.89862 -3.39437
Si  8.82537 14.25638 -4.75212
Si 10.18313 15.61412 -3.39437
Si 11.54087 16.97187 -4.75212
Si 12.89862 18.32963 -3.39437
Si 14.25637 19.68737 -4.75212
Si 15.61412 21.04512 -3.39437
Si  8.82537 11.54087 -2.03662
Si 10.18313 12.89862 -0.67887
Si 11.54087 14.25638 -2.03662
Si 12.89862 15.61412 -0.67887
Si 14.25637 16.97187 -2.03662
Si 15.61412 18.32963 -0.67887
Si 16.97187 19.68737 -2.03662
Si 18.32963 21.04512 -0.67887
Si  0.67887 14.25638 -7.46762
Si  2.03662 15.61412 -6.10987
Si  3.39437 16.97187 -7.46762
Si  4.75213 18.32963 -6.10987
Si  6.10987 19.68737 -7.46762
Si  7.46763 21.04512 -6.10987
Si  8.82537 22.40287 -7.46762
Si 10.18313 23.76062 -6.10987
Si  3.39438 14.25638 -4.75212
Si  4.75213 15.61412 -3.39437
Si  6.10987 16.97187 -4.75212
Si  7.46762 18.32963 -3.39437
Si  8.82537 19.68737 -4.75212
Si 10.18313 21.04512 -3.39437
Si 11.54087 22.40287 -4.75212
Si 12.89862 23.76062 -3.39437
Si  6.10987 14.25638 -2.03662
Si  7.46763 15.61412 -0.67887
Si  8.82537 16.97187 -2.03662
Si 10.18313 18.32963 -0.67887
Si 11.54087 19.68737 -2.03662
Si 12.89862 21.04512 -0.67887
Si 14.25637 22.40287 -2.03662
Si 15.61412 23.76062 -0.67887
Si  8.82537 14.25638  0.67887
Si 10.18313 15.61412  2.03662
Si 11.54087 16.97187  0.67887
Si 12.89862 18.32963  2.03662
Si 14.25637 19.68737  0.67887
Si 15.61412 21.04512  2.03662
Si 16.97187 22.40287  0.67887
Si 18.32963 23.76062  2.03662
Si  0.67888 16.97187 -4.75212
Si  2.03662 18.32963 -3.39437
Si  3.39438 19.68737 -4.75212
Si  4.75213 21.04512 -3.39437
Si  6.10987 22.40287 -4.75212
Si  7.46762 23.76062 -3.39437
Si  8.82537 25.11837 -4.75212
Si 10.18313 26.47612 -3.39437
Si  3.39438 16.97187 -2.03662
Si  4.75213 18.32963 -0.67887
Si  6.10987 19.68737 -2.03662
Si  7.46762 21.04512 -0.67887
Si  8.82537 22.40287 -2.03662
Si 10.18313 23.76062 -0.67887
Si 11.54087 25.11837 -2.03662
Si 12.89862 26.47612 -0.67887
Si  6.10987 16.97187  0.67887
Si  7.46762 18.32963  2.03662
Si  8.82537 19.68737  0.67887
Si 10.18313 21.04512  2.03662
Si 11.54087 22.40287  0.67887
Si 12.89862 23.76062  2.03662
Si 14.25637 25.11837  0.67887
Si 15.61412 26.47612  2.03662
Si  8.82537 16.97187  3.39437
Si 10.18313 18.32963  4.75212
Si 11.54087 19.68737  3.39437
Si 12.89862 21.04512  4.75212
Si 14.25637 22.40287  3.39437
Si 15.61412 23.76062  4.75212
Si 16.97187 25.11837  3.39437
Si 18.32963 26.47612  4.75212
Si  0.67888 19.68737 -2.03662
Si  2.03662 21.04512 -0.67887
Si  3.39437 22.40287 -2.03662
Si  4.75212 23.76062 -0.67887
Si  6.10987 25.11837 -2.03662
Si  7.46762 26.47612 -0.67887
Si  8.82537 27.83387 -2.03662
Si 10.18313 29.19162 -0.67887
Si  3.39438 19.68737  0.67887
Si  4.75213 21.04512  2.03662
Si  6.10987 22.40287  0.67887
Si  7.46762 23.76062  2.03662
Si  8.82537 25.11837  0.67887
Si 10.18313 26.47612  2.03662
Si 11.54087 27.83387  0.67887
Si 12.89862 29.19162  2.03662
Si  6.10987 19.68737  3.39437
Si  7.46762 21.04512  4.75212
Si  8.82537 22.40287  3.39437
Si 10.18313 23.76062  4.75212
Si 11.54087 25.11837  3.39437
Si 12.89862 26.47612  4.75212
Si 14.25637 27.83387  3.39437
Si 15.61412 29.19162  4.75212
Si  8.82537 19.68737  6.10987
Si 10.18313 21.04512  7.46763
Si 11.54087 22.40287  6.10987
Si 12.89862 23.76062  7.46763
Si 14.25637 25.11837  6.10987
Si 15.61412 26.47612  7.46763
Si 16.97187 27.83387  6.10987
Si 18.32963 29.19162  7.46763
Si -10.18312 -10.18313  0.67887
Si -8.82537 -8.82537  2.03662
Si -7.46762 -7.46762  0.67888
Si -6.10987 -6.10987  2.03662
Si -4.75212 -4.75212  0.67888
Si -3.39437 -3.39437  2.03662
Si -2.03662 -2.03662  0.67888
Si -0.67887 -0.67887  2.03662
Si -7.46762 -10.18313  3.39437
Si -6.10987 -8.82537  4.75212
Si -4.75212 -7.46762  3.39438
Si -3.39437 -6.10987  4.75213
Si -2.03662 -4.75212  3.39438
Si -0.67887 -3.39437  4.75213
Si  0.67887 -2.03662  3.39437
Si  2.03662 -0.67887  4.75212
Si -4.75213 -10.18313  6.10987
Si -3.39437 -8.82537  7.46762
Si -2.03662 -7.46762  6.10987
Si -0.67887 -6.10987  7.46763
Si  0.67887 -4.75212  6.10987
Si  2.03662 -3.39437  7.46762
Si  3.39437 -2.03662  6.10987
Si  4.75212 -0.67887  7.46762
Si -2.03662 -10.18312  8.82538
Si -0.67887 -8.82537 10.18313
Si  0.67887 -7.46762  8.82538
Si  2.03662 -6.10987 10.18313
Si  3.39437 -4.75212  8.82537
Si  4.75212 -3.39437 10.18313
Si  6.10987 -2.03662  8.82537
Si  7.46763 -0.67887 10.18313
Si -10.18313 -7.46762  3.39438
Si -8.82537 -6.10987  4.75212
Si -7.46762 -4.75212  3.39438
Si -6.10987 -3.39437  4.75212
Si -4.75212 -2.03662  3.39438
Si -3.39437 -0.67887  4.75213
Si -2.03662  0.67887  3.39438
Si -0.67887  2.03662  4.75212
Si -7.46762 -7.46762  6.10987
Si -6.10987 -6.10987  7.46762
Si -4.75212 -4.75212  6.10987
Si -3.39437 -3.39437  7.46762
Si -2.03662 -2.03662  6.10987
Si -0.67887 -0.67887  7.46762
Si  0.67887  0.67887  6.10987
Si  2.03662  2.03662  7.46762
Si -4.75212 -7.46762  8.82537
Si -3.39437 -6.10987 10.18313
Si -2.03662 -4.75212  8.82537
Si -0.67887 -3.39437 10.18313
Si  0.67887 -2.03662  8.82537
Si  2.03662 -0.67887 10.18313
Si  3.39437  0.67887  8.82537
Si  4.75212  2.03662 10.18313
Si -2.03662 -7.46762 11.54087
Si -0.67887 -6.10987 12.89862
Si  0.67887 -4.75212 11.54087
Si  2.03662 -3.39437 12.89862
Si  3.39437 -2.03662 11.54087
Si  4.75212 -0.67887 12.89862
Si  6.10987  0.67887 11.54087
Si  7.46763  2.03662 12.89862
Si -10.18312 -4.75212  6.10987
Si -8.82537 -3.39437  7.46762
Si -7.46762 -2.03662  6.10987
Si -6.10987 -0.67887  7.46763
Si -4.75212  0.67887  6.10987
Si -3.39437  2.03662  7.46762
Si -2.03662  3.39437  6.10987
Si -0.67887  4.75212  7.46762
Si -7.46762 -4.75212  8.82537
Si -6.10987 -3.39437 10.18313
Si -4.75212 -2.03662  8.82537
Si -3.39437 -0.67887 10.18313
Si -2.03662  0.67887  8.82537
Si -0.67887  2.03662 10.18313
Si  0.67887  3.39437  8.82537
Si  2.03662  4.75212 10.18313
Si -4.75212 -4.75212 11.54087
Si -3.39437 -3.39437 12.89862
Si -2.03662 -2.03662 11.54087
Si -0.67887 -0.67887 12.89862
Si  0.67887  0.67887 11.54087
Si  2.03662  2.03662 12.89862
Si  3.39437  3.39437 11.54087
Si  4.75212  4.75212 12.89862
Si -2.03662 -4.75213 14.25637
Si -0.67887 -3.39437 15.61412
Si  0.67887 -2.03662 14.25637
Si  2.03662 -0.67887 15.61412
Si  3.39437  0.67887 14.25637
Si  4.75212  2.03662 15.61412
Si  6.10987  3.39437 14.25637
Si  7.46763  4.75212 15.61412
Si -10.18312 -2.03662  8.82537
Si -8.82537 -0.67887 10.18313
Si -7.46762  0.67887  8.82537
Si -6.10987  2.03662 10.18313
Si -4.75212  3.39437  8.82537
Si -3.39438  4.75212 10.18313
Si -2.03662  6.10987  8.82537
Si -0.67887  7.46763 10.18313
Si -7.46762 -2.03662 11.54087
Si -6.10987 -0.67887 12.89862
Si -4.75212  0.67887 11.54087
Si -3.39437  2.03662 12.89862
Si -2.03662  3.39437 11.54087
Si -0.67887  4.75212 12.89862
Si  0.67887  6.10987 11.54087
Si  2.03662  7.46763 12.89862
Si -4.75213 -2.03662 14.25637
Si -3.39437 -0.67887 15.61412
Si -2.03662  0.67887 14.25637
Si -0.67887  2.03662 15.61412
Si  0.67887  3.39437 14.25637
Si  2.03662  4.75212 15.61412
Si  3.39437  6.10987 14.25637
Si  4.75212  7.46763 15.61412
Si -2.03662 -2.03662 16.97187
Si -0.67887 -0.67887 18.32963
Si  0.67887  0.67887 16.97187
Si  2.03662  2.03662 18.32963
Si  3.39437  3.39437 16.97187
Si  4.75212  4.75212 18.32963
Si  6.10987  6.10987 16.97187
Si  7.46763  7.46763 18.32963
Si  0.67888  0.67887  0.67887
Si  2.03662  2.03662  2.03662
Si  3.39438  3.39438  0.67888
Si  4.75212  4.75212  2.03662
Si  6.10988  6.10988  0.67888
Si  7.46762  7.46762  2.03662
Si  8.82538  8.82538  0.67888
Si 10.18313 10.18313  2.03662
Si  3.39438  0.67887  3.39437
Si  4.75212  2.03662  4.75212
Si  6.10987  3.39438  3.39438
Si  7.46762  4.75213  4.75213
Si  8.82537  6.10987  3.39438
Si 10.18313  7.46763  4.75213
Si 11.54087  8.82537  3.39437
Si 12.89862 10.18313  4.75212
Si  6.10987  0.67887  6.10987
Si  7.46762  2.03662  7.46762
Si  8.82537  3.39438  6.10987
Si 10.18313  4.75213  7.46763
Si 11.54087  6.10987  6.10987
Si 12.89862  7.46762  7.46762
Si 14.25637  8.82537  6.10987
Si 15.61412 10.18313  7.46762
Si  8.82537  0.67888  8.82538
Si 10.18313  2.03662 10.18313
Si 11.54087  3.39437  8.82538
Si 12.89862  4.75212 10.18313
Si 14.25637  6.10987  8.82537
Si 15.61412  7.46762 10.18313
Si 16.97187  8.82537  8.82537
Si 18.32963 10.18313 10.18313
Si  0.67887  3.39437  3.39438
Si  2.03662  4.75212  4.75212
Si  3.39437  6.10987  3.39438
Si  4.75213  7.46762  4.75212
Si  6.10987  8.82537  3.39438
Si  7.46763 10.18313  4.75213
Si  8.82537 11.54087  3.39438
Si 10.18313 12.89862  4.75212
Si  3.39438  3.39438  6.10987
Si  4.75213  4.75213  7.46762
Si  6.10987  6.10987  6.10987
Si  7.46762  7.46762  7.46762
Si  8.82537  8.82537  6.10987
Si 10.18313 10.18313  7.46762
Si 11.54087 11.54087  6.10987
Si 12.89862 12.89862  7.46762
Si  6.10987  3.39438  8.82537
Si  7.46763  4.75213 10.18313
Si  8.82537  6.10987  8.82537
Si 10.18313  7.46762 10.18313
Si 11.54087  8.82537  8.82537
Si 12.89862 10.18313 10.18313
Si 14.25637 11.54087  8.82537
Si 15.61412 12.89862 10.18313
Si  8.82537  3.39438 11.54087
Si 10.18313  4.75212 12.89862
Si 11.54087  6.10987 11.54087
Si 12.89862  7.46762 12.89862
Si 14.25637  8.82537 11.54087
Si 15.61412 10.18313 12.89862
Si 16.97187 11.54087 11.54087
Si 18.32963 12.89862 12.89862
Si  0.67888  6.10987  6.10987
Si  2.03662  7.46762  7.46762
Si  3.39438  8.82537  6.10987
Si  4.75213 10.18313  7.46763
Si  6.10987 11.54087  6.10987
Si  7.46762 12.89862  7.46762
Si  8.82537 14.25637  6.10987
Si 10.18313 15.61412  7.46762
Si  3.39438  6.10987  8.82537
Si  4.75213  7.46763 10.18313
Si  6.10987  8.82537  8.82537
Si  7.46762 10.18313 10.18313
Si  8.82537 11.54087  8.82537
Si 10.18313 12.89862 10.18313
Si 11.54087 14.25637  8.82537
Si 12.89862 15.61412 10.18313
Si  6.10987  6.10987 11.54087
Si  7.46762  7.46762 12.89862
Si  8.82537  8.82537 11.54087
Si 10.18313 10.18313 12.89862
Si 11.54087 11.54087 11.54087
Si 12.89862 12.89862 12.89862
Si 14.25637 14.25637 11.54087
Si 15.61412 15.61412 12.89862
Si  8.82537  6.10987 14.25637
Si 10.18313  7.46762 15.61412
Si 11.54087  8.82537 14.25637
Si 12.89862 10.18313 15.61412
Si 14.25637 11.54087 14.25637
Si 15.61412 12.89862 15.61412
Si 16.97187 14.25637 14.25637
Si 18.32963 15.61412 15.61412
Si  0.67888  8.82537  8.82537
Si  2.03662 10.18313 10.18313
Si  3.39437 11.54087  8.82537
Si  4.75212 12.89862 10.18313
Si  6.10987 14.25637  8.82537
Si  7.46762 15.61412 10.18313
Si  8.82537 16.97187  8.82537
Si 10.18313 18.32963 10.18313
Si  3.39438  8.82537 11.54087
Si  4.75213 10.18313 12.89862
Si  6.10987 11.54087 11.54087
Si  7.46762 12.89862 12.89862
Si  8.82537 14.25637 11.54087
Si 10.18313 15.61412 12.89862
Si 11.54087 16.97187 11.54087
Si 12.89862 18.32963 12.89862
Si  6.10987  8.82537 14.25637
Si  7.46762 10.18313 15.61412
Si  8.82537 11.54087 14.25637
Si 10.18313 12.89862 15.61412
Si 11.54087 14.25637 14.25637
Si 12.89862 15.61412 15.61412
Si 14.25637 16.97187 14.25637
Si 15.61412 18.32963 15.61412
Si  8.82537  8.82537 16.97187
Si 10.18313 10.18313 18.32963
Si 11.54087 11.54087 16.97187
Si 12.89862 12.89862 18.32963
Si 14.25637 14.25637 16.97187
Si 15.61412 15.61412 18.32963
Si 16.97187 16.97187 16.97187
Si 18.32963 18.32963 18.32963
Si 11.54087 11.54087  0.67887
Si 12.89862 12.89862  2.03662
Si 14.25638 14.25638  0.67888
Si 15.61412 15.61412  2.03662
Si 16.97188 16.97188  0.67888
Si 18.32963 18.32963  2.03662
Si 19.68738 19.68738  0.67888
Si 21.04512 21.04512  2.03662
Si 14.25638 11.54087  3.39437
Si 15.61412 12.89862  4.75212
Si 16.97187 14.25638  3.39438
Si 18.32963 15.61412  4.75213
Si 19.68737 16.97187  3.39438
Si 21.04512 18.32963  4.75213
Si 22.40287 19.68737  3.39437
Si 23.76062 21.04512  4.75212
Si 16.97187 11.54087  6.10987
Si 18.32963 12.89862  7.46762
Si 19.68737 14.25638  6.10987
Si 21.04512 15.61412  7.46763
Si 22.40287 16.97187  6.10987
Si 23.76062 18.32963  7.46762
Si 25.11837 19.68737  6.10987
Si 26.47612 21.04512  7.46762
Si 19.68737 11.54087  8.82538
Si 21.04512 12.89862 10.18313
Si 22.40287 14.25638  8.82538
Si 23.76062 15.61412 10.18313
Si 25.11837 16.97187  8.82537
Si 26.47612 18.32963 10.18313
Si 27.83387 19.68737  8.82537
Si 29.19162 21.04512 10.18313
Si 11.54087 14.25638  3.39438
Si 12.89862 15.61412  4.75212
Si 14.25638 16.97187  3.39438
Si 15.61412 18.32963  4.75212
Si 16.97187 19.68737  3.39438
Si 18.32963 21.04512  4.75213
Si 19.68737 22.40287  3.39438
Si 21.04512 23.76062  4.75212
Si 14.25638 14.25638  6.10987
Si 15.61412 15.61412  7.46762
Si 16.97187 16.97187  6.10987
Si 18.32963 18.32963  7.46762
Si 19.68737 19.68737  6.10987
Si 21.04512 21.04512  7.46762
Si 22.40287 22.40287  6.10987
Si 23.76062 23.76062  7.46762
Si 16.97187 14.25638  8.82537
Si 18.32963 15.61412 10.18313
Si 19.68737 16.97187  8.82537
Si 21.04512 18.32963 10.18313
Si 22.40287 19.68737  8.82537
Si 23.76062 21.04512 10.18313
Si 25.11837 22.40287  8.82537
Si 26.47612 23.76062 10.18313
Si 19.68737 14.25638 11.54087
Si 21.04512 15.61412 12.89862
Si 22.40287 16.97187 11.54087
Si 23.76062 18.32963 12.89862
Si 25.11837 19.68737 11.54087
Si 26.47612 21.04512 12.89862
Si 27.83387 22.40287 11.54087
Si 29.19162 23.76062 12.89862
Si 11.54087 16.97187  6.10987
Si 12.89862 18.32963  7.46762
Si 14.25638 19.68737  6.10987
Si 15.61412 21.04512  7.46763
Si 16.97187 22.40287  6.10987
Si 18.32963 23.76062  7.46762
Si 19.68737 25.11837  6.10987
Si 21.04512 26.47612  7.46762
Si 14.25638 16.97187  8.82537
Si 15.61412 18.32963 10.18313
Si 16.97187 19.68737  8.82537
Si 18.32963 21.04512 10.18313
Si 19.68737 22.40287  8.82537
Si 21.04512 23.76062 10.18313
Si 22.40287 25.11837  8.82537
Si 23.76062 26.47612 10.18313
Si 16.97187 16.97187 11.54087
Si 18.32963 18.32963 12.89862
Si 19.68737 19.68737 11.54087
Si 21.04512 21.04512 12.89862
Si 22.40287 22.40287 11.54087
Si 23.76062 23.76062 12.89862
Si 25.11837 25.11837 11.54087
Si 26.47612 26.47612 12.89862
Si 19.68737 16.97187 14.25637
Si 21.04512 18.32963 15.61412
Si 22.40287 19.68737 14.25637
Si 23.76062 21.04512 15.61412
Si 25.11837 22.40287 14.25637
Si 26.47612 23.76062 15.61412
Si 27.83387 25.11837 14.25637
Si 29.19162 26.47612 15.61412
Si 11.54087 19.68737  8.82537
Si 12.89862 21.04512 10.18313
Si 14.25638 22.40287  8.82537
Si 15.61412 23.76062 10.18313
Si 16.97187 25.11837  8.82537
Si 18.32963 26.47612 10.18313
Si 19.68737 27.83387  8.82537
Si 21.04512 29.19162 10.18313
Si 14.25638 19.68737 11.54087
Si 15.61412 21.04512 12.89862
Si 16.97187 22.40287 11.54087
Si 18.32963 23.76062 12.89862
Si 19.68737 25.11837 11.54087
Si 21.04512 26.47612 12.89862
Si 22.40287 27.83387 11.54087
Si 23.76062 29.19162 12.89862
Si 16.97187 19.68737 14.25637
Si 18.32963 21.04512 15.61412
Si 19.68737 22.40287 14.25637
Si 21.04512 23.76062 15.61412
Si 22.40287 25.11837 14.25637
Si 23.76062 26.47612 15.61412
Si 25.11837 27.83387 14.25637
Si 26.47612 29.19162 15.61412
Si 19.68737 19.68737 16.97187
Si 21.04512 21.04512 18.32963
Si 22.40287 22.40287 16.97187
Si 23.76062 23.76062 18.32963
Si 25.11837 25.11837 16.97187
Si 26.47612 26.47612 18.32963
Si 27.83387 27.83387 16.97187
Si 29.19162 29.19162 18.32963
Si  0.67888 -10.18313 11.54087
Si  2.03662 -8.82537 12.89862
Si  3.39438 -7.46762 11.54087
Si  4.75212 -6.10987 12.89862
Si  6.10988 -4.75212 11.54087
Si  7.46762 -3.39437 12.89862
Si  8.82538 -2.03662 11.54087
Si 10.18313 -0.67887 12.89862
Si  3.39438 -10.18313 14.25637
Si  4.75212 -8.82537 15.61412
Si  6.10987 -7.46762 14.25638
Si  7.46762 -6.10987 15.61412
Si  8.82537 -4.75212 14.25638
Si 10.18313 -3.39437 15.61412
Si 11.54087 -2.03662 14.25638
Si 12.89862 -0.67887 15.61412
Si  6.10987 -10.18313 16.97187
Si  7.46762 -8.82537 18.32963
Si  8.82537 -7.46762 16.97187
Si 10.18313 -6.10987 18.32963
Si 11.54087 -4.75212 16.97187
Si 12.89862 -3.39437 18.32963
Si 14.25637 -2.03662 16.97187
Si 15.61412 -0.67887 18.32963
Si  8.82537 -10.18312 19.68738
Si 10.18313 -8.82537 21.04512
Si 11.54087 -7.46762 19.68738
Si 12.89862 -6.10987 21.04512
Si 14.25637 -4.75212 19.68737
Si 15.61412 -3.39437 21.04512
Si 16.97187 -2.03662 19.68737
Si 18.32963 -0.67887 21.04512
Si  0.67887 -7.46762 14.25638
Si  2.03662 -6.10987 15.61412
Si  3.39437 -4.75212 14.25638
Si  4.75213 -3.39437 15.61412
Si  6.10987 -2.03662 14.25638
Si  7.46763 -0.67887 15.61412
Si  8.82537  0.67887 14.25638
Si 10.18313  2.03662 15.61412
Si  3.39438 -7.46762 16.97187
Si  4.75213 -6.10987 18.32963
Si  6.10987 -4.75212 16.97187
Si  7.46762 -3.39437 18.32963
Si  8.82537 -2.03662 16.97187
Si 10.18313 -0.67887 18.32963
Si 11.54087  0.67887 16.97187
Si 12.89862  2.03662 18.32963
Si  6.10987 -7.46762 19.68737
Si  7.46763 -6.10987 21.04512
Si  8.82537 -4.75212 19.68737
Si 10.18313 -3.39437 21.04512
Si 11.54087 -2.03662 19.68737
Si 12.89862 -0.67887 21.04512
Si 14.25637  0.67887 19.68737
Si 15.61412  2.03662 21.04512
Si  8.82537 -7.46762 22.40287
Si 10.18313 -6.10987 23.76062
Si 11.54087 -4.75212 22.40287
Si 12.89862 -3.39437 23.76062
Si 14.25637 -2.03662 22.40287
Si 15.61412 -0.67887 23.76062
Si 16.97187  0.67887 22.40287
Si 18.32963  2.03662 23.76062
Si  0.67888 -4.75212 16.97187
Si  2.03662 -3.39437 18.32963
Si  3.39438 -2.03662 16.97187
Si  4.75213 -0.67887 18.32963
Si  6.10987  0.67887 16.97187
Si  7.46762  2.03662 18.32963
Si  8.82537  3.39437 16.97187
Si 10.18313  4.75212 18.32963
Si  3.39438 -4.75212 19.68737
Si  4.75213 -3.39437 21.04512
Si  6.10987 -2.03662 19.68737
Si  7.46762 -0.67887 21.04512
Si  8.82537  0.67887 19.68737
Si 10.18313  2.03662 21.04512
Si 11.54087  3.39437 19.68737
Si 12.89862  4.75212 21.04512
Si  6.10987 -4.75212 22.40287
Si  7.46762 -3.39437 23.76062
Si  8.82537 -2.03662 22.40287
Si 10.18313 -0.67887 23.76062
Si 11.54087  0.67887 22.40287
Si 12.89862  2.03662 23.76062
Si 14.25637  3.39437 22.40287
Si 15.61412  4.75212 23.76062
Si  8.82537 -4.75213 25.11837
Si 10.18313 -3.39437 26.47612
Si 11.54087 -2.03662 25.11837
Si 12.89862 -0.67887 26.47612
Si 14.25637  0.67887 25.11837
Si 15.61412  2.03662 26.47612
Si 16.97187  3.39437 25.11837
Si 18.32963  4.75212 26.47612
Si  0.67888 -2.03662 19.68737
Si  2.03662 -0.67887 21.04512
Si  3.39437  0.67887 19.68737
Si  4.75212  2.03662 21.04512
Si  6.10987  3.39437 19.68737
Si  7.46762  4.75212 21.04512
Si  8.82537  6.10987 19.68737
Si 10.18313  7.46763 21.04512
Si  3.39438 -2.03662 22.40287
Si  4.75213 -0.67887 23.76062
Si  6.10987  0.67887 22.40287
Si  7.46762  2.03662 23.76062
Si  8.82537  3.39437 22.40287
Si 10.18313  4.75212 23.76062
Si 11.54087  6.10987 22.40287
Si 12.89862  7.46763 23.76062
Si  6.10987 -2.03662 25.11837
Si  7.46762 -0.67887 26.47612
Si  8.82537  0.67887 25.11837
Si 10.18313  2.03662 26.47612
Si 11.54087  3.39437 25.11837
Si 12.89862  4.75212 26.47612
Si 14.25637  6.10987 25.11837
Si 15.61412  7.46763 26.47612
Si  8.82537 -2.03662 27.83387
Si 10.18313 -0.67887 29.19162
Si 11.54087  0.67887 27.83387
Si 12.89862  2.03662 29.19162
Si 14.25637  3.39437 27.83387
Si 15.61412  4.75212 29.19162
Si 16.97187  6.10987 27.83387
Si 18.32963  7.46763 29.19162
Si 11.54087  0.67887 11.54087
Si 12.89862  2.03662 12.89862
Si 14.25638  3.39438 11.54087
Si 15.61412  4.75212 12.89862
Si 16.97188  6.10988 11.54087
Si 18.32963  7.46762 12.89862
Si 19.68738  8.82538 11.54087
Si 21.04512 10.18313 12.89862
Si 14.25638  0.67887 14.25637
Si 15.61412  2.03662 15.61412
Si 16.97187  3.39438 14.25638
Si 18.32963  4.75213 15.61412
Si 19.68737  6.10987 14.25638
Si 21.04512  7.46763 15.61412
Si 22.40287  8.82537 14.25638
Si 23.76062 10.18313 15.61412
Si 16.97187  0.67887 16.97187
Si 18.32963  2.03662 18.32963
Si 19.68737  3.39438 16.97187
Si 21.04512  4.75213 18.32963
Si 22.40287  6.10987 16.97187
Si 23.76062  7.46762 18.32963
Si 25.11837  8.82537 16.97187
Si 26.47612 10.18313 18.32963
Si 19.68737  0.67888 19.68738
Si 21.04512  2.03662 21.04512
Si 22.40287  3.39437 19.68738
Si 23.76062  4.75212 21.04512
Si 25.11837  6.10987 19.68737
Si 26.47612  7.46762 21.04512
Si 27.83387  8.82537 19.68737
Si 29.19162 10.18313 21.04512
Si 11.54087  3.39437 14.25638
Si 12.89862  4.75212 15.61412
Si 14.25638  6.10987 14.25638
Si 15.61412  7.46762 15.61412
Si 16.97187  8.82537 14.25638
Si 18.32963 10.18313 15.61412
Si 19.68737 11.54087 14.25638
Si 21.04512 12.89862 15.61412
Si 14.25638  3.39438 16.97187
Si 15.61412  4.75213 18.32963
Si 16.97187  6.10987 16.97187
Si 18.32963  7.46762 18.32963
Si 19.68737  8.82537 16.97187
Si 21.04512 10.18313 18.32963
Si 22.40287 11.54087 16.97187
Si 23.76062 12.89862 18.32963
Si 16.97187  3.39438 19.68737
Si 18.32963  4.75213 21.04512
Si 19.68737  6.10987 19.68737
Si 21.04512  7.46762 21.04512
Si 22.40287  8.82537 19.68737
Si 23.76062 10.18313 21.04512
Si 25.11837 11.54087 19.68737
Si 26.47612 12.89862 21.04512
Si 19.68737  3.39438 22.40287
Si 21.04512  4.75212 23.76062
Si 22.40287  6.10987 22.40287
Si 23.76062  7.46762 23.76062
Si 25.11837  8.82537 22.40287
Si 26.47612 10.18313 23.76062
Si 27.83387 11.54087 22.40287
Si 29.19162 12.89862 23.76062
Si 11.54087  6.10987 16.97187
Si 12.89862  7.46762 18.32963
Si 14.25638  8.82537 16.97187
Si 15.61412 10.18313 18.32963
Si 16.97187 11.54087 16.97187
Si 18.32963 12.89862 18.32963
Si 19.68737 14.25637 16.97187
Si 21.04512 15.61412 18.32963
Si 14.25638  6.10987 19.68737
Si 15.61412  7.46763 21.04512
Si 16.97187  8.82537 19.68737
Si 18.32963 10.18313 21.04512
Si 19.68737 11.54087 19.68737
Si 21.04512 12.89862 21.04512
Si 22.40287 14.25637 19.68737
Si 23.76062 15.61412 21.04512
Si 16.97187  6.10987 22.40287
Si 18.32963  7.46762 23.76062
Si 19.68737  8.82537 22.40287
Si 21.04512 10.18313 23.76062
Si 22.40287 11.54087 22.40287
Si 23.76062 12.89862 23.76062
Si 25.11837 14.25637 22.40287
Si 26.47612 15.61412 23.76062
Si 19.68737  6.10987 25.11837
Si 21.04512  7.46762 26.47612
Si 22.40287  8.82537 25.11837
Si 23.76062 10.18313 26.47612
Si 25.11837 11.54087 25.11837
Si 26.47612 12.89862 26.47612
Si 27.83387 14.25637 25.11837
Si 29.19162 15.61412 26.47612
Si 11.54087  8.82537 19.68737
Si 12.89862 10.18313 21.04512
Si 14.25638 11.54087 19.68737
Si 15.61412 12.89862 21.04512
Si 16.97187 14.25637 19.68737
Si 18.32963 15.61412 21.04512
Si 19.68737 16.97187 19.68737
Si 21.04512 18.32963 21.04512
Si 14.25638  8.82537 22.40287
Si 15.61412 10.18313 23.76062
Si 16.97187 11.54087 22.40287
Si 18.32963 12.89862 23.76062
Si 19.68737 14.25637 22.40287
Si 21.04512 15.61412 23.76062
Si 22.40287 16.97187 22.40287
Si 23.76062 18.32963 23.76062
Si 16.97187  8.82537 25.11837
Si 18.32963 10.18313 26.47612
Si 19.68737 11.54087 25.11837
Si 21.04512 12.89862 26.47612
Si 22.40287 14.25637 25.11837
Si 23.76062 15.61412 26.47612
Si 25.11837 16.97187 25.11837
Si 26.47612 18.32963 26.47612
Si 19.68737  8.82537 27.83387
Si 21.04512 10.18313 29.19162
Si 22.40287 11.54087 27.83387
Si 23.76062 12.89862 29.19162
Si 25.11837 14.25637 27.83387
Si 26.47612 15.61412 29.19162
Si 27.83387 16.97187 27.83387
Si 29.19162 18.32963 29.19162
Si 22.40287 11.54087 11.54087
Si 23.76062 12.89862 12.89862
Si 25.11837 14.25638 11.54087
Si 26.47612 15.61412 12.89862
Si 27.83387 16.97188 11.54087
Si 29.19162 18.32963 12.89862
Si 30.54938 19.68738 11.54087
Si 31.90712 21.04512 12.89862
Si 25.11837 11.54087 14.25637
Si 26.47612 12.89862 15.61412
Si 27.83387 14.25638 14.25638
Si 29.19162 15.61412 15.61412
Si 30.54938 16.97187 14.25638
Si 31.90712 18.32963 15.61412
Si 33.26487 19.68737 14.25638
Si 34.62262 21.04512 15.61412
Si 27.83387 11.54087 16.97187
Si 29.19162 12.89862 18.32963
Si 30.54938 14.25638 16.97187
Si 31.90712 15.61412 18.32963
Si 33.26487 16.97187 16.97187
Si 34.62262 18.32963 18.32963
Si 35.98037 19.68737 16.97187
Si 37.33812 21.04512 18.32963
Si 30.54938 11.54087 19.68738
Si 31.90712 12.89862 21.04512
Si 33.26487 14.25638 19.68738
Si 34.62262 15.61412 21.04512
Si 35.98037 16.97187 19.68737
Si 37.33812 18.32963 21.04512
Si 38.69588 19.68737 19.68737
Si 40.05362 21.04512 21.04512
Si 22.40287 14.25638 14.25638
Si 23.76062 15.61412 15.61412
Si 25.11837 16.97187 14.25638
Si 26.47612 18.32963 15.61412
Si 27.83387 19.68737 14.25638
Si 29.19162 21.04512 15.61412
Si 30.54938 22.40287 14.25638
Si 31.90712 23.76062 15.61412
Si 25.11837 14.25638 16.97187
Si 26.47612 15.61412 18.32963
Si 27.83387 16.97187 16.97187
Si 29.19162 18.32963 18.32963
Si 30.54938 19.68737 16.97187
Si 31.90712 21.04512 18.32963
Si 33.26487 22.40287 16.97187
Si 34.62262 23.76062 18.32963
Si 27.83387 14.25638 19.68737
Si 29.19162 15.61412 21.04512
Si 30.54938 16.97187 19.68737
Si 31.90712 18.32963 21.04512
Si 33.26487 19.68737 19.68737
Si 34.62262 21.04512 21.04512
Si 35.98037 22.40287 19.68737
Si 37.33812 23.76062 21.04512
Si 30.54938 14.25638 22.40287
Si 31.90712 15.61412 23.76062
Si 33.26487 16.97187 22.40287
Si 34.62262 18.32963 23.76062
Si 35.98037 19.68737 22.40287
Si 37.33812 21.04512 23.76062
Si 38.69588 22.40287 22.40287
Si 40.05362 23.76062 23.76062
Si 22.40287 16.97187 16.97187
Si 23.76062 18.32963 18.32963
Si 25.11837 19.68737 16.97187
Si 26.47612 21.04512 18.32963
Si 27.83387 22.40287 16.97187
Si 29.19162 23.76062 18.32963
Si 30.54938 25.11837 16.97187
Si 31.90712 26.47612 18.32963
Si 25.11837 16.97187 19.68737
Si 26.47612 18.32963 21.04512
Si 27.83387 19.68737 19.68737
Si 29.19162 21.04512 21.04512
Si 30.54938 22.40287 19.68737
Si 31.90712 23.76062 21.04512
Si 33.26487 25.11837 19.68737
Si 34.62262 26.47612 21.04512
Si 27.83387 16.97187 22.40287
Si 29.19162 18.32963 23.76062
Si 30.54938 19.68737 22.40287
Si 31.90712 21.04512 23.76062
Si 33.26487 22.40287 22.40287
Si 34.62262 23.76062 23.76062
Si 35.98037 25.11837 22.40287
Si 37.33812 26.47612 23.76062
Si 30.54938 16.97187 25.11837
Si 31.90712 18.32963 26.47612
Si 33.26487 19.68737 25.11837
Si 34.62262 21.04512 26.47612
Si 35.98037 22.40287 25.11837
Si 37.33812 23.76062 26.47612
Si 38.69588 25.11837 25.11837
Si 40.05362 26.47612 26.47612
Si 22.40287 19.68737 19.68737
Si 23.76062 21.04512 21.04512
Si 25.11837 22.40287 19.68737
Si 26.47612 23.76062 21.04512
Si 27.83387 25.11837 19.68737
Si 29.19162 26.47612 21.04512
Si 30.54938 27.83387 19.68737
Si 31.90712 29.19162 21.04512
Si 25.11837 19.68737 22.40287
Si 26.47612 21.04512 23.76062
Si 27.83387 22.40287 22.40287
Si 29.19162 23.76062 23.76062
Si 30.54938 25.11837 22.40287
Si 31.90712 26.47612 23.76062
Si 33.26487 27.83387 22.40287
Si 34.62262 29.19162 23.76062
Si 27.83387 19.68737 25.11837
Si 29.19162 21.04512 26.47612
Si 30.54938 22.40287 25.11837
Si 31.90712 23.76062 26.47612
Si 33.26487 25.11837 25.11837
Si 34.62262 26.47612 26.47612
Si 35.98037 27.83387 25.11837
Si 37.33812 29.19162 26.47612
Si 30.54938 19.68737 27.83387
Si 31.90712 21.04512 29.19162
Si 33.26487 22.40287 27.83387
Si 34.62262 23.76062 29.19162
Si 35.98037 25.11837 27.83387
Si 37.33812 26.47612 29.19162
Si 38.69588 27.83387 27.83387
Si 40.05362 29.19162 29.19162
Si -21.04512  0.67887  0.67887
Si -19.68737  2.03662  2.03662
Si -18.32963  3.39438  0.67888
Si -16.97187  4.75212  2.03662
Si -15.61412  6.10988  0.67888
Si -14.25638  7.46762  2.03662
Si -12.89862  8.82538  0.67888
Si -11.54087 10.18313  2.03662
Si -18.32963  0.67887  3.39437
Si -16.97187  2.03662  4.75212
Si -15.61412  3.39438  3.39438
Si -14.25638  4.75213  4.75213
Si -12.89862  6.10987  3.39438
Si -11.54087  7.46763  4.75213
Si -10.18313  8.82537  3.39437
Si -8.82537 10.18313  4.75212
Si -15.61412  0.67887  6.10987
Si -14.25638  2.03662  7.46762
Si -12.89862  3.39438  6.10987
Si -11.54087  4.75213  7.46763
Si -10.18313  6.10987  6.10987
Si -8.82537  7.46762  7.46762
Si -7.46763  8.82537  6.10987
Si -6.10987 10.18313  7.46762
Si -12.89862  0.67888  8.82538
Si -11.54087  2.03662 10.18313
Si -10.18313  3.39437  8.82538
Si -8.82537  4.75212 10.18313
Si -7.46763  6.10987  8.82537
Si -6.10988  7.46762 10.18313
Si -4.75213  8.82537  8.82537
Si -3.39437 10.18313 10.18313
Si -21.04512  3.39437  3.39438
Si -19.68737  4.75212  4.75212
Si -18.32963  6.10987  3.39438
Si -16.97187  7.46762  4.75212
Si -15.61412  8.82537  3.39438
Si -14.25637 10.18313  4.75213
Si -12.89862 11.54087  3.39438
Si -11.54087 12.89862  4.75212
Si -18.32963  3.39438  6.10987
Si -16.97187  4.75213  7.46762
Si -15.61412  6.10987  6.10987
Si -14.25638  7.46762  7.46762
Si -12.89862  8.82537  6.10987
Si -11.54087 10.18313  7.46762
Si -10.18313 11.54087  6.10987
Si -8.82537 12.89862  7.46762
Si -15.61412  3.39438  8.82537
Si -14.25637  4.75213 10.18313
Si -12.89862  6.10987  8.82537
Si -11.54087  7.46762 10.18313
Si -10.18313  8.82537  8.82537
Si -8.82537 10.18313 10.18313
Si -7.46763 11.54087  8.82537
Si -6.10987 12.89862 10.18313
Si -12.89862  3.39438 11.54087
Si -11.54087  4.75212 12.89862
Si -10.18313  6.10987 11.54087
Si -8.82537  7.46762 12.89862
Si -7.46763  8.82537 11.54087
Si -6.10987 10.18313 12.89862
Si -4.75213 11.54087 11.54087
Si -3.39437 12.89862 12.89862
Si -21.04512  6.10987  6.10987
Si -19.68737  7.46762  7.46762
Si -18.32963  8.82537  6.10987
Si -16.97187 10.18313  7.46763
Si -15.61412 11.54087  6.10987
Si -14.25638 12.89862  7.46762
Si -12.89862 14.25637  6.10987
Si -11.54087 15.61412  7.46762
Si -18.32963  6.10987  8.82537
Si -16.97187  7.46763 10.18313
Si -15.61412  8.82537  8.82537
Si -14.25638 10.18313 10.18313
Si -12.89862 11.54087  8.82537
Si -11.54087 12.89862 10.18313
Si -10.18313 14.25637  8.82537
Si -8.82537 15.61412 10.18313
Si -15.61412  6.10987 11.54087
Si -14.25638  7.46762 12.89862
Si -12.89862  8.82537 11.54087
Si -11.54087 10.18313 12.89862
Si -10.18313 11.54087 11.54087
Si -8.82537 12.89862 12.89862
Si -7.46763 14.25637 11.54087
Si -6.10987 15.61412 12.89862
Si -12.89862  6.10987 14.25637
Si -11.54087  7.46762 15.61412
Si -10.18313  8.82537 14.25637
Si -8.82538 10.18313 15.61412
Si -7.46763 11.54087 14.25637
Si -6.10988 12.89862 15.61412
Si -4.75213 14.25637 14.25637
Si -3.39437 15.61412 15.61412
Si -21.04512  8.82537  8.82537
Si -19.68737 10.18313 10.18313
Si -18.32963 11.54087  8.82537
Si -16.97187 12.89862 10.18313
Si -15.61412 14.25637  8.82537
Si -14.25638 15.61412 10.18313
Si -12.89862 16.97187  8.82537
Si -11.54087 18.32963 10.18313
Si -18.32963  8.82537 11.54087
Si -16.97187 10.18313 12.89862
Si -15.61412 11.54087 11.54087
Si -14.25638 12.89862 12.89862
Si -12.89862 14.25637 11.54087
Si -11.54087 15.61412 12.89862
Si -10.18313 16.97187 11.54087
Si -8.82537 18.32963 12.89862
Si -15.61412  8.82537 14.25637
Si -14.25638 10.18313 15.61412
Si -12.89862 11.54087 14.25637
Si -11.54087 12.89862 15.61412
Si -10.18313 14.25637 14.25637
Si -8.82537 15.61412 15.61412
Si -7.46763 16.97187 14.25637
Si -6.10987 18.32963 15.61412
Si -12.89862  8.82537 16.97187
Si -11.54087 10.18313 18.32963
Si -10.18313 11.54087 16.97187
Si -8.82537 12.89862 18.32963
Si -7.46763 14.25637 16.97187
Si -6.10987 15.61412 18.32963
Si -4.75213 16.97187 16.97187
Si -3.39437 18.32963 18.32963
Si -10.18312 11.54087  0.67887
Si -8.82537 12.89862  2.03662
Si -7.46762 14.25638  0.67888
Si -6.10987 15.61412  2.03662
Si -4.75212 16.97188  0.67888
Si -3.39437 18.32963  2.03662
Si -2.03662 19.68738  0.67888
Si -0.67887 21.04512  2.03662
Si -7.46762 11.54087  3.39437
Si -6.10987 12.89862  4.75212
Si -4.75212 14.25638  3.39438
Si -3.39437 15.61412  4.75213
Si -2.03662 16.97187  3.39438
Si -0.67887 18.32963  4.75213
Si  0.67887 19.68737  3.39437
Si  2.03662 21.04512  4.75212
Si -4.75213 11.54087  6.10987
Si -3.39437 12.89862  7.46762
Si -2.03662 14.25638  6.10987
Si -0.67887 15.61412  7.46763
Si  0.67887 16.97187  6.10987
Si  2.03662 18.32963  7.46762
Si  3.39437 19.68737  6.10987
Si  4.75212 21.04512  7.46762
Si -2.03662 11.54087  8.82538
Si -0.67887 12.89862 10.18313
Si  0.67887 14.25638  8.82538
Si  2.03662 15.61412 10.18313
Si  3.39437 16.97187  8.82537
Si  4.75212 18.32963 10.18313
Si  6.10987 19.68737  8.82537
Si  7.46763 21.04512 10.18313
Si -10.18313 14.25638  3.39438
Si -8.82537 15.61412  4.75212
Si -7.46762 16.97187  3.39438
Si -6.10987 18.32963  4.75212
Si -4.75212 19.68737  3.39438
Si -3.39437 21.04512  4.75213
Si -2.03662 22.40287  3.39438
Si -0.67887 23.76062  4.75212
Si -7.46762 14.25638  6.10987
Si -6.10987 15.61412  7.46762
Si -4.75212 16.97187  6.10987
Si -3.39437 18.32963  7.46762
Si -2.03662 19.68737  6.10987
Si -0.67887 21.04512  7.46762
Si  0.67887 22.40287  6.10987
Si  2.03662 23.76062  7.46762
Si -4.75212 14.25638  8.82537
Si -3.39437 15.61412 10.18313
Si -2.03662 16.97187  8.82537
Si -0.67887 18.32963 10.18313
Si  0.67887 19.68737  8.82537
Si  2.03662 21.04512 10.18313
Si  3.39437 22.40287  8.82537
Si  4.75212 23.76062 10.18313
Si -2.03662 14.25638 11.54087
Si -0.67887 15.61412 12.89862
Si  0.67887 16.97187 11.54087
Si  2.03662 18.32963 12.89862
Si  3.39437 19.68737 11.54087
Si  4.75212 21.04512 12.89862
Si  6.10987 22.40287 11.54087
Si  7.46763 23.76062 12.89862
Si -10.18312 16.97187  6.10987
Si -8.82537 18.32963  7.46762
Si -7.46762 19.68737  6.10987
Si -6.10987 21.04512  7.46763
Si -4.75212 22.40287  6.10987
Si -3.39437 23.76062  7.46762
Si -2.03662 25.11837  6.10987
Si -0.67887 26.47612  7.46762
Si -7.46762 16.97187  8.82537
Si -6.10987 18.32963 10.18313
Si -4.75212 19.68737  8.82537
Si -3.39437 21.04512 10.18313
Si -2.03662 22.40287  8.82537
Si -0.67887 23.76062 10.18313
Si  0.67887 25.11837  8.82537
Si  2.03662 26.47612 10.18313
Si -4.75212 16.97187 11.54087
Si -3.39437 18.32963 12.89862
Si -2.03662 19.68737 11.54087
Si -0.67887 21.04512 12.89862
Si  0.67887 22.40287 11.54087
Si  2.03662 23.76062 12.89862
Si  3.39437 25.11837 11.54087
Si  4.75212 26.47612 12.89862
Si -2.03662 16.97187 14.25637
Si -0.67887 18.32963 15.61412
Si  0.67887 19.68737 14.25637
Si  2.03662 21.04512 15.61412
Si  3.39437 22.40287 14.25637
Si  4.75212 23.76062 15.61412
Si  6.10987 25.11837 14.25637
Si  7.46763 26.47612 15.61412
Si -10.18312 19.68737  8.82537
Si -8.82537 21.04512 10.18313
Si -7.46762 22.40287  8.82537
Si -6.10987 23.76062 10.18313
Si -4.75212 25.11837  8.82537
Si -3.39438 26.47612 10.18313
Si -2.03662 27.83387  8.82537
Si -0.67887 29.19162 10.18313
Si -7.46762 19.68737 11.54087
Si -6.10987 21.04512 12.89862
Si -4.75212 22.40287 11.54087
Si -3.39437 23.76062 12.89862
Si -2.03662 25.11837 11.54087
Si -0.67887 26.47612 12.89862
Si  0.67887 27.83387 11.54087
Si  2.03662 29.19162 12.89862
Si -4.75213 19.68737 14.25637
Si -3.39437 21.04512 15.61412
Si -2.03662 22.40287 14.25637
Si -0.67887 23.76062 15.61412
Si  0.67887 25.11837 14.25637
Si  2.03662 26.47612 15.61412
Si  3.39437 27.83387 14.25637
Si  4.75212 29.19162 15.61412
Si -2.03662 19.68737 16.97187
Si -0.67887 21.04512 18.32963
Si  0.67887 22.40287 16.97187
Si  2.03662 23.76062 18.32963
Si  3.39437 25.11837 16.97187
Si  4.75212 26.47612 18.32963
Si  6.10987 27.83387 16.97187
Si  7.46763 29.19162 18.32963
Si  0.67888 22.40287  0.67887
Si  2.03662 23.76062  2.03662
Si  3.39438 25.11837  0.67888
Si  4.75212 26.47612  2.03662
Si  6.10988 27.83387  0.67888
Si  7.46762 29.19162  2.03662
Si  8.82538 30.54938  0.67888
Si 10.18313 31.90712  2.03662
Si  3.39438 22.40287  3.39437
Si  4.75212 23.76062  4.75212
Si  6.10987 25.11837  3.39438
Si  7.46762 26.47612  4.75213
Si  8.82537 27.83387  3.39438
Si 10.18313 29.19162  4.75213
Si 11.54087 30.54938  3.39437
Si 12.89862 31.90712  4.75212
Si  6.10987 22.40287  6.10987
Si  7.46762 23.76062  7.46762
Si  8.82537 25.11837  6.10987
Si 10.18313 26.47612  7.46763
Si 11.54087 27.83387  6.10987
Si 12.89862 29.19162  7.46762
Si 14.25637 30.54938  6.10987
Si 15.61412 31.90712  7.46762
Si  8.82537 22.40287  8.82538
Si 10.18313 23.76062 10.18313
Si 11.54087 25.11837  8.82538
Si 12.89862 26.47612 10.18313
Si 14.25637 27.83387  8.82537
Si 15.61412 29.19162 10.18313
Si 16.97187 30.54938  8.82537
Si 18.32963 31.90712 10.18313
Si  0.67887 25.11837  3.39438
Si  2.03662 26.47612  4.75212
Si  3.39437 27.83387  3.39438
Si  4.75213 29.19162  4.75212
Si  6.10987 30.54938  3.39438
Si  7.46763 31.90712  4.75213
Si  8.82537 33.26487  3.39438
Si 10.18313 34.62262  4.75212
Si  3.39438 25.11837  6.10987
Si  4.75213 26.47612  7.46762
Si  6.10987 27.83387  6.10987
Si  7.46762 29.19162  7.46762
Si  8.82537 30.54938  6.10987
Si 10.18313 31.90712  7.46762
Si 11.54087 33.26487  6.10987
Si 12.89862 34.62262  7.46762
Si  6.10987 25.11837  8.82537
Si  7.46763 26.47612 10.18313
Si  8.82537 27.83387  8.82537
Si 10.18313 29.19162 10.18313
Si 11.54087 30.54938  8.82537
Si 12.89862 31.90712 10.18313
Si 14.25637 33.26487  8.82537
Si 15.61412 34.62262 10.18313
Si  8.82537 25.11837 11.54087
Si 10.18313 26.47612 12.89862
Si 11.54087 27.83387 11.54087
Si 12.89862 29.19162 12.89862
Si 14.25637 30.54938 11.54087
Si 15.61412 31.90712 12.89862
Si 16.97187 33.26487 11.54087
Si 18.32963 34.62262 12.89862
Si  0.67888 27.83387  6.10987
Si  2.03662 29.19162  7.46762
Si  3.39438 30.54938  6.10987
Si  4.75213 31.90712  7.46763
Si  6.10987 33.26487  6.10987
Si  7.46762 34.62262  7.46762
Si  8.82537 35.98037  6.10987
Si 10.18313 37.33812  7.46762
Si  3.39438 27.83387  8.82537
Si  4.75213 29.19162 10.18313
Si  6.10987 30.54938  8.82537
Si  7.46762 31.90712 10.18313
Si  8.82537 33.26487  8.82537
Si 10.18313 34.62262 10.18313
Si 11.54087 35.98037  8.82537
Si 12.89862 37.33812 10.18313
Si  6.10987 27.83387 11.54087
Si  7.46762 29.19162 12.89862
Si  8.82537 30.54938 11.54087
Si 10.18313 31.90712 12.89862
Si 11.54087 33.26487 11.54087
Si 12.89862 34.62262 12.89862
Si 14.25637 35.98037 11.54087
Si 15.61412 37.33812 12.89862
Si  8.82537 27.83387 14.25637
Si 10.18313 29.19162 15.61412
Si 11.54087 30.54938 14.25637
Si 12.89862 31.90712 15.61412
Si 14.25637 33.26487 14.25637
Si 15.61412 34.62262 15.61412
Si 16.97187 35.98037 14.25637
Si 18.32963 37.33812 15.61412
Si  0.67888 30.54938  8.82537
Si  2.03662 31.90712 10.18313
Si  3.39437 33.26487  8.82537
Si  4.75212 34.62262 10.18313
Si  6.10987 35.98037  8.82537
Si  7.46762 37.33812 10.18313
Si  8.82537 38.69588  8.82537
Si 10.18313 40.05362 10.18313
Si  3.39438 30.54938 11.54087
Si  4.75213 31.90712 12.89862
Si  6.10987 33.26487 11.54087
Si  7.46762 34.62262 12.89862
Si  8.82537 35.98037 11.54087
Si 10.18313 37.33812 12.89862
Si 11.54087 38.69588 11.54087
Si 12.89862 40.05362 12.89862
Si  6.10987 30.54938 14.25637
Si  7.46762 31.90712 15.61412
Si  8.82537 33.26487 14.25637
Si 10.18313 34.62262 15.61412
Si 11.54087 35.98037 14.25637
Si 12.89862 37.33812 15.61412
Si 14.25637 38.69588 14.25637
Si 15.61412 40.05362 15.61412
Si  8.82537 30.54938 16.97187
Si 10.18313 31.90712 18.32963
Si 11.54087 33.26487 16.97187
Si 12.89862 34.62262 18.32963
Si 14.25637 35.98037 16.97187
Si 15.61412 37.33812 18.32963
Si 16.97187 38.69588 16.97187
Si 18.32963 40.05362 18.32963
Si -10.18312  0.67887 11.54087
Si -8.82537  2.03662 12.89862
Si -7.46762  3.39438 11.54087
Si -6.10987  4.75212 12.89862
Si -4.75212  6.10988 11.54087
Si -3.39437  7.46762 12.89862
Si -2.03662  8.82538 11.54087
Si -0.67887 10.18313 12.89862
Si -7.46762  0.67887 14.25637
Si -6.10987  2.03662 15.61412
Si -4.75212  3.39438 14.25638
Si -3.39437  4.75213 15.61412
Si -2.03662  6.10987 14.25638
Si -0.67887  7.46763 15.61412
Si  0.67887  8.82537 14.25638
Si  2.03662 10.18313 15.61412
Si -4.75213  0.67887 16.97187
Si -3.39437  2.03662 18.32963
Si -2.03662  3.39438 16.97187
Si -0.67887  4.75213 18.32963
Si  0.67887  6.10987 16.97187
Si  2.03662  7.46762 18.32963
Si  3.39437  8.82537 16.97187
Si  4.75212 10.18313 18.32963
Si -2.03662  0.67888 19.68738
Si -0.67887  2.03662 21.04512
Si  0.67887  3.39437 19.68738
Si  2.03662  4.75212 21.04512
Si  3.39437  6.10987 19.68737
Si  4.75212  7.46762 21.04512
Si  6.10987  8.82537 19.68737
Si  7.46763 10.18313 21.04512
Si -10.18313  3.39437 14.25638
Si -8.82537  4.75212 15.61412
Si -7.46762  6.10987 14.25638
Si -6.10987  7.46762 15.61412
Si -4.75212  8.82537 14.25638
Si -3.39437 10.18313 15.61412
Si -2.03662 11.54087 14.25638
Si -0.67887 12.89862 15.61412
Si -7.46762  3.39438 16.97187
Si -6.10987  4.75213 18.32963
Si -4.75212  6.10987 16.97187
Si -3.39437  7.46762 18.32963
Si -2.03662  8.82537 16.97187
Si -0.67887 10.18313 18.32963
Si  0.67887 11.54087 16.97187
Si  2.03662 12.89862 18.32963
Si -4.75212  3.39438 19.68737
Si -3.39437  4.75213 21.04512
Si -2.03662  6.10987 19.68737
Si -0.67887  7.46762 21.04512
Si  0.67887  8.82537 19.68737
Si  2.03662 10.18313 21.04512
Si  3.39437 11.54087 19.68737
Si  4.75212 12.89862 21.04512
Si -2.03662  3.39438 22.40287
Si -0.67887  4.75212 23.76062
Si  0.67887  6.10987 22.40287
Si  2.03662  7.46762 23.76062
Si  3.39437  8.82537 22.40287
Si  4.75212 10.18313 23.76062
Si  6.10987 11.54087 22.40287
Si  7.46763 12.89862 23.76062
Si -10.18312  6.10987 16.97187
Si -8.82537  7.46762 18.32963
Si -7.46762  8.82537 16.97187
Si -6.10987 10.18313 18.32963
Si -4.75212 11.54087 16.97187
Si -3.39437 12.89862 18.32963
Si -2.03662 14.25637 16.97187
Si -0.67887 15.61412 18.32963
Si -7.46762  6.10987 19.68737
Si -6.10987  7.46763 21.04512
Si -4.75212  8.82537 19.68737
Si -3.39437 10.18313 21.04512
Si -2.03662 11.54087 19.68737
Si -0.67887 12.89862 21.04512
Si  0.67887 14.25637 19.68737
Si  2.03662 15.61412 21.04512
Si -4.75212  6.10987 22.40287
Si -3.39437  7.46762 23.76062
Si -2.03662  8.82537 22.40287
Si -0.67887 10.18313 23.76062
Si  0.67887 11.54087 22.40287
Si  2.03662 12.89862 23.76062
Si  3.39437 14.25637 22.40287
Si  4.75212 15.61412 23.76062
Si -2.03662  6.10987 25.11837
Si -0.67887  7.46762 26.47612
Si  0.67887  8.82537 25.11837
Si  2.03662 10.18313 26.47612
Si  3.39437 11.54087 25.11837
Si  4.75212 12.89862 26.47612
Si  6.10987 14.25637 25.11837
Si  7.46763 15.61412 26.47612
Si -10.18312  8.82537 19.68737
Si -8.82537 10.18313 21.04512
Si -7.46762 11.54087 19.68737
Si -6.10987 12.89862 21.04512
Si -4.75212 14.25637 19.68737
Si -3.39438 15.61412 21.04512
Si -2.03662 16.97187 19.68737
Si -0.67887 18.32963 21.04512
Si -7.46762  8.82537 22.40287
Si -6.10987 10.18313 23.76062
Si -4.75212 11.54087 22.40287
Si -3.39437 12.89862 23.76062
Si -2.03662 14.25637 22.40287
Si -0.67887 15.61412 23.76062
Si  0.67887 16.97187 22.40287
Si  2.03662 18.32963 23.76062
Si -4.75213  8.82537 25.11837
Si -3.39437 10.18313 26.47612
Si -2.03662 11.54087 25.11837
Si -0.67887 12.89862 26.47612
Si  0.67887 14.25637 25.11837
Si  2.03662 15.61412 26.47612
Si  3.39437 16.97187 25.11837
Si  4.75212 18.32963 26.47612
Si -2.03662  8.82537 27.83387
Si -0.67887 10.18313 29.19162
Si  0.67887 11.54087 27.83387
Si  2.03662 12.89862 29.19162
Si  3.39437 14.25637 27.83387
Si  4.75212 15.61412 29.19162
Si  6.10987 16.97187 27.83387
Si  7.46763 18.32963 29.19162
Si  0.67888 11.54087 11.54087
Si  2.03662 12.89862 12.89862
Si  3.39438 14.25638 11.54087
Si  4.75212 15.61412 12.89862
Si  6.10988 16.97188 11.54087
Si  7.46762 18.32963 12.89862
Si  8.82538 19.68738 11.54087
Si 10.18313 21.04512 12.89862
Si  3.39438 11.54087 14.25637
Si  4.75212 12.89862 15.61412
Si  6.10987 14.25638 14.25638
Si  7.46762 15.61412 15.61412
Si  8.82537 16.97187 14.25638
Si 10.18313 18.32963 15.61412
Si 11.54087 19.68737 14.25638
Si 12.89862 21.04512 15.61412
Si  6.10987 11.54087 16.97187
Si  7.46762 12.89862 18.32963
Si  8.82537 14.25638 16.97187
Si 10.18313 15.61412 18.32963
Si 11.54087 16.97187 16.97187
Si 12.89862 18.32963 18.32963
Si 14.25637 19.68737 16.97187
Si 15.61412 21.04512 18.32963
Si  8.82537 11.54087 19.68738
Si 10.18313 12.89862 21.04512
Si 11.54087 14.25638 19.68738
Si 12.89862 15.61412 21.04512
Si 14.25637 16.97187 19.68737
Si 15.61412 18.32963 21.04512
Si 16.97187 19.68737 19.68737
Si 18.32963 21.04512 21.04512
Si  0.67887 14.25638 14.25638
Si  2.03662 15.61412 15.61412
Si  3.39437 16.97187 14.25638
Si  4.75213 18.32963 15.61412
Si  6.10987 19.68737 14.25638
Si  7.46763 21.04512 15.61412
Si  8.82537 22.40287 14.25638
Si 10.18313 23.76062 15.61412
Si  3.39438 14.25638 16.97187
Si  4.75213 15.61412 18.32963
Si  6.10987 16.97187 16.97187
Si  7.46762 18.32963 18.32963
Si  8.82537 19.68737 16.97187
Si 10.18313 21.04512 18.32963
Si 11.54087 22.40287 16.97187
Si 12.89862 23.76062 18.32963
Si  6.10987 14.25638 19.68737
Si  7.46763 15.61412 21.04512
Si  8.82537 16.97187 19.68737
Si 10.18313 18.32963 21.04512
Si 11.54087 19.68737 19.68737
Si 12.89862 21.04512 21.04512
Si 14.25637 22.40287 19.68737
Si 15.61412 23.76062 21.04512
Si  8.82537 14.25638 22.40287
Si 10.18313 15.61412 23.76062
Si 11.54087 16.97187 22.40287
Si 12.89862 18.32963 23.76062
Si 14.25637 19.68737 22.40287
Si 15.61412 21.04512 23.76062
Si 16.97187 22.40287 22.40287
Si 18.32963 23.76062 23.76062
Si  0.67888 16.97187 16.97187
Si  2.03662 18.32963 18.32963
Si  3.39438 19.68737 16.97187
Si  4.75213 21.04512 18.32963
Si  6.10987 22.40287 16.97187
Si  7.46762 23.76062 18.32963
Si  8.82537 25.11837 16.97187
Si 10.18313 26.47612 18.32963
Si  3.39438 16.97187 19.68737
Si  4.75213 18.32963 21.04512
Si  6.10987 19.68737 19.68737
Si  7.46762 21.04512 21.04512
Si  8.82537 22.40287 19.68737
Si 10.18313 23.76062 21.04512
Si 11.54087 25.11837 19.68737
Si 12.89862 26.47612 21.04512
Si  6.10987 16.97187 22.40287
Si  7.46762 18.32963 23.76062
Si  8.82537 19.68737 22.40287
Si 10.18313 21.04512 23.76062
Si 11.54087 22.40287 22.40287
Si 12.89862 23.76062 23.76062
Si 14.25637 25.11837 22.40287
Si 15.61412 26.47612 23.76062
Si  8.82537 16.97187 25.11837
Si 10.18313 18.32963 26.47612
Si 11.54087 19.68737 25.11837
Si 12.89862 21.04512 26.47612
Si 14.25637 22.40287 25.11837
Si 15.61412 23.76062 26.47612
Si 16.97187 25.11837 25.11837
Si 18.32963 26.47612 26.47612
Si  0.67888 19.68737 19.68737
Si  2.03662 21.04512 21.04512
Si  3.39437 22.40287 19.68737
Si  4.75212 23.76062 21.04512
Si  6.10987 25.11837 19.68737
Si  7.46762 26.47612 21.04512
Si  8.82537 27.83387 19.68737
Si 10.18313 29.19162 21.04512
Si  3.39438 19.68737 22.40287
Si  4.75213 21.04512 23.76062
Si  6.10987 22.40287 22.40287
Si  7.46762 23.76062 23.76062
Si  8.82537 25.11837 22.40287
Si 10.18313 26.47612 23.76062
Si 11.54087 27.83387 22.40287
Si 12.89862 29.19162 23.76062
Si  6.10987 19.68737 25.11837
Si  7.46762 21.04512 26.47612
Si  8.82537 22.40287 25.11837
Si 10.18313 23.76062 26.47612
Si 11.54087 25.11837 25.11837
Si 12.89862 26.47612 26.47612
Si 14.25637 27.83387 25.11837
Si 15.61412 29.19162 26.47612
Si  8.82537 19.68737 27.83387
Si 10.18313 21.04512 29.19162
Si 11.54087 22.40287 27.83387
Si 12.89862 23.76062 29.19162
Si 14.25637 25.11837 27.83387
Si 15.61412 26.47612 29.19162
Si 16.97187 27.83387 27.83387
Si 18.32963 29.19162 29.19162
Si 11.54087 22.40287 11.54087
Si 12.89862 23.76062 12.89862
Si 14.25638 25.11837 11.54087
Si 15.61412 26.47612 12.89862
Si 16.97188 27.83387 11.54087
Si 18.32963 29.19162 12.89862
Si 19.68738 30.54938 11.54087
Si 21.04512 31.90712 12.89862
Si 14.25638 22.40287 14.25637
Si 15.61412 23.76062 15.61412
Si 16.97187 25.11837 14.25638
Si 18.32963 26.47612 15.61412
Si 19.68737 27.83387 14.25638
Si 21.04512 29.19162 15.61412
Si 22.40287 30.54938 14.25638
Si 23.76062 31.90712 15.61412
Si 16.97187 22.40287 16.97187
Si 18.32963 23.76062 18.32963
Si 19.68737 25.11837 16.97187
Si 21.04512 26.47612 18.32963
Si 22.40287 27.83387 16.97187
Si 23.76062 29.19162 18.32963
Si 25.11837 30.54938 16.97187
Si 26.47612 31.90712 18.32963
Si 19.68737 22.40287 19.68738
Si 21.04512 23.76062 21.04512
Si 22.40287 25.11837 19.68738
Si 23.76062 26.47612 21.04512
Si 25.11837 27.83387 19.68737
Si 26.47612 29.19162 21.04512
Si 27.83387 30.54938 19.68737
Si 29.19162 31.90712 21.04512
Si 11.54087 25.11837 14.25638
Si 12.89862 26.47612 15.61412
Si 14.25638 27.83387 14.25638
Si 15.61412 29.19162 15.61412
Si 16.97187 30.54938 14.25638
Si 18.32963 31.90712 15.61412
Si 19.68737 33.26487 14.25638
Si 21.04512 34.62262 15.61412
Si 14.25638 25.11837 16.97187
Si 15.61412 26.47612 18.32963
Si 16.97187 27.83387 16.97187
Si 18.32963 29.19162 18.32963
Si 19.68737 30.54938 16.97187
Si 21.04512 31.90712 18.32963
Si 22.40287 33.26487 16.97187
Si 23.76062 34.62262 18.32963
Si 16.97187 25.11837 19.68737
Si 18.32963 26.47612 21.04512
Si 19.68737 27.83387 19.68737
Si 21.04512 29.19162 21.04512
Si 22.40287 30.54938 19.68737
Si 23.76062 31.90712 21.04512
Si 25.11837 33.26487 19.68737
Si 26.47612 34.62262 21.04512
Si 19.68737 25.11837 22.40287
Si 21.04512 26.47612 23.76062
Si 22.40287 27.83387 22.40287
Si 23.76062 29.19162 23.76062
Si 25.11837 30.54938 22.40287
Si 26.47612 31.90712 23.76062
Si 27.83387 33.26487 22.40287
Si 29.19162 34.62262 23.76062
Si 11.54087 27.83387 16.97187
Si 12.89862 29.19162 18.32963
Si 14.25638 30.54938 16.97187
Si 15.61412 31.90712 18.32963
Si 16.97187 33.26487 16.97187
Si 18.32963 34.62262 18.32963
Si 19.68737 35.98037 16.97187
Si 21.04512 37.33812 18.32963
Si 14.25638 27.83387 19.68737
Si 15.61412 29.19162 21.04512
Si 16.97187 30.54938 19.68737
Si 18.32963 31.90712 21.04512
Si 19.68737 33.26487 19.68737
Si 21.04512 34.62262 21.04512
Si 22.40287 35.98037 19.68737
Si 23.76062 37.33812 21.04512
Si 16.97187 27.83387 22.40287
Si 18.32963 29.19162 23.76062
Si 19.68737 30.54938 22.40287
Si 21.04512 31.90712 23.76062
Si 22.40287 33.26487 22.40287
Si 23.76062 34.62262 23.76062
Si 25.11837 35.98037 22.40287
Si 26.47612 37.33812 23.76062
Si 19.68737 27.83387 25.11837
Si 21.04512 29.19162 26.47612
Si 22.40287 30.54938 25.11837
Si 23.76062 31.90712 26.47612
Si 25.11837 33.26487 25.11837
Si 26.47612 34.62262 26.47612
Si 27.83387 35.98037 25.11837
Si 29.19162 37.33812 26.47612
Si 11.54087 30.54938 19.68737
Si 12.89862 31.90712 21.04512
Si 14.25638 33.26487 19.68737
Si 15.61412 34.62262 21.04512
Si 16.97187 35.98037 19.68737
Si 18.32963 37.33812 21.04512
Si 19.68737 38.69588 19.68737
Si 21.04512 40.05362 21.04512
Si 14.25638 30.54938 22.40287
Si 15.61412 31.90712 23.76062
Si 16.97187 33.26487 22.40287
Si 18.32963 34.62262 23.76062
Si 19.68737 35.98037 22.40287
Si 21.04512 37.33812 23.76062
Si 22.40287 38.69588 22.40287
Si 23.76062 40.05362 23.76062
Si 16.97187 30.54938 25.11837
Si 18.32963 31.90712 26.47612
Si 19.68737 33.26487 25.11837
Si 21.04512 34.62262 26.47612
Si 22.40287 35.98037 25.11837
Si 23.76062 37.33812 26.47612
Si 25.11837 38.69588 25.11837
Si 26.47612 40.05362 26.47612
Si 19.68737 30.54938 27.83387
Si 21.04512 31.90712 29.19162
Si 22.40287 33.26487 27.83387
Si 23.76062 34.62262 29.19162
Si 25.11837 35.98037 27.83387
Si 26.47612 37.33812 29.19162
Si 27.83387 38.69588 27.83387
Si 29.19162 40.05362 29.19162
Si  0.67888  0.67887 22.40287
Si  2.03662  2.03662 23.76062
Si  3.39438  3.39438 22.40287
Si  4.75212  4.75212 23.76062
Si  6.10988  6.10988 22.40287
Si  7.46762  7.46762 23.76062
Si  8.82538  8.82538 22.40287
Si 10.18313 10.18313 23.76062
Si  3.39438  0.67887 25.11837
Si  4.75212  2.03662 26.47612
Si  6.10987  3.39438 25.11837
Si  7.46762  4.75213 26.47612
Si  8.82537  6.10987 25.11837
Si 10.18313  7.46763 26.47612
Si 11.54087  8.82537 25.11837
Si 12.89862 10.18313 26.47612
Si  6.10987  0.67887 27.83387
Si  7.46762  2.03662 29.19162
Si  8.82537  3.39438 27.83387
Si 10.18313  4.75213 29.19162
Si 11.54087  6.10987 27.83387
Si 12.89862  7.46762 29.19162
Si 14.25637  8.82537 27.83387
Si 15.61412 10.18313 29.19162
Si  8.82537  0.67888 30.54938
Si 10.18313  2.03662 31.90712
Si 11.54087  3.39437 30.54938
Si 12.89862  4.75212 31.90712
Si 14.25637  6.10987 30.54938
Si 15.61412  7.46762 31.90712
Si 16.97187  8.82537 30.54938
Si 18.32963 10.18313 31.90712
Si  0.67887  3.39437 25.11837
Si  2.03662  4.75212 26.47612
Si  3.39437  6.10987 25.11837
Si  4.75213  7.46762 26.47612
Si  6.10987  8.82537 25.11837
Si  7.46763 10.18313 26.47612
Si  8.82537 11.54087 25.11837
Si 10.18313 12.89862 26.47612
Si  3.39438  3.39438 27.83387
Si  4.75213  4.75213 29.19162
Si  6.10987  6.10987 27.83387
Si  7.46762  7.46762 29.19162
Si  8.82537  8.82537 27.83387
Si 10.18313 10.18313 29.19162
Si 11.54087 11.54087 27.83387
Si 12.89862 12.89862 29.19162
Si  6.10987  3.39438 30.54938
Si  7.46763  4.75213 31.90712
Si  8.82537  6.10987 30.54938
Si 10.18313  7.46762 31.90712
Si 11.54087  8.82537 30.54938
Si 12.89862 10.18313 31.90712
Si 14.25637 11.54087 30.54938
Si 15.61412 12.89862 31.90712
Si  8.82537  3.39438 33.26487
Si 10.18313  4.75212 34.62262
Si 11.54087  6.10987 33.26487
Si 12.89862  7.46762 34.62262
Si 14.25637  8.82537 33.26487
Si 15.61412 10.18313 34.62262
Si 16.97187 11.54087 33.26487
Si 18.32963 12.89862 34.62262
Si  0.67888  6.10987 27.83387
Si  2.03662  7.46762 29.19162
Si  3.39438  8.82537 27.83387
Si  4.75213 10.18313 29.19162
Si  6.10987 11.54087 27.83387
Si  7.46762 12.89862 29.19162
Si  8.82537 14.25637 27.83387
Si 10.18313 15.61412 29.19162
Si  3.39438  6.10987 30.54938
Si  4.75213  7.46763 31.90712
Si  6.10987  8.82537 30.54938
Si  7.46762 10.18313 31.90712
Si  8.82537 11.54087 30.54938
Si 10.18313 12.89862 31.90712
Si 11.54087 14.25637 30.54938
Si 12.89862 15.61412 31.90712
Si  6.10987  6.10987 33.26487
Si  7.46762  7.46762 34.62262
Si  8.82537  8.82537 33.26487
Si 10.18313 10.18313 34.62262
Si 11.54087 11.54087 33.26487
Si 12.89862 12.89862 34.62262
Si 14.25637 14.25637 33.26487
Si 15.61412 15.61412 34.62262
Si  8.82537  6.10987 35.98037
Si 10.18313  7.46762 37.33812
Si 11.54087  8.82537 35.98037
Si 12.89862 10.18313 37.33812
Si 14.25637 11.54087 35.98037
Si 15.61412 12.89862 37.33812
Si 16.97187 14.25637 35.98037
Si 18.32963 15.61412 37.33812
Si  0.67888  8.82537 30.54938
Si  2.03662 10.18313 31.90712
Si  3.39437 11.54087 30.54938
Si  4.75212 12.89862 31.90712
Si  6.10987 14.25637 30.54938
Si  7.46762 15.61412 31.90712
Si  8.82537 16.97187 30.54938
Si 10.18313 18.32963 31.90712
Si  3.39438  8.82537 33.26487
Si  4.75213 10.18313 34.62262
Si  6.10987 11.54087 33.26487
Si  7.46762 12.89862 34.62262
Si  8.82537 14.25637 33.26487
Si 10.18313 15.61412 34.62262
Si 11.54087 16.97187 33.26487
Si 12.89862 18.32963 34.62262
Si  6.10987  8.82537 35.98037
Si  7.46762 10.18313 37.33812
Si  8.82537 11.54087 35.98037
Si 10.18313 12.89862 37.33812
Si 11.54087 14.25637 35.98037
Si 12.89862 15.61412 37.33812
Si 14.25637 16.97187 35.98037
Si 15.61412 18.32963 37.33812
Si  8.82537  8.82537 38.69588
Si 10.18313 10.18313 40.05362
Si 11.54087 11.54087 38.69588
Si 12.89862 12.89862 40.05362
Si 14.25637 14.25637 38.69588
Si 15.61412 15.61412 40.05362
Si 16.97187 16.97187 38.69588
Si 18.32963 18.32963 40.05362
Si 11.54087 11.54087 22.40287
Si 12.89862 12.89862 23.76062
Si 14.25638 14.25638 22.40287
Si 15.61412 15.61412 23.76062
Si 16.97188 16.97188 22.40287
Si 18.32963 18.32963 23.76062
Si 19.68738 19.68738 22.40287
Si 21.04512 21.04512 23.76062
Si 14.25638 11.54087 25.11837
Si 15.61412 12.89862 26.47612
Si 16.97187 14.25638 25.11837
Si 18.32963 15.61412 26.47612
Si 19.68737 16.97187 25.11837
Si 21.04512 18.32963 26.47612
Si 22.40287 19.68737 25.11837
Si 23.76062 21.04512 26.47612
Si 16.97187 11.54087 27.83387
Si 18.32963 12.89862 29.19162
Si 19.68737 14.25638 27.83387
Si 21.04512 15.61412 29.19162
Si 22.40287 16.97187 27.83387
Si 23.76062 18.32963 29.19162
Si 25.11837 19.68737 27.83387
Si 26.47612 21.04512 29.19162
Si 19.68737 11.54087 30.54938
Si 21.04512 12.89862 31.90712
Si 22.40287 14.25638 30.54938
Si 23.76062 15.61412 31.90712
Si 25.11837 16.97187 30.54938
Si 26.47612 18.32963 31.90712
Si 27.83387 19.68737 30.54938
Si 29.19162 21.04512 31.90712
Si 11.54087 14.25638 25.11837
Si 12.89862 15.61412 26.47612
Si 14.25638 16.97187 25.11837
Si 15.61412 18.32963 26.47612
Si 16.97187 19.68737 25.11837
Si 18.32963 21.04512 26.47612
Si 19.68737 22.40287 25.11837
Si 21.04512 23.76062 26.47612
Si 14.25638 14.25638 27.83387
Si 15.61412 15.61412 29.19162
Si 16.97187 16.97187 27.83387
Si 18.32963 18.32963 29.19162
Si 19.68737 19.68737 27.83387
Si 21.04512 21.04512 29.19162
Si 22.40287 22.40287 27.83387
Si 23.76062 23.76062 29.19162
Si 16.97187 14.25638 30.54938
Si 18.32963 15.61412 31.90712
Si 19.68737 16.97187 30.54938
Si 21.04512 18.32963 31.90712
Si 22.40287 19.68737 30.54938
Si 23.76062 21.04512 31.90712
Si 25.11837 22.40287 30.54938
Si 26.47612 23.76062 31.90712
Si 19.68737 14.25638 33.26487
Si 21.04512 15.61412 34.62262
Si 22.40287 16.97187 33.26487
Si 23.76062 18.32963 34.62262
Si 25.11837 19.68737 33.26487
Si 26.47612 21.04512 34.62262
Si 27.83387 22.40287 33.26487
Si 29.19162 23.76062 34.62262
Si 11.54087 16.97187 27.83387
Si 12.89862 18.32963 29.19162
Si 14.25638 19.68737 27.83387
Si 15.61412 21.04512 29.19162
Si 16.97187 22.40287 27.83387
Si 18.32963 23.76062 29.19162
Si 19.68737 25.11837 27.83387
Si 21.04512 26.47612 29.19162
Si 14.25638 16.97187 30.54938
Si 15.61412 18.32963 31.90712
Si 16.97187 19.68737 30.54938
Si 18.32963 21.04512 31.90712
Si 19.68737 22.40287 30.54938
Si 21.04512 23.76062 31.90712
Si 22.40287 25.11837 30.54938
Si 23.76062 26.47612 31.90712
Si 16.97187 16.97187 33.26487
Si 18.32963 18.32963 34.62262
Si 19.68737 19.68737 33.26487
Si 21.04512 21.04512 34.62262
Si 22.40287 22.40287 33.26487
Si 23.76062 23.76062 34.62262
Si 25.11837 25.11837 33.26487
Si 26.47612 26.47612 34.62262
Si 19.68737 16.97187 35.98037
Si 21.04512 18.32963 37.33812
Si 22.40287 19.68737 35.98037
Si 23.76062 21.04512 37.33812
Si 25.11837 22.40287 35.98037
Si 26.47612 23.76062 37.33812
Si 27.83387 25.11837 35.98037
Si 29.19162 26.47612 37.33812
Si 11.54087 19.68737 30.54938
Si 12.89862 21.04512 31.90712
Si 14.25638 22.40287 30.54938
Si 15.61412 23.76062 31.90712
Si 16.97187 25.11837 30.54938
Si 18.32963 26.47612 31.90712
Si 19.68737 27.83387 30.54938
Si 21.04512 29.19162 31.90712
Si 14.25638 19.68737 33.26487
Si 15.61412 21.04512 34.62262
Si 16.97187 22.40287 33.26487
Si 18.32963 23.76062 34.62262
Si 19.68737 25.11837 33.26487
Si 21.04512 26.47612 34.62262
Si 22.40287 27.83387 33.26487
Si 23.76062 29.19162 34.62262
Si 16.97187 19.68737 35.98037
Si 18.32963 21.04512 37.33812
Si 19.68737 22.40287 35.98037
Si 21.04512 23.76062 37.33812
Si 22.40287 25.11837 35.98037
Si 23.76062 26.47612 37.33812
Si 25.11837 27.83387 35.98037
Si 26.47612 29.19162 37.33812
Si 19.68737 19.68737 38.69588
Si 21.04512 21.04512 40.05362
Si 22.40287 22.40287 38.69588
Si 23.76062 23.76062 40.05362
Si 25.11837 25.11837 38.69588
Si 26.47612 26.47612 40.05362
Si 27.83387 27.83387 38.69588
Si 29.19162 29.19162 40.05362
Si 22.40287 22.40287 22.40287
Si 23.76062 23.76062 23.76062
Si 25.11837 25.11837 22.40287
Si 26.47612 26.47612 23.76062
Si 27.83387 27.83387 22.40287
Si 29.19162 29.19162 23.76062
Si 30.54938 30.54938 22.40287
Si 31.90712 31.90712 23.76062
Si 25.11837 22.40287 25.11837
Si 26.47612 23.76062 26.47612
Si 27.83387 25.11837 25.11837
Si 29.19162 26.47612 26.47612
Si 30.54938 27.83387 25.11837
Si 31.90712 29.19162 26.47612
Si 33.26487 30.54938 25.11837
Si 34.62262 31.90712 26.47612
Si 27.83387 22.40287 27.83387
Si 29.19162 23.76062 29.19162
Si 30.54938 25.11837 27.83387
Si 31.90712 26.47612 29.19162
Si 33.26487 27.83387 27.83387
Si 34.62262 29.19162 29.19162
Si 35.98037 30.54938 27.83387
Si 37.33812 31.90712 29.19162
Si 30.54938 22.40287 30.54938
Si 31.90712 23.76062 31.90712
Si 33.26487 25.11837 30.54938
Si 34.62262 26.47612 31.90712
Si 35.98037 27.83387 30.54938
Si 37.33812 29.19162 31.90712
Si 38.69588 30.54938 30.54938
Si 40.05362 31.90712 31.90712
Si 22.40287 25.11837 25.11837
Si 23.76062 26.47612 26.47612
Si 25.11837 27.83387 25.11837
Si 26.47612 29.19162 26.47612
Si 27.83387 30.54938 25.11837
Si 29.19162 31.90712 26.47612
Si 30.54938 33.26487 25.11837
Si 31.90712 34.62262 26.47612
Si 25.11837 25.11837 27.83387
Si 26.47612 26.47612 29.19162
Si 27.83387 27.83387 27.83387
Si 29.19162 29.19162 29.19162
Si 30.54938 30.54938 27.83387
Si 31.90712 31.90712 29.19162
Si 33.26487 33.26487 27.83387
Si 34.62262 34.62262 29.19162
Si 27.83387 25.11837 30.54938
Si 29.19162 26.47612 31.90712
Si 30.54938 27.83387 30.54938
Si 31.90712 29.19162 31.90712
Si 33.26487 30.54938 30.54938
Si 34.62262 31.90712 31.90712
Si 35.98037 33.26487 30.54938
Si 37.33812 34.62262 31.90712
Si 30.54938 25.11837 33.26487
Si 31.90712 26.47612 34.62262
Si 33.26487 27.83387 33.26487
Si 34.62262 29.19162 34.62262
Si 35.98037 30.54938 33.26487
Si 37.33812 31.90712 34.62262
Si 38.69588 33.26487 33.26487
Si 40.05362 34.62262 34.62262
Si 22.40287 27.83387 27.83387
Si 23.76062 29.19162 29.19162
Si 25.11837 30.54938 27.83387
Si 26.47612 31.90712 29.19162
Si 27.83387 33.26487 27.83387
Si 29.19162 34.62262 29.19162
Si 30.54938 35.98037 27.83387
Si 31.90712 37.33812 29.19162
Si 25.11837 27.83387 30.54938
Si 26.47612 29.19162 31.90712
Si 27.83387 30.54938 30.54938
Si 29.19162 31.90712 31.90712
Si 30.54938 33.26487 30.54938
Si 31.90712 34.62262 31.90712
Si 33.26487 35.98037 30.54938
Si 34.62262 37.33812 31.90712
Si 27.83387 27.83387 33.26487
Si 29.19162 29.19162 34.62262
Si 30.54938 30.54938 33.26487
Si 31.90712 31.90712 34.62262
Si 33.26487 33.26487 33.26487
Si 34.62262 34.62262 34.62262
Si 35.98037 35.98037 33.26487
Si 37.33812 37.33812 34.62262
Si 30.54938 27.83387 35.98037
Si 31.90712 29.19162 37.33812
Si 33.26487 30.54938 35.98037
Si 34.62262 31.90712 37.33812
Si 35.98037 33.26487 35.98037
Si 37.33812 34.62262 37.33812
Si 38.69588 35.98037 35.98037
Si 40.05362 37.33812 37.33812
Si 22.40287 30.54938 30.54938
Si 23.76062 31.90712 31.90712
Si 25.11837 33.26487 30.54938
Si 26.47612 34.62262 31.90712
Si 27.83387 35.98037 30.54938
Si 29.19162 37.33812 31.90712
Si 30.54938 38.69588 30.54938
Si 31.90712 40.05362 31.90712
Si 25.11837 30.54938 33.26487
Si 26.47612 31.90712 34.62262
Si 27.83387 33.26487 33.26487
Si 29.19162 34.62262 34.62262
Si 30.54938 35.98037 33.26487
Si 31.90712 37.33812 34.62262
Si 33.26487 38.69588 33.26487
Si 34.62262 40.05362 34.62262
Si 27.83387 30.54938 35.98037
Si 29.19162 31.90712 37.33812
Si 30.54938 33.26487 35.98037
Si 31.90712 34.62262 37.33812
Si 33.26487 35.98037 35.98037
Si 34.62262 37.33812 37.33812
Si 35.98037 38.69588 35.98037
Si 37.33812 40.05362 37.33812
Si 30.54938 30.54938 38.69588
Si 31.90712 31.90712 40.05362
Si 33.26487 33.26487 38.69588
Si 34.62262 34.62262 40.05362
Si 35.98037 35.98037 38.69588
Si 37.33812 37.33812 40.05362
Si 38.69588 38.69588 38.69588
Si 40.05362 40.05362 40.05362
