64 

Si    0.67888   0.67888   0.67888  -0.000000360699343  -0.000000360694384  -0.000000360684960
Si    3.39437   0.67888   3.39437  -0.000000475045463  -0.000000996498253  -0.000000475040880
Si    0.67888   3.39437   3.39437  -0.000000996509516  -0.000000475043156  -0.000000475037834
Si    3.39437   3.39437   0.67888  -0.000000475050512  -0.000000475042734  -0.000000996497919
Si    4.75212   2.03662   2.03662   0.000000996499656   0.000000475038454   0.000000475033443
Si    4.75212   4.75212   4.75212   0.000000360698491   0.000000360693993   0.000000360682809
Si    2.03663   2.03662   4.75212   0.000000475031000   0.000000475043878   0.000000996495598
Si    2.03663   4.75212   2.03662   0.000000475030849   0.000000996497103   0.000000475030523
Si    0.67888   0.67888   6.10987  -0.000000360702419  -0.000000360689081  -0.000000360682200
Si    3.39437   0.67888   8.82537  -0.000000475049851  -0.000000996506315  -0.000000475026649
Si    0.67888   3.39437   8.82537  -0.000000996510603  -0.000000475042064  -0.000000475028329
Si    3.39437   3.39437   6.10987  -0.000000475043349  -0.000000475038196  -0.000000996502097
Si    4.75212   2.03662   7.46762   0.000000996503799   0.000000475043086   0.000000475032133
Si    4.75212   4.75212  10.18313   0.000000360693540   0.000000360697891   0.000000360683027
Si    2.03663   2.03662  10.18313   0.000000475027786   0.000000475036349   0.000000996506544
Si    2.03663   4.75212   7.46762   0.000000475032373   0.000000996503202   0.000000475034351
Si    0.67888   6.10987   0.67888  -0.000000360696942  -0.000000360690127  -0.000000360683483
Si    3.39437   6.10987   3.39437  -0.000000475040857  -0.000000996496504  -0.000000475035107
Si    0.67888   8.82537   3.39437  -0.000000996501111  -0.000000475036101  -0.000000475044213
Si    3.39437   8.82537   0.67888  -0.000000475051877  -0.000000475041266  -0.000000996505452
Si    4.75212   7.46762   2.03662   0.000000996497005   0.000000475039225   0.000000475031721
Si    4.75212  10.18313   4.75212   0.000000360693793   0.000000360690164   0.000000360678261
Si    2.03663   7.46762   4.75212   0.000000475040949   0.000000475040819   0.000000996499618
Si    2.03663  10.18313   2.03662   0.000000475029544   0.000000996497933   0.000000475024868
Si    0.67888   6.10987   6.10987  -0.000000360695472  -0.000000360695337  -0.000000360678049
Si    3.39437   6.10987   8.82537  -0.000000475042744  -0.000000996492718  -0.000000475032614
Si    0.67888   8.82537   8.82537  -0.000000996497915  -0.000000475037256  -0.000000475024201
Si    3.39437   8.82537   6.10987  -0.000000475045271  -0.000000475048183  -0.000000996497746
Si    4.75212   7.46762   7.46762   0.000000996495683   0.000000475037729   0.000000475037342
Si    4.75212  10.18313  10.18313   0.000000360686184   0.000000360687028   0.000000360684256
Si    2.03663   7.46762  10.18313   0.000000475036152   0.000000475049375   0.000000996502500
Si    2.03663  10.18313   7.46762   0.000000475032179   0.000000996495587   0.000000475044874
Si    6.10987   0.67888   0.67888  -0.000000360682585  -0.000000360692949  -0.000000360678738
Si    8.82537   0.67888   3.39437  -0.000000475032223  -0.000000996490339  -0.000000475040386
Si    6.10987   3.39437   3.39437  -0.000000996485148  -0.000000475037506  -0.000000475031872
Si    8.82537   3.39437   0.67888  -0.000000475034797  -0.000000475048614  -0.000000996498396
Si   10.18313   2.03662   2.03662   0.000000996494067   0.000000475039144   0.000000475031423
Si   10.18313   4.75212   4.75212   0.000000360684316   0.000000360684967   0.000000360679204
Si    7.46762   2.03662   4.75212   0.000000475052490   0.000000475050918   0.000000996497551
Si    7.46762   4.75212   2.03662   0.000000475048469   0.000000996493708   0.000000475039078
Si    6.10987   0.67888   6.10987  -0.000000360684065  -0.000000360687496  -0.000000360682793
Si    8.82537   0.67888   8.82537  -0.000000475030666  -0.000000996493869  -0.000000475027314
Si    6.10987   3.39437   8.82537  -0.000000996488078  -0.000000475036703  -0.000000475036516
Si    8.82537   3.39437   6.10987  -0.000000475041607  -0.000000475041668  -0.000000996504785
Si   10.18313   2.03662   7.46762   0.000000996495029   0.000000475040816   0.000000475037640
Si   10.18313   4.75212  10.18313   0.000000360692052   0.000000360688018   0.000000360683302
Si    7.46762   2.03662  10.18313   0.000000475057360   0.000000475042210   0.000000996504553
Si    7.46762   4.75212   7.46762   0.000000475046034   0.000000996495660   0.000000475030668
Si    6.10987   6.10987   0.67888  -0.000000360689571  -0.000000360691468  -0.000000360682575
Si    8.82537   6.10987   3.39437  -0.000000475039639  -0.000000996508709  -0.000000475034446
Si    6.10987   8.82537   3.39437  -0.000000996497585  -0.000000475041820  -0.000000475036196
Si    8.82537   8.82537   0.67888  -0.000000475033096  -0.000000475037749  -0.000000996502496
Si   10.18313   7.46762   2.03662   0.000000996501791   0.000000475041713   0.000000475026307
Si   10.18313  10.18313   4.75212   0.000000360691813   0.000000360699916   0.000000360677772
Si    7.46762   7.46762   4.75212   0.000000475044196   0.000000475034803   0.000000996501209
Si    7.46762  10.18313   2.03662   0.000000475048872   0.000000996505082   0.000000475028378
Si    6.10987   6.10987   6.10987  -0.000000360686459  -0.000000360696973  -0.000000360684583
Si    8.82537   6.10987   8.82537  -0.000000475034932  -0.000000996500864  -0.000000475033105
Si    6.10987   8.82537   8.82537  -0.000000996496726  -0.000000475042567  -0.000000475029919
Si    8.82537   8.82537   6.10987  -0.000000475040044  -0.000000475042287  -0.000000996497511
Si   10.18313   7.46762   7.46762   0.000000996498049   0.000000475036902   0.000000475039281
Si   10.18313  10.18313  10.18313   0.000000360696591   0.000000360696091   0.000000360688050
Si    7.46762   7.46762  10.18313   0.000000475047344   0.000000475042485   0.000000996500906
Si    7.46762  10.18313   7.46762   0.000000475047138   0.000000996499361   0.000000475036480
