CRYSTAL
PRIMVEC
  16.293000   0.000000   0.000000
   0.000000  16.293000   0.000000
   0.000000   0.000000  16.293000
PRIMCOORD
 216 1
Si     6.789E-01     6.789E-01     6.789E-01     6.599E-12     1.007E-10     2.806E-10
Si     3.394E+00     6.789E-01     3.394E+00     2.292E-11    -8.725E-11     3.061E-10
Si     6.789E-01     3.394E+00     3.394E+00    -5.434E-11    -3.861E-12     6.578E-11
Si     3.394E+00     3.394E+00     6.789E-01     1.711E-10     2.817E-11    -8.812E-11
Si     4.752E+00     2.037E+00     2.037E+00     3.511E-11    -8.275E-11     7.874E-11
Si     4.752E+00     4.752E+00     4.752E+00    -1.181E-10     8.981E-11    -2.905E-10
Si     2.037E+00     2.037E+00     4.752E+00    -1.581E-10     8.542E-11    -9.051E-11
Si     2.037E+00     4.752E+00     2.037E+00     4.629E-11     5.157E-12    -8.722E-11
Si     6.789E-01     6.789E-01     6.110E+00     5.938E-11     1.265E-10     2.123E-11
Si     3.394E+00     6.789E-01     8.825E+00    -5.824E-11     4.244E-11    -6.060E-11
Si     6.789E-01     3.394E+00     8.825E+00    -4.053E-11     5.514E-11    -1.207E-10
Si     3.394E+00     3.394E+00     6.110E+00     4.793E-11    -1.278E-10     9.924E-11
Si     4.752E+00     2.037E+00     7.468E+00     6.853E-11    -5.888E-11     4.293E-11
Si     4.752E+00     4.752E+00     1.018E+01    -9.919E-11    -7.388E-11    -4.485E-11
Si     2.037E+00     2.037E+00     1.018E+01     1.797E-10     5.045E-11    -1.018E-10
Si     2.037E+00     4.752E+00     7.468E+00    -1.211E-10     6.951E-11     7.613E-11
Si     6.789E-01     6.789E-01     1.154E+01    -3.533E-11     7.842E-11     8.667E-11
Si     3.394E+00     6.789E-01     1.426E+01     9.873E-11     9.255E-11    -3.414E-10
Si     6.789E-01     3.394E+00     1.426E+01    -6.913E-11    -4.671E-11    -4.522E-11
Si     3.394E+00     3.394E+00     1.154E+01    -1.194E-12    -6.648E-11    -1.653E-10
Si     4.752E+00     2.037E+00     1.290E+01    -4.770E-11     1.686E-10    -2.419E-12
Si     4.752E+00     4.752E+00     1.561E+01    -3.018E-11    -9.861E-12     2.234E-11
Si     2.037E+00     2.037E+00     1.561E+01    -1.557E-10    -4.228E-11     9.567E-11
Si     2.037E+00     4.752E+00     1.290E+01     3.772E-11     8.775E-11     2.305E-10
Si     6.789E-01     6.110E+00     6.789E-01    -5.012E-11     1.178E-11    -4.780E-11
Si     3.394E+00     6.110E+00     3.394E+00    -3.190E-11    -5.304E-11    -2.257E-10
Si     6.789E-01     8.825E+00     3.394E+00    -1.007E-10    -1.000E-10     1.135E-11
Si     3.394E+00     8.825E+00     6.789E-01    -1.106E-10    -2.228E-11     2.892E-10
Si     4.752E+00     7.468E+00     2.037E+00     1.942E-11     7.478E-11     8.983E-11
Si     4.752E+00     1.018E+01     4.752E+00    -1.825E-11     3.180E-11     1.550E-10
Si     2.037E+00     7.468E+00     4.752E+00     7.334E-11     3.372E-11    -3.726E-12
Si     2.037E+00     1.018E+01     2.037E+00    -1.616E-11     1.038E-10    -3.270E-11
Si     6.789E-01     6.110E+00     6.110E+00     3.843E-11    -5.923E-11    -1.547E-10
Si     3.394E+00     6.110E+00     8.825E+00     9.622E-11     4.859E-11    -9.756E-11
Si     6.789E-01     8.825E+00     8.825E+00    -3.166E-11    -8.037E-11     5.399E-12
Si     3.394E+00     8.825E+00     6.110E+00     2.053E-10     6.176E-11    -1.506E-10
Si     4.752E+00     7.468E+00     7.468E+00    -6.993E-11    -7.308E-11    -9.301E-11
Si     4.752E+00     1.018E+01     1.018E+01    -1.241E-10     5.786E-11    -1.911E-10
Si     2.037E+00     7.468E+00     1.018E+01     2.212E-12    -1.214E-10    -8.208E-12
Si     2.037E+00     1.018E+01     7.468E+00    -6.301E-11     1.615E-11     1.631E-10
Si     6.789E-01     6.110E+00     1.154E+01    -5.810E-11     6.927E-11    -8.002E-11
Si     3.394E+00     6.110E+00     1.426E+01    -2.515E-11    -1.538E-10    -8.355E-11
Si     6.789E-01     8.825E+00     1.426E+01    -1.656E-11    -6.242E-11     1.433E-10
Si     3.394E+00     8.825E+00     1.154E+01     3.222E-12     1.507E-10     1.368E-10
Si     4.752E+00     7.468E+00     1.290E+01    -1.842E-10    -5.822E-11    -3.702E-11
Si     4.752E+00     1.018E+01     1.561E+01     1.064E-10     6.344E-11     3.264E-11
Si     2.037E+00     7.468E+00     1.561E+01     1.595E-10    -4.608E-11     5.726E-11
Si     2.037E+00     1.018E+01     1.290E+01    -1.462E-11     1.947E-11    -5.239E-11
Si     6.789E-01     1.154E+01     6.789E-01     2.030E-11    -5.930E-11    -7.236E-11
Si     3.394E+00     1.154E+01     3.394E+00     3.904E-11     5.886E-11     6.768E-11
Si     6.789E-01     1.426E+01     3.394E+00    -1.082E-10    -1.005E-11     2.379E-11
Si     3.394E+00     1.426E+01     6.789E-01     8.537E-11    -1.208E-10    -3.645E-11
Si     4.752E+00     1.290E+01     2.037E+00     9.127E-11    -8.445E-11     2.603E-11
Si     4.752E+00     1.561E+01     4.752E+00     1.692E-10     3.782E-11    -2.037E-10
Si     2.037E+00     1.290E+01     4.752E+00     1.125E-10     6.887E-11    -9.675E-11
Si     2.037E+00     1.561E+01     2.037E+00     3.875E-11    -6.168E-11    -2.554E-11
Si     6.789E-01     1.154E+01     6.110E+00     2.565E-11    -4.261E-11     1.137E-10
Si     3.394E+00     1.154E+01     8.825E+00     1.648E-10    -9.394E-11     2.957E-11
Si     6.789E-01     1.426E+01     8.825E+00     1.464E-10    -8.360E-11     1.043E-10
Si     3.394E+00     1.426E+01     6.110E+00     6.045E-11     1.633E-11     2.560E-11
Si     4.752E+00     1.290E+01     7.468E+00    -1.062E-10     7.395E-11     9.891E-11
Si     4.752E+00     1.561E+01     1.018E+01     1.075E-10    -8.813E-11    -7.883E-11
Si     2.037E+00     1.290E+01     1.018E+01    -4.052E-11    -1.883E-11    -4.894E-11
Si     2.037E+00     1.561E+01     7.468E+00    -3.142E-11    -6.258E-11     2.577E-11
Si     6.789E-01     1.154E+01     1.154E+01     4.473E-11    -3.866E-11    -7.622E-11
Si     3.394E+00     1.154E+01     1.426E+01     6.464E-12     5.822E-11    -9.347E-11
Si     6.789E-01     1.426E+01     1.426E+01    -5.024E-11     1.739E-10    -1.666E-10
Si     3.394E+00     1.426E+01     1.154E+01    -3.936E-12     1.049E-10    -2.679E-10
Si     4.752E+00     1.290E+01     1.290E+01    -2.207E-11    -1.377E-11     1.042E-10
Si     4.752E+00     1.561E+01     1.561E+01    -6.160E-11     5.022E-13     1.217E-10
Si     2.037E+00     1.290E+01     1.561E+01    -7.804E-11     2.612E-11    -1.478E-10
Si     2.037E+00     1.561E+01     1.290E+01     2.882E-11    -1.664E-10     4.828E-10
Si     6.110E+00     6.789E-01     6.789E-01     1.445E-11     8.145E-12     1.798E-10
Si     8.825E+00     6.789E-01     3.394E+00     1.348E-11    -1.726E-10     1.448E-10
Si     6.110E+00     3.394E+00     3.394E+00    -1.093E-10     7.820E-11     2.760E-10
Si     8.825E+00     3.394E+00     6.789E-01    -1.646E-12     3.583E-11    -3.692E-11
Si     1.018E+01     2.037E+00     2.037E+00     9.775E-11    -2.046E-11    -1.329E-10
Si     1.018E+01     4.752E+00     4.752E+00     9.978E-12     4.890E-11    -2.644E-10
Si     7.468E+00     2.037E+00     4.752E+00     5.835E-11     7.417E-11    -1.865E-10
Si     7.468E+00     4.752E+00     2.037E+00     3.837E-11     3.171E-12    -1.454E-10
Si     6.110E+00     6.789E-01     6.110E+00    -2.067E-10    -3.731E-12     1.108E-10
Si     8.825E+00     6.789E-01     8.825E+00     4.102E-11     1.817E-10    -4.539E-11
Si     6.110E+00     3.394E+00     8.825E+00     2.115E-11     8.914E-11    -1.686E-10
Si     8.825E+00     3.394E+00     6.110E+00    -4.859E-11    -7.043E-11     3.424E-10
Si     1.018E+01     2.037E+00     7.468E+00     4.630E-11    -7.159E-11     1.507E-10
Si     1.018E+01     4.752E+00     1.018E+01    -1.477E-12     4.231E-11    -3.437E-10
Si     7.468E+00     2.037E+00     1.018E+01     2.294E-11    -1.016E-10     2.996E-10
Si     7.468E+00     4.752E+00     7.468E+00     1.240E-10    -9.319E-12     6.051E-11
Si     6.110E+00     6.789E-01     1.154E+01    -4.247E-11    -8.312E-11    -7.114E-11
Si     8.825E+00     6.789E-01     1.426E+01     9.860E-11    -1.468E-10     1.465E-10
Si     6.110E+00     3.394E+00     1.426E+01    -1.448E-10    -7.305E-11    -4.482E-11
Si     8.825E+00     3.394E+00     1.154E+01     3.714E-11    -3.480E-11     6.160E-11
Si     1.018E+01     2.037E+00     1.290E+01     3.997E-12     2.991E-11    -2.680E-11
Si     1.018E+01     4.752E+00     1.561E+01    -1.328E-11    -1.510E-10    -2.770E-10
Si     7.468E+00     2.037E+00     1.561E+01    -4.688E-11     5.334E-11    -1.717E-10
Si     7.468E+00     4.752E+00     1.290E+01     7.489E-11    -2.922E-11    -1.420E-10
Si     6.110E+00     6.110E+00     6.789E-01    -1.587E-11    -2.901E-11     1.852E-11
Si     8.825E+00     6.110E+00     3.394E+00    -1.269E-10     3.106E-11     8.339E-12
Si     6.110E+00     8.825E+00     3.394E+00     6.566E-12    -1.917E-10     3.597E-13
Si     8.825E+00     8.825E+00     6.789E-01     8.038E-11     1.772E-10     3.213E-11
Si     1.018E+01     7.468E+00     2.037E+00     4.304E-12    -7.069E-11    -2.578E-10
Si     1.018E+01     1.018E+01     4.752E+00     1.017E-10     1.212E-10     1.528E-11
Si     7.468E+00     7.468E+00     4.752E+00    -1.250E-10     1.024E-10    -6.335E-11
Si     7.468E+00     1.018E+01     2.037E+00    -7.304E-11    -7.794E-11    -3.314E-10
Si     6.110E+00     6.110E+00     6.110E+00     9.947E-11    -8.441E-11     3.212E-10
Si     8.825E+00     6.110E+00     8.825E+00     4.972E-11     4.048E-11     1.821E-10
Si     6.110E+00     8.825E+00     8.825E+00    -6.830E-11    -1.250E-10    -2.690E-11
Si     8.825E+00     8.825E+00     6.110E+00     1.974E-10     5.291E-11    -5.314E-11
Si     1.018E+01     7.468E+00     7.468E+00    -5.714E-11    -2.009E-10    -1.326E-11
Si     1.018E+01     1.018E+01     1.018E+01     7.036E-11    -6.138E-11    -1.767E-10
Si     7.468E+00     7.468E+00     1.018E+01    -3.336E-11     1.510E-11    -1.296E-11
Si     7.468E+00     1.018E+01     7.468E+00     8.736E-11     6.227E-13    -8.169E-12
Si     6.110E+00     6.110E+00     1.154E+01     5.899E-11     1.240E-11     3.985E-11
Si     8.825E+00     6.110E+00     1.426E+01     3.296E-11    -2.173E-11     7.516E-11
Si     6.110E+00     8.825E+00     1.426E+01     7.899E-11     7.126E-11     1.835E-10
Si     8.825E+00     8.825E+00     1.154E+01    -6.543E-11     8.243E-11     6.145E-11
Si     1.018E+01     7.468E+00     1.290E+01     1.045E-11    -3.343E-11     1.828E-10
Si     1.018E+01     1.018E+01     1.561E+01    -1.617E-11    -7.653E-11    -2.552E-10
Si     7.468E+00     7.468E+00     1.561E+01    -1.534E-10    -5.959E-11    -2.452E-10
Si     7.468E+00     1.018E+01     1.290E+01     7.957E-11     5.419E-13     2.560E-11
Si     6.110E+00     1.154E+01     6.789E-01    -6.939E-11    -6.319E-11     7.166E-11
Si     8.825E+00     1.154E+01     3.394E+00    -5.457E-11    -1.100E-10    -7.245E-11
Si     6.110E+00     1.426E+01     3.394E+00    -7.739E-11     8.910E-11    -2.513E-11
Si     8.825E+00     1.426E+01     6.789E-01     7.463E-11    -1.326E-10    -4.290E-10
Si     1.018E+01     1.290E+01     2.037E+00    -1.721E-12    -5.274E-11     3.877E-11
Si     1.018E+01     1.561E+01     4.752E+00     1.408E-11     2.288E-11    -7.753E-11
Si     7.468E+00     1.290E+01     4.752E+00    -3.576E-11    -8.092E-12     6.626E-12
Si     7.468E+00     1.561E+01     2.037E+00    -9.654E-11     1.009E-10     1.570E-10
Si     6.110E+00     1.154E+01     6.110E+00    -2.054E-11     1.159E-11    -8.339E-11
Si     8.825E+00     1.154E+01     8.825E+00    -9.484E-11     2.516E-11     8.665E-11
Si     6.110E+00     1.426E+01     8.825E+00     1.981E-11     1.920E-11    -5.000E-11
Si     8.825E+00     1.426E+01     6.110E+00     5.210E-11     5.065E-11    -7.441E-11
Si     1.018E+01     1.290E+01     7.468E+00     1.092E-10     5.024E-11     1.934E-10
Si     1.018E+01     1.561E+01     1.018E+01    -1.991E-10    -4.090E-11    -5.202E-11
Si     7.468E+00     1.290E+01     1.018E+01     6.039E-11    -3.138E-11    -1.088E-10
Si     7.468E+00     1.561E+01     7.468E+00    -1.288E-10    -8.712E-11    -1.477E-11
Si     6.110E+00     1.154E+01     1.154E+01    -5.256E-11    -2.636E-11    -1.056E-10
Si     8.825E+00     1.154E+01     1.426E+01     4.860E-13     2.144E-11    -1.563E-10
Si     6.110E+00     1.426E+01     1.426E+01     1.905E-11    -5.448E-11     1.487E-10
Si     8.825E+00     1.426E+01     1.154E+01    -7.679E-12    -3.802E-11     5.182E-11
Si     1.018E+01     1.290E+01     1.290E+01     1.028E-10     1.517E-12    -1.142E-11
Si     1.018E+01     1.561E+01     1.561E+01    -5.506E-11     1.971E-10     5.502E-11
Si     7.468E+00     1.290E+01     1.561E+01     4.404E-11     5.386E-11     1.160E-10
Si     7.468E+00     1.561E+01     1.290E+01    -2.233E-11     5.138E-12     1.875E-10
Si     1.154E+01     6.789E-01     6.789E-01     6.795E-11     8.890E-12    -5.716E-11
Si     1.426E+01     6.789E-01     3.394E+00     1.035E-10     8.379E-11     6.638E-11
Si     1.154E+01     3.394E+00     3.394E+00     7.562E-11    -9.582E-11     1.760E-10
Si     1.426E+01     3.394E+00     6.789E-01    -1.010E-10     4.635E-11     2.827E-10
Si     1.561E+01     2.037E+00     2.037E+00    -4.379E-11    -1.932E-10    -2.766E-10
Si     1.561E+01     4.752E+00     4.752E+00     5.018E-11    -1.067E-10    -5.641E-11
Si     1.290E+01     2.037E+00     4.752E+00     2.120E-11    -1.303E-10     1.371E-10
Si     1.290E+01     4.752E+00     2.037E+00     2.808E-11    -9.021E-11    -2.353E-10
Si     1.154E+01     6.789E-01     6.110E+00    -5.874E-11     8.403E-11    -1.152E-10
Si     1.426E+01     6.789E-01     8.825E+00     5.447E-12     2.962E-11    -4.452E-11
Si     1.154E+01     3.394E+00     8.825E+00     5.195E-12     2.493E-11    -1.728E-10
Si     1.426E+01     3.394E+00     6.110E+00     8.853E-11     1.672E-10     1.127E-10
Si     1.561E+01     2.037E+00     7.468E+00    -5.919E-11    -4.269E-11     7.151E-12
Si     1.561E+01     4.752E+00     1.018E+01    -9.314E-11    -1.062E-10    -3.104E-11
Si     1.290E+01     2.037E+00     1.018E+01    -1.827E-12    -8.279E-11     1.660E-10
Si     1.290E+01     4.752E+00     7.468E+00    -1.678E-11    -6.633E-11     8.646E-11
Si     1.154E+01     6.789E-01     1.154E+01    -1.586E-11     1.075E-12     1.702E-10
Si     1.426E+01     6.789E-01     1.426E+01    -4.944E-12     1.475E-10     1.160E-10
Si     1.154E+01     3.394E+00     1.426E+01     8.881E-11     1.348E-10    -3.001E-11
Si     1.426E+01     3.394E+00     1.154E+01    -5.260E-11     2.220E-10     1.545E-10
Si     1.561E+01     2.037E+00     1.290E+01     1.127E-10    -1.972E-10    -1.337E-10
Si     1.561E+01     4.752E+00     1.561E+01     3.692E-11    -9.529E-12     2.721E-11
Si     1.290E+01     2.037E+00     1.561E+01    -1.236E-10     1.564E-11    -1.466E-10
Si     1.290E+01     4.752E+00     1.290E+01     4.445E-12    -1.844E-10    -9.987E-11
Si     1.154E+01     6.110E+00     6.789E-01     7.160E-11     1.773E-10     3.254E-10
Si     1.426E+01     6.110E+00     3.394E+00    -1.551E-10     3.401E-11     1.467E-10
Si     1.154E+01     8.825E+00     3.394E+00    -6.637E-11    -2.761E-11    -8.115E-11
Si     1.426E+01     8.825E+00     6.789E-01    -1.040E-10    -5.379E-11    -2.218E-10
Si     1.561E+01     7.468E+00     2.037E+00     6.550E-11     4.124E-11    -1.187E-10
Si     1.561E+01     1.018E+01     4.752E+00     1.062E-10    -6.025E-11    -1.439E-11
Si     1.290E+01     7.468E+00     4.752E+00     3.377E-11     9.096E-11     3.029E-10
Si     1.290E+01     1.018E+01     2.037E+00     1.015E-10    -1.576E-10     2.472E-10
Si     1.154E+01     6.110E+00     6.110E+00    -4.171E-11    -3.879E-12    -2.594E-10
Si     1.426E+01     6.110E+00     8.825E+00     7.954E-11     4.668E-11    -1.280E-10
Si     1.154E+01     8.825E+00     8.825E+00    -3.831E-12     2.018E-10     2.832E-10
Si     1.426E+01     8.825E+00     6.110E+00    -3.278E-12     2.579E-12    -2.422E-10
Si     1.561E+01     7.468E+00     7.468E+00    -2.445E-11     4.649E-11     1.152E-10
Si     1.561E+01     1.018E+01     1.018E+01     2.670E-11     8.218E-11     3.924E-10
Si     1.290E+01     7.468E+00     1.018E+01     1.310E-10     2.870E-11     2.247E-10
Si     1.290E+01     1.018E+01     7.468E+00    -1.981E-11    -1.531E-10    -7.942E-11
Si     1.154E+01     6.110E+00     1.154E+01    -1.111E-10    -5.414E-11    -6.577E-12
Si     1.426E+01     6.110E+00     1.426E+01    -9.589E-11     3.969E-11    -3.778E-11
Si     1.154E+01     8.825E+00     1.426E+01    -1.751E-11     1.691E-10     1.158E-10
Si     1.426E+01     8.825E+00     1.154E+01    -3.745E-11    -9.456E-11    -2.968E-10
Si     1.561E+01     7.468E+00     1.290E+01     4.277E-11    -9.915E-11    -2.579E-10
Si     1.561E+01     1.018E+01     1.561E+01     9.091E-11    -3.680E-11    -1.188E-10
Si     1.290E+01     7.468E+00     1.561E+01     8.786E-11     7.397E-13    -1.572E-11
Si     1.290E+01     1.018E+01     1.290E+01     1.269E-11     9.354E-11     7.738E-11
Si     1.154E+01     1.154E+01     6.789E-01    -4.732E-12     2.665E-11     1.392E-10
Si     1.426E+01     1.154E+01     3.394E+00    -4.387E-11     1.153E-10     2.596E-11
Si     1.154E+01     1.426E+01     3.394E+00     1.573E-10    -1.132E-10     2.709E-11
Si     1.426E+01     1.426E+01     6.789E-01     1.647E-12     1.149E-10     9.356E-11
Si     1.561E+01     1.290E+01     2.037E+00    -2.228E-11    -8.680E-11    -8.829E-11
Si     1.561E+01     1.561E+01     4.752E+00    -3.834E-11    -1.095E-10    -1.055E-10
Si     1.290E+01     1.290E+01     4.752E+00     7.931E-11    -1.561E-10     1.284E-10
Si     1.290E+01     1.561E+01     2.037E+00    -1.543E-10     4.390E-11     3.156E-11
Si     1.154E+01     1.154E+01     6.110E+00    -7.147E-11     2.734E-11    -1.135E-11
Si     1.426E+01     1.154E+01     8.825E+00    -3.261E-11     1.099E-10     5.775E-11
Si     1.154E+01     1.426E+01     8.825E+00    -6.354E-11    -8.519E-11    -9.480E-11
Si     1.426E+01     1.426E+01     6.110E+00    -9.962E-11     1.202E-10     2.264E-10
Si     1.561E+01     1.290E+01     7.468E+00    -9.144E-11    -1.040E-10     2.157E-10
Si     1.561E+01     1.561E+01     1.018E+01    -8.068E-11    -2.458E-11    -1.032E-11
Si     1.290E+01     1.290E+01     1.018E+01     1.105E-10    -2.877E-11    -7.365E-11
Si     1.290E+01     1.561E+01     7.468E+00     1.274E-10    -4.143E-11    -1.712E-12
Si     1.154E+01     1.154E+01     1.154E+01    -1.177E-10    -6.686E-11    -4.547E-12
Si     1.426E+01     1.154E+01     1.426E+01     7.435E-11     1.756E-11     2.115E-10
Si     1.154E+01     1.426E+01     1.426E+01    -4.123E-11    -2.410E-11    -1.105E-10
Si     1.426E+01     1.426E+01     1.154E+01     1.264E-10     3.544E-11    -9.037E-11
Si     1.561E+01     1.290E+01     1.290E+01    -5.616E-11    -1.122E-11     8.687E-11
Si     1.561E+01     1.561E+01     1.561E+01     1.871E-11    -9.050E-11    -1.513E-10
Si     1.290E+01     1.290E+01     1.561E+01     3.932E-11    -7.284E-11    -5.595E-11
Si     1.290E+01     1.561E+01     1.290E+01    -1.227E-10    -1.022E-10     1.253E-10
