64 

Si    0.67888   0.67888   0.67888  -0.000000360699510  -0.000000360694674  -0.000000360685263
Si    3.39437   0.67888   3.39437  -0.000000475045199  -0.000000996498428  -0.000000475041082
Si    0.67888   3.39437   3.39437  -0.000000996509518  -0.000000475043266  -0.000000475038016
Si    3.39437   3.39437   0.67888  -0.000000475050226  -0.000000475042668  -0.000000996498234
Si    4.75212   2.03662   2.03662   0.000000996499968   0.000000475038419   0.000000475033197
Si    4.75212   4.75212   4.75212   0.000000360698669   0.000000360694151   0.000000360682995
Si    2.03663   2.03662   4.75212   0.000000475031241   0.000000475043817   0.000000996495675
Si    2.03663   4.75212   2.03662   0.000000475031199   0.000000996497279   0.000000475030192
Si    0.67888   0.67888   6.10987  -0.000000360702589  -0.000000360689379  -0.000000360681655
Si    3.39437   0.67888   8.82537  -0.000000475049557  -0.000000996506611  -0.000000475026659
Si    0.67888   3.39437   8.82537  -0.000000996510673  -0.000000475042016  -0.000000475028305
Si    3.39437   3.39437   6.10987  -0.000000475043054  -0.000000475038140  -0.000000996501563
Si    4.75212   2.03662   7.46762   0.000000996504126   0.000000475043040   0.000000475032627
Si    4.75212   4.75212  10.18313   0.000000360693855   0.000000360698236   0.000000360682648
Si    2.03663   2.03662  10.18313   0.000000475028010   0.000000475036306   0.000000996506205
Si    2.03663   4.75212   7.46762   0.000000475032662   0.000000996503519   0.000000475034877
Si    0.67888   6.10987   0.67888  -0.000000360696989  -0.000000360689607  -0.000000360683990
Si    3.39437   6.10987   3.39437  -0.000000475040584  -0.000000996496124  -0.000000475035337
Si    0.67888   8.82537   3.39437  -0.000000996501195  -0.000000475036185  -0.000000475044466
Si    3.39437   8.82537   0.67888  -0.000000475051543  -0.000000475041560  -0.000000996505906
Si    4.75212   7.46762   2.03662   0.000000996497296   0.000000475039503   0.000000475031258
Si    4.75212  10.18313   4.75212   0.000000360694117   0.000000360689793   0.000000360678411
Si    2.03663   7.46762   4.75212   0.000000475041230   0.000000475041095   0.000000996499878
Si    2.03663  10.18313   2.03662   0.000000475029704   0.000000996497538   0.000000475024574
Si    0.67888   6.10987   6.10987  -0.000000360695415  -0.000000360694858  -0.000000360677361
Si    3.39437   6.10987   8.82537  -0.000000475042427  -0.000000996492189  -0.000000475032598
Si    0.67888   8.82537   8.82537  -0.000000996498079  -0.000000475037533  -0.000000475024218
Si    3.39437   8.82537   6.10987  -0.000000475045055  -0.000000475048436  -0.000000996497078
Si    4.75212   7.46762   7.46762   0.000000996495961   0.000000475037954   0.000000475037982
Si    4.75212  10.18313  10.18313   0.000000360686580   0.000000360686477   0.000000360683884
Si    2.03663   7.46762  10.18313   0.000000475036408   0.000000475049622   0.000000996502072
Si    2.03663  10.18313   7.46762   0.000000475032374   0.000000996495061   0.000000475045392
Si    6.10987   0.67888   0.67888  -0.000000360682178  -0.000000360693259  -0.000000360679112
Si    8.82537   0.67888   3.39437  -0.000000475032683  -0.000000996490594  -0.000000475040628
Si    6.10987   3.39437   3.39437  -0.000000996484932  -0.000000475037609  -0.000000475032142
Si    8.82537   3.39437   0.67888  -0.000000475035348  -0.000000475048688  -0.000000996498791
Si   10.18313   2.03662   2.03662   0.000000996493549   0.000000475038944   0.000000475031124
Si   10.18313   4.75212   4.75212   0.000000360683897   0.000000360685083   0.000000360679384
Si    7.46762   2.03662   4.75212   0.000000475052457   0.000000475050739   0.000000996497700
Si    7.46762   4.75212   2.03662   0.000000475048386   0.000000996493870   0.000000475038661
Si    6.10987   0.67888   6.10987  -0.000000360683729  -0.000000360687743  -0.000000360682233
Si    8.82537   0.67888   8.82537  -0.000000475031172  -0.000000996494265  -0.000000475027297
Si    6.10987   3.39437   8.82537  -0.000000996487785  -0.000000475036626  -0.000000475036510
Si    8.82537   3.39437   6.10987  -0.000000475042060  -0.000000475041811  -0.000000996504179
Si   10.18313   2.03662   7.46762   0.000000996494474   0.000000475040649   0.000000475038113
Si   10.18313   4.75212  10.18313   0.000000360691564   0.000000360688318   0.000000360682902
Si    7.46762   2.03662  10.18313   0.000000475057363   0.000000475042061   0.000000996504233
Si    7.46762   4.75212   7.46762   0.000000475045895   0.000000996495917   0.000000475031318
Si    6.10987   6.10987   0.67888  -0.000000360689350  -0.000000360690970  -0.000000360683087
Si    8.82537   6.10987   3.39437  -0.000000475040137  -0.000000996508223  -0.000000475034737
Si    6.10987   8.82537   3.39437  -0.000000996497270  -0.000000475041948  -0.000000475036457
Si    8.82537   8.82537   0.67888  -0.000000475033586  -0.000000475037878  -0.000000996503013
Si   10.18313   7.46762   2.03662   0.000000996501285   0.000000475042093   0.000000475025857
Si   10.18313  10.18313   4.75212   0.000000360691315   0.000000360699593   0.000000360677962
Si    7.46762   7.46762   4.75212   0.000000475044126   0.000000475035188   0.000000996501407
Si    7.46762  10.18313   2.03662   0.000000475048867   0.000000996504708   0.000000475027970
Si    6.10987   6.10987   6.10987  -0.000000360686268  -0.000000360696495  -0.000000360683836
Si    8.82537   6.10987   8.82537  -0.000000475035451  -0.000000996500267  -0.000000475033023
Si    6.10987   8.82537   8.82537  -0.000000996496367  -0.000000475042840  -0.000000475029821
Si    8.82537   8.82537   6.10987  -0.000000475040532  -0.000000475042372  -0.000000996496769
Si   10.18313   7.46762   7.46762   0.000000996497563   0.000000475037311   0.000000475039975
Si   10.18313  10.18313  10.18313   0.000000360695950   0.000000360695579   0.000000360687670
Si    7.46762   7.46762  10.18313   0.000000475047301   0.000000475042853   0.000000996500444
Si    7.46762  10.18313   7.46762   0.000000475047210   0.000000996498889   0.000000475037089
