216 

Si    0.72888   0.67888   0.67888   0.013554452280103   0.000001990648755   0.000001990768034
Si    3.39437   0.67888   3.39437  -0.000199990072474   0.000120264753685  -0.000193514414676
Si    0.67888   3.39437   3.39437   0.000422774778700  -0.000114170466777  -0.000114504532904
Si    3.39437   3.39437   0.67888  -0.000200042613143  -0.000193659288824   0.000120664623853
Si    4.75213   2.03662   2.03662   0.000010573415564   0.000025269049256   0.000025400469752
Si    4.75213   4.75213   4.75213   0.000016293683627   0.000007131085909   0.000007121692390
Si    2.03662   2.03662   4.75213   0.000033542263528  -0.000036257060296   0.000033866721329
Si    2.03662   4.75213   2.03662   0.000033457049951   0.000033946110750  -0.000036346238824
Si    0.67888   0.67888   6.10987  -0.000019085112418   0.000002861016455   0.000000653026540
Si    3.39437   0.67888   8.82538  -0.000020012149764   0.000008154452103   0.000008156471115
Si    0.67888   3.39437   8.82538  -0.000003688257472  -0.000008033160961   0.000011483762622
Si    3.39437   3.39437   6.10987  -0.000019401069205   0.000022372308634  -0.000003060494322
Si    4.75213   2.03662   7.46762   0.000001034444313  -0.000009021102423  -0.000000596538853
Si    4.75213   4.75213  10.18313   0.000002565744045  -0.000017228307315  -0.000003758681782
Si    2.03662   2.03662  10.18313   0.000015281529158   0.000001235476163   0.000002273367401
Si    2.03662   4.75213   7.46762   0.000012656309799  -0.000007457297341   0.000008757448238
Si    0.67888   0.67888  11.54087  -0.000013795352350   0.000008181442208  -0.000007934167762
Si    3.39437   0.67888  14.25638  -0.000194039321713  -0.000108274608601   0.000183818810592
Si    0.67888   3.39437  14.25638   0.000422019469540   0.000108390726429  -0.000112502182188
Si    3.39437   3.39437  11.54087  -0.000024786484820   0.000017866103838   0.000003898444591
Si    4.75213   2.03662  12.89863  -0.000016027712060   0.000051354635370   0.000024940545574
Si    4.75213   4.75213  15.61412  -0.000009865943468  -0.000013068166337  -0.000061114634751
Si    2.03662   2.03662  15.61412  -0.003371499479488  -0.002473717096487   0.002466598705763
Si    2.03662   4.75213  12.89863  -0.000177685184704   0.000054526654600  -0.000048805081395
Si    0.67888   6.10987   0.67888  -0.000018924365302   0.000000662470324   0.000002868392025
Si    3.39437   6.10987   3.39437  -0.000019465271402  -0.000003059856525   0.000022347607691
Si    0.67888   8.82538   3.39437  -0.000003744047078   0.000011457021668  -0.000008032065724
Si    3.39437   8.82538   0.67888  -0.000019972899110   0.000008152960686   0.000008157702629
Si    4.75213   7.46762   2.03662   0.000001048573574  -0.000000599626381  -0.000009040474759
Si    4.75213  10.18313   4.75213   0.000002690058603  -0.000003774797401  -0.000017207934459
Si    2.03662   7.46762   4.75213   0.000012644287792   0.000008752730600  -0.000007407520602
Si    2.03662  10.18313   2.03662   0.000015290869941   0.000002252528248   0.000001448275750
Si    0.67888   6.10987   6.10987   0.000108631660103  -0.000020937801583  -0.000020956316116
Si    3.39437   6.10987   8.82538  -0.000007164047183   0.000014916622693   0.000006023776857
Si    0.67888   8.82538   8.82538   0.000118913915509   0.000008999702280   0.000008981288448
Si    3.39437   8.82538   6.10987  -0.000007156040415   0.000006014456482   0.000014921539599
Si    4.75213   7.46762   7.46762   0.000009618944979  -0.000012782483164  -0.000012791404987
Si    4.75213  10.18313  10.18313   0.000008580629747   0.000004629411358   0.000004634850661
Si    2.03662   7.46762  10.18313  -0.000063035321311  -0.000005493963402  -0.000001644698529
Si    2.03662  10.18313   7.46762  -0.000063035427485  -0.000001624169865  -0.000005480096142
Si    0.67888   6.10987  11.54087   0.000106103016860   0.000019950383262  -0.000023732752345
Si    3.39437   6.10987  14.25638  -0.000023729866178  -0.000012047543318  -0.000025910641066
Si    0.67888   8.82538  14.25638  -0.000009029083070  -0.000000436036884   0.000000750355753
Si    3.39437   8.82538  11.54087  -0.000013287576635   0.000005852089187  -0.000024778481768
Si    4.75213   7.46762  12.89863   0.000008801779739  -0.000006105445905   0.000029071000576
Si    4.75213  10.18313  15.61412   0.000001066963373  -0.000001387703355   0.000007033754717
Si    2.03662   7.46762  15.61412   0.000014411970072  -0.000005137381764  -0.000004327569349
Si    2.03662  10.18313  12.89863   0.000011764074677  -0.000011636372409   0.000017410561196
Si    0.67888  11.54087   0.67888  -0.000013664202240  -0.000007934912949   0.000008173153301
Si    3.39437  11.54087   3.39437  -0.000024777006599   0.000003897532931   0.000017747390679
Si    0.67888  14.25638   3.39437   0.000422041056422  -0.000112160512891   0.000108725138512
Si    3.39437  14.25638   0.67888  -0.000194100265067   0.000183941119747  -0.000108679213251
Si    4.75213  12.89863   2.03662  -0.000016001898398   0.000024932946697   0.000051242602060
Si    4.75213  15.61412   4.75213  -0.000009910695446  -0.000061250068026  -0.000013080621602
Si    2.03662  12.89863   4.75213  -0.000177685290658  -0.000048767289630   0.000054554167287
Si    2.03662  15.61412   2.03662  -0.003371497005454   0.002466482621304  -0.002473841165025
Si    0.67888  11.54087   6.10987   0.000106084641551  -0.000023696572315   0.000019978342592
Si    3.39437  11.54087   8.82538  -0.000013277765602  -0.000024797037165   0.000005837783970
Si    0.67888  14.25638   8.82538  -0.000008955673222   0.000000759716806  -0.000000445836878
Si    3.39437  14.25638   6.10987  -0.000023736120369  -0.000026028942410  -0.000012051824546
Si    4.75213  12.89863   7.46762   0.000008695753070   0.000029096006574  -0.000006098138028
Si    4.75213  15.61412  10.18313   0.000001017782712   0.000007032563705  -0.000001409257804
Si    2.03662  12.89863  10.18313   0.000011776139213   0.000017458023827  -0.000011636682821
Si    2.03662  15.61412   7.46762   0.000014402296573  -0.000004119875663  -0.000005153862392
Si    0.67888  11.54087  11.54087   0.000110515023168   0.000011941472167   0.000011978383029
Si    3.39437  11.54087  14.25638  -0.000019437258167   0.000001068641406  -0.000024352268012
Si    0.67888  14.25638  14.25638   0.000420831246636   0.000105077429113   0.000105428384962
Si    3.39437  14.25638  11.54087  -0.000019409658774  -0.000024356280861   0.000001050646940
Si    4.75213  12.89863  12.89863   0.000016294739805   0.000009175077201   0.000009191006932
Si    4.75213  15.61412  15.61412   0.000011539825534  -0.000033386600928  -0.000033521761476
Si    2.03662  12.89863  15.61412   0.000034355800866  -0.000023932330195   0.000033472292160
Si    2.03662  15.61412  12.89863   0.000034438923987   0.000033378781734  -0.000023849174401
Si    6.10987   0.67888   0.67888  -0.000005158911115   0.000002872321818   0.000002868708465
Si    8.82538   0.67888   3.39437   0.000005832453473   0.000004819362767  -0.000008021889121
Si    6.10987   3.39437   3.39437   0.000002262172008  -0.000015119009989  -0.000015112982830
Si    8.82538   3.39437   0.67888   0.000005857009832  -0.000008017940711   0.000004833598059
Si   10.18313   2.03662   2.03662   0.000000019651618   0.000002239741373   0.000002253423090
Si   10.18313   4.75213   4.75213  -0.000001024336212   0.000000059053283   0.000000045055713
Si    7.46762   2.03662   4.75213   0.000000523131081   0.000012655381358   0.000004996522535
Si    7.46762   4.75213   2.03662   0.000000534066703   0.000004986268497   0.000012657651808
Si    6.10987   0.67888   6.10987  -0.000000627714784   0.000028679784100  -0.000012289390131
Si    8.82538   0.67888   8.82538   0.000010652300362   0.000009002687464   0.000008981075305
Si    6.10987   3.39437   8.82538   0.000000207282349   0.000012736766101   0.000001214374772
Si    8.82538   3.39437   6.10987   0.000004795227267  -0.000006103991781   0.000000743370175
Si   10.18313   2.03662   7.46762  -0.000004936065333  -0.000001186385232  -0.000007873289831
Si   10.18313   4.75213  10.18313   0.000002552746927   0.000011796073619  -0.000005326757068
Si    7.46762   2.03662  10.18313  -0.000012411775551   0.000002251230819  -0.000000343552801
Si    7.46762   4.75213   7.46762  -0.000005574664957   0.000003643783605  -0.000013450906976
Si    6.10987   0.67888  11.54087  -0.000001506833154  -0.000018674776849   0.000009407684840
Si    8.82538   0.67888  14.25638   0.000000544983421   0.000006201720857   0.000000738997643
Si    6.10987   3.39437  14.25638   0.000001632276340  -0.000011263988869   0.000004141737949
Si    8.82538   3.39437  11.54087   0.000011108705417  -0.000005886188408  -0.000007353106326
Si   10.18313   2.03662  12.89863   0.000003291910244  -0.000011538444806   0.000009485393678
Si   10.18313   4.75213  15.61412   0.000004164495823   0.000000518037762   0.000008664707569
Si    7.46762   2.03662  15.61412  -0.000002636465387  -0.000003256160536  -0.000000492623459
Si    7.46762   4.75213  12.89863  -0.000009076931503   0.000011936152788   0.000006035537440
Si    6.10987   6.10987   0.67888  -0.000000744657652  -0.000012300330472   0.000028679584438
Si    8.82538   6.10987   3.39437   0.000004813868896   0.000000745565579  -0.000006109981623
Si    6.10987   8.82538   3.39437   0.000000198130797   0.000001217974708   0.000012732365627
Si    8.82538   8.82538   0.67888   0.000010607145266   0.000008999501203   0.000008984187064
Si   10.18313   7.46762   2.03662  -0.000004929796199  -0.000007884342729  -0.000001191243241
Si   10.18313  10.18313   4.75213   0.000002559543384  -0.000005328820132   0.000011808039718
Si    7.46762   7.46762   4.75213  -0.000005567309101  -0.000013448581682   0.000003642280700
Si    7.46762  10.18313   2.03662  -0.000012402151872  -0.000000360760693   0.000002257546541
Si    6.10987   6.10987   6.10987  -0.000002075830666   0.000003403407405   0.000003406634998
Si    8.82538   6.10987   8.82538   0.000001051433691   0.000000856618158   0.000002880530786
Si    6.10987   8.82538   8.82538  -0.000000936063114   0.000002884052897   0.000002879606510
Si    8.82538   8.82538   6.10987   0.000001031576461   0.000002857638168   0.000000851411927
Si   10.18313   7.46762   7.46762  -0.000000947557352  -0.000002693040209  -0.000002704397907
Si   10.18313  10.18313  10.18313  -0.000000067758947  -0.000000191027843  -0.000000175304673
Si    7.46762   7.46762  10.18313  -0.000002917299201  -0.000003045154510  -0.000000712029331
Si    7.46762  10.18313   7.46762  -0.000002935154718  -0.000000701096142  -0.000003042564349
Si    6.10987   6.10987  11.54087  -0.000001922749768   0.000003523291150  -0.000010631184598
Si    8.82538   6.10987  14.25638   0.000009221800462  -0.000001636341240  -0.000003106315376
Si    6.10987   8.82538  14.25638   0.000001078454883   0.000008783165964  -0.000015613726373
Si    8.82538   8.82538  11.54087   0.000006318695021   0.000008163113211  -0.000008134282217
Si   10.18313   7.46762  12.89863   0.000003438805749   0.000002444575673  -0.000001805989269
Si   10.18313  10.18313  15.61412  -0.000004929573865   0.000000768923299  -0.000005935620464
Si    7.46762   7.46762  15.61412  -0.000014290319278  -0.000008640420296  -0.000011242388558
Si    7.46762  10.18313  12.89863  -0.000000297714091   0.000006173309136   0.000007396489335
Si    6.10987  11.54087   0.67888  -0.000001623575593   0.000009414332430  -0.000018673076621
Si    8.82538  11.54087   3.39437   0.000011107964195  -0.000007364137332  -0.000005874775511
Si    6.10987  14.25638   3.39437   0.000001632459037   0.000004148867689  -0.000011263507223
Si    8.82538  14.25638   0.67888   0.000000587372632   0.000000743633328   0.000006204508434
Si   10.18313  12.89863   2.03662   0.000003285758102   0.000009483024796  -0.000011547264755
Si   10.18313  15.61412   4.75213   0.000004170841830   0.000008651432200   0.000000517963859
Si    7.46762  12.89863   4.75213  -0.000009077020336   0.000006062167025   0.000011925927799
Si    7.46762  15.61412   2.03662  -0.000002618425239  -0.000000492907755  -0.000003264741963
Si    6.10987  11.54087   6.10987  -0.000001922645205  -0.000010638711744   0.000003509122179
Si    8.82538  11.54087   8.82538   0.000006320628721  -0.000008130914200   0.000008157172362
Si    6.10987  14.25638   8.82538   0.000001087582674  -0.000015622454641   0.000008789108307
Si    8.82538  14.25638   6.10987   0.000009222520702  -0.000003113302312  -0.000001628939656
Si   10.18313  12.89863   7.46762   0.000003432009812  -0.000001796359974   0.000002446984896
Si   10.18313  15.61412  10.18313  -0.000004935704147  -0.000005933563576   0.000000751137448
Si    7.46762  12.89863  10.18313  -0.000000287074120   0.000007378015424   0.000006167033641
Si    7.46762  15.61412   7.46762  -0.000014299988493  -0.000011254368593  -0.000008639211115
Si    6.10987  11.54087  11.54087  -0.000001196341204  -0.000006287884987  -0.000006286662638
Si    8.82538  11.54087  14.25638   0.000004794328678  -0.000004491332955   0.000002352856053
Si    6.10987  14.25638  14.25638   0.000001391245941   0.000012228475105   0.000012226878422
Si    8.82538  14.25638  11.54087   0.000004811508253   0.000002355206977  -0.000004497521711
Si   10.18313  12.89863  12.89863  -0.000001021508023   0.000005714736267   0.000005719892502
Si   10.18313  15.61412  15.61412  -0.000000859140605  -0.000005123823176  -0.000005132936008
Si    7.46762  12.89863  15.61412  -0.000004752696954   0.000006034285875  -0.000019940654552
Si    7.46762  15.61412  12.89863  -0.000004745865240  -0.000019929862267   0.000006040968814
Si   11.54087   0.67888   0.67888  -0.000013899586686   0.000008144060833   0.000008147520865
Si   14.25638   0.67888   3.39437  -0.000183757489818   0.000108388826737   0.000174871159343
Si   11.54087   3.39437   3.39437  -0.000007172418289  -0.000003904783472  -0.000003914443056
Si   14.25638   3.39437   0.67888  -0.000183804103968   0.000174969723598   0.000108790105574
Si   15.61412   2.03662   2.03662  -0.003224256436425   0.002172625294487   0.002172765728189
Si   15.61412   4.75213   4.75213  -0.000181686136253  -0.000042204523452  -0.000042263609628
Si   12.89863   2.03662   4.75213  -0.000013466912149  -0.000051769071663   0.000022759899421
Si   12.89863   4.75213   2.03662  -0.000013429006628   0.000022746565860  -0.000051651256498
Si   11.54087   0.67888   6.10987  -0.000002778623391   0.000023141151052   0.000010923645762
Si   14.25638   0.67888   8.82538  -0.000011239972569   0.000002885477700   0.000002879380553
Si   11.54087   3.39437   8.82538  -0.000008044352393  -0.000024953625338   0.000007405290880
Si   14.25638   3.39437   6.10987  -0.000016564435831  -0.000032762749266   0.000012368052044
Si   15.61412   2.03662   7.46762   0.000012501750013  -0.000002320263287  -0.000000523267652
Si   15.61412   4.75213  10.18313   0.000008549610431   0.000013130472193   0.000012535109624
Si   12.89863   2.03662  10.18313   0.000005492631644   0.000010582020937   0.000002198501257
Si   12.89863   4.75213   7.46762   0.000008743358403   0.000029202033980  -0.000011881512143
Si   11.54087   0.67888  11.54087  -0.000008909465960  -0.000011269597756  -0.000020775716653
Si   14.25638   0.67888  14.25638  -0.000182933013855  -0.000098281712527  -0.000177788396327
Si   11.54087   3.39437  14.25638  -0.000001405130691   0.000009310833733  -0.000011301024474
Si   14.25638   3.39437  11.54087  -0.000015776669122  -0.000029183036371  -0.000007307927627
Si   15.61412   2.03662  12.89863   0.000028279191485   0.000039291151306   0.000027480890174
Si   15.61412   4.75213  15.61412   0.000022872473407  -0.000016587770213  -0.000046631018690
Si   12.89863   2.03662  15.61412   0.000007077443494  -0.000025095656855   0.000023270901227
Si   12.89863   4.75213  12.89863   0.000016292986497   0.000009337096586   0.000006967697233
Si   11.54087   6.10987   0.67888  -0.000002904430240   0.000010930413807   0.000023148073464
Si   14.25638   6.10987   3.39437  -0.000016554164095   0.000012362322733  -0.000032667241031
Si   11.54087   8.82538   3.39437  -0.000008054236431   0.000007423172469  -0.000024929177182
Si   14.25638   8.82538   0.67888  -0.000011204156676   0.000002883824078   0.000002881078374
Si   15.61412   7.46762   2.03662   0.000012544590363  -0.000000532257216  -0.000002546494427
Si   15.61412  10.18313   4.75213   0.000008518226961   0.000012539399109   0.000013096206367
Si   12.89863   7.46762   4.75213   0.000008846829303  -0.000011912109412   0.000029178753421
Si   12.89863  10.18313   2.03662   0.000005522830911   0.000002180927977   0.000010591400446
Si   11.54087   6.10987   6.10987  -0.000009112357336  -0.000003444983922  -0.000003430329888
Si   14.25638   6.10987   8.82538  -0.000004090619524  -0.000015753569633   0.000010297190810
Si   11.54087   8.82538   8.82538  -0.000009906087046   0.000008153520230   0.000008157020515
Si   14.25638   8.82538   6.10987  -0.000004098646580   0.000010294916507  -0.000015754782770
Si   15.61412   7.46762   7.46762  -0.000071653775537  -0.000010789330576  -0.000010792600368
Si   15.61412  10.18313  10.18313  -0.000069762758476   0.000001786385635   0.000001808026827
Si   12.89863   7.46762  10.18313   0.000004184930481   0.000001695942184  -0.000003694818054
Si   12.89863  10.18313   7.46762   0.000004202830537  -0.000003684181520   0.000001688003322
Si   11.54087   6.10987  11.54087  -0.000004807716450  -0.000002648295783   0.000000649964522
Si   14.25638   6.10987  14.25638  -0.000016700947966   0.000004431572399   0.000026304258390
Si   11.54087   8.82538  14.25638  -0.000001920869328   0.000004442976801   0.000015071943990
Si   14.25638   8.82538  11.54087  -0.000004978433932  -0.000000294060589   0.000012872802493
Si   15.61412   7.46762  12.89863   0.000003248548958  -0.000019813268592  -0.000002058475554
Si   15.61412  10.18313  15.61412   0.000012527910034  -0.000003216719170  -0.000001213306673
Si   12.89863   7.46762  15.61412   0.000006558661994  -0.000010332513679  -0.000018749893752
Si   12.89863  10.18313  12.89863   0.000002739187038   0.000002036317848  -0.000017315596189
Si   11.54087  11.54087   0.67888  -0.000009017180701  -0.000020806020725  -0.000011281460760
Si   14.25638  11.54087   3.39437  -0.000015819734681  -0.000007317145555  -0.000029177894374
Si   11.54087  14.25638   3.39437  -0.000001423094878  -0.000011295745487   0.000009297518212
Si   14.25638  14.25638   0.67888  -0.000182972041313  -0.000177892241881  -0.000098680703279
Si   15.61412  12.89863   2.03662   0.000028150664723   0.000027556137432   0.000039376850045
Si   15.61412  15.61412   4.75213   0.000023018208831  -0.000046542664205  -0.000016495898476
Si   12.89863  12.89863   4.75213   0.000016292584137   0.000006968861430   0.000009345570295
Si   12.89863  15.61412   2.03662   0.000007060260660   0.000023162729233  -0.000025222843538
Si   11.54087  11.54087   6.10987  -0.000004789794270   0.000000660604189  -0.000002656181176
Si   14.25638  11.54087   8.82538  -0.000004970305112   0.000012867158538  -0.000000293996116
Si   11.54087  14.25638   8.82538  -0.000001928911799   0.000015072975777   0.000004455884538
Si   14.25638  14.25638   6.10987  -0.000016659750459   0.000026304189207   0.000004427055423
Si   15.61412  12.89863   7.46762   0.000003262134383  -0.000002109481661  -0.000019817515440
Si   15.61412  15.61412  10.18313   0.000012522279322  -0.000001431027013  -0.000003234071086
Si   12.89863  12.89863  10.18313   0.000002618424870  -0.000017333306855   0.000002029381142
Si   12.89863  15.61412   7.46762   0.000006527984516  -0.000018737085000  -0.000010353698120
Si   11.54087  11.54087  11.54087  -0.000010149164038  -0.000004709647645  -0.000004727837885
Si   14.25638  11.54087  14.25638  -0.000016561721865  -0.000019475805633   0.000025546604422
Si   11.54087  14.25638  14.25638  -0.000006141278258  -0.000004256687886  -0.000004250375879
Si   14.25638  14.25638  11.54087  -0.000016569770682   0.000025650550819  -0.000019488563899
Si   15.61412  12.89863  12.89863  -0.000181690416831   0.000060224262540   0.000060247034102
Si   15.61412  15.61412  15.61412  -0.003226191362400  -0.002181521593172  -0.002181649264089
Si   12.89863  12.89863  15.61412  -0.000007268633103  -0.000010866034273   0.000041758416078
Si   12.89863  15.61412  12.89863  -0.000007324460909   0.000041852289326  -0.000010884052746
