216 

Si    0.72888   0.67888   0.67888   0.013631496581466   0.000002001528557   0.000002001653605
Si    3.39437   0.67888   3.39437  -0.000195061750512   0.000124669166467  -0.000201389182683
Si    0.67888   3.39437   3.39437   0.000433612181621  -0.000118058782694  -0.000118388094042
Si    3.39437   3.39437   0.67888  -0.000195097783950  -0.000201501852016   0.000125079807553
Si    4.75213   2.03662   2.03662   0.000008523639277   0.000027577360001   0.000027698264942
Si    4.75213   4.75213   4.75213   0.000015186624553   0.000008178987792   0.000008176194081
Si    2.03662   2.03662   4.75213   0.000034200732742  -0.000037171946540   0.000036344798252
Si    2.03662   4.75213   2.03662   0.000034099864960   0.000036432982626  -0.000037251092322
Si    0.67888   0.67888   6.10987  -0.000020661562816   0.000002850195549   0.000000635190113
Si    3.39437   0.67888   8.82538  -0.000019862299300   0.000008157660065   0.000008160505884
Si    0.67888   3.39437   8.82538  -0.000005500558116  -0.000008086496157   0.000010822725911
Si    3.39437   3.39437   6.10987  -0.000016807705479   0.000020978946942  -0.000003356784883
Si    4.75213   2.03662   7.46762  -0.000000011636317  -0.000007644115347  -0.000000929627436
Si    4.75213   4.75213  10.18313   0.000003069025190  -0.000019402541225  -0.000004682734051
Si    2.03662   2.03662  10.18313   0.000016297223596   0.000000112371837   0.000002760287741
Si    2.03662   4.75213   7.46762   0.000010338790776  -0.000005955341029   0.000007312723557
Si    0.67888   0.67888  11.54087  -0.000015374151229   0.000008201924734  -0.000007925175615
Si    3.39437   0.67888  14.25638  -0.000189138056408  -0.000112695188793   0.000191720153031
Si    0.67888   3.39437  14.25638   0.000432167017021   0.000113040007426  -0.000117146947035
Si    3.39437   3.39437  11.54087  -0.000022190460925   0.000016430305596   0.000003317776854
Si    4.75213   2.03662  12.89863  -0.000016981531132   0.000054661039081   0.000024694321953
Si    4.75213   4.75213  15.61412  -0.000010850804713  -0.000012849001930  -0.000064389270999
Si    2.03662   2.03662  15.61412  -0.003409349411227  -0.002468382054106   0.002461240142411
Si    2.03662   4.75213  12.89863  -0.000177947574059   0.000057679756208  -0.000051969698243
Si    0.67888   6.10987   0.67888  -0.000020499707582   0.000000646005169   0.000002873366507
Si    3.39437   6.10987   3.39437  -0.000016839328686  -0.000003365073072   0.000020961437644
Si    0.67888   8.82538   3.39437  -0.000005649321144   0.000010767419214  -0.000008085316400
Si    3.39437   8.82538   0.67888  -0.000019774197696   0.000008156381731   0.000008161547187
Si    4.75213   7.46762   2.03662  -0.000000000191158  -0.000000915284545  -0.000007649102012
Si    4.75213  10.18313   4.75213   0.000003189947399  -0.000004690501410  -0.000019394799906
Si    2.03662   7.46762   4.75213   0.000010344376999   0.000007287168629  -0.000005920126411
Si    2.03662  10.18313   2.03662   0.000016273591525   0.000002743664515   0.000000287039709
Si    0.67888   6.10987   6.10987   0.000110647835328  -0.000020539254668  -0.000020570971202
Si    3.39437   6.10987   8.82538  -0.000005692629915   0.000014356964414   0.000004390020318
Si    0.67888   8.82538   8.82538   0.000105425901629   0.000008974852598   0.000008956362913
Si    3.39437   8.82538   6.10987  -0.000005686120436   0.000004377014898   0.000014361616264
Si    4.75213   7.46762   7.46762   0.000008932275398  -0.000012515394039  -0.000012515819780
Si    4.75213  10.18313  10.18313   0.000007892417371   0.000004358812761   0.000004355149983
Si    2.03662   7.46762  10.18313  -0.000061827907811  -0.000005674400369  -0.000001441720709
Si    2.03662  10.18313   7.46762  -0.000061828031617  -0.000001446411519  -0.000005685473260
Si    0.67888   6.10987  11.54087   0.000107982891141   0.000019456507241  -0.000023252874501
Si    3.39437   6.10987  14.25638  -0.000021125756682  -0.000011462245165  -0.000024502773926
Si    0.67888   8.82538  14.25638  -0.000010931474810   0.000000262796075   0.000000794405697
Si    3.39437   8.82538  11.54087  -0.000011787455784   0.000007469645073  -0.000024187942495
Si    4.75213   7.46762  12.89863   0.000009270947359  -0.000005160271742   0.000031237578538
Si    4.75213  10.18313  15.61412   0.000000018134910  -0.000001082322540   0.000005630714613
Si    2.03662   7.46762  15.61412   0.000015398872885  -0.000005635179346  -0.000003172467364
Si    2.03662  10.18313  12.89863   0.000009468240656  -0.000010176055739   0.000015932139414
Si    0.67888  11.54087   0.67888  -0.000015240878345  -0.000007926172793   0.000008177854682
Si    3.39437  11.54087   3.39437  -0.000022172888178   0.000003308809928   0.000016336576381
Si    0.67888  14.25638   3.39437   0.000432187825748  -0.000116811114391   0.000113369551287
Si    3.39437  14.25638   0.67888  -0.000189182140021   0.000191809776755  -0.000113111171758
Si    4.75213  12.89863   2.03662  -0.000016954881774   0.000024693383928   0.000054545136012
Si    4.75213  15.61412   4.75213  -0.000010895921374  -0.000064529268488  -0.000012855395893
Si    2.03662  12.89863   4.75213  -0.000177947607224  -0.000051908918887   0.000057730656998
Si    2.03662  15.61412   2.03662  -0.003409347012143   0.002461151846033  -0.002468478017403
Si    0.67888  11.54087   6.10987   0.000107965215430  -0.000023203106187   0.000019499040559
Si    3.39437  11.54087   8.82538  -0.000011776915548  -0.000024207387569   0.000007451071072
Si    0.67888  14.25638   8.82538  -0.000010765621658   0.000000804993898   0.000000224536062
Si    3.39437  14.25638   6.10987  -0.000021140124738  -0.000024595479036  -0.000011475187197
Si    4.75213  12.89863   7.46762   0.000009167729045   0.000031250394792  -0.000005144060022
Si    4.75213  15.61412  10.18313  -0.000000026962293   0.000005643917499  -0.000001086426805
Si    2.03662  12.89863  10.18313   0.000009462790062   0.000015965172762  -0.000010197369651
Si    2.03662  15.61412   7.46762   0.000015421965378  -0.000003002520519  -0.000005647589531
Si    0.67888  11.54087  11.54087   0.000112503748643   0.000011568067712   0.000011618285707
Si    3.39437  11.54087  14.25638  -0.000016813013029   0.000001363481366  -0.000022977135867
Si    0.67888  14.25638  14.25638   0.000431698277847   0.000108991328027   0.000109337675284
Si    3.39437  14.25638  11.54087  -0.000016816616338  -0.000022974060274   0.000001336512957
Si    4.75213  12.89863  12.89863   0.000015187544252   0.000008134115059   0.000008144544429
Si    4.75213  15.61412  15.61412   0.000009488388193  -0.000035695577416  -0.000035820937607
Si    2.03662  12.89863  15.61412   0.000034991246210  -0.000026407067785   0.000034369594127
Si    2.03662  15.61412  12.89863   0.000035090490329   0.000034286074187  -0.000026315322257
Si    6.10987   0.67888   0.67888  -0.000004694984670   0.000002878074490   0.000002874582584
Si    8.82538   0.67888   3.39437   0.000006440504948   0.000005524211372  -0.000008023212847
Si    6.10987   3.39437   3.39437   0.000002863813027  -0.000014376202514  -0.000014377724446
Si    8.82538   3.39437   0.67888   0.000006456125792  -0.000008018335693   0.000005508614033
Si   10.18313   2.03662   2.03662  -0.000001362636285   0.000002677019308   0.000002703731344
Si   10.18313   4.75213   4.75213   0.000000771232656  -0.000000876753948  -0.000000915796742
Si    7.46762   2.03662   4.75213   0.000000589769636   0.000011289430102   0.000004667953478
Si    7.46762   4.75213   2.03662   0.000000623464613   0.000004669824942   0.000011291342208
Si    6.10987   0.67888   6.10987  -0.000004377892383   0.000028316369788  -0.000014481450219
Si    8.82538   0.67888   8.82538   0.000006835882025   0.000008978112221   0.000008956312834
Si    6.10987   3.39437   8.82538  -0.000000579845551   0.000012231905943   0.000001087994240
Si    8.82538   3.39437   6.10987   0.000005868326589  -0.000004469902829   0.000000851706545
Si   10.18313   2.03662   7.46762  -0.000003953488888  -0.000000891043706  -0.000006381298044
Si   10.18313   4.75213  10.18313   0.000005001717959   0.000011501650775  -0.000007282901171
Si    7.46762   2.03662  10.18313  -0.000011378377108   0.000001939667314   0.000001106268042
Si    7.46762   4.75213   7.46762  -0.000003126787241   0.000004002450067  -0.000015437209082
Si    6.10987   0.67888  11.54087  -0.000005252194678  -0.000018303227807   0.000011595008509
Si    8.82538   0.67888  14.25638   0.000001156014694   0.000005506135260   0.000000732022040
Si    6.10987   3.39437  14.25638   0.000002095399333  -0.000011610824438   0.000004471842728
Si    8.82538   3.39437  11.54087   0.000012129900682  -0.000007492436838  -0.000007129359954
Si   10.18313   2.03662  12.89863   0.000003411412679  -0.000010151629399   0.000009089177018
Si   10.18313   4.75213  15.61412   0.000004302296220   0.000000909817786   0.000007273578444
Si    7.46762   2.03662  15.61412  -0.000003987810946  -0.000003805562601   0.000000066964472
Si    7.46762   4.75213  12.89863  -0.000007363698159   0.000012882472817   0.000005013941680
Si    6.10987   6.10987   0.67888  -0.000004493213223  -0.000014494732473   0.000028280662276
Si    8.82538   6.10987   3.39437   0.000005886245307   0.000000845180819  -0.000004477062322
Si    6.10987   8.82538   3.39437  -0.000000588656216   0.000001093413374   0.000012220957718
Si    8.82538   8.82538   0.67888   0.000006789779191   0.000008974800959   0.000008959558563
Si   10.18313   7.46762   2.03662  -0.000003943042436  -0.000006385430632  -0.000000908726518
Si   10.18313  10.18313   4.75213   0.000004996058240  -0.000007271189471   0.000011526012262
Si    7.46762   7.46762   4.75213  -0.000003131452345  -0.000015420514898   0.000003988559384
Si    7.46762  10.18313   2.03662  -0.000011365223219   0.000001096557655   0.000001957065913
Si    6.10987   6.10987   6.10987  -0.000003938239657   0.000003375859860   0.000003375411596
Si    8.82538   6.10987   8.82538   0.000001957531483   0.000000836528076   0.000002886032554
Si    6.10987   8.82538   8.82538  -0.000000922229340   0.000002889300963   0.000002885027797
Si    8.82538   8.82538   6.10987   0.000001947289536   0.000002859978552   0.000000831158095
Si   10.18313   7.46762   7.46762  -0.000001925947503  -0.000002007947920  -0.000002026017671
Si   10.18313  10.18313  10.18313  -0.000001050856417  -0.000000881480058  -0.000000859226968
Si    7.46762   7.46762  10.18313  -0.000003881999513  -0.000003824719841   0.000000060254072
Si    7.46762  10.18313   7.46762  -0.000003899161856   0.000000076954522  -0.000003815333596
Si    6.10987   6.10987  11.54087  -0.000003806947733   0.000003471967922  -0.000010586373591
Si    8.82538   6.10987  14.25638   0.000010271127320  -0.000001826320943  -0.000001476478114
Si    6.10987   8.82538  14.25638   0.000000287657764   0.000008916574950  -0.000015107484971
Si    8.82538   8.82538  11.54087   0.000007231899672   0.000008170096844  -0.000008122834159
Si   10.18313   7.46762  12.89863   0.000005870549957   0.000004381996686  -0.000001514769687
Si   10.18313  10.18313  15.61412  -0.000003942943095  -0.000000733740943  -0.000006221323527
Si    7.46762   7.46762  15.61412  -0.000013224794196  -0.000010072453966  -0.000010915287272
Si    7.46762  10.18313  12.89863   0.000002136198729   0.000008137234466   0.000007059904538
Si    6.10987  11.54087   0.67888  -0.000005367033116   0.000011604128286  -0.000018266108059
Si    8.82538  11.54087   3.39437   0.000012128715581  -0.000007149028008  -0.000007478955740
Si    6.10987  14.25638   3.39437   0.000002095566213   0.000004492698001  -0.000011596279535
Si    8.82538  14.25638   0.67888   0.000001188754861   0.000000736876454   0.000005538839289
Si   10.18313  12.89863   2.03662   0.000003427677414   0.000009099653657  -0.000010160654719
Si   10.18313  15.61412   4.75213   0.000004286346104   0.000007260280252   0.000000922426017
Si    7.46762  12.89863   4.75213  -0.000007363799209   0.000005065274712   0.000012896790685
Si    7.46762  15.61412   2.03662  -0.000003970374240   0.000000054893727  -0.000003824868377
Si    6.10987  11.54087   6.10987  -0.000003806869523  -0.000010592832968   0.000003459133406
Si    8.82538  11.54087   8.82538   0.000007224904843  -0.000008118499487   0.000008161086453
Si    6.10987  14.25638   8.82538   0.000000296410107  -0.000015122500170   0.000008924196172
Si    8.82538  14.25638   6.10987   0.000010272290231  -0.000001481450110  -0.000001827476121
Si   10.18313  12.89863   7.46762   0.000005876267266  -0.000001492581491   0.000004398004987
Si   10.18313  15.61412  10.18313  -0.000003953300589  -0.000006232449018  -0.000000744281430
Si    7.46762  12.89863  10.18313   0.000002158101069   0.000007029020003   0.000008144222691
Si    7.46762  15.61412   7.46762  -0.000013238070218  -0.000010916202782  -0.000010063701334
Si    6.10987  11.54087  11.54087  -0.000003064410144  -0.000006265072673  -0.000006260343391
Si    8.82538  11.54087  14.25638   0.000005867304477  -0.000004592772974   0.000000719784712
Si    6.10987  14.25638  14.25638   0.000001997175700   0.000011479685107   0.000011485527603
Si    8.82538  14.25638  11.54087   0.000005883861132   0.000000719901968  -0.000004606661545
Si   10.18313  12.89863  12.89863   0.000000773525942   0.000006660484594   0.000006691077942
Si   10.18313  15.61412  15.61412  -0.000002235945332  -0.000005565501093  -0.000005587852271
Si    7.46762  12.89863  15.61412  -0.000004661125837   0.000006359831177  -0.000018584111178
Si    7.46762  15.61412  12.89863  -0.000004677838245  -0.000018572566457   0.000006378836934
Si   11.54087   0.67888   0.67888  -0.000013432562784   0.000008148485046   0.000008152497281
Si   14.25638   0.67888   3.39437  -0.000179293282873   0.000112577163031   0.000182474410779
Si   11.54087   3.39437   3.39437  -0.000006634247292  -0.000003531360330  -0.000003555157443
Si   14.25638   3.39437   0.67888  -0.000179326398478   0.000182545345887   0.000112983744254
Si   15.61412   2.03662   2.03662  -0.003262979735183   0.002166831237699   0.002166943608431
Si   15.61412   4.75213   4.75213  -0.000180889530441  -0.000045691144789  -0.000045774810539
Si   12.89863   2.03662   4.75213  -0.000014354131230  -0.000055149627844   0.000022769839211
Si   12.89863   4.75213   2.03662  -0.000014313747206   0.000022761560406  -0.000055026486776
Si   11.54087   0.67888   6.10987  -0.000006654276858   0.000022727605229   0.000013094778233
Si   14.25638   0.67888   8.82538  -0.000011123768734   0.000002890955962   0.000002884723389
Si   11.54087   3.39437   8.82538  -0.000008754169783  -0.000024322185346   0.000007223178093
Si   14.25638   3.39437   6.10987  -0.000014138594806  -0.000031369921890   0.000011734263397
Si   15.61412   2.03662   7.46762   0.000013583542992  -0.000001250064787  -0.000000004869399
Si   15.61412   4.75213  10.18313   0.000006427086367   0.000011801946146   0.000011225275538
Si   12.89863   2.03662  10.18313   0.000004478711945   0.000009193124411   0.000001800660419
Si   12.89863   4.75213   7.46762   0.000009179947576   0.000031443533836  -0.000012888642216
Si   11.54087   0.67888  11.54087  -0.000012753789709  -0.000010875619090  -0.000022916234601
Si   14.25638   0.67888  14.25638  -0.000178476272860  -0.000102458641058  -0.000185401868463
Si   11.54087   3.39437  14.25638  -0.000000999978305   0.000008811105807  -0.000010820332321
Si   14.25638   3.39437  11.54087  -0.000013369567569  -0.000027768605537  -0.000007712328719
Si   15.61412   2.03662  12.89863   0.000029304092720   0.000040271971437   0.000029994493863
Si   15.61412   4.75213  15.61412   0.000023879708574  -0.000019099880333  -0.000047610640253
Si   12.89863   2.03662  15.61412   0.000005123524002  -0.000027794031038   0.000025945366303
Si   12.89863   4.75213  12.89863   0.000015178127393   0.000008313565244   0.000008007001329
Si   11.54087   6.10987   0.67888  -0.000006776100580   0.000013101463821   0.000022699294764
Si   14.25638   6.10987   3.39437  -0.000014122666093   0.000011720205818  -0.000031296793808
Si   11.54087   8.82538   3.39437  -0.000008763516069   0.000007242103900  -0.000024291319746
Si   14.25638   8.82538   0.67888  -0.000011040053710   0.000002889002294   0.000002886613099
Si   15.61412   7.46762   2.03662   0.000013590346849  -0.000000009302979  -0.000001438083156
Si   15.61412  10.18313   4.75213   0.000006409615681   0.000011208012455   0.000011783583442
Si   12.89863   7.46762   4.75213   0.000009279511850  -0.000012910187521   0.000031432711768
Si   12.89863  10.18313   2.03662   0.000004503840164   0.000001802462676   0.000009188008403
Si   11.54087   6.10987   6.10987  -0.000010932390344  -0.000003430333134  -0.000003419061534
Si   14.25638   6.10987   8.82538  -0.000002608754429  -0.000015200753121   0.000008670215265
Si   11.54087   8.82538   8.82538  -0.000009845920671   0.000008157078526   0.000008161187729
Si   14.25638   8.82538   6.10987  -0.000002619376980   0.000008664022227  -0.000015200069438
Si   15.61412   7.46762   7.46762  -0.000070101052957  -0.000010403635250  -0.000010379691396
Si   15.61412  10.18313  10.18313  -0.000068237433250   0.000001425735999   0.000001420252906
Si   12.89863   7.46762  10.18313   0.000003466950457   0.000001351516739  -0.000003351771019
Si   12.89863  10.18313   7.46762   0.000003484137418  -0.000003350799553   0.000001333884376
Si   11.54087   6.10987  11.54087  -0.000006663240922  -0.000002632500724   0.000000620830450
Si   14.25638   6.10987  14.25638  -0.000014260198504   0.000004840973910   0.000024889271137
Si   11.54087   8.82538  14.25638  -0.000002661889417   0.000004605132923   0.000014464953726
Si   14.25638   8.82538  11.54087  -0.000003494514079   0.000001345230758   0.000012312047340
Si   15.61412   7.46762  12.89863   0.000001142608803  -0.000018491499884  -0.000000735475040
Si   15.61412  10.18313  15.61412   0.000013573149862  -0.000003739393734  -0.000002322201173
Si   12.89863   7.46762  15.61412   0.000005539837449  -0.000009957998223  -0.000017350337133
Si   12.89863  10.18313  12.89863   0.000003203062961   0.000003064488128  -0.000019590622607
Si   11.54087  11.54087   0.67888  -0.000012857988887  -0.000022947004498  -0.000010852771077
Si   14.25638  11.54087   3.39437  -0.000013383441830  -0.000007731560217  -0.000027768745376
Si   11.54087  14.25638   3.39437  -0.000001017257141  -0.000010807344219   0.000008805480293
Si   14.25638  14.25638   0.67888  -0.000178502029011  -0.000185477991923  -0.000102862957044
Si   15.61412  12.89863   2.03662   0.000029154697176   0.000030078385569   0.000040347520847
Si   15.61412  15.61412   4.75213   0.000024045592155  -0.000047531454935  -0.000018999302557
Si   12.89863  12.89863   4.75213   0.000015177769953   0.000007999613328   0.000008314664324
Si   12.89863  15.61412   2.03662   0.000005106974957   0.000025846407146  -0.000027912047342
Si   11.54087  11.54087   6.10987  -0.000006645981006   0.000000634772928  -0.000002637085693
Si   14.25638  11.54087   8.82538  -0.000003483852789   0.000012308417712   0.000001341244602
Si   11.54087  14.25638   8.82538  -0.000002669854607   0.000014471731565   0.000004618506428
Si   14.25638  14.25638   6.10987  -0.000014247961137   0.000024884279507   0.000004826232832
Si   15.61412  12.89863   7.46762   0.000001142925329  -0.000000770682729  -0.000018518434762
Si   15.61412  15.61412  10.18313   0.000013602194992  -0.000002502730159  -0.000003751174228
Si   12.89863  12.89863  10.18313   0.000003086953912  -0.000019595274441   0.000003067261375
Si   12.89863  15.61412   7.46762   0.000005514153907  -0.000017351445696  -0.000009960466933
Si   11.54087  11.54087  11.54087  -0.000011969330295  -0.000004725898451  -0.000004741281543
Si   14.25638  11.54087  14.25638  -0.000014129921807  -0.000018837074245   0.000024172017889
Si   11.54087  14.25638  14.25638  -0.000005603514562  -0.000004634179693  -0.000004614413179
Si   14.25638  14.25638  11.54087  -0.000014143701860   0.000024253164137  -0.000018857864801
Si   15.61412  12.89863  12.89863  -0.000180894713321   0.000063663820509   0.000063711064764
Si   15.61412  15.61412  15.61412  -0.003264895468541  -0.002175708187627  -0.002175807866694
Si   12.89863  12.89863  15.61412  -0.000008187550925  -0.000010903686029   0.000045157198628
Si   12.89863  15.61412  12.89863  -0.000008244908651   0.000045255806567  -0.000010917166777
