250 

Si    0.00000   0.00000   0.00000   0.000000000001702  -0.000000000000243   0.000000000000006
Si    1.35775   1.35775   1.35775   0.000000000001833   0.000000000000219   0.000000000000048
Si    2.71550   2.71550   0.00000   0.000000000001693   0.000000000000037   0.000000000000324
Si    4.07325   4.07325   1.35775   0.000000000001463  -0.000000000000008  -0.000000000000413
Si    5.43100   5.43100   0.00000   0.000000000001568   0.000000000000120   0.000000000000116
Si    6.78875   6.78875   1.35775   0.000000000001535   0.000000000000211  -0.000000000000004
Si    8.14650   8.14650   0.00000   0.000000000001696   0.000000000000135  -0.000000000000061
Si    9.50425   9.50425   1.35775   0.000000000001443  -0.000000000000055  -0.000000000000273
Si   10.86200  10.86200   0.00000   0.000000000001396  -0.000000000000208   0.000000000000163
Si   12.21975  12.21975   1.35775   0.000000000001454   0.000000000000359   0.000000000000094
Si    2.71550   0.00000   2.71550   0.000000000001761  -0.000000000000231   0.000000000000112
Si    4.07325   1.35775   4.07325   0.000000000001506   0.000000000000047  -0.000000000000113
Si    5.43100   2.71550   2.71550   0.000000000001726   0.000000000000109   0.000000000000341
Si    6.78875   4.07325   4.07325   0.000000000001506  -0.000000000000216   0.000000000000091
Si    8.14650   5.43100   2.71550   0.000000000001975   0.000000000000003   0.000000000000243
Si    9.50425   6.78875   4.07325   0.000000000001662   0.000000000000012  -0.000000000000147
Si   10.86200   8.14650   2.71550   0.000000000001730  -0.000000000000076   0.000000000000032
Si   12.21975   9.50425   4.07325   0.000000000001568  -0.000000000000067   0.000000000000169
Si   13.57750  10.86200   2.71550   0.000000000001718  -0.000000000000335  -0.000000000000090
Si   14.93525  12.21975   4.07325   0.000000000001669   0.000000000000148  -0.000000000000116
Si    5.43100   0.00000   5.43100   0.000000000001759   0.000000000000022   0.000000000000226
Si    6.78875   1.35775   6.78875   0.000000000001666  -0.000000000000003  -0.000000000000191
Si    8.14650   2.71550   5.43100   0.000000000001554   0.000000000000035   0.000000000000030
Si    9.50425   4.07325   6.78875   0.000000000001734  -0.000000000000096  -0.000000000000134
Si   10.86200   5.43100   5.43100   0.000000000001343  -0.000000000000198   0.000000000000031
Si   12.21975   6.78875   6.78875   0.000000000001745  -0.000000000000027  -0.000000000000115
Si   13.57750   8.14650   5.43100   0.000000000001722   0.000000000000022  -0.000000000000129
Si   14.93525   9.50425   6.78875   0.000000000001748  -0.000000000000328  -0.000000000000068
Si   16.29300  10.86200   5.43100   0.000000000001790  -0.000000000000110   0.000000000000063
Si   17.65075  12.21975   6.78875   0.000000000001756  -0.000000000000039  -0.000000000000136
Si    8.14650   0.00000   8.14650   0.000000000001741  -0.000000000000147   0.000000000000123
Si    9.50425   1.35775   9.50425   0.000000000001645  -0.000000000000119  -0.000000000000189
Si   10.86200   2.71550   8.14650   0.000000000001503   0.000000000000089   0.000000000000100
Si   12.21975   4.07325   9.50425   0.000000000001682   0.000000000000294  -0.000000000000233
Si   13.57750   5.43100   8.14650   0.000000000001685  -0.000000000000027   0.000000000000146
Si   14.93525   6.78875   9.50425   0.000000000001498  -0.000000000000129  -0.000000000000132
Si   16.29300   8.14650   8.14650   0.000000000001874   0.000000000000058   0.000000000000104
Si   17.65075   9.50425   9.50425   0.000000000001711   0.000000000000095  -0.000000000000395
Si   19.00850  10.86200   8.14650   0.000000000001393  -0.000000000000147   0.000000000000222
Si   20.36625  12.21975   9.50425   0.000000000001607   0.000000000000312  -0.000000000000171
Si   10.86200   0.00000  10.86200   0.000000000001441  -0.000000000000231  -0.000000000000235
Si   12.21975   1.35775  12.21975   0.000000000001737  -0.000000000000172   0.000000000000033
Si   13.57750   2.71550  10.86200   0.000000000001746   0.000000000000228   0.000000000000032
Si   14.93525   4.07325  12.21975   0.000000000001503  -0.000000000000031  -0.000000000000000
Si   16.29300   5.43100  10.86200   0.000000000001730   0.000000000000045  -0.000000000000041
Si   17.65075   6.78875  12.21975   0.000000000001575  -0.000000000000183   0.000000000000109
Si   19.00850   8.14650  10.86200   0.000000000001693  -0.000000000000105  -0.000000000000087
Si   20.36625   9.50425  12.21975   0.000000000001876  -0.000000000000202  -0.000000000000175
Si   21.72400  10.86200  10.86200   0.000000000001787  -0.000000000000090   0.000000000000157
Si   23.08175  12.21975  12.21975   0.000000000001677   0.000000000000229   0.000000000000119
Si    0.00000   2.71550   2.71550   0.000000000001469   0.000000000000042   0.000000000000308
Si    1.35775   4.07325   4.07325   0.000000000001655   0.000000000000014  -0.000000000000267
Si    2.71550   5.43100   2.71550   0.000000000001638  -0.000000000000006   0.000000000000022
Si    4.07325   6.78875   4.07325   0.000000000001522   0.000000000000008   0.000000000000036
Si    5.43100   8.14650   2.71550   0.000000000001901  -0.000000000000033   0.000000000000162
Si    6.78875   9.50425   4.07325   0.000000000001432  -0.000000000000201  -0.000000000000291
Si    8.14650  10.86200   2.71550   0.000000000001996   0.000000000000164   0.000000000000177
Si    9.50425  12.21975   4.07325   0.000000000001584   0.000000000000111   0.000000000000078
Si   10.86200  13.57750   2.71550   0.000000000001654  -0.000000000000164  -0.000000000000056
Si   12.21975  14.93525   4.07325   0.000000000001540   0.000000000000170  -0.000000000000145
Si    2.71550   2.71550   5.43100   0.000000000001693  -0.000000000000101   0.000000000000069
Si    4.07325   4.07325   6.78875   0.000000000001625   0.000000000000108  -0.000000000000135
Si    5.43100   5.43100   5.43100   0.000000000001749   0.000000000000097  -0.000000000000042
Si    6.78875   6.78875   6.78875   0.000000000001705   0.000000000000146  -0.000000000000485
Si    8.14650   8.14650   5.43100   0.000000000001685  -0.000000000000143   0.000000000000184
Si    9.50425   9.50425   6.78875   0.000000000001613   0.000000000000059  -0.000000000000095
Si   10.86200  10.86200   5.43100   0.000000000001574  -0.000000000000224  -0.000000000000125
Si   12.21975  12.21975   6.78875   0.000000000001692   0.000000000000267  -0.000000000000251
Si   13.57750  13.57750   5.43100   0.000000000001701  -0.000000000000022   0.000000000000375
Si   14.93525  14.93525   6.78875   0.000000000001454   0.000000000000154  -0.000000000000193
Si    5.43100   2.71550   8.14650   0.000000000001775  -0.000000000000220   0.000000000000009
Si    6.78875   4.07325   9.50425   0.000000000001484  -0.000000000000087   0.000000000000069
Si    8.14650   5.43100   8.14650   0.000000000001954  -0.000000000000103   0.000000000000136
Si    9.50425   6.78875   9.50425   0.000000000001896  -0.000000000000016   0.000000000000033
Si   10.86200   8.14650   8.14650   0.000000000001570  -0.000000000000067   0.000000000000125
Si   12.21975   9.50425   9.50425   0.000000000001771  -0.000000000000365   0.000000000000217
Si   13.57750  10.86200   8.14650   0.000000000001584  -0.000000000000127  -0.000000000000000
Si   14.93525  12.21975   9.50425   0.000000000001727  -0.000000000000048   0.000000000000020
Si   16.29300  13.57750   8.14650   0.000000000001723   0.000000000000082   0.000000000000033
Si   17.65075  14.93525   9.50425   0.000000000001672   0.000000000000182  -0.000000000000070
Si    8.14650   2.71550  10.86200   0.000000000001827   0.000000000000245   0.000000000000049
Si    9.50425   4.07325  12.21975   0.000000000001575  -0.000000000000013  -0.000000000000075
Si   10.86200   5.43100  10.86200   0.000000000001616  -0.000000000000161  -0.000000000000220
Si   12.21975   6.78875  12.21975   0.000000000001657  -0.000000000000038  -0.000000000000003
Si   13.57750   8.14650  10.86200   0.000000000001567   0.000000000000391  -0.000000000000058
Si   14.93525   9.50425  12.21975   0.000000000001402  -0.000000000000102   0.000000000000094
Si   16.29300  10.86200  10.86200   0.000000000001700  -0.000000000000273  -0.000000000000110
Si   17.65075  12.21975  12.21975   0.000000000001469   0.000000000000158  -0.000000000000096
Si   19.00850  13.57750  10.86200   0.000000000001663  -0.000000000000065   0.000000000000017
Si   20.36625  14.93525  12.21975   0.000000000001714  -0.000000000000046   0.000000000000005
Si   10.86200   2.71550  13.57750   0.000000000001783   0.000000000000061   0.000000000000211
Si   12.21975   4.07325  14.93525   0.000000000001588   0.000000000000109   0.000000000000013
Si   13.57750   5.43100  13.57750   0.000000000001689  -0.000000000000069  -0.000000000000067
Si   14.93525   6.78875  14.93525   0.000000000001764   0.000000000000179  -0.000000000000144
Si   16.29300   8.14650  13.57750   0.000000000001597  -0.000000000000088   0.000000000000221
Si   17.65075   9.50425  14.93525   0.000000000001142  -0.000000000000258  -0.000000000000077
Si   19.00850  10.86200  13.57750   0.000000000001804   0.000000000000028   0.000000000000229
Si   20.36625  12.21975  14.93525   0.000000000001571   0.000000000000096  -0.000000000000097
Si   21.72400  13.57750  13.57750   0.000000000001677  -0.000000000000085   0.000000000000178
Si   23.08175  14.93525  14.93525   0.000000000001586  -0.000000000000049  -0.000000000000145
Si    0.00000   5.43100   5.43100   0.000000000001630   0.000000000000075   0.000000000000205
Si    1.35775   6.78875   6.78875   0.000000000001670   0.000000000000092  -0.000000000000098
Si    2.71550   8.14650   5.43100   0.000000000001736   0.000000000000014   0.000000000000234
Si    4.07325   9.50425   6.78875   0.000000000001369  -0.000000000000101  -0.000000000000342
Si    5.43100  10.86200   5.43100   0.000000000001884   0.000000000000132  -0.000000000000028
Si    6.78875  12.21975   6.78875   0.000000000001718   0.000000000000042  -0.000000000000259
Si    8.14650  13.57750   5.43100   0.000000000001519   0.000000000000046  -0.000000000000123
Si    9.50425  14.93525   6.78875   0.000000000001665  -0.000000000000196  -0.000000000000073
Si   10.86200  16.29300   5.43100   0.000000000001653   0.000000000000021   0.000000000000257
Si   12.21975  17.65075   6.78875   0.000000000001682  -0.000000000000209  -0.000000000000207
Si    2.71550   5.43100   8.14650   0.000000000001710   0.000000000000098  -0.000000000000025
Si    4.07325   6.78875   9.50425   0.000000000001319  -0.000000000000063  -0.000000000000140
Si    5.43100   8.14650   8.14650   0.000000000001729  -0.000000000000061   0.000000000000165
Si    6.78875   9.50425   9.50425   0.000000000001617  -0.000000000000037   0.000000000000108
Si    8.14650  10.86200   8.14650   0.000000000001761   0.000000000000038   0.000000000000024
Si    9.50425  12.21975   9.50425   0.000000000001660   0.000000000000229   0.000000000000040
Si   10.86200  13.57750   8.14650   0.000000000001593   0.000000000000137   0.000000000000137
Si   12.21975  14.93525   9.50425   0.000000000001440   0.000000000000022  -0.000000000000026
Si   13.57750  16.29300   8.14650   0.000000000001831  -0.000000000000132  -0.000000000000029
Si   14.93525  17.65075   9.50425   0.000000000001568   0.000000000000074  -0.000000000000194
Si    5.43100   5.43100  10.86200   0.000000000002014  -0.000000000000176   0.000000000000228
Si    6.78875   6.78875  12.21975   0.000000000001628   0.000000000000202  -0.000000000000262
Si    8.14650   8.14650  10.86200   0.000000000001547  -0.000000000000107   0.000000000000119
Si    9.50425   9.50425  12.21975   0.000000000001543  -0.000000000000010   0.000000000000040
Si   10.86200  10.86200  10.86200   0.000000000001588   0.000000000000003   0.000000000000112
Si   12.21975  12.21975  12.21975   0.000000000001839  -0.000000000000223  -0.000000000000104
Si   13.57750  13.57750  10.86200   0.000000000001388   0.000000000000108   0.000000000000079
Si   14.93525  14.93525  12.21975   0.000000000001770   0.000000000000142  -0.000000000000165
Si   16.29300  16.29300  10.86200   0.000000000001677  -0.000000000000290   0.000000000000140
Si   17.65075  17.65075  12.21975   0.000000000001593   0.000000000000184  -0.000000000000049
Si    8.14650   5.43100  13.57750   0.000000000001829   0.000000000000009   0.000000000000215
Si    9.50425   6.78875  14.93525   0.000000000001448  -0.000000000000279  -0.000000000000045
Si   10.86200   8.14650  13.57750   0.000000000001891   0.000000000000252   0.000000000000003
Si   12.21975   9.50425  14.93525   0.000000000001811   0.000000000000211  -0.000000000000226
Si   13.57750  10.86200  13.57750   0.000000000001465  -0.000000000000189  -0.000000000000068
Si   14.93525  12.21975  14.93525   0.000000000001809  -0.000000000000109  -0.000000000000142
Si   16.29300  13.57750  13.57750   0.000000000001839   0.000000000000298   0.000000000000144
Si   17.65075  14.93525  14.93525   0.000000000001369  -0.000000000000265  -0.000000000000128
Si   19.00850  16.29300  13.57750   0.000000000001827   0.000000000000017  -0.000000000000211
Si   20.36625  17.65075  14.93525   0.000000000001868  -0.000000000000129   0.000000000000135
Si   10.86200   5.43100  16.29300   0.000000000001601  -0.000000000000047  -0.000000000000107
Si   12.21975   6.78875  17.65075   0.000000000001781   0.000000000000170  -0.000000000000056
Si   13.57750   8.14650  16.29300   0.000000000001477  -0.000000000000178   0.000000000000037
Si   14.93525   9.50425  17.65075   0.000000000001654   0.000000000000018   0.000000000000168
Si   16.29300  10.86200  16.29300   0.000000000001778  -0.000000000000085  -0.000000000000051
Si   17.65075  12.21975  17.65075   0.000000000001288   0.000000000000048   0.000000000000115
Si   19.00850  13.57750  16.29300   0.000000000001968  -0.000000000000056   0.000000000000089
Si   20.36625  14.93525  17.65075   0.000000000001794  -0.000000000000179   0.000000000000210
Si   21.72400  16.29300  16.29300   0.000000000001801   0.000000000000013  -0.000000000000198
Si   23.08175  17.65075  17.65075   0.000000000001708   0.000000000000116  -0.000000000000031
Si    0.00000   8.14650   8.14650   0.000000000001464  -0.000000000000143  -0.000000000000151
Si    1.35775   9.50425   9.50425   0.000000000001561   0.000000000000050   0.000000000000189
Si    2.71550  10.86200   8.14650   0.000000000001866   0.000000000000005   0.000000000000059
Si    4.07325  12.21975   9.50425   0.000000000001698  -0.000000000000101  -0.000000000000146
Si    5.43100  13.57750   8.14650   0.000000000001729  -0.000000000000242   0.000000000000075
Si    6.78875  14.93525   9.50425   0.000000000001591   0.000000000000136   0.000000000000163
Si    8.14650  16.29300   8.14650   0.000000000001832   0.000000000000099  -0.000000000000320
Si    9.50425  17.65075   9.50425   0.000000000001475  -0.000000000000099  -0.000000000000012
Si   10.86200  19.00850   8.14650   0.000000000001326   0.000000000000259   0.000000000000046
Si   12.21975  20.36625   9.50425   0.000000000001764  -0.000000000000039  -0.000000000000046
Si    2.71550   8.14650  10.86200   0.000000000001887  -0.000000000000105   0.000000000000154
Si    4.07325   9.50425  12.21975   0.000000000001474   0.000000000000194  -0.000000000000102
Si    5.43100  10.86200  10.86200   0.000000000001694  -0.000000000000023  -0.000000000000052
Si    6.78875  12.21975  12.21975   0.000000000001744  -0.000000000000080   0.000000000000142
Si    8.14650  13.57750  10.86200   0.000000000001827  -0.000000000000187   0.000000000000057
Si    9.50425  14.93525  12.21975   0.000000000001454   0.000000000000237  -0.000000000000181
Si   10.86200  16.29300  10.86200   0.000000000001611  -0.000000000000181   0.000000000000042
Si   12.21975  17.65075  12.21975   0.000000000001720  -0.000000000000050  -0.000000000000062
Si   13.57750  19.00850  10.86200   0.000000000001676   0.000000000000130   0.000000000000289
Si   14.93525  20.36625  12.21975   0.000000000001389   0.000000000000141  -0.000000000000218
Si    5.43100   8.14650  13.57750   0.000000000001754  -0.000000000000132   0.000000000000267
Si    6.78875   9.50425  14.93525   0.000000000001432   0.000000000000071  -0.000000000000151
Si    8.14650  10.86200  13.57750   0.000000000001931   0.000000000000110  -0.000000000000046
Si    9.50425  12.21975  14.93525   0.000000000001538  -0.000000000000093  -0.000000000000161
Si   10.86200  13.57750  13.57750   0.000000000001425   0.000000000000041   0.000000000000141
Si   12.21975  14.93525  14.93525   0.000000000001262   0.000000000000275  -0.000000000000033
Si   13.57750  16.29300  13.57750   0.000000000001584   0.000000000000066  -0.000000000000019
Si   14.93525  17.65075  14.93525   0.000000000001692  -0.000000000000090  -0.000000000000063
Si   16.29300  19.00850  13.57750   0.000000000001733   0.000000000000071  -0.000000000000041
Si   17.65075  20.36625  14.93525   0.000000000001536   0.000000000000248   0.000000000000050
Si    8.14650   8.14650  16.29300   0.000000000001539  -0.000000000000079   0.000000000000098
Si    9.50425   9.50425  17.65075   0.000000000001626   0.000000000000260  -0.000000000000030
Si   10.86200  10.86200  16.29300   0.000000000001774   0.000000000000003   0.000000000000210
Si   12.21975  12.21975  17.65075   0.000000000001504  -0.000000000000017  -0.000000000000189
Si   13.57750  13.57750  16.29300   0.000000000001434  -0.000000000000155   0.000000000000354
Si   14.93525  14.93525  17.65075   0.000000000001492   0.000000000000280   0.000000000000061
Si   16.29300  16.29300  16.29300   0.000000000001681  -0.000000000000140   0.000000000000002
Si   17.65075  17.65075  17.65075   0.000000000001683   0.000000000000214   0.000000000000128
Si   19.00850  19.00850  16.29300   0.000000000001500   0.000000000000153   0.000000000000056
Si   20.36625  20.36625  17.65075   0.000000000001773  -0.000000000000067  -0.000000000000289
Si   10.86200   8.14650  19.00850   0.000000000001806  -0.000000000000151   0.000000000000020
Si   12.21975   9.50425  20.36625   0.000000000001734  -0.000000000000146  -0.000000000000058
Si   13.57750  10.86200  19.00850   0.000000000001545  -0.000000000000090   0.000000000000047
Si   14.93525  12.21975  20.36625   0.000000000001473   0.000000000000093  -0.000000000000074
Si   16.29300  13.57750  19.00850   0.000000000002075  -0.000000000000216  -0.000000000000105
Si   17.65075  14.93525  20.36625   0.000000000001469   0.000000000000016   0.000000000000094
Si   19.00850  16.29300  19.00850   0.000000000002062   0.000000000000062  -0.000000000000172
Si   20.36625  17.65075  20.36625   0.000000000001612   0.000000000000015   0.000000000000114
Si   21.72400  19.00850  19.00850   0.000000000001868  -0.000000000000214   0.000000000000278
Si   23.08175  20.36625  20.36625   0.000000000001813  -0.000000000000004  -0.000000000000086
Si    0.00000  10.86200  10.86200   0.000000000001605  -0.000000000000006   0.000000000000151
Si    1.35775  12.21975  12.21975   0.000000000001459   0.000000000000123  -0.000000000000447
Si    2.71550  13.57750  10.86200   0.000000000001917  -0.000000000000038   0.000000000000192
Si    4.07325  14.93525  12.21975   0.000000000001423  -0.000000000000064  -0.000000000000254
Si    5.43100  16.29300  10.86200   0.000000000001853  -0.000000000000041  -0.000000000000039
Si    6.78875  17.65075  12.21975   0.000000000001603  -0.000000000000141  -0.000000000000208
Si    8.14650  19.00850  10.86200   0.000000000001823  -0.000000000000081   0.000000000000019
Si    9.50425  20.36625  12.21975   0.000000000001548   0.000000000000296  -0.000000000000113
Si   10.86200  21.72400  10.86200   0.000000000001570  -0.000000000000157   0.000000000000081
Si   12.21975  23.08175  12.21975   0.000000000001754  -0.000000000000183  -0.000000000000158
Si    2.71550  10.86200  13.57750   0.000000000001929  -0.000000000000193   0.000000000000237
Si    4.07325  12.21975  14.93525   0.000000000001362  -0.000000000000105  -0.000000000000050
Si    5.43100  13.57750  13.57750   0.000000000001851  -0.000000000000081  -0.000000000000109
Si    6.78875  14.93525  14.93525   0.000000000001781   0.000000000000012  -0.000000000000225
Si    8.14650  16.29300  13.57750   0.000000000001698  -0.000000000000096   0.000000000000013
Si    9.50425  17.65075  14.93525   0.000000000001510  -0.000000000000045  -0.000000000000209
Si   10.86200  19.00850  13.57750   0.000000000001704  -0.000000000000129   0.000000000000162
Si   12.21975  20.36625  14.93525   0.000000000001335   0.000000000000028  -0.000000000000107
Si   13.57750  21.72400  13.57750   0.000000000001860  -0.000000000000046  -0.000000000000029
Si   14.93525  23.08175  14.93525   0.000000000001825   0.000000000000069  -0.000000000000081
Si    5.43100  10.86200  16.29300   0.000000000001913  -0.000000000000085   0.000000000000143
Si    6.78875  12.21975  17.65075   0.000000000001651   0.000000000000083   0.000000000000006
Si    8.14650  13.57750  16.29300   0.000000000001778  -0.000000000000035   0.000000000000071
Si    9.50425  14.93525  17.65075   0.000000000001614   0.000000000000203  -0.000000000000190
Si   10.86200  16.29300  16.29300   0.000000000001728  -0.000000000000165   0.000000000000176
Si   12.21975  17.65075  17.65075   0.000000000001636   0.000000000000060  -0.000000000000293
Si   13.57750  19.00850  16.29300   0.000000000001549  -0.000000000000053   0.000000000000206
Si   14.93525  20.36625  17.65075   0.000000000001426   0.000000000000183   0.000000000000025
Si   16.29300  21.72400  16.29300   0.000000000001997  -0.000000000000166  -0.000000000000120
Si   17.65075  23.08175  17.65075   0.000000000001431   0.000000000000246  -0.000000000000208
Si    8.14650  10.86200  19.00850   0.000000000001834  -0.000000000000238   0.000000000000010
Si    9.50425  12.21975  20.36625   0.000000000001495  -0.000000000000061   0.000000000000035
Si   10.86200  13.57750  19.00850   0.000000000001968   0.000000000000002  -0.000000000000058
Si   12.21975  14.93525  20.36625   0.000000000001324   0.000000000000103  -0.000000000000271
Si   13.57750  16.29300  19.00850   0.000000000001787  -0.000000000000163   0.000000000000182
Si   14.93525  17.65075  20.36625   0.000000000001498  -0.000000000000145  -0.000000000000205
Si   16.29300  19.00850  19.00850   0.000000000001863  -0.000000000000044  -0.000000000000067
Si   17.65075  20.36625  20.36625   0.000000000001284   0.000000000000005   0.000000000000065
Si   19.00850  21.72400  19.00850   0.000000000001702   0.000000000000121  -0.000000000000165
Si   20.36625  23.08175  20.36625   0.000000000001782  -0.000000000000066   0.000000000000064
Si   10.86200  10.86200  21.72400   0.000000000001467  -0.000000000000051   0.000000000000001
Si   12.21975  12.21975  23.08175   0.000000000001746   0.000000000000098   0.000000000000150
Si   13.57750  13.57750  21.72400   0.000000000001754  -0.000000000000218  -0.000000000000061
Si   14.93525  14.93525  23.08175   0.000000000001621  -0.000000000000170  -0.000000000000018
Si   16.29300  16.29300  21.72400   0.000000000001707   0.000000000000166   0.000000000000105
Si   17.65075  17.65075  23.08175   0.000000000001394  -0.000000000000098   0.000000000000059
Si   19.00850  19.00850  21.72400   0.000000000001739  -0.000000000000199  -0.000000000000137
Si   20.36625  20.36625  23.08175   0.000000000001638   0.000000000000279   0.000000000000107
Si   21.72400  21.72400  21.72400   0.000000000001579  -0.000000000000052  -0.000000000000055
Si   23.08175  23.08175  23.08175   0.000000000001801   0.000000000000152  -0.000000000000305
