216 

Si    0.72888   0.67888   0.67888   0.013631509344572   0.000002001530553   0.000002001655602
Si    3.39437   0.67888   3.39437  -0.000195051417754   0.000124667067453  -0.000201391098245
Si    0.67888   3.39437   3.39437   0.000433617322240  -0.000118057387469  -0.000118386698268
Si    3.39437   3.39437   0.67888  -0.000195087451689  -0.000201503765886   0.000125077708374
Si    4.75213   2.03662   2.03662   0.000008528580007   0.000027576890809   0.000027697796343
Si    4.75213   4.75213   4.75213   0.000015192855563   0.000008179186689   0.000008176393482
Si    2.03662   2.03662   4.75213   0.000034204944411  -0.000037170932307   0.000036346513691
Si    2.03662   4.75213   2.03662   0.000034104074980   0.000036434696336  -0.000037250079489
Si    0.67888   0.67888   6.10987  -0.000020656796565   0.000002851183211   0.000000637481648
Si    3.39437   0.67888   8.82538  -0.000019858657449   0.000008157664437   0.000008160511074
Si    0.67888   3.39437   8.82538  -0.000005489583648  -0.000008086062263   0.000010825642671
Si    3.39437   3.39437   6.10987  -0.000016803939303   0.000020978698130  -0.000003354689553
Si    4.75213   2.03662   7.46762  -0.000000011414791  -0.000007647988383  -0.000000926353223
Si    4.75213   4.75213  10.18313   0.000003061154247  -0.000019405280017  -0.000004677798810
Si    2.03662   2.03662  10.18313   0.000016309507393   0.000000114831546   0.000002757580622
Si    2.03662   4.75213   7.46762   0.000010347266937  -0.000005958314441   0.000007318431452
Si    0.67888   0.67888  11.54087  -0.000015369378342   0.000008200940517  -0.000007927466478
Si    3.39437   0.67888  14.25638  -0.000189127718626  -0.000112693088470   0.000191722059808
Si    0.67888   3.39437  14.25638   0.000432172490655   0.000113041486139  -0.000117148429022
Si    3.39437   3.39437  11.54087  -0.000022182100355   0.000016434430305   0.000003314876843
Si    4.75213   2.03662  12.89863  -0.000016980587518   0.000054662820111   0.000024689432759
Si    4.75213   4.75213  15.61412  -0.000010849852357  -0.000012844107114  -0.000064391061890
Si    2.03662   2.03662  15.61412  -0.003409339468613  -0.002468383464466   0.002461241547220
Si    2.03662   4.75213  12.89863  -0.000177934640316   0.000057687517803  -0.000051977467261
Si    0.67888   6.10987   0.67888  -0.000020494939682   0.000000648296488   0.000002874353234
Si    3.39437   6.10987   3.39437  -0.000016835561608  -0.000003362976510   0.000020961188136
Si    0.67888   8.82538   3.39437  -0.000005638346789   0.000010770334341  -0.000008084882794
Si    3.39437   8.82538   0.67888  -0.000019770557878   0.000008156386922   0.000008161551568
Si    4.75213   7.46762   2.03662   0.000000000030070  -0.000000912010106  -0.000007652974685
Si    4.75213  10.18313   4.75213   0.000003182074701  -0.000004685567012  -0.000019397538570
Si    2.03662   7.46762   4.75213   0.000010352852583   0.000007292875123  -0.000005923102366
Si    2.03662  10.18313   2.03662   0.000016285875968   0.000002740958411   0.000000289499867
Si    0.67888   6.10987   6.10987   0.000110659918499  -0.000020540496811  -0.000020572211867
Si    3.39437   6.10987   8.82538  -0.000005689591203   0.000014359665359   0.000004396933910
Si    0.67888   8.82538   8.82538   0.000105439954983   0.000008974857679   0.000008956368006
Si    3.39437   8.82538   6.10987  -0.000005683080572   0.000004383927142   0.000014364317992
Si    4.75213   7.46762   7.46762   0.000008931420740  -0.000012512634179  -0.000012513058842
Si    4.75213  10.18313  10.18313   0.000007891553746   0.000004356047907   0.000004352384057
Si    2.03662   7.46762  10.18313  -0.000061821382818  -0.000005679321612  -0.000001436793242
Si    2.03662  10.18313   7.46762  -0.000061821506607  -0.000001441486493  -0.000005690396932
Si    0.67888   6.10987  11.54087   0.000107995123610   0.000019459769347  -0.000023256134422
Si    3.39437   6.10987  14.25638  -0.000021117389154  -0.000011459349267  -0.000024506907462
Si    0.67888   8.82538  14.25638  -0.000010920505453   0.000000259881684   0.000000793970298
Si    3.39437   8.82538  11.54087  -0.000011784425120   0.000007462737934  -0.000024190653156
Si    4.75213   7.46762  12.89863   0.000009263082108  -0.000005165214939   0.000031240322361
Si    4.75213  10.18313  15.61412   0.000000018355949  -0.000001085590813   0.000005634591173
Si    2.03662   7.46762  15.61412   0.000015411156196  -0.000005632468697  -0.000003174924742
Si    2.03662  10.18313  12.89863   0.000009476715931  -0.000010181760365   0.000015935109170
Si    0.67888  11.54087   0.67888  -0.000015236103800  -0.000007928463464   0.000008176871403
Si    3.39437  11.54087   3.39437  -0.000022164528875   0.000003305910370   0.000016340703488
Si    0.67888  14.25638   3.39437   0.000432193299386  -0.000116812596627   0.000113371029741
Si    3.39437  14.25638   0.67888  -0.000189171802725   0.000191811681817  -0.000113109071279
Si    4.75213  12.89863   2.03662  -0.000016953939222   0.000024688494107   0.000054546916097
Si    4.75213  15.61412   4.75213  -0.000010894967968  -0.000064531060321  -0.000012850501710
Si    2.03662  12.89863   4.75213  -0.000177934673488  -0.000051916687066   0.000057738419405
Si    2.03662  15.61412   2.03662  -0.003409337069530   0.002461153251781  -0.002468479426811
Si    0.67888  11.54087   6.10987   0.000107977447899  -0.000023206367782   0.000019502300975
Si    3.39437  11.54087   8.82538  -0.000011773886040  -0.000024210097458   0.000007444162575
Si    0.67888  14.25638   8.82538  -0.000010754652186   0.000000804558192   0.000000221620021
Si    3.39437  14.25638   6.10987  -0.000021131755954  -0.000024599610171  -0.000011472290849
Si    4.75213  12.89863   7.46762   0.000009159865541   0.000031253138744  -0.000005149004071
Si    4.75213  15.61412  10.18313  -0.000000026740920   0.000005647794414  -0.000001089694855
Si    2.03662  12.89863  10.18313   0.000009471265931   0.000015968139959  -0.000010203075699
Si    2.03662  15.61412   7.46762   0.000015434248028  -0.000003004977455  -0.000005644877861
Si    0.67888  11.54087  11.54087   0.000112515843534   0.000011569304255   0.000011619520759
Si    3.39437  11.54087  14.25638  -0.000016809244266   0.000001361390637  -0.000022976881872
Si    0.67888  14.25638  14.25638   0.000431703413689   0.000108989932311   0.000109336279011
Si    3.39437  14.25638  11.54087  -0.000016812848472  -0.000022973806972   0.000001334423450
Si    4.75213  12.89863  12.89863   0.000015193775267   0.000008133925835   0.000008144354703
Si    4.75213  15.61412  15.61412   0.000009493331544  -0.000035695114872  -0.000035820475646
Si    2.03662  12.89863  15.61412   0.000034995460671  -0.000026408781766   0.000034368586931
Si    2.03662  15.61412  12.89863   0.000035094706449   0.000034285065612  -0.000026317037952
Si    6.10987   0.67888   0.67888  -0.000004698558428   0.000002878072078   0.000002874580169
Si    8.82538   0.67888   3.39437   0.000006428761102   0.000005528180653  -0.000008023145110
Si    6.10987   3.39437   3.39437   0.000002864126375  -0.000014377796228  -0.000014379317365
Si    8.82538   3.39437   0.67888   0.000006444381768  -0.000008018268219   0.000005512584465
Si   10.18313   2.03662   2.03662  -0.000001373813303   0.000002679754690   0.000002706467506
Si   10.18313   4.75213   4.75213   0.000000758170926  -0.000000877754752  -0.000000916797712
Si    7.46762   2.03662   4.75213   0.000000583874334   0.000011292881280   0.000004668054944
Si    7.46762   4.75213   2.03662   0.000000617569532   0.000004669927187   0.000011294793721
Si    6.10987   0.67888   6.10987  -0.000004384086069   0.000028315204560  -0.000014483955743
Si    8.82538   0.67888   8.82538   0.000006830516103   0.000008978119770   0.000008956320844
Si    6.10987   3.39437   8.82538  -0.000000585671146   0.000012231912868   0.000001088127734
Si    8.82538   3.39437   6.10987   0.000005861155974  -0.000004468183823   0.000000849494885
Si   10.18313   2.03662   7.46762  -0.000003964528592  -0.000000888572649  -0.000006383494881
Si   10.18313   4.75213  10.18313   0.000004998358257   0.000011500785749  -0.000007287282723
Si    7.46762   2.03662  10.18313  -0.000011389595657   0.000001935475995   0.000001104201162
Si    7.46762   4.75213   7.46762  -0.000003131247119   0.000003999922906  -0.000015442456414
Si    6.10987   0.67888  11.54087  -0.000005258388784  -0.000018302069477   0.000011597517606
Si    8.82538   0.67888  14.25638   0.000001144265108   0.000005502165039   0.000000731950094
Si    6.10987   3.39437  14.25638   0.000002084674324  -0.000011612978757   0.000004473999469
Si    8.82538   3.39437  11.54087   0.000012123287661  -0.000007496636889  -0.000007130527216
Si   10.18313   2.03662  12.89863   0.000003404225694  -0.000010155337080   0.000009089056145
Si   10.18313   4.75213  15.61412   0.000004295111867   0.000000909928186   0.000007277285686
Si    7.46762   2.03662  15.61412  -0.000003996562137  -0.000003808263977   0.000000069664791
Si    7.46762   4.75213  12.89863  -0.000007376885304   0.000012881454414   0.000005014969861
Si    6.10987   6.10987   0.67888  -0.000004499406888  -0.000014497239696   0.000028279496888
Si    8.82538   6.10987   3.39437   0.000005879074698   0.000000842969108  -0.000004475342555
Si    6.10987   8.82538   3.39437  -0.000000594483140   0.000001093547058   0.000012220962957
Si    8.82538   8.82538   0.67888   0.000006784414290   0.000008974808977   0.000008959566102
Si   10.18313   7.46762   2.03662  -0.000003954081655  -0.000006387627533  -0.000000906256191
Si   10.18313  10.18313   4.75213   0.000004992698801  -0.000007275570043   0.000011525145907
Si    7.46762   7.46762   4.75213  -0.000003135912379  -0.000015425761394   0.000003986033000
Si    7.46762  10.18313   2.03662  -0.000011376442109   0.000001094490969   0.000001952874802
Si    6.10987   6.10987   6.10987  -0.000003939377561   0.000003375180208   0.000003374730843
Si    8.82538   6.10987   8.82538   0.000001948772328   0.000000834636704   0.000002880373810
Si    6.10987   8.82538   8.82538  -0.000000934123618   0.000002889298226   0.000002885025050
Si    8.82538   8.82538   6.10987   0.000001938530074   0.000002854320974   0.000000829266418
Si   10.18313   7.46762   7.46762  -0.000001933627102  -0.000002011576830  -0.000002029647655
Si   10.18313  10.18313  10.18313  -0.000001058534585  -0.000000877848973  -0.000000855594828
Si    7.46762   7.46762  10.18313  -0.000003892102050  -0.000003823057866   0.000000058590353
Si    7.46762  10.18313   7.46762  -0.000003909264381   0.000000075291468  -0.000003813670969
Si    6.10987   6.10987  11.54087  -0.000003821205202   0.000003472894737  -0.000010587297379
Si    8.82538   6.10987  14.25638   0.000010264504097  -0.000001825161264  -0.000001472283976
Si    6.10987   8.82538  14.25638   0.000000281830400   0.000008916437052  -0.000015107487301
Si    8.82538   8.82538  11.54087   0.000007223145797   0.000008175755288  -0.000008120945366
Si   10.18313   7.46762  12.89863   0.000005867192176   0.000004386378634  -0.000001513911627
Si   10.18313  10.18313  15.61412  -0.000003953981390  -0.000000731535897  -0.000006223787163
Si    7.46762   7.46762  15.61412  -0.000013236026442  -0.000010070392758  -0.000010911102020
Si    7.46762  10.18313  12.89863   0.000002131743448   0.000008142481370   0.000007062433329
Si    6.10987  11.54087   0.67888  -0.000005373227197   0.000011606639100  -0.000018264949555
Si    8.82538  11.54087   3.39437   0.000012122102557  -0.000007150195020  -0.000007483156811
Si    6.10987  14.25638   3.39437   0.000002084841189   0.000004494855642  -0.000011598432959
Si    8.82538  14.25638   0.67888   0.000001177005081   0.000000736804798   0.000005534867926
Si   10.18313  12.89863   2.03662   0.000003420491005   0.000009099534300  -0.000010164362441
Si   10.18313  15.61412   4.75213   0.000004279161180   0.000007263987423   0.000000922537921
Si    7.46762  12.89863   4.75213  -0.000007376986360   0.000005066302886   0.000012895772290
Si    7.46762  15.61412   2.03662  -0.000003979125438   0.000000057593515  -0.000003827570290
Si    6.10987  11.54087   6.10987  -0.000003821126987  -0.000010593757359   0.000003460059619
Si    8.82538  11.54087   8.82538   0.000007216151276  -0.000008116610973   0.000008166746073
Si    6.10987  14.25638   8.82538   0.000000290584071  -0.000015122504178   0.000008924058475
Si    8.82538  14.25638   6.10987   0.000010265666991  -0.000001477257000  -0.000001826316184
Si   10.18313  12.89863   7.46762   0.000005872909202  -0.000001491724749   0.000004402387938
Si   10.18313  15.61412  10.18313  -0.000003964339365  -0.000006234913370  -0.000000742076459
Si    7.46762  12.89863  10.18313   0.000002153645959   0.000007031549575   0.000008149470449
Si    7.46762  15.61412   7.46762  -0.000013249302135  -0.000010912017311  -0.000010061639939
Si    6.10987  11.54087  11.54087  -0.000003065548323  -0.000006264389404  -0.000006259659011
Si    8.82538  11.54087  14.25638   0.000005860133903  -0.000004590557791   0.000000718068388
Si    6.10987  14.25638  14.25638   0.000001997487811   0.000011481280461   0.000011487122167
Si    8.82538  14.25638  11.54087   0.000005876690546   0.000000718186389  -0.000004604446393
Si   10.18313  12.89863  12.89863   0.000000760465063   0.000006661484366   0.000006692077911
Si   10.18313  15.61412  15.61412  -0.000002247127130  -0.000005568236037  -0.000005590588004
Si    7.46762  12.89863  15.61412  -0.000004667025439   0.000006359730729  -0.000018587564046
Si    7.46762  15.61412  12.89863  -0.000004683738072  -0.000018576019014   0.000006378737259
Si   11.54087   0.67888   0.67888  -0.000013440834954   0.000008148488534   0.000008152500767
Si   14.25638   0.67888   3.39437  -0.000179285556739   0.000112575483952   0.000182479199325
Si   11.54087   3.39437   3.39437  -0.000006648063191  -0.000003528431486  -0.000003552228835
Si   14.25638   3.39437   0.67888  -0.000179318672743   0.000182550132239   0.000112982064699
Si   15.61412   2.03662   2.03662  -0.003262972117091   0.002166835205589   0.002166947575727
Si   15.61412   4.75213   4.75213  -0.000180876492913  -0.000045695951770  -0.000045779618386
Si   12.89863   2.03662   4.75213  -0.000014355595642  -0.000055151470580   0.000022767551452
Si   12.89863   4.75213   2.03662  -0.000014315212165   0.000022759271598  -0.000055028329049
Si   11.54087   0.67888   6.10987  -0.000006661647171   0.000022726652307   0.000013098561814
Si   14.25638   0.67888   8.82538  -0.000011120104793   0.000002890953040   0.000002884721590
Si   11.54087   3.39437   8.82538  -0.000008758675963  -0.000024324539736   0.000007223901537
Si   14.25638   3.39437   6.10987  -0.000014130692152  -0.000031372972195   0.000011734751062
Si   15.61412   2.03662   7.46762   0.000013595863572  -0.000001252197282  -0.000000005015750
Si   15.61412   4.75213  10.18313   0.000006436220630   0.000011805965555   0.000011229216736
Si   12.89863   2.03662  10.18313   0.000004478937139   0.000009196869243   0.000001802512358
Si   12.89863   4.75213   7.46762   0.000009174608312   0.000031444606320  -0.000012883672839
Si   11.54087   0.67888  11.54087  -0.000012761169340  -0.000010874664598  -0.000022920024175
Si   14.25638   0.67888  14.25638  -0.000178468542041  -0.000102456967074  -0.000185406655680
Si   11.54087   3.39437  14.25638  -0.000001002020721   0.000008813027076  -0.000010822250459
Si   14.25638   3.39437  11.54087  -0.000013365941634  -0.000027767802444  -0.000007712855568
Si   15.61412   2.03662  12.89863   0.000029307182632   0.000040272252873   0.000029991570436
Si   15.61412   4.75213  15.61412   0.000023882788841  -0.000019096955206  -0.000047610924392
Si   12.89863   2.03662  15.61412   0.000005123935683  -0.000027792198822   0.000025943540946
Si   12.89863   4.75213  12.89863   0.000015183581916   0.000008314590547   0.000008005979287
Si   11.54087   6.10987   0.67888  -0.000006783469932   0.000013105248504   0.000022698341965
Si   14.25638   6.10987   3.39437  -0.000014114764006   0.000011720693340  -0.000031299846584
Si   11.54087   8.82538   3.39437  -0.000008768022345   0.000007242827242  -0.000024293673106
Si   14.25638   8.82538   0.67888  -0.000011036390399   0.000002889000489   0.000002886610183
Si   15.61412   7.46762   2.03662   0.000013602668899  -0.000000009448602  -0.000001440216421
Si   15.61412  10.18313   4.75213   0.000006418749844   0.000011211952395   0.000011787604796
Si   12.89863   7.46762   4.75213   0.000009274171643  -0.000012905218734   0.000031433783271
Si   12.89863  10.18313   2.03662   0.000004504066625   0.000001804315303   0.000009191752820
Si   11.54087   6.10987   6.10987  -0.000010944832256  -0.000003432391361  -0.000003421119143
Si   14.25638   6.10987   8.82538  -0.000002602497078  -0.000015203897246   0.000008677763469
Si   11.54087   8.82538   8.82538  -0.000009853145938   0.000008157080380   0.000008161189582
Si   14.25638   8.82538   6.10987  -0.000002613118063   0.000008671568712  -0.000015203215057
Si   15.61412   7.46762   7.46762  -0.000070092250053  -0.000010398458235  -0.000010374512375
Si   15.61412  10.18313  10.18313  -0.000068228619496   0.000001420552375   0.000001415067286
Si   12.89863   7.46762  10.18313   0.000003470411629   0.000001348156292  -0.000003348406701
Si   12.89863  10.18313   7.46762   0.000003487598590  -0.000003347436508   0.000001330522653
Si   11.54087   6.10987  11.54087  -0.000006661695622  -0.000002633926905   0.000000622257885
Si   14.25638   6.10987  14.25638  -0.000014256572264   0.000004841501252   0.000024888469272
Si   11.54087   8.82538  14.25638  -0.000002666386744   0.000004604413929   0.000014467301783
Si   14.25638   8.82538  11.54087  -0.000003488255893   0.000001337676530   0.000012315194737
Si   15.61412   7.46762  12.89863   0.000001151737589  -0.000018495441180  -0.000000739495307
Si   15.61412  10.18313  15.61412   0.000013585470959  -0.000003739248165  -0.000002320066724
Si   12.89863   7.46762  15.61412   0.000005540072347  -0.000009959851562  -0.000017354083800
Si   12.89863  10.18313  12.89863   0.000003197714947   0.000003059513820  -0.000019591688931
Si   11.54087  11.54087   0.67888  -0.000012865367567  -0.000022950795166  -0.000010851816708
Si   14.25638  11.54087   3.39437  -0.000013379814482  -0.000007732085705  -0.000027767941999
Si   11.54087  14.25638   3.39437  -0.000001019299539  -0.000010809263152   0.000008807400775
Si   14.25638  14.25638   0.67888  -0.000178494298597  -0.000185482776962  -0.000102861282587
Si   15.61412  12.89863   2.03662   0.000029157786211   0.000030075461056   0.000040347803653
Si   15.61412  15.61412   4.75213   0.000024048673316  -0.000047531737684  -0.000018996378505
Si   12.89863  12.89863   4.75213   0.000015183224476   0.000007998591222   0.000008315689569
Si   12.89863  15.61412   2.03662   0.000005107386623   0.000025844581747  -0.000027910215165
Si   11.54087  11.54087   6.10987  -0.000006644435712   0.000000636200839  -0.000002638511392
Si   14.25638  11.54087   8.82538  -0.000003477596165   0.000012311563601   0.000001333688641
Si   11.54087  14.25638   8.82538  -0.000002674351838   0.000014474080659   0.000004617787328
Si   14.25638  14.25638   6.10987  -0.000014244336302   0.000024883477935   0.000004826761525
Si   15.61412  12.89863   7.46762   0.000001152054218  -0.000000774701060  -0.000018522377347
Si   15.61412  15.61412  10.18313   0.000013614514597  -0.000002500596499  -0.000003751027921
Si   12.89863  12.89863  10.18313   0.000003081606853  -0.000019596341748   0.000003062286482
Si   12.89863  15.61412   7.46762   0.000005514387520  -0.000017355192774  -0.000009962319593
Si   11.54087  11.54087  11.54087  -0.000011981779173  -0.000004723841251  -0.000004739224954
Si   14.25638  11.54087  14.25638  -0.000014122021953  -0.000018837557584   0.000024175076745
Si   11.54087  14.25638  14.25638  -0.000005617326921  -0.000004637112808  -0.000004617346054
Si   14.25638  14.25638  11.54087  -0.000014135801456   0.000024256220524  -0.000018858348290
Si   15.61412  12.89863  12.89863  -0.000180881676154   0.000063668637607   0.000063715882711
Si   15.61412  15.61412  15.61412  -0.003264887850887  -0.002175712159843  -0.002175811838303
Si   12.89863  12.89863  15.61412  -0.000008189012137  -0.000010901398153   0.000045159033445
Si   12.89863  15.61412  12.89863  -0.000008246369317   0.000045257641834  -0.000010914879950
