64 

C   -0.00000  -0.00000  -0.00000  -0.000000000036374  -0.000000000000377  -0.000000000000071
C   -0.00000   1.78350   1.78350  -0.000000000034521  -0.000000000000795  -0.000000000000498
C    1.78350  -0.00000   1.78350  -0.000000000035399  -0.000000000000213  -0.000000000000118
C    1.78350   1.78350  -0.00000  -0.000000000035013  -0.000000000000793   0.000000000000352
C    0.89175   0.89175   0.89175  -0.000000000034879   0.000000000000348   0.000000000001533
C    0.89175   2.67525   2.67525  -0.000000000035106  -0.000000000000726   0.000000000000345
C    2.67525   0.89175   2.67525  -0.000000000034371   0.000000000000010  -0.000000000000027
C    2.67525   2.67525   0.89175  -0.000000000035588   0.000000000000490   0.000000000000062
C   -0.00000  -0.00000   3.56700  -0.000000000035385   0.000000000000686  -0.000000000000262
C   -0.00000   1.78350   5.35050  -0.000000000035884   0.000000000000527  -0.000000000001939
C    1.78350  -0.00000   5.35050  -0.000000000035081  -0.000000000000411  -0.000000000000337
C    1.78350   1.78350   3.56700  -0.000000000036228   0.000000000000394  -0.000000000000617
C    0.89175   0.89175   4.45875  -0.000000000036469   0.000000000001200  -0.000000000000733
C    0.89175   2.67525   6.24225  -0.000000000034490   0.000000000000889  -0.000000000000644
C    2.67525   0.89175   6.24225  -0.000000000035430   0.000000000000352   0.000000000000367
C    2.67525   2.67525   4.45875  -0.000000000035351   0.000000000000085   0.000000000000020
C   -0.00000   3.56700  -0.00000  -0.000000000035665   0.000000000000229   0.000000000000843
C   -0.00000   5.35050   1.78350  -0.000000000034706  -0.000000000000814  -0.000000000000172
C    1.78350   3.56700   1.78350  -0.000000000034626  -0.000000000000062  -0.000000000000230
C    1.78350   5.35050  -0.00000  -0.000000000035314  -0.000000000000059   0.000000000000323
C    0.89175   4.45875   0.89175  -0.000000000035421   0.000000000001347   0.000000000001399
C    0.89175   6.24225   2.67525  -0.000000000035299   0.000000000000439  -0.000000000000911
C    2.67525   4.45875   2.67525  -0.000000000034669   0.000000000000689   0.000000000000390
C    2.67525   6.24225   0.89175  -0.000000000034679   0.000000000000215   0.000000000001075
C   -0.00000   3.56700   3.56700  -0.000000000034712   0.000000000000060   0.000000000000260
C   -0.00000   5.35050   5.35050  -0.000000000035390  -0.000000000000443   0.000000000000067
C    1.78350   3.56700   5.35050  -0.000000000035623  -0.000000000000245   0.000000000000100
C    1.78350   5.35050   3.56700  -0.000000000035144   0.000000000000297   0.000000000000192
C    0.89175   4.45875   4.45875  -0.000000000035092  -0.000000000000049   0.000000000000096
C    0.89175   6.24225   6.24225  -0.000000000034351  -0.000000000000509  -0.000000000000048
C    2.67525   4.45875   6.24225  -0.000000000036107   0.000000000000014   0.000000000000242
C    2.67525   6.24225   4.45875  -0.000000000036962  -0.000000000000503   0.000000000000138
C    3.56700  -0.00000  -0.00000  -0.000000000035576  -0.000000000000187   0.000000000000609
C    3.56700   1.78350   1.78350  -0.000000000034542  -0.000000000001093   0.000000000001297
C    5.35050  -0.00000   1.78350  -0.000000000036295   0.000000000000406   0.000000000000136
C    5.35050   1.78350  -0.00000  -0.000000000036251   0.000000000000762  -0.000000000000509
C    4.45875   0.89175   0.89175  -0.000000000035642  -0.000000000000544   0.000000000000999
C    4.45875   2.67525   2.67525  -0.000000000035346  -0.000000000001720  -0.000000000000279
C    6.24225   0.89175   2.67525  -0.000000000036051  -0.000000000000517  -0.000000000000463
C    6.24225   2.67525   0.89175  -0.000000000036923  -0.000000000000149   0.000000000000129
C    3.56700  -0.00000   3.56700  -0.000000000034827  -0.000000000000117  -0.000000000001111
C    3.56700   1.78350   5.35050  -0.000000000035059   0.000000000000103   0.000000000000124
C    5.35050  -0.00000   5.35050  -0.000000000036410   0.000000000000285  -0.000000000000040
C    5.35050   1.78350   3.56700  -0.000000000035983  -0.000000000000959  -0.000000000000122
C    4.45875   0.89175   4.45875  -0.000000000035382   0.000000000000265  -0.000000000000015
C    4.45875   2.67525   6.24225  -0.000000000034884  -0.000000000000677  -0.000000000000489
C    6.24225   0.89175   6.24225  -0.000000000036314   0.000000000000374   0.000000000000419
C    6.24225   2.67525   4.45875  -0.000000000035056  -0.000000000000323  -0.000000000000155
C    3.56700   3.56700  -0.00000  -0.000000000035626  -0.000000000000376  -0.000000000000314
C    3.56700   5.35050   1.78350  -0.000000000035507   0.000000000000790   0.000000000000503
C    5.35050   3.56700   1.78350  -0.000000000035246   0.000000000000033  -0.000000000000279
C    5.35050   5.35050  -0.00000  -0.000000000035471   0.000000000001038   0.000000000000685
C    4.45875   4.45875   0.89175  -0.000000000034646  -0.000000000000120   0.000000000000375
C    4.45875   6.24225   2.67525  -0.000000000035975   0.000000000000328   0.000000000000550
C    6.24225   4.45875   2.67525  -0.000000000035266  -0.000000000000498  -0.000000000000294
C    6.24225   6.24225   0.89175  -0.000000000035815   0.000000000000189  -0.000000000000250
C    3.56700   3.56700   3.56700  -0.000000000036271  -0.000000000000116   0.000000000000519
C    3.56700   5.35050   5.35050  -0.000000000035905  -0.000000000000696  -0.000000000000094
C    5.35050   3.56700   5.35050  -0.000000000036056  -0.000000000000016   0.000000000000389
C    5.35050   5.35050   3.56700  -0.000000000036304   0.000000000000474   0.000000000000602
C    4.45875   4.45875   4.45875  -0.000000000035890  -0.000000000000244   0.000000000000079
C    4.45875   6.24225   6.24225  -0.000000000034780   0.000000000000955   0.000000000000835
C    6.24225   4.45875   6.24225  -0.000000000035899   0.000000000000037   0.000000000000115
C    6.24225   6.24225   4.45875  -0.000000000036080   0.000000000000245  -0.000000000000239
