216 

Si    0.67888   0.67888   0.67888   0.000008974336537   0.000008974336354   0.000008955832607
Si    3.39437   0.67888   3.39437  -0.000008974336974   0.000008974336586  -0.000008955832736
Si    0.67888   3.39437   3.39437   0.000008974336532  -0.000008974336593  -0.000008955832893
Si    3.39437   3.39437   0.67888  -0.000008974337068  -0.000008974336863   0.000008955832698
Si    4.75213   2.03662   2.03662   0.000007118414445   0.000000000000074  -0.000000000000024
Si    4.75213   4.75213   4.75213   0.000008157318712   0.000008157318690   0.000008161418143
Si    2.03662   2.03662   4.75213   0.000000000000934   0.000000000000170   0.000007124878579
Si    2.03662   4.75213   2.03662   0.000000000000747   0.000007118414538   0.000000000000231
Si    0.67888   0.67888   6.10987   0.000002872606198   0.000002872606619   0.000000869889550
Si    3.39437   0.67888   8.82538  -0.000008157319196   0.000008157318884   0.000008161418575
Si    0.67888   3.39437   8.82538   0.000008157318348  -0.000008157318895   0.000008161418197
Si    3.39437   3.39437   6.10987  -0.000002872606832  -0.000002872606876   0.000000869889334
Si    4.75213   2.03662   7.46762   0.000002889834849   0.000000875492269  -0.000002885567617
Si    4.75213   4.75213  10.18313   0.000002872606632   0.000002872606568  -0.000000869889274
Si    2.03662   2.03662  10.18313   0.000000000000611  -0.000000000000150  -0.000000000000079
Si    2.03662   4.75213   7.46762   0.000000875492651   0.000002889834904  -0.000002885567290
Si    0.67888   0.67888  11.54087   0.000008157318666   0.000008157318962  -0.000008161418182
Si    3.39437   0.67888  14.25638  -0.000002872607129   0.000002872606569  -0.000000869889567
Si    0.67888   3.39437  14.25638   0.000002872606304  -0.000002872606601  -0.000000869889540
Si    3.39437   3.39437  11.54087  -0.000008157318828  -0.000008157318976  -0.000008161418327
Si    4.75213   2.03662  12.89863   0.000002889834749  -0.000000875492269   0.000002885567433
Si    4.75213   4.75213  15.61412   0.000008974336548   0.000008974336451  -0.000008955832536
Si    2.03662   2.03662  15.61412   0.000000000000966  -0.000000000000272  -0.000007124878417
Si    2.03662   4.75213  12.89863  -0.000000875491619   0.000002889834894   0.000002885567321
Si    0.67888   6.10987   0.67888   0.000002889834722   0.000000875492426   0.000002885567381
Si    3.39437   6.10987   3.39437  -0.000002889835445   0.000000875492289  -0.000002885567222
Si    0.67888   8.82538   3.39437   0.000008157318539   0.000008157318872  -0.000008161418148
Si    3.39437   8.82538   0.67888  -0.000008157319227   0.000008157319005   0.000008161418371
Si    4.75213   7.46762   2.03662   0.000002872606404  -0.000002872606952   0.000000869889303
Si    4.75213  10.18313   4.75213   0.000002889834531  -0.000000875492171   0.000002885567018
Si    2.03662   7.46762   4.75213   0.000000875492599  -0.000002889835103   0.000002885567080
Si    2.03662  10.18313   2.03662   0.000000000000569   0.000000000000222  -0.000000000000035
Si    0.67888   6.10987   6.10987   0.000007118414388   0.000000000000213  -0.000000000000237
Si    3.39437   6.10987   8.82538  -0.000002889835161  -0.000000875492329   0.000002885567063
Si    0.67888   8.82538   8.82538   0.000008974336170   0.000008974336931   0.000008955832709
Si    3.39437   8.82538   6.10987  -0.000002872607034   0.000002872606719  -0.000000869889629
Si    4.75213   7.46762   7.46762   0.000008157318771  -0.000008157318703  -0.000008161418245
Si    4.75213  10.18313  10.18313   0.000007118414203   0.000000000000104   0.000000000000086
Si    2.03662   7.46762  10.18313   0.000000000000733  -0.000007118414578  -0.000000000000070
Si    2.03662  10.18313   7.46762   0.000000000000585  -0.000000000000017  -0.000007124878793
Si    0.67888   6.10987  11.54087   0.000002889834257  -0.000000875492341  -0.000002885567309
Si    3.39437   6.10987  14.25638  -0.000007118414725   0.000000000000121   0.000000000000051
Si    0.67888   8.82538  14.25638   0.000002872606229   0.000002872606989   0.000000869889653
Si    3.39437   8.82538  11.54087  -0.000008974336929   0.000008974336836  -0.000008955832577
Si    4.75213   7.46762  12.89863   0.000008974336207  -0.000008974336658   0.000008955832676
Si    4.75213  10.18313  15.61412   0.000002889834415   0.000000875492179  -0.000002885567143
Si    2.03662   7.46762  15.61412  -0.000000875491589  -0.000002889834933  -0.000002885567042
Si    2.03662  10.18313  12.89863   0.000000000000601   0.000000000000055   0.000007124878787
Si    0.67888  11.54087   0.67888   0.000008157318544  -0.000008157318758   0.000008161418287
Si    3.39437  11.54087   3.39437  -0.000008157319325  -0.000008157318796  -0.000008161418363
Si    0.67888  14.25638   3.39437   0.000002889834524  -0.000000875492307  -0.000002885567312
Si    3.39437  14.25638   0.67888  -0.000002889835432  -0.000000875492449   0.000002885567303
Si    4.75213  12.89863   2.03662   0.000002872606131   0.000002872606875  -0.000000869889348
Si    4.75213  15.61412   4.75213   0.000008974336246  -0.000008974336549   0.000008955832539
Si    2.03662  12.89863   4.75213  -0.000000875491437   0.000002889834927   0.000002885566814
Si    2.03662  15.61412   2.03662   0.000000000000727  -0.000007118414526  -0.000000000000062
Si    0.67888  11.54087   6.10987   0.000002872606256  -0.000002872606789  -0.000000869889542
Si    3.39437  11.54087   8.82538  -0.000008974337264  -0.000008974336688   0.000008955832808
Si    0.67888  14.25638   8.82538   0.000002889834418   0.000000875492133   0.000002885567501
Si    3.39437  14.25638   6.10987  -0.000007118414979   0.000000000000046  -0.000000000000073
Si    4.75213  12.89863   7.46762   0.000008974336185   0.000008974336643  -0.000008955832815
Si    4.75213  15.61412  10.18313   0.000002872606430  -0.000002872606732   0.000000869889507
Si    2.03662  12.89863  10.18313   0.000000000000730   0.000007118414663   0.000000000000165
Si    2.03662  15.61412   7.46762  -0.000000875491460  -0.000002889834952  -0.000002885567470
Si    0.67888  11.54087  11.54087   0.000008974336295  -0.000008974336638  -0.000008955832779
Si    3.39437  11.54087  14.25638  -0.000002872607063  -0.000002872606423   0.000000869889699
Si    0.67888  14.25638  14.25638   0.000007118414259  -0.000000000000189   0.000000000000165
Si    3.39437  14.25638  11.54087  -0.000002889835443   0.000000875492292  -0.000002885567107
Si    4.75213  12.89863  12.89863   0.000008157318526   0.000008157318911   0.000008161418368
Si    4.75213  15.61412  15.61412   0.000008157318593  -0.000008157318648  -0.000008161418357
Si    2.03662  12.89863  15.61412   0.000000875492715   0.000002889834982  -0.000002885567203
Si    2.03662  15.61412  12.89863   0.000000875493039  -0.000002889835038   0.000002885567381
Si    6.10987   0.67888   0.67888   0.000000875492878   0.000002889834944   0.000002885567500
Si    8.82538   0.67888   3.39437   0.000008157318469   0.000008157319259  -0.000008161418208
Si    6.10987   3.39437   3.39437   0.000000875492862  -0.000002889835056  -0.000002885567271
Si    8.82538   3.39437   0.67888   0.000008157318466  -0.000008157318981   0.000008161418244
Si   10.18313   2.03662   2.03662   0.000000000000656   0.000000000000064   0.000000000000118
Si   10.18313   4.75213   4.75213  -0.000000875491652   0.000002889835042   0.000002885567379
Si    7.46762   2.03662   4.75213  -0.000002889835369   0.000000875492135   0.000002885567341
Si    7.46762   4.75213   2.03662  -0.000002872607208   0.000002872606957   0.000000869889568
Si    6.10987   0.67888   6.10987   0.000000000000788   0.000007118414885  -0.000000000000044
Si    8.82538   0.67888   8.82538   0.000008974336364   0.000008974336738   0.000008955832950
Si    6.10987   3.39437   8.82538  -0.000000875491103  -0.000002889835058   0.000002885567369
Si    8.82538   3.39437   6.10987   0.000002872606375  -0.000002872606755  -0.000000869889518
Si   10.18313   2.03662   7.46762   0.000000000000553   0.000000000000109  -0.000007124878470
Si   10.18313   4.75213  10.18313   0.000000000000535   0.000007118414377   0.000000000000041
Si    7.46762   2.03662  10.18313  -0.000007118414757   0.000000000000131   0.000000000000035
Si    7.46762   4.75213   7.46762  -0.000008157318930   0.000008157319003  -0.000008161418088
Si    6.10987   0.67888  11.54087  -0.000000875491214   0.000002889835121  -0.000002885567310
Si    8.82538   0.67888  14.25638   0.000002872606313   0.000002872606936   0.000000869889491
Si    6.10987   3.39437  14.25638   0.000000000000957  -0.000007118414611   0.000000000000016
Si    8.82538   3.39437  11.54087   0.000008974336273  -0.000008974336616  -0.000008955832821
Si   10.18313   2.03662  12.89863   0.000000000000520   0.000000000000170   0.000007124878281
Si   10.18313   4.75213  15.61412   0.000000875492735   0.000002889834983  -0.000002885567485
Si    7.46762   2.03662  15.61412  -0.000002889835397  -0.000000875492053  -0.000002885567432
Si    7.46762   4.75213  12.89863  -0.000008974336814   0.000008974336319   0.000008955832539
Si    6.10987   6.10987   0.67888   0.000000000000937  -0.000000000000162   0.000007124878914
Si    8.82538   6.10987   3.39437   0.000002889834433  -0.000000875492524  -0.000002885567243
Si    6.10987   8.82538   3.39437  -0.000000875491421   0.000002889835014  -0.000002885567018
Si    8.82538   8.82538   0.67888   0.000008974336234   0.000008974336653   0.000008955832866
Si   10.18313   7.46762   2.03662   0.000000000000665  -0.000007118414470  -0.000000000000133
Si   10.18313  10.18313   4.75213   0.000000000000848  -0.000000000000163   0.000007124878701
Si    7.46762   7.46762   4.75213  -0.000008157319058  -0.000008157318994   0.000008161418248
Si    7.46762  10.18313   2.03662  -0.000007118414758  -0.000000000000236   0.000000000000047
Si    6.10987   6.10987   6.10987   0.000000000000805  -0.000000000000177  -0.000000000000066
Si    8.82538   6.10987   8.82538   0.000002889834585   0.000000875492199   0.000002885567375
Si    6.10987   8.82538   8.82538   0.000000875493386   0.000002889834733   0.000002885567145
Si    8.82538   8.82538   6.10987   0.000002872606479   0.000002872606549   0.000000869889526
Si   10.18313   7.46762   7.46762  -0.000000875491657  -0.000002889835074  -0.000002885567074
Si   10.18313  10.18313  10.18313   0.000000000000978   0.000000000000019   0.000000000000236
Si    7.46762   7.46762  10.18313  -0.000002872606959  -0.000002872606869  -0.000000869889611
Si    7.46762  10.18313   7.46762  -0.000002889835390  -0.000000875492338  -0.000002885566959
Si    6.10987   6.10987  11.54087   0.000000000001161  -0.000000000000090  -0.000007124878823
Si    8.82538   6.10987  14.25638   0.000007118414039  -0.000000000000130   0.000000000000127
Si    6.10987   8.82538  14.25638   0.000000000000902   0.000007118414497   0.000000000000018
Si    8.82538   8.82538  11.54087   0.000008157318782   0.000008157318552  -0.000008161418446
Si   10.18313   7.46762  12.89863   0.000000875493069  -0.000002889834915   0.000002885566877
Si   10.18313  10.18313  15.61412   0.000000000000798  -0.000000000000140  -0.000007124878750
Si    7.46762   7.46762  15.61412  -0.000008974336932  -0.000008974336737  -0.000008955832734
Si    7.46762  10.18313  12.89863  -0.000002889835274   0.000000875492314   0.000002885567277
Si    6.10987  11.54087   0.67888  -0.000000875491680  -0.000002889834872   0.000002885567008
Si    8.82538  11.54087   3.39437   0.000008974336265  -0.000008974336683  -0.000008955832805
Si    6.10987  14.25638   3.39437   0.000000000000573   0.000000000000307  -0.000007124878967
Si    8.82538  14.25638   0.67888   0.000002889834445   0.000000875492225   0.000002885567268
Si   10.18313  12.89863   2.03662   0.000000000000549   0.000007118414584   0.000000000000022
Si   10.18313  15.61412   4.75213   0.000000875493007  -0.000002889834945   0.000002885567383
Si    7.46762  12.89863   4.75213  -0.000008974337021   0.000008974336577   0.000008955832720
Si    7.46762  15.61412   2.03662  -0.000002872607259  -0.000002872606826  -0.000000869889654
Si    6.10987  11.54087   6.10987   0.000000000000834  -0.000007118414620  -0.000000000000083
Si    8.82538  11.54087   8.82538   0.000008157318815  -0.000008157318799   0.000008161418153
Si    6.10987  14.25638   8.82538   0.000000000001029   0.000000000000104   0.000007124878933
Si    8.82538  14.25638   6.10987   0.000007118414268   0.000000000000060   0.000000000000119
Si   10.18313  12.89863   7.46762   0.000000875493072   0.000002889834979  -0.000002885566966
Si   10.18313  15.61412  10.18313   0.000000000000602  -0.000007118414463  -0.000000000000168
Si    7.46762  12.89863  10.18313  -0.000002872607205   0.000002872606609   0.000000869889646
Si    7.46762  15.61412   7.46762  -0.000008974336947  -0.000008974336354  -0.000008955832751
Si    6.10987  11.54087  11.54087   0.000000875493228  -0.000002889834746  -0.000002885567259
Si    8.82538  11.54087  14.25638   0.000002872606271  -0.000002872606691  -0.000000869889705
Si    6.10987  14.25638  14.25638   0.000000000000565  -0.000000000000096  -0.000000000000006
Si    8.82538  14.25638  11.54087   0.000002889834847  -0.000000875492100  -0.000002885567296
Si   10.18313  12.89863  12.89863  -0.000000875491498   0.000002889834833   0.000002885567099
Si   10.18313  15.61412  15.61412  -0.000000875491687  -0.000002889834947  -0.000002885567274
Si    7.46762  12.89863  15.61412  -0.000008157319057   0.000008157318996  -0.000008161418227
Si    7.46762  15.61412  12.89863  -0.000008157319201  -0.000008157318721   0.000008161418172
Si   11.54087   0.67888   0.67888  -0.000008157319327   0.000008157318922   0.000008161418208
Si   14.25638   0.67888   3.39437  -0.000000875491099   0.000002889834817  -0.000002885567190
Si   11.54087   3.39437   3.39437  -0.000008157319414  -0.000008157318839  -0.000008161418266
Si   14.25638   3.39437   0.67888  -0.000000875491002  -0.000002889834954   0.000002885567094
Si   15.61412   2.03662   2.03662  -0.000007118415066   0.000000000000058   0.000000000000141
Si   15.61412   4.75213   4.75213  -0.000008974337004   0.000008974336515   0.000008955832863
Si   12.89863   2.03662   4.75213   0.000002889834483  -0.000000875492084   0.000002885567253
Si   12.89863   4.75213   2.03662   0.000002872606391   0.000002872606736  -0.000000869889084
Si   11.54087   0.67888   6.10987  -0.000002872607018   0.000002872606784  -0.000000869889446
Si   14.25638   0.67888   8.82538   0.000000875492894   0.000002889835128   0.000002885567221
Si   11.54087   3.39437   8.82538  -0.000008974337037  -0.000008974336691   0.000008955832761
Si   14.25638   3.39437   6.10987   0.000000000000796  -0.000007118414518   0.000000000000036
Si   15.61412   2.03662   7.46762  -0.000002889835145  -0.000000875492131  -0.000002885567089
Si   15.61412   4.75213  10.18313  -0.000002872606999   0.000002872606773   0.000000869889457
Si   12.89863   2.03662  10.18313   0.000007118414010  -0.000000000000139   0.000000000000121
Si   12.89863   4.75213   7.46762   0.000008974336231   0.000008974336733  -0.000008955832558
Si   11.54087   0.67888  11.54087  -0.000008974336984   0.000008974336893  -0.000008955832642
Si   14.25638   0.67888  14.25638   0.000000000000820   0.000007118414537  -0.000000000000157
Si   11.54087   3.39437  14.25638  -0.000002872607135  -0.000002872606678   0.000000869889328
Si   14.25638   3.39437  11.54087   0.000000875492808  -0.000002889834855  -0.000002885567306
Si   15.61412   2.03662  12.89863  -0.000002889835411   0.000000875491909   0.000002885567227
Si   15.61412   4.75213  15.61412  -0.000008157319233   0.000008157318788  -0.000008161418282
Si   12.89863   2.03662  15.61412   0.000002889834651   0.000000875492130  -0.000002885567377
Si   12.89863   4.75213  12.89863   0.000008157318364   0.000008157318646   0.000008161418092
Si   11.54087   6.10987   0.67888  -0.000002889835552  -0.000000875492247   0.000002885567307
Si   14.25638   6.10987   3.39437   0.000000000000882   0.000000000000340  -0.000007124878691
Si   11.54087   8.82538   3.39437  -0.000008974336894   0.000008974336701  -0.000008955832604
Si   14.25638   8.82538   0.67888   0.000000875493242   0.000002889834967   0.000002885567591
Si   15.61412   7.46762   2.03662  -0.000002872607104  -0.000002872606538  -0.000000869889546
Si   15.61412  10.18313   4.75213  -0.000002889835333   0.000000875492181   0.000002885567118
Si   12.89863   7.46762   4.75213   0.000008974336424  -0.000008974336596   0.000008955832814
Si   12.89863  10.18313   2.03662   0.000007118414397   0.000000000000044  -0.000000000000114
Si   11.54087   6.10987   6.10987  -0.000007118414878  -0.000000000000060  -0.000000000000009
Si   14.25638   6.10987   8.82538   0.000000000000530  -0.000000000000058   0.000007124878790
Si   11.54087   8.82538   8.82538  -0.000008157319497   0.000008157318726   0.000008161418469
Si   14.25638   8.82538   6.10987   0.000000000000794   0.000007118414569  -0.000000000000039
Si   15.61412   7.46762   7.46762  -0.000008974337198  -0.000008974336599  -0.000008955832956
Si   15.61412  10.18313  10.18313  -0.000007118415167   0.000000000000011  -0.000000000000104
Si   12.89863   7.46762  10.18313   0.000002872606337  -0.000002872606783   0.000000869889268
Si   12.89863  10.18313   7.46762   0.000002889834860   0.000000875492285  -0.000002885567444
Si   11.54087   6.10987  11.54087  -0.000002889835434   0.000000875492294  -0.000002885567312
Si   14.25638   6.10987  14.25638   0.000000000000847   0.000000000000131  -0.000000000000046
Si   11.54087   8.82538  14.25638  -0.000002872606903   0.000002872606668  -0.000000869889520
Si   14.25638   8.82538  11.54087  -0.000000875491479   0.000002889835190  -0.000002885567084
Si   15.61412   7.46762  12.89863  -0.000008157319259  -0.000008157318858   0.000008161418353
Si   15.61412  10.18313  15.61412  -0.000002889835134  -0.000000875491992  -0.000002885567283
Si   12.89863   7.46762  15.61412   0.000008157318509  -0.000008157318591  -0.000008161418543
Si   12.89863  10.18313  12.89863   0.000002889834700  -0.000000875492077   0.000002885567186
Si   11.54087  11.54087   0.67888  -0.000008974336762  -0.000008974336864   0.000008955832833
Si   14.25638  11.54087   3.39437   0.000000875493151  -0.000002889834893  -0.000002885567337
Si   11.54087  14.25638   3.39437  -0.000002889835124   0.000000875492334  -0.000002885567186
Si   14.25638  14.25638   0.67888   0.000000000001118  -0.000000000000338   0.000007124878699
Si   15.61412  12.89863   2.03662  -0.000002872606825   0.000002872606587   0.000000869889518
Si   15.61412  15.61412   4.75213  -0.000008157319029  -0.000008157319075   0.000008161418077
Si   12.89863  12.89863   4.75213   0.000008157318591   0.000008157318502   0.000008161418422
Si   12.89863  15.61412   2.03662   0.000002872606368  -0.000002872606763   0.000000869889621
Si   11.54087  11.54087   6.10987  -0.000002872606841  -0.000002872606702   0.000000869889516
Si   14.25638  11.54087   8.82538  -0.000000875491427  -0.000002889835110   0.000002885567457
Si   11.54087  14.25638   8.82538  -0.000002889835415  -0.000000875492208   0.000002885567274
Si   14.25638  14.25638   6.10987   0.000000000000984  -0.000000000000015  -0.000000000000110
Si   15.61412  12.89863   7.46762  -0.000008157319217   0.000008157318930  -0.000008161418406
Si   15.61412  15.61412  10.18313  -0.000002872607069  -0.000002872606950  -0.000000869889552
Si   12.89863  12.89863  10.18313   0.000002872606571   0.000002872606787  -0.000000869889392
Si   12.89863  15.61412   7.46762   0.000008157318323  -0.000008157318919  -0.000008161418060
Si   11.54087  11.54087  11.54087  -0.000008157319349  -0.000008157318977  -0.000008161418318
Si   14.25638  11.54087  14.25638   0.000000000000681  -0.000007118414772   0.000000000000100
Si   11.54087  14.25638  14.25638  -0.000007118414881   0.000000000000005  -0.000000000000244
Si   14.25638  14.25638  11.54087   0.000000000000618  -0.000000000000117  -0.000007124878815
Si   15.61412  12.89863  12.89863  -0.000008974336861   0.000008974336871   0.000008955832833
Si   15.61412  15.61412  15.61412  -0.000008974336712  -0.000008974336646  -0.000008955832630
Si   12.89863  12.89863  15.61412   0.000008974336624   0.000008974336558  -0.000008955832818
Si   12.89863  15.61412  12.89863   0.000008974336487  -0.000008974336593   0.000008955832481
