384 

Si    0.67887   0.67887   0.67888   0.000003780064596   0.000003780065082  -0.000004943501568
Si    3.39438   0.67887   3.39437  -0.000002077211638  -0.000005614851655   0.000007892037390
Si    0.67887   3.39437   3.39437  -0.000005614851514  -0.000002077211199   0.000007892037658
Si    3.39438   3.39437   0.67888   0.000002232242613   0.000002232242463  -0.000005445776120
Si    4.75212   2.03662   2.03662  -0.000000011718683   0.000000377834443  -0.000000871235818
Si    4.75212   4.75212   4.75213  -0.000002021729089  -0.000002021729279  -0.000003168547210
Si    2.03662   2.03662   4.75213  -0.000002167633384  -0.000002167633372  -0.000003637244208
Si    2.03662   4.75212   2.03662   0.000000377834384  -0.000000011718777  -0.000000871235628
Si    0.67887   0.67887   6.10987  -0.000004899091310  -0.000004899091290   0.000000333512293
Si    3.39438   0.67887   8.82537  -0.000002759450401  -0.000005114971037  -0.000009135325108
Si    0.67887   3.39437   8.82537  -0.000005114971090  -0.000002759450404  -0.000009135324900
Si    3.39438   3.39437   6.10987  -0.000004153420306  -0.000004153420496   0.000000193838023
Si    4.75212   2.03662   7.46762   0.000001267465879  -0.000000900118480   0.000001363967273
Si    4.75212   4.75212  10.18313  -0.000000895794180  -0.000000895794388   0.000001254905123
Si    2.03662   2.03662  10.18313   0.000000066589544   0.000000066589582   0.000000225524264
Si    2.03662   4.75212   7.46762  -0.000000900118736   0.000001267465755   0.000001363967440
Si    0.67887   0.67887  11.54087   0.000003757566675   0.000003757566575   0.000005236437702
Si    3.39438   0.67887  14.25638  -0.000000392859668   0.000007079114249  -0.000000029575692
Si    0.67887   3.39437  14.25638   0.000007079114210  -0.000000392859906  -0.000000029575665
Si    3.39438   3.39437  11.54087   0.000002718407347   0.000002718406977   0.000005988255693
Si    4.75212   2.03662  12.89862   0.000000209474855  -0.000000118202682  -0.000000884199650
Si    4.75212   4.75212  15.61413  -0.000001375912215  -0.000001375912444   0.000004813687856
Si    2.03662   2.03662  15.61413   0.000000043499622   0.000000043499515   0.000002438950002
Si    2.03662   4.75212  12.89862  -0.000000118202830   0.000000209474819  -0.000000884199801
Si    0.67887   6.10987   0.67888   0.000003189404110   0.000001619897249   0.000002412907533
Si    3.39438   6.10987   3.39437   0.000005635915393  -0.000005763794499   0.000003492545651
Si    0.67887   8.82537   3.39437   0.000002211770386   0.000001327122767  -0.000002615804787
Si    3.39438   8.82537   0.67888  -0.000001990646523  -0.000003965352065  -0.000004818326365
Si    4.75212   7.46762   2.03662   0.000002006653726   0.000002568633284   0.000000595870519
Si    4.75212  10.18313   4.75213  -0.000002105335436  -0.000001001261260  -0.000003115685631
Si    2.03662   7.46762   4.75213   0.000003415233464  -0.000000697099585  -0.000006810161425
Si    2.03662  10.18313   2.03662   0.000002104389930   0.000001262485940  -0.000000436827671
Si    0.67887   6.10987   6.10987  -0.000001361122855  -0.000001036634991  -0.000000510909531
Si    3.39438   6.10987   8.82537   0.000007203949245  -0.000005288577719  -0.000002219660139
Si    0.67887   8.82537   8.82537  -0.000000023395014   0.000001437699563   0.000002426070072
Si    3.39438   8.82537   6.10987   0.000000596919454   0.000004613282864  -0.000000323210829
Si    4.75212   7.46762   7.46762   0.000001037058437   0.000001966204698  -0.000002559828915
Si    4.75212  10.18313  10.18313   0.000001848746665   0.000002671575203   0.000000921001407
Si    2.03662   7.46762  10.18313  -0.000002055320766   0.000006387152054  -0.000000250076946
Si    2.03662  10.18313   7.46762  -0.000001910754762   0.000002696168798   0.000001633541353
Si    0.67887   6.10987  11.54087   0.000000087489529   0.000003407792240  -0.000000425858648
Si    3.39438   6.10987  14.25638  -0.000002940643810   0.000002000983707   0.000001111014411
Si    0.67887   8.82537  14.25638   0.000000138405443   0.000001469601343   0.000001037333276
Si    3.39438   8.82537  11.54087   0.000000147880593  -0.000003444691737   0.000003858874636
Si    4.75212   7.46762  12.89862   0.000001130830617  -0.000000432241444   0.000001687386863
Si    4.75212  10.18313  15.61413  -0.000002349534934  -0.000000184928910   0.000002208961340
Si    2.03662   7.46762  15.61413   0.000001687990686  -0.000001468088764   0.000006324339993
Si    2.03662  10.18313  12.89862  -0.000000043267580   0.000003473785208   0.000000471390097
Si    0.67887  11.54087   0.67888  -0.000006918700612   0.000006111799265  -0.000003361591249
Si    3.39438  11.54087   3.39437   0.000005332522247  -0.000002288867697  -0.000003078771062
Si    0.67887  14.25638   3.39437  -0.000002155313980   0.000000711773495   0.000005543873840
Si    3.39438  14.25638   0.67888  -0.000000329801765   0.000000518248035  -0.000002631809377
Si    4.75212  12.89862   2.03662  -0.000000234479998   0.000001157503744   0.000000300933075
Si    4.75212  15.61413   4.75213  -0.000001424313411   0.000000812552631  -0.000003373874902
Si    2.03662  12.89862   4.75213  -0.000005668990001  -0.000000563672809   0.000000868954174
Si    2.03662  15.61413   2.03662   0.000001510086009  -0.000003982459335  -0.000000588947120
Si    0.67887  11.54087   6.10987   0.000001991155809  -0.000003518313698   0.000000137620630
Si    3.39438  11.54087   8.82537   0.000005881970781  -0.000001779451876   0.000002226053675
Si    0.67887  14.25638   8.82537  -0.000003222278728   0.000001260908874  -0.000005794524128
Si    3.39438  14.25638   6.10987   0.000007352165218   0.000005928815224  -0.000000202209802
Si    4.75212  12.89862   7.46762  -0.000006277586935  -0.000002011778318  -0.000002876134431
Si    4.75212  15.61413  10.18313   0.000007656274283  -0.000001764562972   0.000000133428285
Si    2.03662  12.89862  10.18313  -0.000004023870689   0.000005474468688   0.000000748494824
Si    2.03662  15.61413   7.46762  -0.000002784641585  -0.000002365496414  -0.000000309606722
Si    0.67887  11.54087  11.54087  -0.000006353217571   0.000002712950012   0.000004752536733
Si    3.39438  11.54087  14.25638   0.000003808875413  -0.000003175548254  -0.000001515812758
Si    0.67887  14.25638  14.25638   0.000003956098139  -0.000004248385886   0.000000324351623
Si    3.39438  14.25638  11.54087  -0.000000235893134   0.000000430274537   0.000003145010361
Si    4.75212  12.89862  12.89862  -0.000004182747670  -0.000000590868249   0.000000849709505
Si    4.75212  15.61413  15.61413   0.000000379329584  -0.000001195545153   0.000005218662258
Si    2.03662  12.89862  15.61413  -0.000007774831454   0.000000262247928  -0.000000071782710
Si    2.03662  15.61413  12.89862  -0.000002713098185  -0.000002727681875  -0.000000527296178
Si    0.67887  16.97188   0.67888  -0.000000758139028   0.000002485919714  -0.000004554408534
Si    3.39438  16.97188   3.39437   0.000002559779451   0.000002276645061   0.000002444271695
Si    0.67887  19.68738   3.39437   0.000003154910295   0.000002868585375   0.000001081745784
Si    3.39438  19.68738   0.67888  -0.000007102082469  -0.000005992154821  -0.000001180780470
Si    4.75212  18.32963   2.03662  -0.000000875076183  -0.000000749866317  -0.000000968187393
Si    4.75212  21.04512   4.75213  -0.000001915300404   0.000000426758821  -0.000003552678838
Si    2.03662  18.32963   4.75213   0.000004586538818   0.000007183878062  -0.000003018337350
Si    2.03662  21.04512   2.03662   0.000002171590718   0.000000878621245   0.000000233972336
Si    0.67887  16.97188   6.10987  -0.000003480034123  -0.000010277136348   0.000000544851229
Si    3.39438  16.97188   8.82537   0.000002905131653   0.000002559981114  -0.000002081417328
Si    0.67887  19.68738   8.82537   0.000004851960496   0.000001223161585  -0.000001542190439
Si    3.39438  19.68738   6.10987   0.000002046454027  -0.000001075763119  -0.000000627916020
Si    4.75212  18.32963   7.46762  -0.000002559980988  -0.000002905131391   0.000002081417271
Si    4.75212  21.04512  10.18313   0.000010277136285   0.000003480034078  -0.000000544851428
Si    2.03662  18.32963  10.18313   0.000001075762877  -0.000002046453857   0.000000627915939
Si    2.03662  21.04512   7.46762  -0.000001223161650  -0.000004851960446   0.000001542190567
Si    0.67887  16.97188  11.54087  -0.000000426758776   0.000001915300429   0.000003552678494
Si    3.39438  16.97188  14.25638   0.000000749866525   0.000000875076299   0.000000968187424
Si    0.67887  19.68738  14.25638  -0.000000878620865  -0.000002171591123  -0.000000233972173
Si    3.39438  19.68738  11.54087  -0.000007183877699  -0.000004586538810   0.000003018337214
Si    4.75212  18.32963  12.89862  -0.000002276644897  -0.000002559779656  -0.000002444271553
Si    4.75212  21.04512  15.61413  -0.000002485919531   0.000000758139174   0.000004554408604
Si    2.03662  18.32963  15.61413   0.000005992154733   0.000007102082725   0.000001180780399
Si    2.03662  21.04512  12.89862  -0.000002868585586  -0.000003154909739  -0.000001081745675
Si    6.10987   0.67887   0.67888   0.000001619897179   0.000003189404169   0.000002412907554
Si    8.82537   0.67887   3.39437   0.000001327122789   0.000002211770441  -0.000002615805033
Si    6.10987   3.39437   3.39437  -0.000005763794613   0.000005635915367   0.000003492545381
Si    8.82537   3.39437   0.67888  -0.000003965352134  -0.000001990646924  -0.000004818326490
Si   10.18313   2.03662   2.03662   0.000001262485911   0.000002104390132  -0.000000436827607
Si   10.18313   4.75212   4.75213  -0.000001001261014  -0.000002105335854  -0.000003115685616
Si    7.46762   2.03662   4.75213  -0.000000697099529   0.000003415233476  -0.000006810161122
Si    7.46762   4.75212   2.03662   0.000002568633229   0.000002006653425   0.000000595870725
Si    6.10987   0.67887   6.10987  -0.000001036634902  -0.000001361122957  -0.000000510909399
Si    8.82537   0.67887   8.82537   0.000001437699530  -0.000000023395008   0.000002426070219
Si    6.10987   3.39437   8.82537  -0.000005288577816   0.000007203949520  -0.000002219660321
Si    8.82537   3.39437   6.10987   0.000004613282890   0.000000596919163  -0.000000323210641
Si   10.18313   2.03662   7.46762   0.000002696168773  -0.000001910754811   0.000001633541046
Si   10.18313   4.75212  10.18313   0.000002671575687   0.000001848746380   0.000000921001440
Si    7.46762   2.03662  10.18313   0.000006387152336  -0.000002055320982  -0.000000250076750
Si    7.46762   4.75212   7.46762   0.000001966204645   0.000001037058247  -0.000002559828788
Si    6.10987   0.67887  11.54087   0.000003407792461   0.000000087489501  -0.000000425858750
Si    8.82537   0.67887  14.25638   0.000001469601426   0.000000138405562   0.000001037333295
Si    6.10987   3.39437  14.25638   0.000002000983552  -0.000002940643810   0.000001111013986
Si    8.82537   3.39437  11.54087  -0.000003444691882   0.000000147880274   0.000003858874534
Si   10.18313   2.03662  12.89862   0.000003473785170  -0.000000043267415   0.000000471390087
Si   10.18313   4.75212  15.61413  -0.000000184928965  -0.000002349535138   0.000002208961302
Si    7.46762   2.03662  15.61413  -0.000001468088453   0.000001687990666   0.000006324340038
Si    7.46762   4.75212  12.89862  -0.000000432241188   0.000001130830549   0.000001687387130
Si    6.10987   6.10987   0.67888   0.000003857332134   0.000003857332448  -0.000000005646606
Si    8.82537   6.10987   3.39437   0.000008578549834   0.000001191602524  -0.000000040098379
Si    6.10987   8.82537   3.39437   0.000001191602333   0.000008578549852  -0.000000040098345
Si    8.82537   8.82537   0.67888   0.000004665227916   0.000004665228144  -0.000003516746867
Si   10.18313   7.46762   2.03662  -0.000007110936002  -0.000002472992581  -0.000000440849703
Si   10.18313  10.18313   4.75213  -0.000001483776867  -0.000001483777000   0.000001029741916
Si    7.46762   7.46762   4.75213  -0.000003672484966  -0.000003672484868   0.000006753045082
Si    7.46762  10.18313   2.03662  -0.000002472992495  -0.000007110936262  -0.000000440849809
Si    6.10987   6.10987   6.10987  -0.000004832555404  -0.000004832555313   0.000001363473256
Si    8.82537   6.10987   8.82537   0.000007651120961  -0.000000066022861   0.000000790629702
Si    6.10987   8.82537   8.82537  -0.000000066022816   0.000007651121309   0.000000790629853
Si    8.82537   8.82537   6.10987   0.000001977220693   0.000001977220919   0.000000890528767
Si   10.18313   7.46762   7.46762   0.000001813945542   0.000006325869873   0.000005756495403
Si   10.18313  10.18313  10.18313  -0.000001979724901  -0.000001979724943  -0.000001682455967
Si    7.46762   7.46762  10.18313  -0.000005643856288  -0.000005643856281   0.000000362123070
Si    7.46762  10.18313   7.46762   0.000006325869970   0.000001813945231   0.000005756495392
Si    6.10987   6.10987  11.54087   0.000002339459522   0.000002339459400  -0.000002180281692
Si    8.82537   6.10987  14.25638  -0.000005182260454   0.000001549549317  -0.000000901650300
Si    6.10987   8.82537  14.25638   0.000001549549141  -0.000005182260122  -0.000000901650527
Si    8.82537   8.82537  11.54087   0.000004016865361   0.000004016865443   0.000003474616539
Si   10.18313   7.46762  12.89862   0.000000633466202   0.000007341141854  -0.000004960604626
Si   10.18313  10.18313  15.61413  -0.000000711042709  -0.000000711042720  -0.000001295512130
Si    7.46762   7.46762  15.61413  -0.000003715434112  -0.000003715434440  -0.000006872354834
Si    7.46762  10.18313  12.89862   0.000007341141731   0.000000633466241  -0.000004960604699
Si    6.10987  11.54087   0.67888  -0.000005767123167   0.000005756889389  -0.000003143641393
Si    8.82537  11.54087   3.39437   0.000001981284926   0.000001509807255   0.000000920688671
Si    6.10987  14.25638   3.39437  -0.000002675703674  -0.000001432471594   0.000005881378560
Si    8.82537  14.25638   0.67888  -0.000000871348469  -0.000001692803741  -0.000002179482374
Si   10.18313  12.89862   2.03662   0.000000763520174  -0.000002178945325  -0.000000870462899
Si   10.18313  15.61413   4.75213  -0.000008468154855   0.000003922955861  -0.000003034595555
Si    7.46762  12.89862   4.75213   0.000001605812284   0.000000756049002  -0.000001765096477
Si    7.46762  15.61413   2.03662  -0.000005439871319  -0.000001761497774  -0.000000042051292
Si    6.10987  11.54087   6.10987   0.000002271656232  -0.000003800001310  -0.000001303076320
Si    8.82537  11.54087   8.82537   0.000001406856772   0.000002892288060  -0.000001136568999
Si    6.10987  14.25638   8.82537  -0.000002345297021  -0.000002605859017  -0.000006273411187
Si    8.82537  14.25638   6.10987   0.000001041841408   0.000002757448531  -0.000000665193327
Si   10.18313  12.89862   7.46762  -0.000002892288065  -0.000001406856600   0.000001136568769
Si   10.18313  15.61413  10.18313   0.000003800001661  -0.000002271656466   0.000001303076184
Si    7.46762  12.89862  10.18313  -0.000002757448619  -0.000001041841523   0.000000665193675
Si    7.46762  15.61413   7.46762   0.000002605859420   0.000002345297140   0.000006273411265
Si    6.10987  11.54087  11.54087  -0.000003922955798   0.000008468155059   0.000003034595309
Si    8.82537  11.54087  14.25638   0.000002178945065  -0.000000763519819   0.000000870462882
Si    6.10987  14.25638  14.25638   0.000001761498132   0.000005439871508   0.000000042051212
Si    8.82537  14.25638  11.54087  -0.000000756049087  -0.000001605812481   0.000001765096530
Si   10.18313  12.89862  12.89862  -0.000001509806674  -0.000001981284933  -0.000000920688834
Si   10.18313  15.61413  15.61413  -0.000005756889230   0.000005767123166   0.000003143641187
Si    7.46762  12.89862  15.61413   0.000001692803701   0.000000871348393   0.000002179482400
Si    7.46762  15.61413  12.89862   0.000001432471479   0.000002675704185  -0.000005881378433
Si    6.10987  16.97188   0.67888   0.000001195545281  -0.000000379329340  -0.000005218662193
Si    8.82537  16.97188   3.39437   0.000000590868107   0.000004182747723  -0.000000849709456
Si    6.10987  19.68738   3.39437   0.000002727681886   0.000002713098228   0.000000527296027
Si    8.82537  19.68738   0.67888  -0.000000262247943   0.000007774831611   0.000000071782592
Si   10.18313  18.32963   2.03662   0.000003175548228  -0.000003808875279   0.000001515812736
Si   10.18313  21.04512   4.75213  -0.000002712949809   0.000006353217445  -0.000004752536553
Si    7.46762  18.32963   4.75213  -0.000000430274444   0.000000235893271  -0.000003145010195
Si    7.46762  21.04512   2.03662   0.000004248385941  -0.000003956098246  -0.000000324351563
Si    6.10987  16.97188   6.10987   0.000001764563057  -0.000007656274081  -0.000000133428398
Si    8.82537  16.97188   8.82537   0.000002011778045   0.000006277587147   0.000002876134532
Si    6.10987  19.68738   8.82537   0.000002365496452   0.000002784641669   0.000000309607048
Si    8.82537  19.68738   6.10987  -0.000005474468859   0.000004023871055  -0.000000748494957
Si   10.18313  18.32963   7.46762   0.000001779451964  -0.000005881970943  -0.000002226053698
Si   10.18313  21.04512  10.18313   0.000003518313913  -0.000001991155850  -0.000000137620745
Si    7.46762  18.32963  10.18313  -0.000005928815157  -0.000007352165369   0.000000202209466
Si    7.46762  21.04512   7.46762  -0.000001260908595   0.000003222278632   0.000005794523907
Si    6.10987  16.97188  11.54087  -0.000000812552423   0.000001424313440   0.000003373875113
Si    8.82537  16.97188  14.25638  -0.000001157503877   0.000000234480167  -0.000000300933250
Si    6.10987  19.68738  14.25638   0.000003982459265  -0.000001510085858   0.000000588947282
Si    8.82537  19.68738  11.54087   0.000000563672728   0.000005668990108  -0.000000868954155
Si   10.18313  18.32963  12.89862   0.000002288867793  -0.000005332521981   0.000003078771203
Si   10.18313  21.04512  15.61413  -0.000006111799062   0.000006918700717   0.000003361591404
Si    7.46762  18.32963  15.61413  -0.000000518247990   0.000000329801634   0.000002631809496
Si    7.46762  21.04512  12.89862  -0.000000711773186   0.000002155314096  -0.000005543873816
Si   11.54087   0.67887   0.67888   0.000006111799184  -0.000006918700456  -0.000003361591203
Si   14.25638   0.67887   3.39437   0.000000711773281  -0.000002155314057   0.000005543874043
Si   11.54087   3.39437   3.39437  -0.000002288867508   0.000005332522353  -0.000003078771196
Si   14.25638   3.39437   0.67888   0.000000518248303  -0.000000329802068  -0.000002631809375
Si   15.61413   2.03662   2.03662  -0.000003982459133   0.000001510086051  -0.000000588947577
Si   15.61413   4.75212   4.75213   0.000000812552778  -0.000001424313557  -0.000003373874892
Si   12.89862   2.03662   4.75213  -0.000000563672802  -0.000005668990002   0.000000868954139
Si   12.89862   4.75212   2.03662   0.000001157503729  -0.000000234480153   0.000000300933504
Si   11.54087   0.67887   6.10987  -0.000003518313686   0.000001991155814   0.000000137620609
Si   14.25638   0.67887   8.82537   0.000001260908578  -0.000003222278696  -0.000005794524110
Si   11.54087   3.39437   8.82537  -0.000001779451898   0.000005881971047   0.000002226053658
Si   14.25638   3.39437   6.10987   0.000005928815374   0.000007352165035  -0.000000202209755
Si   15.61413   2.03662   7.46762  -0.000002365496157  -0.000002784641435  -0.000000309607030
Si   15.61413   4.75212  10.18313  -0.000001764562844   0.000007656274162   0.000000133428293
Si   12.89862   2.03662  10.18313   0.000005474468952  -0.000004023870927   0.000000748494851
Si   12.89862   4.75212   7.46762  -0.000002011778487  -0.000006277587184  -0.000002876134171
Si   11.54087   0.67887  11.54087   0.000002712949866  -0.000006353217510   0.000004752536663
Si   14.25638   0.67887  14.25638  -0.000004248385947   0.000003956097952   0.000000324351724
Si   11.54087   3.39437  14.25638  -0.000003175548045   0.000003808875455  -0.000001515812892
Si   14.25638   3.39437  11.54087   0.000000430274642  -0.000000235893257   0.000003145010377
Si   15.61413   2.03662  12.89862  -0.000002727681680  -0.000002713098137  -0.000000527296305
Si   15.61413   4.75212  15.61413  -0.000001195545048   0.000000379329461   0.000005218662318
Si   12.89862   2.03662  15.61413   0.000000262248130  -0.000007774831716  -0.000000071782694
Si   12.89862   4.75212  12.89862  -0.000000590868277  -0.000004182747884   0.000000849709608
Si   11.54087   6.10987   0.67888   0.000005756889370  -0.000005767122938  -0.000003143641610
Si   14.25638   6.10987   3.39437  -0.000001432471551  -0.000002675703833   0.000005881378400
Si   11.54087   8.82537   3.39437   0.000001509807274   0.000001981284861   0.000000920688791
Si   14.25638   8.82537   0.67888  -0.000001692803515  -0.000000871348549  -0.000002179482719
Si   15.61413   7.46762   2.03662  -0.000001761497799  -0.000005439871420  -0.000000042051207
Si   15.61413  10.18313   4.75213   0.000003922955945  -0.000008468155093  -0.000003034595183
Si   12.89862   7.46762   4.75213   0.000000756048959   0.000001605812631  -0.000001765096238
Si   12.89862  10.18313   2.03662  -0.000002178945304   0.000000763520160  -0.000000870462718
Si   11.54087   6.10987   6.10987  -0.000003800001211   0.000002271656318  -0.000001303076540
Si   14.25638   6.10987   8.82537  -0.000002605859128  -0.000002345297117  -0.000006273411279
Si   11.54087   8.82537   8.82537   0.000002892288231   0.000001406856755  -0.000001136569008
Si   14.25638   8.82537   6.10987   0.000002757448768   0.000001041841227  -0.000000665193827
Si   15.61413   7.46762   7.46762   0.000002345297259   0.000002605859400   0.000006273411212
Si   15.61413  10.18313  10.18313  -0.000002271656366   0.000003800001198   0.000001303076334
Si   12.89862   7.46762  10.18313  -0.000001041841476  -0.000002757448600   0.000000665193737
Si   12.89862  10.18313   7.46762  -0.000001406856844  -0.000002892288147   0.000001136569160
Si   11.54087   6.10987  11.54087   0.000008468155162  -0.000003922955891   0.000003034594884
Si   14.25638   6.10987  14.25638   0.000005439871566   0.000001761498041   0.000000042051244
Si   11.54087   8.82537  14.25638  -0.000000763519818   0.000002178944889   0.000000870462926
Si   14.25638   8.82537  11.54087  -0.000001605812314  -0.000000756048960   0.000001765096098
Si   15.61413   7.46762  12.89862   0.000002675703955   0.000001432471219  -0.000005881378284
Si   15.61413  10.18313  15.61413   0.000005767123140  -0.000005756889183   0.000003143641562
Si   12.89862   7.46762  15.61413   0.000000871348319   0.000001692803769   0.000002179482683
Si   12.89862  10.18313  12.89862  -0.000001981285093  -0.000001509806716  -0.000000920688679
Si   11.54087  11.54087   0.67888   0.000000711042872   0.000000711043041   0.000001295512352
Si   14.25638  11.54087   3.39437  -0.000007341141718  -0.000000633466216   0.000004960604625
Si   11.54087  14.25638   3.39437  -0.000000633466231  -0.000007341141569   0.000004960604829
Si   14.25638  14.25638   0.67888   0.000003715434468   0.000003715434379   0.000006872354761
Si   15.61413  12.89862   2.03662  -0.000001549549019   0.000005182260302   0.000000901650214
Si   15.61413  15.61413   4.75213  -0.000002339459386  -0.000002339459558   0.000002180281573
Si   12.89862  12.89862   4.75213  -0.000004016865708  -0.000004016865623  -0.000003474616635
Si   12.89862  15.61413   2.03662   0.000005182260269  -0.000001549549133   0.000000901650477
Si   11.54087  11.54087   6.10987   0.000001979725064   0.000001979725077   0.000001682456036
Si   14.25638  11.54087   8.82537  -0.000006325869833  -0.000001813945477  -0.000005756495656
Si   11.54087  14.25638   8.82537  -0.000001813945498  -0.000006325869823  -0.000005756495440
Si   14.25638  14.25638   6.10987   0.000005643856631   0.000005643856408  -0.000000362122974
Si   15.61413  12.89862   7.46762   0.000000066023067  -0.000007651121018  -0.000000790629755
Si   15.61413  15.61413  10.18313   0.000004832555406   0.000004832555220  -0.000001363473421
Si   12.89862  12.89862  10.18313  -0.000001977220905  -0.000001977220831  -0.000000890528482
Si   12.89862  15.61413   7.46762  -0.000007651121265   0.000000066022924  -0.000000790629576
Si   11.54087  11.54087  11.54087   0.000001483777243   0.000001483777174  -0.000001029741889
Si   14.25638  11.54087  14.25638   0.000002472992820   0.000007110935957   0.000000440849779
Si   11.54087  14.25638  14.25638   0.000007110935923   0.000002472992563   0.000000440849812
Si   14.25638  14.25638  11.54087   0.000003672485398   0.000003672485006  -0.000006753045325
Si   15.61413  12.89862  12.89862  -0.000001191602118  -0.000008578549804   0.000000040098290
Si   15.61413  15.61413  15.61413  -0.000003857332173  -0.000003857332391   0.000000005646460
Si   12.89862  12.89862  15.61413  -0.000004665228068  -0.000004665228119   0.000003516746962
Si   12.89862  15.61413  12.89862  -0.000008578549957  -0.000001191602208   0.000000040098096
Si   11.54087  16.97188   0.67888   0.000000184929274   0.000002349535190  -0.000002208961304
Si   14.25638  16.97188   3.39437   0.000000432241154  -0.000001130830415  -0.000001687386618
Si   11.54087  19.68738   3.39437  -0.000003473784951   0.000000043267332  -0.000000471389852
Si   14.25638  19.68738   0.67888   0.000001468088982  -0.000001687990850  -0.000006324340162
Si   15.61413  18.32963   2.03662  -0.000002000983300   0.000002940643950  -0.000001111014160
Si   15.61413  21.04512   4.75213  -0.000003407791947  -0.000000087489589   0.000000425858647
Si   12.89862  18.32963   4.75213   0.000003444691926  -0.000000147880197  -0.000003858874990
Si   12.89862  21.04512   2.03662  -0.000001469601703  -0.000000138405265  -0.000001037333290
Si   11.54087  16.97188   6.10987  -0.000002671575125  -0.000001848746509  -0.000000921001399
Si   14.25638  16.97188   8.82537  -0.000001966204555  -0.000001037058198   0.000002559829275
Si   11.54087  19.68738   8.82537  -0.000002696168925   0.000001910755139  -0.000001633540649
Si   14.25638  19.68738   6.10987  -0.000006387152021   0.000002055320800   0.000000250076664
Si   15.61413  18.32963   7.46762   0.000005288577889  -0.000007203949095   0.000002219660335
Si   15.61413  21.04512  10.18313   0.000001036635162   0.000001361122885   0.000000510909596
Si   12.89862  18.32963  10.18313  -0.000004613283263  -0.000000596919435   0.000000323209920
Si   12.89862  21.04512   7.46762  -0.000001437699457   0.000000023394965  -0.000002426069957
Si   11.54087  16.97188  11.54087   0.000001001261202   0.000002105335713   0.000003115685736
Si   14.25638  16.97188  14.25638  -0.000002568633124  -0.000002006653320  -0.000000595870280
Si   11.54087  19.68738  14.25638  -0.000001262485794  -0.000002104390295   0.000000436827708
Si   14.25638  19.68738  11.54087   0.000000697099839  -0.000003415233283   0.000006810160690
Si   15.61413  18.32963  12.89862   0.000005763794643  -0.000005635915606  -0.000003492545369
Si   15.61413  21.04512  15.61413  -0.000001619896999  -0.000003189403758  -0.000002412907518
Si   12.89862  18.32963  15.61413   0.000003965351938   0.000001990646786   0.000004818326227
Si   12.89862  21.04512  12.89862  -0.000001327123001  -0.000002211770147   0.000002615805080
Si   16.97188   0.67887   0.67888   0.000002485919517  -0.000000758138971  -0.000004554408305
Si   19.68738   0.67887   3.39437   0.000002868585444   0.000003154909952   0.000001081745765
Si   16.97188   3.39437   3.39437   0.000002276645218   0.000002559779387   0.000002444271848
Si   19.68738   3.39437   0.67888  -0.000005992154620  -0.000007102084042  -0.000001180779665
Si   21.04512   2.03662   2.03662   0.000000878620437   0.000002171590635   0.000000233972129
Si   21.04512   4.75212   4.75213   0.000000426759044  -0.000001915300450  -0.000003552679167
Si   18.32963   2.03662   4.75213   0.000007183877690   0.000004586538907  -0.000003018337620
Si   18.32963   4.75212   2.03662  -0.000000749866231  -0.000000875076153  -0.000000968187525
Si   16.97188   0.67887   6.10987  -0.000010277136412  -0.000003480034214   0.000000544851449
Si   19.68738   0.67887   8.82537   0.000001223161558   0.000004851960350  -0.000001542190427
Si   16.97188   3.39437   8.82537   0.000002559981260   0.000002905131674  -0.000002081417244
Si   19.68738   3.39437   6.10987  -0.000001075762959   0.000002046453775  -0.000000627915536
Si   21.04512   2.03662   7.46762  -0.000004851960377  -0.000001223161383   0.000001542190168
Si   21.04512   4.75212  10.18313   0.000003480034562   0.000010277136199  -0.000000544851575
Si   18.32963   2.03662  10.18313  -0.000002046453891   0.000001075762842   0.000000627915906
Si   18.32963   4.75212   7.46762  -0.000002905131332  -0.000002559981098   0.000002081417319
Si   16.97188   0.67887  11.54087   0.000001915300500  -0.000000426758868   0.000003552678891
Si   19.68738   0.67887  14.25638  -0.000002171590950  -0.000000878620850  -0.000000233972220
Si   16.97188   3.39437  14.25638   0.000000875076410   0.000000749866383   0.000000968187373
Si   19.68738   3.39437  11.54087  -0.000004586538946  -0.000007183877851   0.000003018337637
Si   21.04512   2.03662  12.89862  -0.000003154909695  -0.000002868585429  -0.000001081745818
Si   21.04512   4.75212  15.61413   0.000000758139170  -0.000002485919554   0.000004554408207
Si   18.32963   2.03662  15.61413   0.000007102082650   0.000005992154923   0.000001180780062
Si   18.32963   4.75212  12.89862  -0.000002559779429  -0.000002276644681  -0.000002444271676
Si   16.97188   6.10987   0.67888  -0.000000379329210   0.000001195545171  -0.000005218662186
Si   19.68738   6.10987   3.39437   0.000002713098028   0.000002727681761   0.000000527296261
Si   16.97188   8.82537   3.39437   0.000004182747883   0.000000590868280  -0.000000849709649
Si   19.68738   8.82537   0.67888   0.000007774831701  -0.000000262247994   0.000000071782585
Si   21.04512   7.46762   2.03662  -0.000003956097979   0.000004248385983  -0.000000324351626
Si   21.04512  10.18313   4.75213   0.000006353217583  -0.000002712949904  -0.000004752536529
Si   18.32963   7.46762   4.75213   0.000000235893385  -0.000000430274586  -0.000003145010196
Si   18.32963  10.18313   2.03662  -0.000003808875417   0.000003175547890   0.000001515812797
Si   16.97188   6.10987   6.10987  -0.000007656274074   0.000001764563067  -0.000000133428383
Si   19.68738   6.10987   8.82537   0.000002784641214   0.000002365496347   0.000000309607037
Si   16.97188   8.82537   8.82537   0.000006277587225   0.000002011778545   0.000002876134600
Si   19.68738   8.82537   6.10987   0.000004023870820  -0.000005474468609  -0.000000748494980
Si   21.04512   7.46762   7.46762   0.000003222278817  -0.000001260908728   0.000005794524132
Si   21.04512  10.18313  10.18313  -0.000001991156808   0.000003518313928  -0.000000137620848
Si   18.32963   7.46762  10.18313  -0.000007352165030  -0.000005928815487   0.000000202209451
Si   18.32963  10.18313   7.46762  -0.000005881970826   0.000001779451736  -0.000002226053948
Si   16.97188   6.10987  11.54087   0.000001424313725  -0.000000812552771   0.000003373875077
Si   19.68738   6.10987  14.25638  -0.000001510086151   0.000003982459330   0.000000588947429
Si   16.97188   8.82537  14.25638   0.000000234480114  -0.000001157503568  -0.000000300933434
Si   19.68738   8.82537  11.54087   0.000005668989890   0.000000563672907  -0.000000868954225
Si   21.04512   7.46762  12.89862   0.000002155314105  -0.000000711773053  -0.000005543873867
Si   21.04512  10.18313  15.61413   0.000006918700730  -0.000006111799127   0.000003361591422
Si   18.32963   7.46762  15.61413   0.000000329802117  -0.000000518248453   0.000002631809515
Si   18.32963  10.18313  12.89862  -0.000005332522120   0.000002288867733   0.000003078771251
Si   16.97188  11.54087   0.67888   0.000002349535139   0.000000184929349  -0.000002208961290
Si   19.68738  11.54087   3.39437   0.000000043267517  -0.000003473784718  -0.000000471389150
Si   16.97188  14.25638   3.39437  -0.000001130830532   0.000000432241138  -0.000001687386881
Si   19.68738  14.25638   0.67888  -0.000001687990806   0.000001468088636  -0.000006324340228
Si   21.04512  12.89862   2.03662  -0.000000138405208  -0.000001469601509  -0.000001037333259
Si   21.04512  15.61413   4.75213  -0.000000087489303  -0.000003407792336   0.000000425858621
Si   18.32963  12.89862   4.75213  -0.000000147880105   0.000003444691813  -0.000003858874676
Si   18.32963  15.61413   2.03662   0.000002940643906  -0.000002000983612  -0.000001111013946
Si   16.97188  11.54087   6.10987  -0.000001848746418  -0.000002671575248  -0.000000921001221
Si   19.68738  11.54087   8.82537   0.000001910755021  -0.000002696169080  -0.000001633540530
Si   16.97188  14.25638   8.82537  -0.000001037058270  -0.000001966204253   0.000002559829092
Si   19.68738  14.25638   6.10987   0.000002055320813  -0.000006387152309   0.000000250076833
Si   21.04512  12.89862   7.46762   0.000000023394968  -0.000001437699495  -0.000002426070269
Si   21.04512  15.61413  10.18313   0.000001361123415   0.000001036634890   0.000000510909670
Si   18.32963  12.89862  10.18313  -0.000000596919162  -0.000004613283474   0.000000323210123
Si   18.32963  15.61413   7.46762  -0.000007203949136   0.000005288577736   0.000002219660450
Si   16.97188  11.54087  11.54087   0.000002105335902   0.000001001261160   0.000003115685620
Si   19.68738  11.54087  14.25638  -0.000002104390265  -0.000001262485675   0.000000436827722
Si   16.97188  14.25638  14.25638  -0.000002006653504  -0.000002568633139  -0.000000595870705
Si   19.68738  14.25638  11.54087  -0.000003415233473   0.000000697099512   0.000006810160622
Si   21.04512  12.89862  12.89862  -0.000002211770159  -0.000001327122845   0.000002615805025
Si   21.04512  15.61413  15.61413  -0.000003189403893  -0.000001619897219  -0.000002412907569
Si   18.32963  12.89862  15.61413   0.000001990647128   0.000003965351905   0.000004818326265
Si   18.32963  15.61413  12.89862  -0.000005635915380   0.000005763794567  -0.000003492545140
Si   16.97188  16.97188   0.67888   0.000001375912231   0.000001375912524  -0.000004813687903
Si   19.68738  16.97188   3.39437   0.000000118202692  -0.000000209474435   0.000000884199590
Si   16.97188  19.68738   3.39437  -0.000000209474621   0.000000118202716   0.000000884199555
Si   19.68738  19.68738   0.67888  -0.000000043499730  -0.000000043499497  -0.000002438950012
Si   21.04512  18.32963   2.03662  -0.000007079114304   0.000000392859900   0.000000029575787
Si   21.04512  21.04512   4.75213  -0.000003757566424  -0.000003757566535  -0.000005236437625
Si   18.32963  18.32963   4.75213  -0.000002718406934  -0.000002718406850  -0.000005988255934
Si   18.32963  21.04512   2.03662   0.000000392859965  -0.000007079114535   0.000000029575664
Si   16.97188  16.97188   6.10987   0.000000895794191   0.000000895794313  -0.000001254905248
Si   19.68738  16.97188   8.82537   0.000000900118439  -0.000001267465698  -0.000001363967366
Si   16.97188  19.68738   8.82537  -0.000001267465633   0.000000900118748  -0.000001363967192
Si   19.68738  19.68738   6.10987  -0.000000066589729  -0.000000066589487  -0.000000225523998
Si   21.04512  18.32963   7.46762   0.000005114971069   0.000002759450420   0.000009135324893
Si   21.04512  21.04512  10.18313   0.000004899091512   0.000004899091412  -0.000000333512260
Si   18.32963  18.32963  10.18313   0.000004153420629   0.000004153420660  -0.000000193837972
Si   18.32963  21.04512   7.46762   0.000002759450552   0.000005114970825   0.000009135324845
Si   16.97188  16.97188  11.54087   0.000002021729255   0.000002021729108   0.000003168547055
Si   19.68738  16.97188  14.25638  -0.000000377834540   0.000000011718958   0.000000871235730
Si   16.97188  19.68738  14.25638   0.000000011718767  -0.000000377834253   0.000000871235562
Si   19.68738  19.68738  11.54087   0.000002167633059   0.000002167633110   0.000003637244069
Si   21.04512  18.32963  12.89862   0.000005614851594   0.000002077211832  -0.000007892037346
Si   21.04512  21.04512  15.61413  -0.000003780064530  -0.000003780064514   0.000004943501891
Si   18.32963  18.32963  15.61413  -0.000002232242247  -0.000002232242588   0.000005445776059
Si   18.32963  21.04512  12.89862   0.000002077211689   0.000005614851605  -0.000007892037377
