384 

Si    0.67887   0.67887   0.67888   0.000003779867952   0.000003779988784  -0.000004943502785
Si    3.39438   0.67887   3.39437  -0.000002077024287  -0.000005614801768   0.000007892194357
Si    0.67887   3.39437   3.39437  -0.000005614837721  -0.000002077087576   0.000007892077059
Si    3.39438   3.39437   0.67888   0.000002232361244   0.000002232317571  -0.000005445837485
Si    4.75212   2.03662   2.03662  -0.000000011612405   0.000000377874945  -0.000000871083501
Si    4.75212   4.75212   4.75213  -0.000002021611453  -0.000002021822018  -0.000003168497471
Si    2.03662   2.03662   4.75213  -0.000002167403922  -0.000002167575441  -0.000003637106043
Si    2.03662   4.75212   2.03662   0.000000377883718  -0.000000011692775  -0.000000871153455
Si    0.67887   0.67887   6.10987  -0.000004898972834  -0.000004899016196   0.000000333629926
Si    3.39438   0.67887   8.82537  -0.000002759452964  -0.000005114715355  -0.000009135247835
Si    0.67887   3.39437   8.82537  -0.000005114797422  -0.000002759466170  -0.000009135378729
Si    3.39438   3.39437   6.10987  -0.000004153267767  -0.000004153539832   0.000000193897923
Si    4.75212   2.03662   7.46762   0.000001267517327  -0.000000899984770   0.000001363849223
Si    4.75212   4.75212  10.18313  -0.000000895686792  -0.000000895717302   0.000001254726760
Si    2.03662   2.03662  10.18313   0.000000066699622   0.000000066610879   0.000000225383385
Si    2.03662   4.75212   7.46762  -0.000000899958815   0.000001267338287   0.000001364110378
Si    0.67887   0.67887  11.54087   0.000003757570242   0.000003757448472   0.000005236409141
Si    3.39438   0.67887  14.25638  -0.000000392695845   0.000007079041911  -0.000000029627743
Si    0.67887   3.39437  14.25638   0.000007079038846  -0.000000392704062  -0.000000029618992
Si    3.39438   3.39437  11.54087   0.000002718405771   0.000002718417288   0.000005988192271
Si    4.75212   2.03662  12.89862   0.000000209543970  -0.000000118269064  -0.000000884187242
Si    4.75212   4.75212  15.61413  -0.000001375902974  -0.000001376041278   0.000004813767251
Si    2.03662   2.03662  15.61413   0.000000043615804   0.000000043622117   0.000002438915709
Si    2.03662   4.75212  12.89862  -0.000000118191145   0.000000209546945  -0.000000884209457
Si    0.67887   6.10987   0.67888   0.000003189380467   0.000001619874294   0.000002412921289
Si    3.39438   6.10987   3.39437   0.000005635971402  -0.000005763866441   0.000003492627006
Si    0.67887   8.82537   3.39437   0.000002211721189   0.000001327013868  -0.000002615805058
Si    3.39438   8.82537   0.67888  -0.000001990743012  -0.000003965275957  -0.000004818369626
Si    4.75212   7.46762   2.03662   0.000002006597775   0.000002568545230   0.000000595977887
Si    4.75212  10.18313   4.75213  -0.000002105394994  -0.000001001237393  -0.000003115504662
Si    2.03662   7.46762   4.75213   0.000003415312183  -0.000000697152902  -0.000006810193006
Si    2.03662  10.18313   2.03662   0.000002104472657   0.000001262518709  -0.000000436889537
Si    0.67887   6.10987   6.10987  -0.000001361074031  -0.000001036599521  -0.000000510927498
Si    3.39438   6.10987   8.82537   0.000007204128830  -0.000005288687732  -0.000002219661839
Si    0.67887   8.82537   8.82537  -0.000000023287948   0.000001437713234   0.000002426135837
Si    3.39438   8.82537   6.10987   0.000000597065963   0.000004613322805  -0.000000323148478
Si    4.75212   7.46762   7.46762   0.000001037212156   0.000001966120745  -0.000002559762834
Si    4.75212  10.18313  10.18313   0.000001848778213   0.000002671544739   0.000000921052612
Si    2.03662   7.46762  10.18313  -0.000002055211762   0.000006387165257  -0.000000249963864
Si    2.03662  10.18313   7.46762  -0.000001910621563   0.000002696124121   0.000001633508193
Si    0.67887   6.10987  11.54087   0.000000087622950   0.000003407763771  -0.000000425792051
Si    3.39438   6.10987  14.25638  -0.000002940763126   0.000002001009046   0.000001110846651
Si    0.67887   8.82537  14.25638   0.000000138640722   0.000001469710298   0.000001037248563
Si    3.39438   8.82537  11.54087   0.000000147891629  -0.000003444718734   0.000003858994507
Si    4.75212   7.46762  12.89862   0.000001130714961  -0.000000432146956   0.000001687223058
Si    4.75212  10.18313  15.61413  -0.000002349592036  -0.000000184861957   0.000002208836232
Si    2.03662   7.46762  15.61413   0.000001688016588  -0.000001467995193   0.000006324216166
Si    2.03662  10.18313  12.89862  -0.000000043208539   0.000003473773075   0.000000471417278
Si    0.67887  11.54087   0.67888  -0.000006918733852   0.000006111996704  -0.000003361724255
Si    3.39438  11.54087   3.39437   0.000005332567107  -0.000002288887009  -0.000003078762531
Si    0.67887  14.25638   3.39437  -0.000002155381469   0.000000711754848   0.000005543599291
Si    3.39438  14.25638   0.67888  -0.000000329953795   0.000000518110359  -0.000002631954179
Si    4.75212  12.89862   2.03662  -0.000000234664747   0.000001157443287   0.000000300784834
Si    4.75212  15.61413   4.75213  -0.000001424325149   0.000000812571044  -0.000003373777899
Si    2.03662  12.89862   4.75213  -0.000005668947572  -0.000000563790243   0.000000868982982
Si    2.03662  15.61413   2.03662   0.000001509960297  -0.000003982527306  -0.000000589086049
Si    0.67887  11.54087   6.10987   0.000001991177398  -0.000003518340840   0.000000137671720
Si    3.39438  11.54087   8.82537   0.000005882052346  -0.000001779564804   0.000002226060739
Si    0.67887  14.25638   8.82537  -0.000003222357767   0.000001260949778  -0.000005794389878
Si    3.39438  14.25638   6.10987   0.000007352202044   0.000005928812939  -0.000000202145902
Si    4.75212  12.89862   7.46762  -0.000006277631911  -0.000002011911085  -0.000002876100671
Si    4.75212  15.61413  10.18313   0.000007656187649  -0.000001764653613   0.000000133435093
Si    2.03662  12.89862  10.18313  -0.000004023847094   0.000005474483881   0.000000748767502
Si    2.03662  15.61413   7.46762  -0.000002784637673  -0.000002365412886  -0.000000309538858
Si    0.67887  11.54087  11.54087  -0.000006353192920   0.000002712979007   0.000004752633295
Si    3.39438  11.54087  14.25638   0.000003808765487  -0.000003175451825  -0.000001515915552
Si    0.67887  14.25638  14.25638   0.000003956184293  -0.000004248581284   0.000000324355487
Si    3.39438  14.25638  11.54087  -0.000000236025339   0.000000430163337   0.000003145168895
Si    4.75212  12.89862  12.89862  -0.000004183002375  -0.000000590928062   0.000000849726714
Si    4.75212  15.61413  15.61413   0.000000379182705  -0.000001195684369   0.000005218566483
Si    2.03662  12.89862  15.61413  -0.000007774932648   0.000000262290643  -0.000000071872809
Si    2.03662  15.61413  12.89862  -0.000002713118164  -0.000002727720592  -0.000000527327193
Si    0.67887  16.97188   0.67888  -0.000000758167215   0.000002485790965  -0.000004554420150
Si    3.39438  16.97188   3.39437   0.000002559760746   0.000002276701975   0.000002444215466
Si    0.67887  19.68738   3.39437   0.000003154983358   0.000002868465378   0.000001081778710
Si    3.39438  19.68738   0.67888  -0.000007102137499  -0.000005992147171  -0.000001180839729
Si    4.75212  18.32963   2.03662  -0.000000875033069  -0.000000749926213  -0.000000968182829
Si    4.75212  21.04512   4.75213  -0.000001915259463   0.000000426960144  -0.000003552720563
Si    2.03662  18.32963   4.75213   0.000004586452983   0.000007183932719  -0.000003018368351
Si    2.03662  21.04512   2.03662   0.000002171665529   0.000000878536161   0.000000233947120
Si    0.67887  16.97188   6.10987  -0.000003480039430  -0.000010277086863   0.000000544972951
Si    3.39438  16.97188   8.82537   0.000002905109772   0.000002559902348  -0.000002081439907
Si    0.67887  19.68738   8.82537   0.000004851858843   0.000001223089896  -0.000001542072258
Si    3.39438  19.68738   6.10987   0.000002046403538  -0.000001075721241  -0.000000628034634
Si    4.75212  18.32963   7.46762  -0.000002559984265  -0.000002905253726   0.000002081421966
Si    4.75212  21.04512  10.18313   0.000010277242538   0.000003480235942  -0.000000544709247
Si    2.03662  18.32963  10.18313   0.000001075579456  -0.000002046540615   0.000000628111866
Si    2.03662  21.04512   7.46762  -0.000001223190375  -0.000004851788208   0.000001542148833
Si    0.67887  16.97188  11.54087  -0.000000426752484   0.000001915324235   0.000003552800037
Si    3.39438  16.97188  14.25638   0.000000749750424   0.000000875139311   0.000000968033679
Si    0.67887  19.68738  14.25638  -0.000000878547159  -0.000002171798573  -0.000000234088990
Si    3.39438  19.68738  11.54087  -0.000007184031639  -0.000004586520895   0.000003018595584
Si    4.75212  18.32963  12.89862  -0.000002276917591  -0.000002559690299  -0.000002444149503
Si    4.75212  21.04512  15.61413  -0.000002485885158   0.000000758234464   0.000004554243113
Si    2.03662  18.32963  15.61413   0.000005992139543   0.000007102110796   0.000001180581767
Si    2.03662  21.04512  12.89862  -0.000002868490705  -0.000003155102198  -0.000001081820910
Si    6.10987   0.67887   0.67888   0.000001619916878   0.000003189426028   0.000002412788814
Si    8.82537   0.67887   3.39437   0.000001327163974   0.000002211943290  -0.000002615657080
Si    6.10987   3.39437   3.39437  -0.000005763781216   0.000005635899355   0.000003492700751
Si    8.82537   3.39437   0.67888  -0.000003965362398  -0.000001990511982  -0.000004818183657
Si   10.18313   2.03662   2.03662   0.000001262440939   0.000002104518410  -0.000000436627440
Si   10.18313   4.75212   4.75213  -0.000001001153657  -0.000002105506243  -0.000003115534533
Si    7.46762   2.03662   4.75213  -0.000000697106544   0.000003415333790  -0.000006810058667
Si    7.46762   4.75212   2.03662   0.000002568698734   0.000002006575887   0.000000595966312
Si    6.10987   0.67887   6.10987  -0.000001036571569  -0.000001360897767  -0.000000510902606
Si    8.82537   0.67887   8.82537   0.000001437697613  -0.000000023182429   0.000002425936595
Si    6.10987   3.39437   8.82537  -0.000005288451535   0.000007204025075  -0.000002219736799
Si    8.82537   3.39437   6.10987   0.000004613382759   0.000000596801540  -0.000000323148868
Si   10.18313   2.03662   7.46762   0.000002696016665  -0.000001910682982   0.000001633408044
Si   10.18313   4.75212  10.18313   0.000002671492115   0.000001848884356   0.000000920873658
Si    7.46762   2.03662  10.18313   0.000006387148641  -0.000002055183670  -0.000000250267932
Si    7.46762   4.75212   7.46762   0.000001966170791   0.000001037038240  -0.000002559655061
Si    6.10987   0.67887  11.54087   0.000003407686281   0.000000087553132  -0.000000425909099
Si    8.82537   0.67887  14.25638   0.000001469494475   0.000000138510543   0.000001037346219
Si    6.10987   3.39437  14.25638   0.000002000931930  -0.000002940783278   0.000001110997092
Si    8.82537   3.39437  11.54087  -0.000003444800214   0.000000148011833   0.000003858792260
Si   10.18313   2.03662  12.89862   0.000003473724309  -0.000000043181735   0.000000471303458
Si   10.18313   4.75212  15.61413  -0.000000184992174  -0.000002349535357   0.000002209042000
Si    7.46762   2.03662  15.61413  -0.000001468182180   0.000001687923092   0.000006324304482
Si    7.46762   4.75212  12.89862  -0.000000432117310   0.000001130834358   0.000001687204199
Si    6.10987   6.10987   0.67888   0.000003857375781   0.000003857156390  -0.000000005687723
Si    8.82537   6.10987   3.39437   0.000008578560866   0.000001191453915  -0.000000040069608
Si    6.10987   8.82537   3.39437   0.000001191624675   0.000008578466716  -0.000000039975144
Si    8.82537   8.82537   0.67888   0.000004665280147   0.000004665268190  -0.000003516679642
Si   10.18313   7.46762   2.03662  -0.000007110892040  -0.000002473028651  -0.000000440732492
Si   10.18313  10.18313   4.75213  -0.000001483632840  -0.000001483794879   0.000001029824961
Si    7.46762   7.46762   4.75213  -0.000003672571253  -0.000003672562727   0.000006753152821
Si    7.46762  10.18313   2.03662  -0.000002472926448  -0.000007110985366  -0.000000440804309
Si    6.10987   6.10987   6.10987  -0.000004832608378  -0.000004832564291   0.000001363609264
Si    8.82537   6.10987   8.82537   0.000007651056126  -0.000000066009365   0.000000790634107
Si    6.10987   8.82537   8.82537  -0.000000065954089   0.000007651003684   0.000000790613179
Si    8.82537   8.82537   6.10987   0.000001977220302   0.000001977198595   0.000000890715326
Si   10.18313   7.46762   7.46762   0.000001813949347   0.000006325824919   0.000005756654602
Si   10.18313  10.18313  10.18313  -0.000001979696923  -0.000001979849810  -0.000001682618511
Si    7.46762   7.46762  10.18313  -0.000005643856776  -0.000005643945100   0.000000362021074
Si    7.46762  10.18313   7.46762   0.000006325838721   0.000001813713725   0.000005756574145
Si    6.10987   6.10987  11.54087   0.000002339529401   0.000002339518222  -0.000002180574024
Si    8.82537   6.10987  14.25638  -0.000005182294102   0.000001549529193  -0.000000901809993
Si    6.10987   8.82537  14.25638   0.000001549469631  -0.000005182171274  -0.000000901773022
Si    8.82537   8.82537  11.54087   0.000004016789645   0.000004016709439   0.000003474559998
Si   10.18313   7.46762  12.89862   0.000000633271505   0.000007341124508  -0.000004960813248
Si   10.18313  10.18313  15.61413  -0.000000711058068  -0.000000710983958  -0.000001295504142
Si    7.46762   7.46762  15.61413  -0.000003715455763  -0.000003715491891  -0.000006872398222
Si    7.46762  10.18313  12.89862   0.000007341105693   0.000000633399280  -0.000004960686996
Si    6.10987  11.54087   0.67888  -0.000005767315067   0.000005756888716  -0.000003143748464
Si    8.82537  11.54087   3.39437   0.000001981364612   0.000001509732072   0.000000920795526
Si    6.10987  14.25638   3.39437  -0.000002675739245  -0.000001432431067   0.000005881363943
Si    8.82537  14.25638   0.67888  -0.000000871301098  -0.000001692691636  -0.000002179518037
Si   10.18313  12.89862   2.03662   0.000000763637171  -0.000002179018590  -0.000000870403598
Si   10.18313  15.61413   4.75213  -0.000008467992921   0.000003922871182  -0.000003034610367
Si    7.46762  12.89862   4.75213   0.000001605937178   0.000000756021656  -0.000001765029712
Si    7.46762  15.61413   2.03662  -0.000005439818609  -0.000001761316030  -0.000000042101971
Si    6.10987  11.54087   6.10987   0.000002271531980  -0.000003800167654  -0.000001302998513
Si    8.82537  11.54087   8.82537   0.000001406940998   0.000002892074331  -0.000001136589800
Si    6.10987  14.25638   8.82537  -0.000002345367599  -0.000002605806836  -0.000006273333387
Si    8.82537  14.25638   6.10987   0.000001041997490   0.000002757374512  -0.000000665266017
Si   10.18313  12.89862   7.46762  -0.000002892074737  -0.000001406966959   0.000001136493364
Si   10.18313  15.61413  10.18313   0.000003800138586  -0.000002271611466   0.000001303002968
Si    7.46762  12.89862  10.18313  -0.000002757549184  -0.000001041920518   0.000000665218889
Si    7.46762  15.61413   7.46762   0.000002605803136   0.000002345304180   0.000006273447577
Si    6.10987  11.54087  11.54087  -0.000003923086762   0.000008468018969   0.000003034521673
Si    8.82537  11.54087  14.25638   0.000002178921238  -0.000000763576268   0.000000870396143
Si    6.10987  14.25638  14.25638   0.000001761358345   0.000005439835049   0.000000042027825
Si    8.82537  14.25638  11.54087  -0.000000756118668  -0.000001605895949   0.000001765033132
Si   10.18313  12.89862  12.89862  -0.000001509763498  -0.000001981378226  -0.000000920630786
Si   10.18313  15.61413  15.61413  -0.000005757002866   0.000005767104521   0.000003143742695
Si    7.46762  12.89862  15.61413   0.000001692733704   0.000000871323046   0.000002179444288
Si    7.46762  15.61413  12.89862   0.000001432328664   0.000002675575964  -0.000005881344965
Si    6.10987  16.97188   0.67888   0.000001195646482  -0.000000379248508  -0.000005218570514
Si    8.82537  16.97188   3.39437   0.000000590945470   0.000004182727712  -0.000000849834636
Si    6.10987  19.68738   3.39437   0.000002727738179   0.000002713228573   0.000000527348416
Si    8.82537  19.68738   0.67888  -0.000000262356116   0.000007774839065   0.000000071751427
Si   10.18313  18.32963   2.03662   0.000003175636313  -0.000003808997183   0.000001515848251
Si   10.18313  21.04512   4.75213  -0.000002712923560   0.000006353365294  -0.000004752394352
Si    7.46762  18.32963   4.75213  -0.000000430223078   0.000000236017695  -0.000003145095764
Si    7.46762  21.04512   2.03662   0.000004248284993  -0.000003956100587  -0.000000324363386
Si    6.10987  16.97188   6.10987   0.000001764473138  -0.000007656328290  -0.000000133338081
Si    8.82537  16.97188   8.82537   0.000002011785806   0.000006277708336   0.000002876117505
Si    6.10987  19.68738   8.82537   0.000002365617052   0.000002784767210   0.000000309616790
Si    8.82537  19.68738   6.10987  -0.000005474446143   0.000004024053021  -0.000000748509276
Si   10.18313  18.32963   7.46762   0.000001779459195  -0.000005881931985  -0.000002225989954
Si   10.18313  21.04512  10.18313   0.000003518302409  -0.000001991162160  -0.000000137754673
Si    7.46762  18.32963  10.18313  -0.000005928684699  -0.000007352016024   0.000000202070530
Si    7.46762  21.04512   7.46762  -0.000001260837943   0.000003222479626   0.000005794484043
Si    6.10987  16.97188  11.54087  -0.000000812669761   0.000001424186990   0.000003373860732
Si    8.82537  16.97188  14.25638  -0.000001157552588   0.000000234516833  -0.000000300757209
Si    6.10987  19.68738  14.25638   0.000003982265105  -0.000001509928453   0.000000588949149
Si    8.82537  19.68738  11.54087   0.000000563661125   0.000005669085660  -0.000000869091381
Si   10.18313  18.32963  12.89862   0.000002288880493  -0.000005332437924   0.000003078687535
Si   10.18313  21.04512  15.61413  -0.000006111791725   0.000006918685429   0.000003361578722
Si    7.46762  18.32963  15.61413  -0.000000518229001   0.000000329811447   0.000002631936103
Si    7.46762  21.04512  12.89862  -0.000000711891558   0.000002155439114  -0.000005543859765
Si   11.54087   0.67887   0.67888   0.000006111849916  -0.000006918744195  -0.000003361502467
Si   14.25638   0.67887   3.39437   0.000000711707133  -0.000002155393835   0.000005543902296
Si   11.54087   3.39437   3.39437  -0.000002288962366   0.000005332543449  -0.000003078515468
Si   14.25638   3.39437   0.67888   0.000000518284524  -0.000000329817774  -0.000002631833752
Si   15.61413   2.03662   2.03662  -0.000003982435770   0.000001510074183  -0.000000588874760
Si   15.61413   4.75212   4.75213   0.000000812511478  -0.000001424256784  -0.000003373824831
Si   12.89862   2.03662   4.75213  -0.000000563852944  -0.000005668911891   0.000000868979320
Si   12.89862   4.75212   2.03662   0.000001157412709  -0.000000234513117   0.000000301109192
Si   11.54087   0.67887   6.10987  -0.000003518393329   0.000001991291972   0.000000137613835
Si   14.25638   0.67887   8.82537   0.000001260918781  -0.000003222262092  -0.000005794665589
Si   11.54087   3.39437   8.82537  -0.000001779590822   0.000005882062153   0.000002225893082
Si   14.25638   3.39437   6.10987   0.000005928687482   0.000007352254603  -0.000000202228483
Si   15.61413   2.03662   7.46762  -0.000002365409444  -0.000002784642548  -0.000000309629540
Si   15.61413   4.75212  10.18313  -0.000001764624264   0.000007656278817   0.000000133349490
Si   12.89862   2.03662  10.18313   0.000005474395065  -0.000004023772370   0.000000748549176
Si   12.89862   4.75212   7.46762  -0.000002011877456  -0.000006277539452  -0.000002876229355
Si   11.54087   0.67887  11.54087   0.000002712922769  -0.000006353176613   0.000004752486352
Si   14.25638   0.67887  14.25638  -0.000004248403821   0.000003956143417   0.000000324374935
Si   11.54087   3.39437  14.25638  -0.000003175589064   0.000003808825380  -0.000001515913345
Si   14.25638   3.39437  11.54087   0.000000430189131  -0.000000235826516   0.000003144971392
Si   15.61413   2.03662  12.89862  -0.000002727705750  -0.000002713098604  -0.000000527306231
Si   15.61413   4.75212  15.61413  -0.000001195526832   0.000000379287102   0.000005218719262
Si   12.89862   2.03662  15.61413   0.000000262372192  -0.000007774838405  -0.000000071781058
Si   12.89862   4.75212  12.89862  -0.000000590866907  -0.000004182894181   0.000000849582003
Si   11.54087   6.10987   0.67888   0.000005756791506  -0.000005767193623  -0.000003143529462
Si   14.25638   6.10987   3.39437  -0.000001432514197  -0.000002675661575   0.000005881587313
Si   11.54087   8.82537   3.39437   0.000001509912457   0.000001981277835   0.000000920793787
Si   14.25638   8.82537   0.67888  -0.000001692683870  -0.000000871328591  -0.000002179389191
Si   15.61413   7.46762   2.03662  -0.000001761453062  -0.000005439786391  -0.000000041962169
Si   15.61413  10.18313   4.75213   0.000003922738012  -0.000008468179193  -0.000003034598946
Si   12.89862   7.46762   4.75213   0.000000756012177   0.000001605809856  -0.000001765062721
Si   12.89862  10.18313   2.03662  -0.000002178951084   0.000000763552601  -0.000000870298034
Si   11.54087   6.10987   6.10987  -0.000003799971666   0.000002271571800  -0.000001303036188
Si   14.25638   6.10987   8.82537  -0.000002605985651  -0.000002345348879  -0.000006273456679
Si   11.54087   8.82537   8.82537   0.000002892211033   0.000001406750387  -0.000001136642659
Si   14.25638   8.82537   6.10987   0.000002757262023   0.000001041944272  -0.000000665202905
Si   15.61413   7.46762   7.46762   0.000002345215396   0.000002605820162   0.000006273340851
Si   15.61413  10.18313  10.18313  -0.000002271638388   0.000003800001460   0.000001303014039
Si   12.89862   7.46762  10.18313  -0.000001042050379  -0.000002757512740   0.000000665053651
Si   12.89862  10.18313   7.46762  -0.000001406871171  -0.000002892275793   0.000001136403658
Si   11.54087   6.10987  11.54087   0.000008468074714  -0.000003922960089   0.000003034273299
Si   14.25638   6.10987  14.25638   0.000005439984814   0.000001761560134   0.000000042000105
Si   11.54087   8.82537  14.25638  -0.000000763514114   0.000002179017952   0.000000870359729
Si   14.25638   8.82537  11.54087  -0.000001605902746  -0.000000755948007   0.000001765031939
Si   15.61413   7.46762  12.89862   0.000002675730744   0.000001432405080  -0.000005881393024
Si   15.61413  10.18313  15.61413   0.000005767231651  -0.000005756802621   0.000003143693784
Si   12.89862   7.46762  15.61413   0.000000871378259   0.000001692844123   0.000002179600734
Si   12.89862  10.18313  12.89862  -0.000001981278355  -0.000001509824390  -0.000000920797651
Si   11.54087  11.54087   0.67888   0.000000711036620   0.000000710975080   0.000001295589633
Si   14.25638  11.54087   3.39437  -0.000007341224574  -0.000000633379252   0.000004960706764
Si   11.54087  14.25638   3.39437  -0.000000633345758  -0.000007341160769   0.000004960799242
Si   14.25638  14.25638   0.67888   0.000003715683059   0.000003715368386   0.000006872530284
Si   15.61413  12.89862   2.03662  -0.000001549559402   0.000005182257135   0.000000901680607
Si   15.61413  15.61413   4.75213  -0.000002339543928  -0.000002339491990   0.000002180206819
Si   12.89862  12.89862   4.75213  -0.000004016794505  -0.000004016885859  -0.000003474558567
Si   12.89862  15.61413   2.03662   0.000005182351668  -0.000001549475664   0.000000901866300
Si   11.54087  11.54087   6.10987   0.000001979933399   0.000001979706549   0.000001682472083
Si   14.25638  11.54087   8.82537  -0.000006325968616  -0.000001813930218  -0.000005756629238
Si   11.54087  14.25638   8.82537  -0.000001813757594  -0.000006325929268  -0.000005756595526
Si   14.25638  14.25638   6.10987   0.000005643763270   0.000005643827229  -0.000000362189980
Si   15.61413  12.89862   7.46762   0.000000065926300  -0.000007651080428  -0.000000790658985
Si   15.61413  15.61413  10.18313   0.000004832652764   0.000004832556205  -0.000001363519547
Si   12.89862  12.89862  10.18313  -0.000001977204979  -0.000001977276101  -0.000000890672977
Si   12.89862  15.61413   7.46762  -0.000007651037870   0.000000065923859  -0.000000790695206
Si   11.54087  11.54087  11.54087   0.000001483859530   0.000001483685452  -0.000001029821544
Si   14.25638  11.54087  14.25638   0.000002473104540   0.000007110943666   0.000000440842839
Si   11.54087  14.25638  14.25638   0.000007110949851   0.000002472827011   0.000000440795774
Si   14.25638  14.25638  11.54087   0.000003672531808   0.000003672535941  -0.000006753092891
Si   15.61413  12.89862  12.89862  -0.000001191481981  -0.000008578567835   0.000000040177990
Si   15.61413  15.61413  15.61413  -0.000003857099305  -0.000003857323417   0.000000005654499
Si   12.89862  12.89862  15.61413  -0.000004665178074  -0.000004665360530   0.000003516694512
Si   12.89862  15.61413  12.89862  -0.000008578462373  -0.000001191698276   0.000000039941413
Si   11.54087  16.97188   0.67888   0.000000184918792   0.000002349660255  -0.000002208768618
Si   14.25638  16.97188   3.39437   0.000000432284055  -0.000001130829486  -0.000001687286583
Si   11.54087  19.68738   3.39437  -0.000003473608619   0.000000043227786  -0.000000471351350
Si   14.25638  19.68738   0.67888   0.000001467979378  -0.000001688028156  -0.000006324308216
Si   15.61413  18.32963   2.03662  -0.000002001062515   0.000002940559937  -0.000001110821217
Si   15.61413  21.04512   4.75213  -0.000003407875515  -0.000000087484001   0.000000425913145
Si   12.89862  18.32963   4.75213   0.000003444772999  -0.000000147848156  -0.000003858955204
Si   12.89862  21.04512   2.03662  -0.000001469575927  -0.000000138407787  -0.000001037265183
Si   11.54087  16.97188   6.10987  -0.000002671450873  -0.000001848833418  -0.000000921038496
Si   14.25638  16.97188   8.82537  -0.000001966185765  -0.000001037105588   0.000002559790127
Si   11.54087  19.68738   8.82537  -0.000002696204718   0.000001910841900  -0.000001633540700
Si   14.25638  19.68738   6.10987  -0.000006387200977   0.000002055332090   0.000000250019350
Si   15.61413  18.32963   7.46762   0.000005288457905  -0.000007203959545   0.000002219615036
Si   15.61413  21.04512  10.18313   0.000001036778972   0.000001361001604   0.000000510872094
Si   12.89862  18.32963  10.18313  -0.000004613278287  -0.000000596960648   0.000000323155412
Si   12.89862  21.04512   7.46762  -0.000001437727461   0.000000023415818  -0.000002426222815
Si   11.54087  16.97188  11.54087   0.000001001370493   0.000002105308162   0.000003115484704
Si   14.25638  16.97188  14.25638  -0.000002568398527  -0.000002006599841  -0.000000595877135
Si   11.54087  19.68738  14.25638  -0.000001262496808  -0.000002104252529   0.000000436910072
Si   14.25638  19.68738  11.54087   0.000000697193077  -0.000003415276934   0.000006810111238
Si   15.61413  18.32963  12.89862   0.000005763936952  -0.000005635951166  -0.000003492555422
Si   15.61413  21.04512  15.61413  -0.000001619870128  -0.000003189383837  -0.000002412946530
Si   12.89862  18.32963  15.61413   0.000003965443104   0.000001990786921   0.000004818535284
Si   12.89862  21.04512  12.89862  -0.000001327157789  -0.000002211683459   0.000002615745937
Si   16.97188   0.67887   0.67888   0.000002486058586  -0.000000758090361  -0.000004554415567
Si   19.68738   0.67887   3.39437   0.000002868482231   0.000003154975844   0.000001081673058
Si   16.97188   3.39437   3.39437   0.000002276694107   0.000002559813523   0.000002444300147
Si   19.68738   3.39437   0.67888  -0.000005992091750  -0.000007102230460  -0.000001180687399
Si   21.04512   2.03662   2.03662   0.000000878495998   0.000002171608764   0.000000233844337
Si   21.04512   4.75212   4.75213   0.000000426798334  -0.000001915282398  -0.000003552768767
Si   18.32963   2.03662   4.75213   0.000007183846365   0.000004586522627  -0.000003018366669
Si   18.32963   4.75212   2.03662  -0.000000749887015  -0.000000875114612  -0.000000968011372
Si   16.97188   0.67887   6.10987  -0.000010277176877  -0.000003480020299   0.000000544937913
Si   19.68738   0.67887   8.82537   0.000001223053004   0.000004852006841  -0.000001542120314
Si   16.97188   3.39437   8.82537   0.000002559956736   0.000002905150054  -0.000002081503285
Si   19.68738   3.39437   6.10987  -0.000001075832966   0.000002046451641  -0.000000627861102
Si   21.04512   2.03662   7.46762  -0.000004851932675  -0.000001223141746   0.000001542189070
Si   21.04512   4.75212  10.18313   0.000003480097359   0.000010277089927  -0.000000544834846
Si   18.32963   2.03662  10.18313  -0.000002046492095   0.000001075656686   0.000000627866786
Si   18.32963   4.75212   7.46762  -0.000002905125364  -0.000002560070560   0.000002081438602
Si   16.97188   0.67887  11.54087   0.000001915452858  -0.000000426783447   0.000003552575927
Si   19.68738   0.67887  14.25638  -0.000002171560256  -0.000000878620862  -0.000000233909503
Si   16.97188   3.39437  14.25638   0.000000874997827   0.000000749789248   0.000000968181591
Si   19.68738   3.39437  11.54087  -0.000004586493940  -0.000007183898756   0.000003018296199
Si   21.04512   2.03662  12.89862  -0.000003154912221  -0.000002868585817  -0.000001081767987
Si   21.04512   4.75212  15.61413   0.000000758270470  -0.000002486013424   0.000004554336291
Si   18.32963   2.03662  15.61413   0.000007102116361   0.000005991956365   0.000001180858909
Si   18.32963   4.75212  12.89862  -0.000002559810226  -0.000002276593178  -0.000002444395910
Si   16.97188   6.10987   0.67888  -0.000000379336990   0.000001195627997  -0.000005218595820
Si   19.68738   6.10987   3.39437   0.000002713042964   0.000002727667827   0.000000527291059
Si   16.97188   8.82537   3.39437   0.000004182704003   0.000000590808341  -0.000000849824513
Si   19.68738   8.82537   0.67888   0.000007774799617  -0.000000262175946   0.000000071817728
Si   21.04512   7.46762   2.03662  -0.000003956053255   0.000004248377826  -0.000000324269079
Si   21.04512  10.18313   4.75213   0.000006353125740  -0.000002712983853  -0.000004752555580
Si   18.32963   7.46762   4.75213   0.000000235805385  -0.000000430315685  -0.000003145040630
Si   18.32963  10.18313   2.03662  -0.000003808937711   0.000003175496940   0.000001515793990
Si   16.97188   6.10987   6.10987  -0.000007656400423   0.000001764530506  -0.000000133536426
Si   19.68738   6.10987   8.82537   0.000002784588017   0.000002365364970   0.000000309647055
Si   16.97188   8.82537   8.82537   0.000006277553753   0.000002011896253   0.000002876118594
Si   19.68738   8.82537   6.10987   0.000004023879413  -0.000005474430234  -0.000000748634143
Si   21.04512   7.46762   7.46762   0.000003222368315  -0.000001260931443   0.000005794475784
Si   21.04512  10.18313  10.18313  -0.000001991217353   0.000003518444617  -0.000000137472105
Si   18.32963   7.46762  10.18313  -0.000007352172535  -0.000005928829869   0.000000202236901
Si   18.32963  10.18313   7.46762  -0.000005882052076   0.000001779497901  -0.000002225946140
Si   16.97188   6.10987  11.54087   0.000001424276487  -0.000000812584400   0.000003373829447
Si   19.68738   6.10987  14.25638  -0.000001510017161   0.000003982391040   0.000000588898218
Si   16.97188   8.82537  14.25638   0.000000234431346  -0.000001157393003  -0.000000300768914
Si   19.68738   8.82537  11.54087   0.000005668978888   0.000000563865307  -0.000000869049951
Si   21.04512   7.46762  12.89862   0.000002155506531  -0.000000711793213  -0.000005543952967
Si   21.04512  10.18313  15.61413   0.000006918791638  -0.000006111598850   0.000003361548116
Si   18.32963   7.46762  15.61413   0.000000329621113  -0.000000518131684   0.000002631867891
Si   18.32963  10.18313  12.89862  -0.000005332440313   0.000002289021383   0.000003078665221
Si   16.97188  11.54087   0.67888   0.000002349429084   0.000000185006213  -0.000002209039583
Si   19.68738  11.54087   3.39437   0.000000043246471  -0.000003473803360  -0.000000471387696
Si   16.97188  14.25638   3.39437  -0.000001131005786   0.000000432278058  -0.000001687378760
Si   19.68738  14.25638   0.67888  -0.000001687867595   0.000001468119130  -0.000006324489499
Si   21.04512  12.89862   2.03662  -0.000000138248992  -0.000001469489145  -0.000001037535835
Si   21.04512  15.61413   4.75213  -0.000000087561054  -0.000003407773292   0.000000425787528
Si   18.32963  12.89862   4.75213  -0.000000147894155   0.000003444786477  -0.000003858799708
Si   18.32963  15.61413   2.03662   0.000002940653834  -0.000002000960310  -0.000001111028769
Si   16.97188  11.54087   6.10987  -0.000001848795728  -0.000002671464790  -0.000000920930549
Si   19.68738  11.54087   8.82537   0.000001910698738  -0.000002696111048  -0.000001633370727
Si   16.97188  14.25638   8.82537  -0.000001037038979  -0.000001966193031   0.000002559758662
Si   19.68738  14.25638   6.10987   0.000002055167520  -0.000006387180040   0.000000250096982
Si   21.04512  12.89862   7.46762   0.000000023312528  -0.000001437693995  -0.000002425982834
Si   21.04512  15.61413  10.18313   0.000001361088847   0.000001036696108   0.000000510976058
Si   18.32963  12.89862  10.18313  -0.000000596811366  -0.000004613282034   0.000000323222951
Si   18.32963  15.61413   7.46762  -0.000007204032911   0.000005288413763   0.000002219685393
Si   16.97188  11.54087  11.54087   0.000002105434991   0.000001001232399   0.000003115671190
Si   19.68738  11.54087  14.25638  -0.000002104278912  -0.000001262328778   0.000000436782059
Si   16.97188  14.25638  14.25638  -0.000002006538935  -0.000002568641863  -0.000000595798261
Si   19.68738  14.25638  11.54087  -0.000003415208158   0.000000697110853   0.000006810154878
Si   21.04512  12.89862  12.89862  -0.000002211680410  -0.000001327122256   0.000002615904666
Si   21.04512  15.61413  15.61413  -0.000003189422392  -0.000001620036539  -0.000002412863784
Si   18.32963  12.89862  15.61413   0.000001990626906   0.000003965469649   0.000004818299350
Si   18.32963  15.61413  12.89862  -0.000005635889500   0.000005763790185  -0.000003492552307
Si   16.97188  16.97188   0.67888   0.000001375919614   0.000001375793471  -0.000004813711815
Si   19.68738  16.97188   3.39437   0.000000118213050  -0.000000209649569   0.000000884039166
Si   16.97188  19.68738   3.39437  -0.000000209640836   0.000000118146391   0.000000884172394
Si   19.68738  19.68738   0.67888  -0.000000043515689  -0.000000043360059  -0.000002439073612
Si   21.04512  18.32963   2.03662  -0.000007079034163   0.000000392709509   0.000000029533986
Si   21.04512  21.04512   4.75213  -0.000003757614718  -0.000003757574159  -0.000005236393220
Si   18.32963  18.32963   4.75213  -0.000002718577878  -0.000002718520382  -0.000005988334182
Si   18.32963  21.04512   2.03662   0.000000392915533  -0.000007079004281   0.000000029471741
Si   16.97188  16.97188   6.10987   0.000000895651200   0.000000895673233  -0.000001254932852
Si   19.68738  16.97188   8.82537   0.000000900266576  -0.000001267572377  -0.000001363867052
Si   16.97188  19.68738   8.82537  -0.000001267538234   0.000000900222984  -0.000001363897596
Si   19.68738  19.68738   6.10987  -0.000000066531732  -0.000000066487905  -0.000000225472370
Si   21.04512  18.32963   7.46762   0.000005115059688   0.000002759312268   0.000009135453030
Si   21.04512  21.04512  10.18313   0.000004899135853   0.000004899100716  -0.000000333407516
Si   18.32963  18.32963  10.18313   0.000004153408469   0.000004153364563  -0.000000193686078
Si   18.32963  21.04512   7.46762   0.000002759360691   0.000005115122754   0.000009135388634
Si   16.97188  16.97188  11.54087   0.000002021776264   0.000002021735239   0.000003168564641
Si   19.68738  16.97188  14.25638  -0.000000377827407   0.000000011715148   0.000000871147057
Si   16.97188  19.68738  14.25638   0.000000011685788  -0.000000377926713   0.000000871203905
Si   19.68738  19.68738  11.54087   0.000002167689568   0.000002167532995   0.000003637242379
Si   21.04512  18.32963  12.89862   0.000005614977947   0.000002077148852  -0.000007892079755
Si   21.04512  21.04512  15.61413  -0.000003780202734  -0.000003780027967   0.000004943566365
Si   18.32963  18.32963  15.61413  -0.000002232247447  -0.000002232342345   0.000005445690776
Si   18.32963  21.04512  12.89862   0.000002077222966   0.000005614807017  -0.000007892093896
