360 

Si    0.00000   0.00000   0.00000  -0.000050208165248  -0.000050208185621   0.000226614745342
Si    1.35775   1.35775   1.35775   0.000045839192831   0.000045839178452  -0.000245283122476
Si    2.71550   2.71550   0.00000  -0.000050208173977  -0.000050208175969   0.000226614741882
Si    4.07325   4.07325   1.35775   0.000045839188774   0.000045839199091  -0.000245283120334
Si    5.43100   5.43100   0.00000  -0.000050208166374  -0.000050208152676   0.000226614740115
Si    6.78875   6.78875   1.35775   0.000045839207071   0.000045839218087  -0.000245283122347
Si    8.14650   8.14650   0.00000  -0.000050208149813  -0.000050208148282   0.000226614745560
Si    9.50425   9.50425   1.35775   0.000045839219271   0.000045839209060  -0.000245283123088
Si   10.86200  10.86200   0.00000  -0.000050208147516  -0.000050208169086   0.000226614747562
Si   12.21975  12.21975   1.35775   0.000045839212867   0.000045839184296  -0.000245283123460
Si    2.71550   0.00000   2.71550  -0.000034398944017  -0.000054519114437   0.000239091716917
Si    4.07325   1.35775   4.07325   0.000046927915828   0.000063566704712  -0.000235114137375
Si    5.43100   2.71550   2.71550  -0.000034398938192  -0.000054519094774   0.000239091720798
Si    6.78875   4.07325   4.07325   0.000046927922426   0.000063566727180  -0.000235114135336
Si    8.14650   5.43100   2.71550  -0.000034398916187  -0.000054519077204   0.000239091722100
Si    9.50425   6.78875   4.07325   0.000046927945582   0.000063566739422  -0.000235114148443
Si   10.86200   8.14650   2.71550  -0.000034398903010  -0.000054519081303   0.000239091714275
Si   12.21975   9.50425   4.07325   0.000046927944439   0.000063566716295  -0.000235114149905
Si   13.57750  10.86200   2.71550  -0.000034398921815  -0.000054519108668   0.000239091715092
Si   14.93525  12.21975   4.07325   0.000046927927554   0.000063566694842  -0.000235114141898
Si    5.43100   0.00000   5.43100  -0.000052886852042  -0.000057666562384   0.000224303761644
Si    6.78875   1.35775   6.78875   0.000053906910938   0.000052536701945  -0.000234724413536
Si    8.14650   2.71550   5.43100  -0.000052886833197  -0.000057666540067   0.000224303752570
Si    9.50425   4.07325   6.78875   0.000054517044115   0.000053149669694  -0.000234724425556
Si   10.86200   5.43100   5.43100  -0.000052886812463  -0.000057666525660   0.000224303741898
Si   12.21975   6.78875   6.78875   0.000054517056616   0.000053149671583  -0.000234724440112
Si   13.57750   8.14650   5.43100  -0.000052886811675  -0.000057666535778   0.000224303734461
Si   14.93525   9.50425   6.78875   0.000054517049451   0.000053149655217  -0.000234724440580
Si   16.29300  10.86200   5.43100  -0.000052886834457  -0.000057666560678   0.000224303743185
Si   17.65075  12.21975   6.78875   0.000054517030229   0.000053149641637  -0.000234724425592
Si    8.14650   0.00000   8.14650  -0.000050823717069  -0.000050823674360   0.000226614732137
Si    9.50425   1.35775   9.50425   0.000045224190710   0.000045224231889  -0.000245283135549
Si   10.86200   2.71550   8.14650  -0.000050823701517  -0.000050823661315   0.000226614726304
Si   12.21975   4.07325   9.50425   0.000045224209857   0.000045224243529  -0.000245283148292
Si   13.57750   5.43100   8.14650  -0.000050823686417  -0.000050823653616   0.000226614710474
Si   14.93525   6.78875   9.50425   0.000045224210383   0.000045224245738  -0.000245283158111
Si   16.29300   8.14650   8.14650  -0.000050816486866  -0.000050816453782   0.000226614709075
Si   17.65075   9.50425   9.50425   0.000045224193979   0.000045224233944  -0.000245283157685
Si   19.00850  10.86200   8.14650  -0.000050823719693  -0.000050823677553   0.000226614723060
Si   20.36625  12.21975   9.50425   0.000045224176362   0.000045224225172  -0.000245283138096
Si   10.86200   0.00000  10.86200  -0.000034398944086  -0.000054519086090   0.000239091713429
Si   12.21975   1.35775  12.21975   0.000046927921380   0.000063566720953  -0.000235114141711
Si   13.57750   2.71550  10.86200  -0.000034398930500  -0.000054519079805   0.000239091704728
Si   14.93525   4.07325  12.21975   0.000046927924321   0.000063566733408  -0.000235114161328
Si   16.29300   5.43100  10.86200  -0.000034398932120  -0.000054519073883   0.000239091692386
Si   17.65075   6.78875  12.21975   0.000046927918956   0.000063566733623  -0.000235114163173
Si   19.00850   8.14650  10.86200  -0.000034398951641  -0.000054519068074   0.000239091688690
Si   20.36625   9.50425  12.21975   0.000046927907871   0.000063566738254  -0.000235114160350
Si   21.72400  10.86200  10.86200  -0.000034398954376  -0.000054519076637   0.000239091702578
Si   23.08175  12.21975  12.21975   0.000046927909834   0.000063566722755  -0.000235114140226
Si   13.57750   0.00000  13.57750  -0.000052886813618  -0.000057666559460   0.000224303762896
Si   14.93525   1.35775  14.93525   0.000054517336170   0.000053149973245  -0.000234724412907
Si   16.29300   2.71550  13.57750  -0.000052886823827  -0.000057666556818   0.000224303751999
Si   17.65075   4.07325  14.93525   0.000054517323522   0.000053149984063  -0.000234724420844
Si   19.00850   5.43100  13.57750  -0.000052886834033  -0.000057666540323   0.000224303740866
Si   20.36625   6.78875  14.93525   0.000054517324766   0.000053150001922  -0.000234724422965
Si   21.72400   8.14650  13.57750  -0.000052886833598  -0.000057666537668   0.000224303750411
Si   23.08175   9.50425  14.93525   0.000054517330881   0.000053149998855  -0.000234724412767
Si   24.43950  10.86200  13.57750  -0.000052886819415  -0.000057666547003   0.000224303761977
Si   25.79725  12.21975  14.93525   0.000054517335799   0.000053149980851  -0.000234724406380
Si    0.00000   2.71550   2.71550  -0.000054519100844  -0.000034398941965   0.000239091721717
Si    1.35775   4.07325   4.07325   0.000063566714959   0.000046927924441  -0.000235114137270
Si    2.71550   5.43100   2.71550  -0.000054519101663  -0.000034398923439   0.000239091723025
Si    4.07325   6.78875   4.07325   0.000063566715946   0.000046927942731  -0.000235114136662
Si    5.43100   8.14650   2.71550  -0.000054519096937  -0.000034398909844   0.000239091722881
Si    6.78875   9.50425   4.07325   0.000063566726542   0.000046927943224  -0.000235114141615
Si    8.14650  10.86200   2.71550  -0.000054519093853  -0.000034398919050   0.000239091718947
Si    9.50425  12.21975   4.07325   0.000063566725393   0.000046927927293  -0.000235114148360
Si   10.86200  13.57750   2.71550  -0.000054519094361  -0.000034398937611   0.000239091717674
Si   12.21975  14.93525   4.07325   0.000063566719676   0.000046927916774  -0.000235114147153
Si    2.71550   2.71550   5.43100  -0.000052354975157  -0.000052354971786   0.000229861176045
Si    4.07325   4.07325   6.78875   0.000043302128725   0.000043302137322  -0.000245316132533
Si    5.43100   5.43100   5.43100  -0.000052354968761  -0.000052354958546   0.000229861184378
Si    6.78875   6.78875   6.78875   0.000043302130858   0.000043302142383  -0.000245316131583
Si    8.14650   8.14650   5.43100  -0.000052354960947  -0.000052354950601   0.000229861171681
Si    9.50425   9.50425   6.78875   0.000043302142957   0.000043302142244  -0.000245316153447
Si   10.86200  10.86200   5.43100  -0.000052354952876  -0.000052354965989   0.000229861163605
Si   12.21975  12.21975   6.78875   0.000043302145860   0.000043302129689  -0.000245316157028
Si   13.57750  13.57750   5.43100  -0.000052354960897  -0.000052354984456   0.000229861169061
Si   14.93525  14.93525   6.78875   0.000043302138974   0.000043302117511  -0.000245316136522
Si    5.43100   2.71550   8.14650  -0.000054424692136  -0.000044137960782   0.000238293351313
Si    6.78875   4.07325   9.50425   0.000061195849816   0.000041418014319  -0.000233473407990
Si    8.14650   5.43100   8.14650  -0.000054424685470  -0.000044137946433   0.000238293340704
Si    9.50425   6.78875   9.50425   0.000061195861526   0.000041418020725  -0.000233473422105
Si   10.86200   8.14650   8.14650  -0.000054424670481  -0.000044137948172   0.000238293326680
Si   12.21975   9.50425   9.50425   0.000061195879507   0.000041418015079  -0.000233473434528
Si   13.57750  10.86200   8.14650  -0.000054424667314  -0.000044137961648   0.000238293323864
Si   14.93525  12.21975   9.50425   0.000061195876623   0.000041418005486  -0.000233473427086
Si   16.29300  13.57750   8.14650  -0.000054424680174  -0.000044137966784   0.000238293335458
Si   17.65075  14.93525   9.50425   0.000061195859221   0.000041418005978  -0.000233473414548
Si    8.14650   2.71550  10.86200  -0.000054519131162  -0.000034398908837   0.000239091713744
Si    9.50425   4.07325  12.21975   0.000063566676014   0.000046927956837  -0.000235114151252
Si   10.86200   5.43100  10.86200  -0.000054519111764  -0.000034398903936   0.000239091705768
Si   12.21975   6.78875  12.21975   0.000063566701614   0.000046927955479  -0.000235114159113
Si   13.57750   8.14650  10.86200  -0.000054519101369  -0.000034398898433   0.000239091690929
Si   14.93525   9.50425  12.21975   0.000063566711349   0.000046927957168  -0.000235114168457
Si   16.29300  10.86200  10.86200  -0.000054519106615  -0.000034398907667   0.000239091696334
Si   17.65075  12.21975  12.21975   0.000063566697606   0.000046927951748  -0.000235114158689
Si   19.00850  13.57750  10.86200  -0.000054519124411  -0.000034398910714   0.000239091707645
Si   20.36625  14.93525  12.21975   0.000063566683714   0.000046927949850  -0.000235114147793
Si   10.86200   2.71550  13.57750  -0.000051739467192  -0.000051739427128   0.000229861169038
Si   12.21975   4.07325  14.93525   0.000043302120840   0.000043302148182  -0.000245316144426
Si   13.57750   5.43100  13.57750  -0.000051739459641  -0.000051739422725   0.000229861158783
Si   14.93525   6.78875  14.93525   0.000043302123900   0.000043302156620  -0.000245316154121
Si   16.29300   8.14650  13.57750  -0.000052354978186  -0.000052354940853   0.000229861156823
Si   17.65075   9.50425  14.93525   0.000043302124058   0.000043302162459  -0.000245316156439
Si   19.00850  10.86200  13.57750  -0.000051739468379  -0.000051739417582   0.000229861156938
Si   20.36625  12.21975  14.93525   0.000043302114410   0.000043302159610  -0.000245316147946
Si   21.72400  13.57750  13.57750  -0.000051739476022  -0.000051739431518   0.000229861172624
Si   23.08175  14.93525  14.93525   0.000043302110773   0.000043302145978  -0.000245316135311
Si   13.57750   2.71550  16.29300  -0.000054424683276  -0.000044137965108   0.000238293348476
Si   14.93525   4.07325  17.65075   0.000061192839396   0.000041414366102  -0.000233473412198
Si   16.29300   5.43100  16.29300  -0.000054424680986  -0.000044137956367   0.000238293340753
Si   17.65075   6.78875  17.65075   0.000061192840523   0.000041414379522  -0.000233473413709
Si   19.00850   8.14650  16.29300  -0.000054424683542  -0.000044137941998   0.000238293339033
Si   20.36625   9.50425  17.65075   0.000061192842344   0.000041414389571  -0.000233473413939
Si   21.72400  10.86200  16.29300  -0.000054424681117  -0.000044137946675   0.000238293346602
Si   23.08175  12.21975  17.65075   0.000061192843526   0.000041414375486  -0.000233473408211
Si   24.43950  13.57750  16.29300  -0.000054424684596  -0.000044137958658   0.000238293350310
Si   25.79725  14.93525  17.65075   0.000061192839893   0.000041414361216  -0.000233473408358
Si    0.00000   5.43100   5.43100  -0.000057666547986  -0.000052886826124   0.000224303753104
Si    1.35775   6.78875   6.78875   0.000053149665421   0.000054517054181  -0.000234724420035
Si    2.71550   8.14650   5.43100  -0.000057666547726  -0.000052886813340   0.000224303756610
Si    4.07325   9.50425   6.78875   0.000053149656997   0.000054517058721  -0.000234724422107
Si    5.43100  10.86200   5.43100  -0.000057666552730  -0.000052886815140   0.000224303751527
Si    6.78875  12.21975   6.78875   0.000053149649349   0.000054517048450  -0.000234724434309
Si    8.14650  13.57750   5.43100  -0.000057666550001  -0.000052886826889   0.000224303742126
Si    9.50425  14.93525   6.78875   0.000053149659900   0.000054517039625  -0.000234724440120
Si   10.86200  16.29300   5.43100  -0.000057666552158  -0.000052886833884   0.000224303742787
Si   12.21975  17.65075   6.78875   0.000053149663360   0.000054517045214  -0.000234724432628
Si    2.71550   5.43100   8.14650  -0.000044137956696  -0.000054424674580   0.000238293348739
Si    4.07325   6.78875   9.50425   0.000041418004720   0.000061195872121  -0.000233473412525
Si    5.43100   8.14650   8.14650  -0.000044137965278  -0.000054424670438   0.000238293346800
Si    6.78875   9.50425   9.50425   0.000041417999465   0.000061195869240  -0.000233473421359
Si    8.14650  10.86200   8.14650  -0.000044137960903  -0.000054424672358   0.000238293325474
Si    9.50425  12.21975   9.50425   0.000041418008457   0.000061195855414  -0.000233473429499
Si   10.86200  13.57750   8.14650  -0.000044137952450  -0.000054424686684   0.000238293325046
Si   12.21975  14.93525   9.50425   0.000041418021460   0.000061195862597  -0.000233473434495
Si   13.57750  16.29300   8.14650  -0.000044137945946  -0.000054424686556   0.000238293336882
Si   14.93525  17.65075   9.50425   0.000041418019461   0.000061195862384  -0.000233473412892
Si    5.43100   5.43100  10.86200  -0.000047352742309  -0.000047352726229   0.000243684174815
Si    6.78875   6.78875  12.21975   0.000058193819704   0.000058193833141  -0.000224055176033
Si    8.14650   8.14650  10.86200  -0.000047352745327  -0.000047352725690   0.000243684166030
Si    9.50425   9.50425  12.21975   0.000058193823800   0.000058193827788  -0.000224055188039
Si   10.86200  10.86200  10.86200  -0.000047352719897  -0.000047352731920   0.000243684152053
Si   12.21975  12.21975  12.21975   0.000058193848930   0.000058193828186  -0.000224055196510
Si   13.57750  13.57750  10.86200  -0.000047352710360  -0.000047352735231   0.000243684154892
Si   14.93525  14.93525  12.21975   0.000058193850170   0.000058193830378  -0.000224055187830
Si   16.29300  16.29300  10.86200  -0.000047352717625  -0.000047352728562   0.000243684167922
Si   17.65075  17.65075  12.21975   0.000058193836619   0.000058193837398  -0.000224055179503
Si    8.14650   5.43100  13.57750  -0.000057666582047  -0.000052886807535   0.000224303751514
Si    9.50425   6.78875  14.93525   0.000052536674863   0.000053906948464  -0.000234724431169
Si   10.86200   8.14650  13.57750  -0.000057666564342  -0.000052886809916   0.000224303741141
Si   12.21975   9.50425  14.93525   0.000052536693166   0.000053906944638  -0.000234724438418
Si   13.57750  10.86200  13.57750  -0.000057666544986  -0.000052886807736   0.000224303730811
Si   14.93525  12.21975  14.93525   0.000052536706677   0.000053906950472  -0.000234724444344
Si   16.29300  13.57750  13.57750  -0.000057666544152  -0.000052886804897   0.000224303734898
Si   17.65075  14.93525  14.93525   0.000052536701739   0.000053906954256  -0.000234724436447
Si   19.00850  16.29300  13.57750  -0.000057666572351  -0.000052886804971   0.000224303746098
Si   20.36625  17.65075  14.93525   0.000052536677931   0.000053906953814  -0.000234724427753
Si   10.86200   5.43100  16.29300  -0.000044137986109  -0.000054424662653   0.000238293337929
Si   12.21975   6.78875  17.65075   0.000041417987463   0.000061195875577  -0.000233473429013
Si   13.57750   8.14650  16.29300  -0.000044137973028  -0.000054424652622   0.000238293322375
Si   14.93525   9.50425  17.65075   0.000041418002489   0.000061195886160  -0.000233473433905
Si   16.29300  10.86200  16.29300  -0.000044137962549  -0.000054424648227   0.000238293318584
Si   17.65075  12.21975  17.65075   0.000041418003078   0.000061195885116  -0.000233473427984
Si   19.00850  13.57750  16.29300  -0.000044137976226  -0.000054424651497   0.000238293329716
Si   20.36625  14.93525  17.65075   0.000041417985793   0.000061195889686  -0.000233473429307
Si   21.72400  16.29300  16.29300  -0.000044137988789  -0.000054424658401   0.000238293338393
Si   23.08175  17.65075  17.65075   0.000041417975577   0.000061195878532  -0.000233473425933
Si   13.57750   5.43100  19.00850  -0.000047352742263  -0.000047352730169   0.000243684162678
Si   14.93525   6.78875  20.36625   0.000058193837655   0.000058193831260  -0.000224055184635
Si   16.29300   8.14650  19.00850  -0.000047352732088  -0.000047352719394   0.000243684164057
Si   17.65075   9.50425  20.36625   0.000058193838760   0.000058193840621  -0.000224055181545
Si   19.00850  10.86200  19.00850  -0.000047352725372  -0.000047352713517   0.000243684163262
Si   20.36625  12.21975  20.36625   0.000058193836214   0.000058193840919  -0.000224055184404
Si   21.72400  13.57750  19.00850  -0.000047350588563  -0.000047350573233   0.000243684166027
Si   23.08175  14.93525  20.36625   0.000058193825016   0.000058193827238  -0.000224055187150
Si   24.43950  16.29300  19.00850  -0.000047350593906  -0.000047350581973   0.000243684165944
Si   25.79725  17.65075  20.36625   0.000058193830027   0.000058193823238  -0.000224055190204
Si    0.00000   8.14650   8.14650  -0.000051431971868  -0.000051432001680   0.000226614730676
Si    1.35775   9.50425   9.50425   0.000045224246987   0.000045224197583  -0.000245283128371
Si    2.71550  10.86200   8.14650  -0.000051431981356  -0.000051432003214   0.000226614727843
Si    4.07325  12.21975   9.50425   0.000045224221758   0.000045224194895  -0.000245283144872
Si    5.43100  13.57750   8.14650  -0.000050823679324  -0.000050823698514   0.000226614716854
Si    6.78875  14.93525   9.50425   0.000045224213421   0.000045224191039  -0.000245283159669
Si    8.14650  16.29300   8.14650  -0.000050823673991  -0.000050823700411   0.000226614708728
Si    9.50425  17.65075   9.50425   0.000045224231389   0.000045224197046  -0.000245283158743
Si   10.86200  19.00850   8.14650  -0.000051431976598  -0.000051432007819   0.000226614714968
Si   12.21975  20.36625   9.50425   0.000045224245291   0.000045224206833  -0.000245283144433
Si    2.71550   8.14650  10.86200  -0.000034398902293  -0.000054519101198   0.000239091712351
Si    4.07325   9.50425  12.21975   0.000046927936081   0.000063566701528  -0.000235114149228
Si    5.43100  10.86200  10.86200  -0.000034398926366  -0.000054519117781   0.000239091708985
Si    6.78875  12.21975  12.21975   0.000046927930411   0.000063566686355  -0.000235114163173
Si    8.14650  13.57750  10.86200  -0.000034398920836  -0.000054519117439   0.000239091687849
Si    9.50425  14.93525  12.21975   0.000046927948947   0.000063566686792  -0.000235114165674
Si   10.86200  16.29300  10.86200  -0.000034398900158  -0.000054519109326   0.000239091684749
Si   12.21975  17.65075  12.21975   0.000046927969980   0.000063566709774  -0.000235114165864
Si   13.57750  19.00850  10.86200  -0.000034398888916  -0.000054519103035   0.000239091707494
Si   14.93525  20.36625  12.21975   0.000046927960949   0.000063566718557  -0.000235114157216
Si    5.43100   8.14650  13.57750  -0.000052886826089  -0.000057666561787   0.000224303749650
Si    6.78875   9.50425  14.93525   0.000053906930661   0.000052536678841  -0.000234724433619
Si    8.14650  10.86200  13.57750  -0.000052886830392  -0.000057666573372   0.000224303739023
Si    9.50425  12.21975  14.93525   0.000053906942817   0.000052536671334  -0.000234724440505
Si   10.86200  13.57750  13.57750  -0.000052886799441  -0.000057666568323   0.000224303729401
Si   12.21975  14.93525  14.93525   0.000053906974739   0.000052536688115  -0.000234724446435
Si   13.57750  16.29300  13.57750  -0.000052886781670  -0.000057666557544   0.000224303735411
Si   14.93525  17.65075  14.93525   0.000053906976609   0.000052536702704  -0.000234724441234
Si   16.29300  19.00850  13.57750  -0.000052886793291  -0.000057666556153   0.000224303751300
Si   17.65075  20.36625  14.93525   0.000053906950145   0.000052536698790  -0.000234724432593
Si    8.14650   8.14650  16.29300  -0.000050816495400  -0.000050816482210   0.000226614718980
Si    9.50425   9.50425  17.65075   0.000045224205701   0.000045224191108  -0.000245283149693
Si   10.86200  10.86200  16.29300  -0.000050816476750  -0.000050816486631   0.000226614709630
Si   12.21975  12.21975  17.65075   0.000045224228223   0.000045224200768  -0.000245283159732
Si   13.57750  13.57750  16.29300  -0.000050816453681  -0.000050816478927   0.000226614706131
Si   14.93525  14.93525  17.65075   0.000045224238185   0.000045224215775  -0.000245283163513
Si   16.29300  16.29300  16.29300  -0.000050816451049  -0.000050816469586   0.000226614711438
Si   17.65075  17.65075  17.65075   0.000045224225818   0.000045224220647  -0.000245283159090
Si   19.00850  19.00850  16.29300  -0.000050816480085  -0.000050816470607   0.000226614717241
Si   20.36625  20.36625  17.65075   0.000045224198319   0.000045224210629  -0.000245283154355
Si   10.86200   8.14650  19.00850  -0.000034398931318  -0.000054519099400   0.000239091684934
Si   12.21975   9.50425  20.36625   0.000046927931132   0.000063566700528  -0.000235114166763
Si   13.57750  10.86200  19.00850  -0.000034398916558  -0.000054519100007   0.000239091686658
Si   14.93525  12.21975  20.36625   0.000046927955966   0.000063566712860  -0.000235114176412
Si   16.29300  13.57750  19.00850  -0.000034398903618  -0.000054519085039   0.000239091680422
Si   17.65075  14.93525  20.36625   0.000046927951166   0.000063566714843  -0.000235114171913
Si   19.00850  16.29300  19.00850  -0.000034398923056  -0.000054519083825   0.000239091679866
Si   20.36625  17.65075  20.36625   0.000046927926669   0.000063566718670  -0.000235114180762
Si   21.72400  19.00850  19.00850  -0.000034398939328  -0.000054519095919   0.000239091690271
Si   23.08175  20.36625  20.36625   0.000046927913340   0.000063566713931  -0.000235114182669
Si   13.57750   8.14650  21.72400  -0.000052885426137  -0.000057665030465   0.000224303730686
Si   14.93525   9.50425  23.08175   0.000053906964659   0.000052536689689  -0.000234724437919
Si   16.29300  10.86200  21.72400  -0.000052885419616  -0.000057665026839   0.000224303736176
Si   17.65075  12.21975  23.08175   0.000053906962122   0.000052536688061  -0.000234724435727
Si   19.00850  13.57750  21.72400  -0.000052885422056  -0.000057665024899   0.000224303730770
Si   20.36625  14.93525  23.08175   0.000053906947726   0.000052536687702  -0.000234724448941
Si   21.72400  16.29300  21.72400  -0.000052885438399  -0.000057665030980   0.000224303727014
Si   23.08175  17.65075  23.08175   0.000053906936424   0.000052536685846  -0.000234724454720
Si   24.43950  19.00850  21.72400  -0.000052885438629  -0.000057665038217   0.000224303730577
Si   25.79725  20.36625  23.08175   0.000053906944694   0.000052536687984  -0.000234724446324
Si    0.00000  10.86200  10.86200  -0.000053909171981  -0.000033791532957   0.000239091711296
Si    1.35775  12.21975  12.21975   0.000063566736460   0.000046927914804  -0.000235114145184
Si    2.71550  13.57750  10.86200  -0.000053909192598  -0.000033791545908   0.000239091704516
Si    4.07325  14.93525  12.21975   0.000063566712600   0.000046927904505  -0.000235114158080
Si    5.43100  16.29300  10.86200  -0.000053909202135  -0.000033791545213   0.000239091688053
Si    6.78875  17.65075  12.21975   0.000063566718982   0.000046927918456  -0.000235114169009
Si    8.14650  19.00850  10.86200  -0.000053909191590  -0.000033791532955   0.000239091687129
Si    9.50425  20.36625  12.21975   0.000063566743763   0.000046927934816  -0.000235114160418
Si   10.86200  21.72400  10.86200  -0.000053909170403  -0.000033791525528   0.000239091701585
Si   12.21975  23.08175  12.21975   0.000063566754570   0.000046927932452  -0.000235114146751
Si    2.71550  10.86200  13.57750  -0.000051739437044  -0.000051739466069   0.000229861172020
Si    4.07325  12.21975  14.93525   0.000043302131882   0.000043302106556  -0.000245316148458
Si    5.43100  13.57750  13.57750  -0.000051739454382  -0.000051739475415   0.000229861156855
Si    6.78875  14.93525  14.93525   0.000043302126015   0.000043302106845  -0.000245316154994
Si    8.14650  16.29300  13.57750  -0.000051739438393  -0.000051739470284   0.000229861153072
Si    9.50425  17.65075  14.93525   0.000043302156220   0.000043302130328  -0.000245316157432
Si   10.86200  19.00850  13.57750  -0.000051739409631  -0.000051739447498   0.000229861157227
Si   12.21975  20.36625  14.93525   0.000043302178659   0.000043302145345  -0.000245316152994
Si   13.57750  21.72400  13.57750  -0.000051739407352  -0.000051739446441   0.000229861168638
Si   14.93525  23.08175  14.93525   0.000043302159515   0.000043302131840  -0.000245316146781
Si    5.43100  10.86200  16.29300  -0.000054424690485  -0.000044137989524   0.000238293330987
Si    6.78875  12.21975  17.65075   0.000061195854760   0.000041417974195  -0.000233473427984
Si    8.14650  13.57750  16.29300  -0.000054424680908  -0.000044137994357   0.000238293327222
Si    9.50425  14.93525  17.65075   0.000061195876609   0.000041417982715  -0.000233473430362
Si   10.86200  16.29300  16.29300  -0.000054424645895  -0.000044137972212   0.000238293321993
Si   12.21975  17.65075  17.65075   0.000061195908467   0.000041418008535  -0.000233473435232
Si   13.57750  19.00850  16.29300  -0.000054424632164  -0.000044137956052   0.000238293324674
Si   14.93525  20.36625  17.65075   0.000061195903657   0.000041418015171  -0.000233473437055
Si   16.29300  21.72400  16.29300  -0.000054424656938  -0.000044137965942   0.000238293330266
Si   17.65075  23.08175  17.65075   0.000061195872544   0.000041417992662  -0.000233473432481
Si    8.14650  10.86200  19.00850  -0.000054519117227  -0.000034398945186   0.000239091687953
Si    9.50425  12.21975  20.36625   0.000063566702938   0.000046927915107  -0.000235114170560
Si   10.86200  13.57750  19.00850  -0.000054519092068  -0.000034398938933   0.000239091687543
Si   12.21975  14.93525  20.36625   0.000063566732993   0.000046927929141  -0.000235114173202
Si   13.57750  16.29300  19.00850  -0.000054519066484  -0.000034398919886   0.000239091683988
Si   14.93525  17.65075  20.36625   0.000063566743773   0.000046927947116  -0.000235114181399
Si   16.29300  19.00850  19.00850  -0.000054519074656  -0.000034398914037   0.000239091682299
Si   17.65075  20.36625  20.36625   0.000063566721771   0.000046927943232  -0.000235114183716
Si   19.00850  21.72400  19.00850  -0.000054519105861  -0.000034398929318   0.000239091685575
Si   20.36625  23.08175  20.36625   0.000063566696033   0.000046927922728  -0.000235114178195
Si   10.86200  10.86200  21.72400  -0.000052354969783  -0.000052354977481   0.000229861140140
Si   12.21975  12.21975  23.08175   0.000043302144474   0.000043302126297  -0.000245316167313
Si   13.57750  13.57750  21.72400  -0.000052354944631  -0.000052354971731   0.000229861143117
Si   14.93525  14.93525  23.08175   0.000043302160274   0.000043302136086  -0.000245316170546
Si   16.29300  16.29300  21.72400  -0.000052354939276  -0.000052354962423   0.000229861136681
Si   17.65075  17.65075  23.08175   0.000043302148862   0.000043302140757  -0.000245316181793
Si   19.00850  19.00850  21.72400  -0.000052354962184  -0.000052354962415   0.000229861130508
Si   20.36625  20.36625  23.08175   0.000043302127523   0.000043302135378  -0.000245316185731
Si   21.72400  21.72400  21.72400  -0.000052354979153  -0.000052354973113   0.000229861132812
Si   23.08175  23.08175  23.08175   0.000043302124120   0.000043302127082  -0.000245316177063
Si   13.57750  10.86200  24.43950  -0.000054424651418  -0.000044137974213   0.000238293323674
Si   14.93525  12.21975  25.79725   0.000061195903536   0.000041417990189  -0.000233473421105
Si   16.29300  13.57750  24.43950  -0.000054424646644  -0.000044137976283   0.000238293324605
Si   17.65075  14.93525  25.79725   0.000061195891864   0.000041417985038  -0.000233473430482
Si   19.00850  16.29300  24.43950  -0.000054424661505  -0.000044137974272   0.000238293311236
Si   20.36625  17.65075  25.79725   0.000061195873768   0.000041417986967  -0.000233473445724
Si   21.72400  19.00850  24.43950  -0.000054424676540  -0.000044137974929   0.000238293303663
Si   23.08175  20.36625  25.79725   0.000061195873895   0.000041417993827  -0.000233473446368
Si   24.43950  21.72400  24.43950  -0.000054424670900  -0.000044137974462   0.000238293311239
Si   25.79725  23.08175  25.79725   0.000061195892288   0.000041417994706  -0.000233473431532
Si    0.00000  13.57750  13.57750  -0.000057666536295  -0.000052886835972   0.000224303761288
Si    1.35775  14.93525  14.93525   0.000052536697831   0.000053906913201  -0.000234724412750
Si    2.71550  16.29300  13.57750  -0.000057666558583  -0.000052886844554   0.000224303750293
Si    4.07325  17.65075  14.93525   0.000052536684802   0.000053906922307  -0.000234724421718
Si    5.43100  19.00850  13.57750  -0.000057666561340  -0.000052886826005   0.000224303740830
Si    6.78875  20.36625  14.93525   0.000052536702583   0.000053906947459  -0.000234724421417
Si    8.14650  21.72400  13.57750  -0.000057666540355  -0.000052886810327   0.000224303748241
Si    9.50425  23.08175  14.93525   0.000052536724654   0.000053906955077  -0.000234724415101
Si   10.86200  24.43950  13.57750  -0.000057666523183  -0.000052886816240   0.000224303760908
Si   12.21975  25.79725  14.93525   0.000052536722704   0.000053906934891  -0.000234724409776
Si    2.71550  13.57750  16.29300  -0.000044137964382  -0.000054424694480   0.000238293342711
Si    4.07325  14.93525  17.65075   0.000041414346203   0.000061192820757  -0.000233473410538
Si    5.43100  16.29300  16.29300  -0.000044137981264  -0.000054424696754   0.000238293341858
Si    6.78875  17.65075  17.65075   0.000041417987120   0.000061195866878  -0.000233473409729
Si    8.14650  19.00850  16.29300  -0.000044137955598  -0.000054424668400   0.000238293341380
Si    9.50425  20.36625  17.65075   0.000041414382369   0.000061192864098  -0.000233473413381
Si   10.86200  21.72400  16.29300  -0.000044137930441  -0.000054424652295   0.000238293341852
Si   12.21975  23.08175  17.65075   0.000041414393504   0.000061192863211  -0.000233473416976
Si   13.57750  24.43950  16.29300  -0.000044137941852  -0.000054424670136   0.000238293345912
Si   14.93525  25.79725  17.65075   0.000041414366446   0.000061192838508  -0.000233473416975
Si    5.43100  13.57750  19.00850  -0.000047350610173  -0.000047350604545   0.000243684167612
Si    6.78875  14.93525  20.36625   0.000058193803818   0.000058193816971  -0.000224055177117
Si    8.14650  16.29300  19.00850  -0.000047350594729  -0.000047350589392   0.000243684168147
Si    9.50425  17.65075  20.36625   0.000058193827905   0.000058193839922  -0.000224055177960
Si   10.86200  19.00850  19.00850  -0.000047350563395  -0.000047350563446   0.000243684162195
Si   12.21975  20.36625  20.36625   0.000058193851539   0.000058193859042  -0.000224055191771
Si   13.57750  21.72400  19.00850  -0.000047350557111  -0.000047350559800   0.000243684157368
Si   14.93525  23.08175  20.36625   0.000058193842291   0.000058193851276  -0.000224055198782
Si   16.29300  24.43950  19.00850  -0.000047352732821  -0.000047352737958   0.000243684163401
Si   17.65075  25.79725  20.36625   0.000058193812241   0.000058193825241  -0.000224055188332
Si    8.14650  13.57750  21.72400  -0.000057666581146  -0.000052886825802   0.000224303739362
Si    9.50425  14.93525  23.08175   0.000052536676776   0.000053906940011  -0.000234724432172
Si   10.86200  16.29300  21.72400  -0.000057666554843  -0.000052886810168   0.000224303737014
Si   12.21975  17.65075  23.08175   0.000052536706893   0.000053906958390  -0.000234724441047
Si   13.57750  19.00850  21.72400  -0.000057666536671  -0.000052886793897   0.000224303724789
Si   14.93525  20.36625  23.08175   0.000052536713188   0.000053906966937  -0.000234724454414
Si   16.29300  21.72400  21.72400  -0.000057666550298  -0.000052886801208   0.000224303721687
Si   17.65075  23.08175  23.08175   0.000052536686261   0.000053906956386  -0.000234724456259
Si   19.00850  24.43950  21.72400  -0.000057666579348  -0.000052886817366   0.000224303729019
Si   20.36625  25.79725  23.08175   0.000052536665607   0.000053906940871  -0.000234724442993
Si   10.86200  13.57750  24.43950  -0.000044137963917  -0.000054424666914   0.000238293324146
Si   12.21975  14.93525  25.79725   0.000041414317494   0.000061192781975  -0.000233473416262
Si   13.57750  16.29300  24.43950  -0.000044137952204  -0.000054424664248   0.000238293323263
Si   14.93525  17.65075  25.79725   0.000041414325765   0.000061192787662  -0.000233473430048
Si   16.29300  19.00850  24.43950  -0.000044137953050  -0.000054424656812   0.000238293310574
Si   17.65075  20.36625  25.79725   0.000041414311128   0.000061192798792  -0.000233473448846
Si   19.00850  21.72400  24.43950  -0.000044137974787  -0.000054424659036   0.000238293305977
Si   20.36625  23.08175  25.79725   0.000041414295152   0.000061192795918  -0.000233473444927
Si   21.72400  24.43950  24.43950  -0.000044137986798  -0.000054424667471   0.000238293316956
Si   23.08175  25.79725  25.79725   0.000041414293688   0.000061192789318  -0.000233473430221
Si   13.57750  13.57750  27.15500  -0.000047350564381  -0.000047350588809   0.000243684172424
Si   14.93525  14.93525  28.51275   0.000057578619392   0.000057578594293  -0.000224055170112
Si   16.29300  16.29300  27.15500  -0.000047350568631  -0.000047350592746   0.000243684163378
Si   17.65075  17.65075  28.51275   0.000057578607394   0.000057578593262  -0.000224055183654
Si   19.00850  19.00850  27.15500  -0.000047350586229  -0.000047350586801   0.000243684148075
Si   20.36625  20.36625  28.51275   0.000057578597337   0.000057578608445  -0.000224055193003
Si   21.72400  21.72400  27.15500  -0.000047350593387  -0.000047350579448   0.000243684148676
Si   23.08175  23.08175  28.51275   0.000057578607808   0.000057578616238  -0.000224055183671
Si   24.43950  24.43950  27.15500  -0.000047350578147  -0.000047350584488   0.000243684166655
Si   25.79725  25.79725  28.51275   0.000057578620349   0.000057578607860  -0.000224055168882
