216 

Si    0.72888   0.67888   0.67888   0.013554451769053   0.000001990652901   0.000001990772180
Si    3.39437   0.67888   3.39437  -0.000199988982005   0.000120263463128  -0.000193513011131
Si    0.67888   3.39437   3.39437   0.000422773507690  -0.000114168540460  -0.000114502606597
Si    3.39437   3.39437   0.67888  -0.000200041522061  -0.000193657884870   0.000120663332918
Si    4.75213   2.03662   2.03662   0.000010576539740   0.000025270584845   0.000025402005196
Si    4.75213   4.75213   4.75213   0.000016297027877   0.000007132986042   0.000007123592384
Si    2.03662   2.03662   4.75213   0.000033542896969  -0.000036256950983   0.000033870791907
Si    2.03662   4.75213   2.03662   0.000033457683595   0.000033950181212  -0.000036346130084
Si    0.67888   0.67888   6.10987  -0.000019083984918   0.000002861939795   0.000000654411638
Si    3.39437   0.67888   8.82538  -0.000020011011410   0.000008154455575   0.000008156473924
Si    0.67888   3.39437   8.82538  -0.000003687954486  -0.000008030986434   0.000011482734835
Si    3.39437   3.39437   6.10987  -0.000019399982923   0.000022373552292  -0.000003057800562
Si    4.75213   2.03662   7.46762   0.000001035396788  -0.000009020288659  -0.000000594156807
Si    4.75213   4.75213  10.18313   0.000002568167999  -0.000017223993666  -0.000003758260152
Si    2.03662   2.03662  10.18313   0.000015283814350   0.000001235888844   0.000002271950802
Si    2.03662   4.75213   7.46762   0.000012657080745  -0.000007455138748   0.000008759061078
Si    0.67888   0.67888  11.54087  -0.000013794218336   0.000008180519143  -0.000007935556324
Si    3.39437   0.67888  14.25638  -0.000194038224573  -0.000108273315079   0.000183817403132
Si    0.67888   3.39437  14.25638   0.000422018084848   0.000108391870235  -0.000112503322838
Si    3.39437   3.39437  11.54087  -0.000024784672196   0.000017871572926   0.000003896853484
Si    4.75213   2.03662  12.89863  -0.000016026310689   0.000051357103193   0.000024938088025
Si    4.75213   4.75213  15.61412  -0.000009864535246  -0.000013065706397  -0.000061117106615
Si    2.03662   2.03662  15.61412  -0.003371499250400  -0.002473715217951   0.002466596835562
Si    2.03662   4.75213  12.89863  -0.000177682178868   0.000054530215917  -0.000048808647401
Si    0.67888   6.10987   0.67888  -0.000018923237954   0.000000663855568   0.000002869315549
Si    3.39437   6.10987   3.39437  -0.000019464184684  -0.000003057163010   0.000022348851419
Si    0.67888   8.82538   3.39437  -0.000003743743272   0.000011455993908  -0.000008029891058
Si    3.39437   8.82538   0.67888  -0.000019971760488   0.000008152963496   0.000008157706103
Si    4.75213   7.46762   2.03662   0.000001049526614  -0.000000597244032  -0.000009039660975
Si    4.75213  10.18313   4.75213   0.000002692482596  -0.000003774375594  -0.000017203620341
Si    2.03662   7.46762   4.75213   0.000012645058872   0.000008754343216  -0.000007405362453
Si    2.03662  10.18313   2.03662   0.000015293155745   0.000002251111764   0.000001448688748
Si    0.67888   6.10987   6.10987   0.000108632978109  -0.000020934210296  -0.000020952724540
Si    3.39437   6.10987   8.82538  -0.000007160324717   0.000014920098645   0.000006025818847
Si    0.67888   8.82538   8.82538   0.000118916478639   0.000008999708044   0.000008981294209
Si    3.39437   8.82538   6.10987  -0.000007152318009   0.000006016497589   0.000014925016117
Si    4.75213   7.46762   7.46762   0.000009624000402  -0.000012779653926  -0.000012788575613
Si    4.75213  10.18313  10.18313   0.000008585674061   0.000004626577954   0.000004632017124
Si    2.03662   7.46762  10.18313  -0.000063031178745  -0.000005492235619  -0.000001646416897
Si    2.03662  10.18313   7.46762  -0.000063031284916  -0.000001625888582  -0.000005478368709
Si    0.67888   6.10987  11.54087   0.000106104280080   0.000019950772818  -0.000023733138836
Si    3.39437   6.10987  14.25638  -0.000023728041914  -0.000012045954686  -0.000025916113775
Si    0.67888   8.82538  14.25638  -0.000009028786198  -0.000000435009705   0.000000748177848
Si    3.39437   8.82538  11.54087  -0.000013283860956   0.000005850050674  -0.000024781963449
Si    4.75213   7.46762  12.89863   0.000008804212532  -0.000006105872059   0.000029066688264
Si    4.75213  10.18313  15.61412   0.000001067916884  -0.000001390083103   0.000007032943631
Si    2.03662   7.46762  15.61412   0.000014414255001  -0.000005135963822  -0.000004327979766
Si    2.03662  10.18313  12.89863   0.000011764845649  -0.000011637983753   0.000017408391668
Si    0.67888  11.54087   0.67888  -0.000013663068367  -0.000007936301656   0.000008172230050
Si    3.39437  11.54087   3.39437  -0.000024775193737   0.000003895941017   0.000017752860116
Si    0.67888  14.25638   3.39437   0.000422039671731  -0.000112161653659   0.000108726282199
Si    3.39437  14.25638   0.67888  -0.000194099167307   0.000183939711870  -0.000108677919350
Si    4.75213  12.89863   2.03662  -0.000016000497241   0.000024930488828   0.000051245070010
Si    4.75213  15.61412   4.75213  -0.000009909286992  -0.000061252539760  -0.000013078161986
Si    2.03662  12.89863   4.75213  -0.000177682284829  -0.000048770855296   0.000054557728945
Si    2.03662  15.61412   2.03662  -0.003371496776364   0.002466480751365  -0.002473839286227
Si    0.67888  11.54087   6.10987   0.000106085904772  -0.000023696958950   0.000019978732005
Si    3.39437  11.54087   8.82538  -0.000013274049843  -0.000024800518285   0.000005835744567
Si    0.67888  14.25638   8.82538  -0.000008955377182   0.000000757539042  -0.000000444809674
Si    3.39437  14.25638   6.10987  -0.000023734296336  -0.000026034414769  -0.000012050236719
Si    4.75213  12.89863   7.46762   0.000008698185815   0.000029091694724  -0.000006098564014
Si    4.75213  15.61412  10.18313   0.000001018735668   0.000007031752635  -0.000001411637242
Si    2.03662  12.89863  10.18313   0.000011776910058   0.000017455853848  -0.000011638294395
Si    2.03662  15.61412   7.46762   0.000014404580886  -0.000004120285762  -0.000005152444331
Si    0.67888  11.54087  11.54087   0.000110516353189   0.000011937875075   0.000011974785647
Si    3.39437  11.54087  14.25638  -0.000019436170833   0.000001065950382  -0.000024353509093
Si    0.67888  14.25638  14.25638   0.000420829964084   0.000105075498473   0.000105426454338
Si    3.39437  14.25638  11.54087  -0.000019408571874  -0.000024357521872   0.000001047955668
Si    4.75213  12.89863  12.89863   0.000016298084881   0.000009173183639   0.000009189113503
Si    4.75213  15.61412  15.61412   0.000011542961811  -0.000033388138868  -0.000033523299271
Si    2.03662  12.89863  15.61412   0.000034356435373  -0.000023936412641   0.000033472185789
Si    2.03662  15.61412  12.89863   0.000034439558282   0.000033378674794  -0.000023853256958
Si    6.10987   0.67888   0.67888  -0.000005157086296   0.000002872319552   0.000002868706207
Si    8.82538   0.67888   3.39437   0.000005832122552   0.000004821139273  -0.000008019490210
Si    6.10987   3.39437   3.39437   0.000002265759312  -0.000015117119329  -0.000015111091950
Si    8.82538   3.39437   0.67888   0.000005856678634  -0.000008015541683   0.000004835374597
Si   10.18313   2.03662   2.03662   0.000000019175482   0.000002241473914   0.000002255155756
Si   10.18313   4.75213   4.75213  -0.000001029784687   0.000000063874480   0.000000049877401
Si    7.46762   2.03662   4.75213   0.000000525097465   0.000012658054452   0.000004997591219
Si    7.46762   4.75213   2.03662   0.000000536033455   0.000004987338011   0.000012660324907
Si    6.10987   0.67888   6.10987  -0.000000624009070   0.000028678611985  -0.000012286206289
Si    8.82538   0.67888   8.82538   0.000010650548921   0.000009002691578   0.000008981079855
Si    6.10987   3.39437   8.82538   0.000000209836823   0.000012739759131   0.000001216339544
Si    8.82538   3.39437   6.10987   0.000004793691375  -0.000006097611144   0.000000745015514
Si   10.18313   2.03662   7.46762  -0.000004937291770  -0.000001184969633  -0.000007871375644
Si   10.18313   4.75213  10.18313   0.000002553541102   0.000011795742388  -0.000005330366051
Si    7.46762   2.03662  10.18313  -0.000012410436283   0.000002253212947  -0.000000344385081
Si    7.46762   4.75213   7.46762  -0.000005571083436   0.000003651181718  -0.000013451621706
Si    6.10987   0.67888  11.54087  -0.000001503127763  -0.000018673616201   0.000009404502803
Si    8.82538   0.67888  14.25638   0.000000544646011   0.000006199946143   0.000000736596755
Si    6.10987   3.39437  14.25638   0.000001635403963  -0.000011259752474   0.000004137510343
Si    8.82538   3.39437  11.54087   0.000011107056925  -0.000005886788758  -0.000007356469621
Si   10.18313   2.03662  12.89863   0.000003291761755  -0.000011538197551   0.000009481108835
Si   10.18313   4.75213  15.61412   0.000004164349080   0.000000522312071   0.000008664464595
Si    7.46762   2.03662  15.61412  -0.000002635280064  -0.000003255118179  -0.000000493662404
Si    7.46762   4.75213  12.89863  -0.000009079673341   0.000011937577672   0.000006034123981
Si    6.10987   6.10987   0.67888  -0.000000740952036  -0.000012297147126   0.000028678412330
Si    8.82538   6.10987   3.39437   0.000004812332574   0.000000747211142  -0.000006103600596
Si    6.10987   8.82538   3.39437   0.000000200685593   0.000001219939548   0.000012735358149
Si    8.82538   8.82538   0.67888   0.000010605393887   0.000008999505757   0.000008984191179
Si   10.18313   7.46762   2.03662  -0.000004931023495  -0.000007882429255  -0.000001189827651
Si   10.18313  10.18313   4.75213   0.000002560337575  -0.000005332429199   0.000011807707502
Si    7.46762   7.46762   4.75213  -0.000005563727378  -0.000013449296315   0.000003649680032
Si    7.46762  10.18313   2.03662  -0.000012400813174  -0.000000361593750   0.000002259528863
Si    6.10987   6.10987   6.10987  -0.000002067991416   0.000003407741553   0.000003410968865
Si    8.82538   6.10987   8.82538   0.000001049380521   0.000000859949385   0.000002873098185
Si    6.10987   8.82538   8.82538  -0.000000932158111   0.000002884051687   0.000002879605301
Si    8.82538   8.82538   6.10987   0.000001029522722   0.000002850206472   0.000000854743318
Si   10.18313   7.46762   7.46762  -0.000000953461055  -0.000002694446013  -0.000002705804354
Si   10.18313  10.18313  10.18313  -0.000000073663072  -0.000000189618912  -0.000000173895110
Si    7.46762   7.46762  10.18313  -0.000002919438744  -0.000003039999121  -0.000000717181923
Si    7.46762  10.18313   7.46762  -0.000002937294257  -0.000000706247854  -0.000003037408084
Si    6.10987   6.10987  11.54087  -0.000001925125143   0.000003525045605  -0.000010632928172
Si    8.82538   6.10987  14.25638   0.000009220138417  -0.000001632982368  -0.000003105718905
Si    6.10987   8.82538  14.25638   0.000001081010299   0.000008781189786  -0.000015616718088
Si    8.82538   8.82538  11.54087   0.000006316645935   0.000008170546865  -0.000008137616541
Si   10.18313   7.46762  12.89863   0.000003439600835   0.000002448186891  -0.000001805666907
Si   10.18313  10.18313  15.61412  -0.000004930801435   0.000000767016281  -0.000005937029055
Si    7.46762   7.46762  15.61412  -0.000014288992747  -0.000008639592461  -0.000011244376681
Si    7.46762  10.18313  12.89863  -0.000000294126523   0.000006174020009   0.000007389090264
Si    6.10987  11.54087   0.67888  -0.000001619870288   0.000009411150890  -0.000018671915972
Si    8.82538  11.54087   3.39437   0.000011106315300  -0.000007367500565  -0.000005875376125
Si    6.10987  14.25638   3.39437   0.000001635586657   0.000004144640372  -0.000011259270538
Si    8.82538  14.25638   0.67888   0.000000587034928   0.000000741232318   0.000006202733684
Si   10.18313  12.89863   2.03662   0.000003285609756   0.000009478740460  -0.000011547017611
Si   10.18313  15.61412   4.75213   0.000004170694949   0.000008651189108   0.000000522238676
Si    7.46762  12.89863   4.75213  -0.000009079762185   0.000006060753183   0.000011927352298
Si    7.46762  15.61412   2.03662  -0.000002617239916  -0.000000493946902  -0.000003263699806
Si    6.10987  11.54087   6.10987  -0.000001925020568  -0.000010640455525   0.000003510876421
Si    8.82538  11.54087   8.82538   0.000006318580202  -0.000008134248365   0.000008164606914
Si    6.10987  14.25638   8.82538   0.000001090137776  -0.000015625446871   0.000008787132196
Si    8.82538  14.25638   6.10987   0.000009220859052  -0.000003112706105  -0.000001625580719
Si   10.18313  12.89863   7.46762   0.000003432804878  -0.000001796038603   0.000002450596034
Si   10.18313  15.61412  10.18313  -0.000004936930828  -0.000005934972176   0.000000749229711
Si    7.46762  12.89863  10.18313  -0.000000283486755   0.000007370617572   0.000006167744611
Si    7.46762  15.61412   7.46762  -0.000014298661412  -0.000011256356520  -0.000008638384061
Si    6.10987  11.54087  11.54087  -0.000001188500612  -0.000006292217731  -0.000006290995104
Si    8.82538  11.54087  14.25638   0.000004792792569  -0.000004492977221   0.000002346474892
Si    6.10987  14.25638  14.25638   0.000001394832981   0.000012226586329   0.000012224989424
Si    8.82538  14.25638  11.54087   0.000004809972570   0.000002348826205  -0.000004499165752
Si   10.18313  12.89863  12.89863  -0.000001026957849   0.000005709908245   0.000005715063992
Si   10.18313  15.61412  15.61412  -0.000000859617758  -0.000005125551954  -0.000005134664915
Si    7.46762  12.89863  15.61412  -0.000004750737048   0.000006033216783  -0.000019943331645
Si    7.46762  15.61412  12.89863  -0.000004743905701  -0.000019932539356   0.000006039900549
Si   11.54087   0.67888   0.67888  -0.000013900280678   0.000008144065023   0.000008147525053
Si   14.25638   0.67888   3.39437  -0.000183759391320   0.000108387387569   0.000174873114374
Si   11.54087   3.39437   3.39437  -0.000007172642481  -0.000003904568394  -0.000003914228597
Si   14.25638   3.39437   0.67888  -0.000183806005041   0.000174971678484   0.000108788665811
Si   15.61412   2.03662   2.03662  -0.003224257843988   0.002172625393282   0.002172765826675
Si   15.61412   4.75213   4.75213  -0.000181685949301  -0.000042203706468  -0.000042262792847
Si   12.89863   2.03662   4.75213  -0.000013469632053  -0.000051768766633   0.000022761892725
Si   12.89863   4.75213   2.03662  -0.000013431727061   0.000022748558996  -0.000051650951310
Si   11.54087   0.67888   6.10987  -0.000002778893471   0.000023139831831   0.000010924766048
Si   14.25638   0.67888   8.82538  -0.000011243254637   0.000002885474317   0.000002879376545
Si   11.54087   3.39437   8.82538  -0.000008046522924  -0.000024950906515   0.000007407166959
Si   14.25638   3.39437   6.10987  -0.000016566872945  -0.000032763892586   0.000012370047701
Si   15.61412   2.03662   7.46762   0.000012501431935  -0.000002318089696  -0.000000522802049
Si   15.61412   4.75213  10.18313   0.000008547414480   0.000013133244376   0.000012534580799
Si   12.89863   2.03662  10.18313   0.000005488469443   0.000010584110524   0.000002198595507
Si   12.89863   4.75213   7.46762   0.000008739737793   0.000029203776398  -0.000011878219112
Si   11.54087   0.67888  11.54087  -0.000008909743375  -0.000011268277699  -0.000020776843208
Si   14.25638   0.67888  14.25638  -0.000182934914526  -0.000098280281985  -0.000177790347973
Si   11.54087   3.39437  14.25638  -0.000001404952237   0.000009313680123  -0.000011303865421
Si   14.25638   3.39437  11.54087  -0.000015780109742  -0.000029179643144  -0.000007308922095
Si   15.61412   2.03662  12.89863   0.000028277776429   0.000039293078943   0.000027481536892
Si   15.61412   4.75213  15.61412   0.000022871052230  -0.000016588414961  -0.000046632948072
Si   12.89863   2.03662  15.61412   0.000007077412347  -0.000025094950921   0.000023270200689
Si   12.89863   4.75213  12.89863   0.000016291450197   0.000009340270854   0.000006964532553
Si   11.54087   6.10987   0.67888  -0.000002904700914   0.000010931534870   0.000023146754040
Si   14.25638   6.10987   3.39437  -0.000016556601299   0.000012364317886  -0.000032668384777
Si   11.54087   8.82538   3.39437  -0.000008056407165   0.000007425048835  -0.000024926457567
Si   14.25638   8.82538   0.67888  -0.000011207439124   0.000002883820071   0.000002881074991
Si   15.61412   7.46762   2.03662   0.000012544272554  -0.000000531791427  -0.000002544320951
Si   15.61412  10.18313   4.75213   0.000008516030979   0.000012538869940   0.000013098979197
Si   12.89863   7.46762   4.75213   0.000008843208362  -0.000011908816506   0.000029180495805
Si   12.89863  10.18313   2.03662   0.000005518668598   0.000002181022260   0.000010593490008
Si   11.54087   6.10987   6.10987  -0.000009119931920  -0.000003441491756  -0.000003426837595
Si   14.25638   6.10987   8.82538  -0.000004092716501  -0.000015752334266   0.000010299077321
Si   11.54087   8.82538   8.82538  -0.000009908979122   0.000008153523795   0.000008157024076
Si   14.25638   8.82538   6.10987  -0.000004100743815   0.000010296802308  -0.000015753547715
Si   15.61412   7.46762   7.46762  -0.000071653104132  -0.000010788431133  -0.000010791700394
Si   15.61412  10.18313  10.18313  -0.000069762073648   0.000001785481511   0.000001807122173
Si   12.89863   7.46762  10.18313   0.000004182948756   0.000001695876619  -0.000003694748967
Si   12.89863  10.18313   7.46762   0.000004200848813  -0.000003684112581   0.000001687937602
Si   11.54087   6.10987  11.54087  -0.000004805351378  -0.000002647111805   0.000000648783799
Si   14.25638   6.10987  14.25638  -0.000016704389840   0.000004432570785   0.000026300868534
Si   11.54087   8.82538  14.25638  -0.000001923032245   0.000004441102176   0.000015069218983
Si   14.25638   8.82538  11.54087  -0.000004980531362  -0.000000295956565   0.000012871571124
Si   15.61412   7.46762  12.89863   0.000003246345928  -0.000019812742038  -0.000002061246429
Si   15.61412  10.18313  15.61412   0.000012527592477  -0.000003217184841  -0.000001215479072
Si   12.89863   7.46762  15.61412   0.000006554511637  -0.000010332613114  -0.000018751987386
Si   12.89863  10.18313  12.89863   0.000002735559319   0.000002033018302  -0.000017317336263
Si   11.54087  11.54087   0.67888  -0.000009017458722  -0.000020807148054  -0.000011280140498
Si   14.25638  11.54087   3.39437  -0.000015823175251  -0.000007318140215  -0.000029174500867
Si   11.54087  14.25638   3.39437  -0.000001422916412  -0.000011298586605   0.000009300364439
Si   14.25638  14.25638   0.67888  -0.000182973941560  -0.000177894193375  -0.000098679272131
Si   15.61412  12.89863   2.03662   0.000028149249673   0.000027556783706   0.000039378778111
Si   15.61412  15.61412   4.75213   0.000023016787642  -0.000046544593158  -0.000016496543671
Si   12.89863  12.89863   4.75213   0.000016291047826   0.000006965696612   0.000009348744426
Si   12.89863  15.61412   2.03662   0.000007060229518   0.000023162028564  -0.000025222137735
Si   11.54087  11.54087   6.10987  -0.000004787429215   0.000000659424111  -0.000002654996547
Si   14.25638  11.54087   8.82538  -0.000004972402273   0.000012865926863  -0.000000295892800
Si   11.54087  14.25638   8.82538  -0.000001931074499   0.000015070251563   0.000004454010196
Si   14.25638  14.25638   6.10987  -0.000016663192391   0.000026300799631   0.000004428053619
Si   15.61412  12.89863   7.46762   0.000003259931378  -0.000002112251883  -0.000019816989227
Si   15.61412  15.61412  10.18313   0.000012521961478  -0.000001433199527  -0.000003234536569
Si   12.89863  12.89863  10.18313   0.000002614797497  -0.000017335046957   0.000002026081476
Si   12.89863  15.61412   7.46762   0.000006523834269  -0.000018739178664  -0.000010353797525
Si   11.54087  11.54087  11.54087  -0.000010156751198  -0.000004713142646  -0.000004731333011
Si   14.25638  11.54087  14.25638  -0.000016564159637  -0.000019477794951   0.000025547755079
Si   11.54087  14.25638  14.25638  -0.000006141491805  -0.000004256907406  -0.000004250594777
Si   14.25638  14.25638  11.54087  -0.000016572208356   0.000025651701049  -0.000019490553721
Si   15.61412  12.89863  12.89863  -0.000181690229829   0.000060223452566   0.000060246224330
Si   15.61412  15.61412  15.61412  -0.003226192780401  -0.002181521693936  -0.002181649364540
Si   12.89863  12.89863  15.61412  -0.000007271347289  -0.000010868026658   0.000041758105519
Si   12.89863  15.61412  12.89863  -0.000007327174576   0.000041851978922  -0.000010886045306
