64

   C   -0.00000000000000  -0.00000000000000  -0.00000000000000
   C   -0.00000000000000   1.78350000000000   1.78350000000000
   C    1.78350000000000  -0.00000000000000   1.78350000000000
   C    1.78350000000000   1.78350000000000  -0.00000000000000
   C    0.89175000000000   0.89175000000000   0.89175000000000
   C    0.89175000000000   2.67525000000000   2.67525000000000
   C    2.67525000000000   0.89175000000000   2.67525000000000
   C    2.67525000000000   2.67525000000000   0.89175000000000
   C   -0.00000000000000  -0.00000000000000   3.56700000000000
   C   -0.00000000000000   1.78350000000000   5.35050000000000
   C    1.78350000000000  -0.00000000000000   5.35050000000000
   C    1.78350000000000   1.78350000000000   3.56700000000000
   C    0.89175000000000   0.89175000000000   4.45875000000000
   C    0.89175000000000   2.67525000000000   6.24225000000000
   C    2.67525000000000   0.89175000000000   6.24225000000000
   C    2.67525000000000   2.67525000000000   4.45875000000000
   C   -0.00000000000000   3.56700000000000  -0.00000000000000
   C   -0.00000000000000   5.35050000000000   1.78350000000000
   C    1.78350000000000   3.56700000000000   1.78350000000000
   C    1.78350000000000   5.35050000000000  -0.00000000000000
   C    0.89175000000000   4.45875000000000   0.89175000000000
   C    0.89175000000000   6.24225000000000   2.67525000000000
   C    2.67525000000000   4.45875000000000   2.67525000000000
   C    2.67525000000000   6.24225000000000   0.89175000000000
   C   -0.00000000000000   3.56700000000000   3.56700000000000
   C   -0.00000000000000   5.35050000000000   5.35050000000000
   C    1.78350000000000   3.56700000000000   5.35050000000000
   C    1.78350000000000   5.35050000000000   3.56700000000000
   C    0.89175000000000   4.45875000000000   4.45875000000000
   C    0.89175000000000   6.24225000000000   6.24225000000000
   C    2.67525000000000   4.45875000000000   6.24225000000000
   C    2.67525000000000   6.24225000000000   4.45875000000000
   C    3.56700000000000  -0.00000000000000  -0.00000000000000
   C    3.56700000000000   1.78350000000000   1.78350000000000
   C    5.35050000000000  -0.00000000000000   1.78350000000000
   C    5.35050000000000   1.78350000000000  -0.00000000000000
   C    4.45875000000000   0.89175000000000   0.89175000000000
   C    4.45875000000000   2.67525000000000   2.67525000000000
   C    6.24225000000000   0.89175000000000   2.67525000000000
   C    6.24225000000000   2.67525000000000   0.89175000000000
   C    3.56700000000000  -0.00000000000000   3.56700000000000
   C    3.56700000000000   1.78350000000000   5.35050000000000
   C    5.35050000000000  -0.00000000000000   5.35050000000000
   C    5.35050000000000   1.78350000000000   3.56700000000000
   C    4.45875000000000   0.89175000000000   4.45875000000000
   C    4.45875000000000   2.67525000000000   6.24225000000000
   C    6.24225000000000   0.89175000000000   6.24225000000000
   C    6.24225000000000   2.67525000000000   4.45875000000000
   C    3.56700000000000   3.56700000000000  -0.00000000000000
   C    3.56700000000000   5.35050000000000   1.78350000000000
   C    5.35050000000000   3.56700000000000   1.78350000000000
   C    5.35050000000000   5.35050000000000  -0.00000000000000
   C    4.45875000000000   4.45875000000000   0.89175000000000
   C    4.45875000000000   6.24225000000000   2.67525000000000
   C    6.24225000000000   4.45875000000000   2.67525000000000
   C    6.24225000000000   6.24225000000000   0.89175000000000
   C    3.56700000000000   3.56700000000000   3.56700000000000
   C    3.56700000000000   5.35050000000000   5.35050000000000
   C    5.35050000000000   3.56700000000000   5.35050000000000
   C    5.35050000000000   5.35050000000000   3.56700000000000
   C    4.45875000000000   4.45875000000000   4.45875000000000
   C    4.45875000000000   6.24225000000000   6.24225000000000
   C    6.24225000000000   4.45875000000000   6.24225000000000
   C    6.24225000000000   6.24225000000000   4.45875000000000
