64 

C   -0.00000  -0.00000  -0.00000   0.000000000024420   0.000000000000167   0.000000000000116
C   -0.00000   1.78350   1.78350   0.000000000022651   0.000000000000102   0.000000000000305
C    1.78350  -0.00000   1.78350   0.000000000023738  -0.000000000000090   0.000000000000067
C    1.78350   1.78350  -0.00000   0.000000000023321   0.000000000000660  -0.000000000000233
C    0.89175   0.89175   0.89175   0.000000000023199  -0.000000000000716  -0.000000000001581
C    0.89175   2.67525   2.67525   0.000000000023204   0.000000000000519  -0.000000000000712
C    2.67525   0.89175   2.67525   0.000000000022260  -0.000000000000153  -0.000000000000161
C    2.67525   2.67525   0.89175   0.000000000023368  -0.000000000000786   0.000000000000087
C   -0.00000  -0.00000   3.56700   0.000000000023341  -0.000000000000574   0.000000000000356
C   -0.00000   1.78350   5.35050   0.000000000024010  -0.000000000000840   0.000000000002233
C    1.78350  -0.00000   5.35050   0.000000000023249   0.000000000000813   0.000000000000412
C    1.78350   1.78350   3.56700   0.000000000024676  -0.000000000000427   0.000000000000306
C    0.89175   0.89175   4.45875   0.000000000024833  -0.000000000001243   0.000000000000739
C    0.89175   2.67525   6.24225   0.000000000022827  -0.000000000000831   0.000000000000703
C    2.67525   0.89175   6.24225   0.000000000023430  -0.000000000000299  -0.000000000000133
C    2.67525   2.67525   4.45875   0.000000000023267  -0.000000000000565  -0.000000000000317
C   -0.00000   3.56700  -0.00000   0.000000000023867  -0.000000000000231  -0.000000000000604
C   -0.00000   5.35050   1.78350   0.000000000022687   0.000000000000834   0.000000000000361
C    1.78350   3.56700   1.78350   0.000000000023031   0.000000000000287   0.000000000000256
C    1.78350   5.35050  -0.00000   0.000000000023407   0.000000000000233  -0.000000000000318
C    0.89175   4.45875   0.89175   0.000000000023722  -0.000000000001065  -0.000000000001386
C    0.89175   6.24225   2.67525   0.000000000023493  -0.000000000000312   0.000000000000532
C    2.67525   4.45875   2.67525   0.000000000022800  -0.000000000000669  -0.000000000000498
C    2.67525   6.24225   0.89175   0.000000000022845  -0.000000000000346  -0.000000000000796
C   -0.00000   3.56700   3.56700   0.000000000022829  -0.000000000000308  -0.000000000000311
C   -0.00000   5.35050   5.35050   0.000000000023566   0.000000000000094   0.000000000000097
C    1.78350   3.56700   5.35050   0.000000000023838  -0.000000000000004  -0.000000000000209
C    1.78350   5.35050   3.56700   0.000000000023220   0.000000000000057  -0.000000000000609
C    0.89175   4.45875   4.45875   0.000000000023453  -0.000000000000092  -0.000000000000477
C    0.89175   6.24225   6.24225   0.000000000022568   0.000000000000647   0.000000000000237
C    2.67525   4.45875   6.24225   0.000000000024162   0.000000000000026  -0.000000000000235
C    2.67525   6.24225   4.45875   0.000000000024866   0.000000000000513  -0.000000000000101
C    3.56700  -0.00000  -0.00000   0.000000000023337  -0.000000000000062  -0.000000000000463
C    3.56700   1.78350   1.78350   0.000000000022106   0.000000000001156  -0.000000000001357
C    5.35050  -0.00000   1.78350   0.000000000023784  -0.000000000000600  -0.000000000000449
C    5.35050   1.78350  -0.00000   0.000000000023824  -0.000000000000838   0.000000000000368
C    4.45875   0.89175   0.89175   0.000000000023079   0.000000000000535  -0.000000000001249
C    4.45875   2.67525   2.67525   0.000000000022701   0.000000000001502   0.000000000000265
C    6.24225   0.89175   2.67525   0.000000000023740   0.000000000000335   0.000000000000307
C    6.24225   2.67525   0.89175   0.000000000024502   0.000000000000188  -0.000000000000017
C    3.56700  -0.00000   3.56700   0.000000000022135   0.000000000000083   0.000000000001134
C    3.56700   1.78350   5.35050   0.000000000022559  -0.000000000000253   0.000000000000180
C    5.35050  -0.00000   5.35050   0.000000000023963  -0.000000000000181  -0.000000000000021
C    5.35050   1.78350   3.56700   0.000000000023891   0.000000000000727   0.000000000000064
C    4.45875   0.89175   4.45875   0.000000000022654  -0.000000000000317  -0.000000000000313
C    4.45875   2.67525   6.24225   0.000000000022632   0.000000000000555   0.000000000000439
C    6.24225   0.89175   6.24225   0.000000000024057  -0.000000000000538   0.000000000000367
C    6.24225   2.67525   4.45875   0.000000000023034   0.000000000000348   0.000000000000176
C    3.56700   3.56700  -0.00000   0.000000000023352   0.000000000000083   0.000000000000418
C    3.56700   5.35050   1.78350   0.000000000023359  -0.000000000000724  -0.000000000000403
C    5.35050   3.56700   1.78350   0.000000000022919  -0.000000000000087   0.000000000000364
C    5.35050   5.35050  -0.00000   0.000000000022867  -0.000000000000975  -0.000000000000332
C    4.45875   4.45875   0.89175   0.000000000022167   0.000000000000019  -0.000000000000089
C    4.45875   6.24225   2.67525   0.000000000023681  -0.000000000000263  -0.000000000000708
C    6.24225   4.45875   2.67525   0.000000000023512   0.000000000000527   0.000000000000020
C    6.24225   6.24225   0.89175   0.000000000024183  -0.000000000000031   0.000000000000394
C    3.56700   3.56700   3.56700   0.000000000024102  -0.000000000000211  -0.000000000000724
C    3.56700   5.35050   5.35050   0.000000000023858   0.000000000000607   0.000000000000023
C    5.35050   3.56700   5.35050   0.000000000023753  -0.000000000000232  -0.000000000000361
C    5.35050   5.35050   3.56700   0.000000000023780  -0.000000000000662  -0.000000000000448
C    4.45875   4.45875   4.45875   0.000000000023347   0.000000000000007  -0.000000000000098
C    4.45875   6.24225   6.24225   0.000000000022604  -0.000000000000761  -0.000000000000665
C    6.24225   4.45875   6.24225   0.000000000023460  -0.000000000000069   0.000000000000283
C    6.24225   6.24225   4.45875   0.000000000024338   0.000000000000135  -0.000000000000096
