64 

C   -0.00000  -0.00000  -0.00000   0.000000000024365   0.000000000000358  -0.000000000000113
C   -0.00000   1.78350   1.78350   0.000000000022594   0.000000000000162   0.000000000000118
C    1.78350  -0.00000   1.78350   0.000000000023532   0.000000000000111  -0.000000000000127
C    1.78350   1.78350  -0.00000   0.000000000023128   0.000000000000721  -0.000000000000453
C    0.89175   0.89175   0.89175   0.000000000023013  -0.000000000000519  -0.000000000001872
C    0.89175   2.67525   2.67525   0.000000000023024   0.000000000000415  -0.000000000000690
C    2.67525   0.89175   2.67525   0.000000000022148   0.000000000000054  -0.000000000000135
C    2.67525   2.67525   0.89175   0.000000000023261  -0.000000000000889  -0.000000000000208
C   -0.00000  -0.00000   3.56700   0.000000000023289  -0.000000000000352   0.000000000000579
C   -0.00000   1.78350   5.35050   0.000000000023953  -0.000000000000775   0.000000000002406
C    1.78350  -0.00000   5.35050   0.000000000023049   0.000000000001025   0.000000000000589
C    1.78350   1.78350   3.56700   0.000000000024467  -0.000000000000356   0.000000000000539
C    0.89175   0.89175   4.45875   0.000000000024666  -0.000000000001060   0.000000000001029
C    0.89175   2.67525   6.24225   0.000000000022639  -0.000000000000924   0.000000000000682
C    2.67525   0.89175   6.24225   0.000000000023341  -0.000000000000109  -0.000000000000162
C    2.67525   2.67525   4.45875   0.000000000023162  -0.000000000000671  -0.000000000000034
C   -0.00000   3.56700  -0.00000   0.000000000023807  -0.000000000000438  -0.000000000000823
C   -0.00000   5.35050   1.78350   0.000000000022629   0.000000000000767   0.000000000000174
C    1.78350   3.56700   1.78350   0.000000000022824   0.000000000000081   0.000000000000064
C    1.78350   5.35050  -0.00000   0.000000000023214   0.000000000000164  -0.000000000000552
C    0.89175   4.45875   0.89175   0.000000000023540  -0.000000000001252  -0.000000000001682
C    0.89175   6.24225   2.67525   0.000000000023294  -0.000000000000204   0.000000000000559
C    2.67525   4.45875   2.67525   0.000000000022711  -0.000000000000872  -0.000000000000467
C    2.67525   6.24225   0.89175   0.000000000022738  -0.000000000000251  -0.000000000001100
C   -0.00000   3.56700   3.56700   0.000000000022768  -0.000000000000520  -0.000000000000086
C   -0.00000   5.35050   5.35050   0.000000000023512   0.000000000000027   0.000000000000297
C    1.78350   3.56700   5.35050   0.000000000023640  -0.000000000000203  -0.000000000000022
C    1.78350   5.35050   3.56700   0.000000000023020   0.000000000000006  -0.000000000000385
C    0.89175   4.45875   4.45875   0.000000000023271  -0.000000000000291  -0.000000000000185
C    0.89175   6.24225   6.24225   0.000000000022392   0.000000000000749   0.000000000000213
C    2.67525   4.45875   6.24225   0.000000000024063  -0.000000000000163  -0.000000000000250
C    2.67525   6.24225   4.45875   0.000000000024761   0.000000000000615   0.000000000000204
C    3.56700  -0.00000  -0.00000   0.000000000023392   0.000000000000148  -0.000000000000689
C    3.56700   1.78350   1.78350   0.000000000022168   0.000000000001217  -0.000000000001556
C    5.35050  -0.00000   1.78350   0.000000000023987  -0.000000000000384  -0.000000000000635
C    5.35050   1.78350  -0.00000   0.000000000024025  -0.000000000000757   0.000000000000144
C    4.45875   0.89175   0.89175   0.000000000023259   0.000000000000730  -0.000000000001550
C    4.45875   2.67525   2.67525   0.000000000022875   0.000000000001413   0.000000000000296
C    6.24225   0.89175   2.67525   0.000000000023847   0.000000000000525   0.000000000000341
C    6.24225   2.67525   0.89175   0.000000000024604   0.000000000000082  -0.000000000000319
C    3.56700  -0.00000   3.56700   0.000000000022178   0.000000000000283   0.000000000001362
C    3.56700   1.78350   5.35050   0.000000000022621  -0.000000000000182   0.000000000000378
C    5.35050  -0.00000   5.35050   0.000000000024177   0.000000000000015   0.000000000000180
C    5.35050   1.78350   3.56700   0.000000000024100   0.000000000000800   0.000000000000288
C    4.45875   0.89175   4.45875   0.000000000022829  -0.000000000000108  -0.000000000000014
C    4.45875   2.67525   6.24225   0.000000000022818   0.000000000000452   0.000000000000411
C    6.24225   0.89175   6.24225   0.000000000024154  -0.000000000000340   0.000000000000350
C    6.24225   2.67525   4.45875   0.000000000023127   0.000000000000255   0.000000000000470
C    3.56700   3.56700  -0.00000   0.000000000023411  -0.000000000000120   0.000000000000182
C    3.56700   5.35050   1.78350   0.000000000023405  -0.000000000000786  -0.000000000000598
C    5.35050   3.56700   1.78350   0.000000000023112  -0.000000000000302   0.000000000000176
C    5.35050   5.35050  -0.00000   0.000000000023074  -0.000000000001034  -0.000000000000559
C    4.45875   4.45875   0.89175   0.000000000022348  -0.000000000000175  -0.000000000000388
C    4.45875   6.24225   2.67525   0.000000000023870  -0.000000000000172  -0.000000000000683
C    6.24225   4.45875   2.67525   0.000000000023620   0.000000000000346   0.000000000000046
C    6.24225   6.24225   0.89175   0.000000000024277   0.000000000000062   0.000000000000101
C    3.56700   3.56700   3.56700   0.000000000024161  -0.000000000000413  -0.000000000000496
C    3.56700   5.35050   5.35050   0.000000000023903   0.000000000000540   0.000000000000209
C    5.35050   3.56700   5.35050   0.000000000023966  -0.000000000000441  -0.000000000000177
C    5.35050   5.35050   3.56700   0.000000000023979  -0.000000000000733  -0.000000000000227
C    4.45875   4.45875   4.45875   0.000000000023526  -0.000000000000185   0.000000000000192
C    4.45875   6.24225   6.24225   0.000000000022785  -0.000000000000661  -0.000000000000685
C    6.24225   4.45875   6.24225   0.000000000023563  -0.000000000000269   0.000000000000261
C    6.24225   6.24225   4.45875   0.000000000024447   0.000000000000236   0.000000000000182
