1728

C -7.13400 -7.13400 -7.13400
C -7.13400 -5.35050 -5.35050
C -5.35050 -7.13400 -5.35050
C -5.35050 -5.35050 -7.13400
C -6.24225 -6.24225 -6.24225
C -6.24225 -4.45875 -4.45875
C -4.45875 -6.24225 -4.45875
C -4.45875 -4.45875 -6.24225
C -7.13400 -7.13400 -3.56700
C -7.13400 -5.35050 -1.78350
C -5.35050 -7.13400 -1.78350
C -5.35050 -5.35050 -3.56700
C -6.24225 -6.24225 -2.67525
C -6.24225 -4.45875 -0.89175
C -4.45875 -6.24225 -0.89175
C -4.45875 -4.45875 -2.67525
C -7.13400 -3.56700 -7.13400
C -7.13400 -1.78350 -5.35050
C -5.35050 -3.56700 -5.35050
C -5.35050 -1.78350 -7.13400
C -6.24225 -2.67525 -6.24225
C -6.24225 -0.89175 -4.45875
C -4.45875 -2.67525 -4.45875
C -4.45875 -0.89175 -6.24225
C -7.13400 -3.56700 -3.56700
C -7.13400 -1.78350 -1.78350
C -5.35050 -3.56700 -1.78350
C -5.35050 -1.78350 -3.56700
C -6.24225 -2.67525 -2.67525
C -6.24225 -0.89175 -0.89175
C -4.45875 -2.67525 -0.89175
C -4.45875 -0.89175 -2.67525
C -3.56700 -7.13400 -7.13400
C -3.56700 -5.35050 -5.35050
C -1.78350 -7.13400 -5.35050
C -1.78350 -5.35050 -7.13400
C -2.67525 -6.24225 -6.24225
C -2.67525 -4.45875 -4.45875
C -0.89175 -6.24225 -4.45875
C -0.89175 -4.45875 -6.24225
C -3.56700 -7.13400 -3.56700
C -3.56700 -5.35050 -1.78350
C -1.78350 -7.13400 -1.78350
C -1.78350 -5.35050 -3.56700
C -2.67525 -6.24225 -2.67525
C -2.67525 -4.45875 -0.89175
C -0.89175 -6.24225 -0.89175
C -0.89175 -4.45875 -2.67525
C -3.56700 -3.56700 -7.13400
C -3.56700 -1.78350 -5.35050
C -1.78350 -3.56700 -5.35050
C -1.78350 -1.78350 -7.13400
C -2.67525 -2.67525 -6.24225
C -2.67525 -0.89175 -4.45875
C -0.89175 -2.67525 -4.45875
C -0.89175 -0.89175 -6.24225
C -3.56700 -3.56700 -3.56700
C -3.56700 -1.78350 -1.78350
C -1.78350 -3.56700 -1.78350
C -1.78350 -1.78350 -3.56700
C -2.67525 -2.67525 -2.67525
C -2.67525 -0.89175 -0.89175
C -0.89175 -2.67525 -0.89175
C -0.89175 -0.89175 -2.67525
C -7.13400 -7.13400 -0.00000
C -7.13400 -5.35050  1.78350
C -5.35050 -7.13400  1.78350
C -5.35050 -5.35050 -0.00000
C -6.24225 -6.24225  0.89175
C -6.24225 -4.45875  2.67525
C -4.45875 -6.24225  2.67525
C -4.45875 -4.45875  0.89175
C -7.13400 -7.13400  3.56700
C -7.13400 -5.35050  5.35050
C -5.35050 -7.13400  5.35050
C -5.35050 -5.35050  3.56700
C -6.24225 -6.24225  4.45875
C -6.24225 -4.45875  6.24225
C -4.45875 -6.24225  6.24225
C -4.45875 -4.45875  4.45875
C -7.13400 -3.56700 -0.00000
C -7.13400 -1.78350  1.78350
C -5.35050 -3.56700  1.78350
C -5.35050 -1.78350 -0.00000
C -6.24225 -2.67525  0.89175
C -6.24225 -0.89175  2.67525
C -4.45875 -2.67525  2.67525
C -4.45875 -0.89175  0.89175
C -7.13400 -3.56700  3.56700
C -7.13400 -1.78350  5.35050
C -5.35050 -3.56700  5.35050
C -5.35050 -1.78350  3.56700
C -6.24225 -2.67525  4.45875
C -6.24225 -0.89175  6.24225
C -4.45875 -2.67525  6.24225
C -4.45875 -0.89175  4.45875
C -3.56700 -7.13400 -0.00000
C -3.56700 -5.35050  1.78350
C -1.78350 -7.13400  1.78350
C -1.78350 -5.35050 -0.00000
C -2.67525 -6.24225  0.89175
C -2.67525 -4.45875  2.67525
C -0.89175 -6.24225  2.67525
C -0.89175 -4.45875  0.89175
C -3.56700 -7.13400  3.56700
C -3.56700 -5.35050  5.35050
C -1.78350 -7.13400  5.35050
C -1.78350 -5.35050  3.56700
C -2.67525 -6.24225  4.45875
C -2.67525 -4.45875  6.24225
C -0.89175 -6.24225  6.24225
C -0.89175 -4.45875  4.45875
C -3.56700 -3.56700 -0.00000
C -3.56700 -1.78350  1.78350
C -1.78350 -3.56700  1.78350
C -1.78350 -1.78350 -0.00000
C -2.67525 -2.67525  0.89175
C -2.67525 -0.89175  2.67525
C -0.89175 -2.67525  2.67525
C -0.89175 -0.89175  0.89175
C -3.56700 -3.56700  3.56700
C -3.56700 -1.78350  5.35050
C -1.78350 -3.56700  5.35050
C -1.78350 -1.78350  3.56700
C -2.67525 -2.67525  4.45875
C -2.67525 -0.89175  6.24225
C -0.89175 -2.67525  6.24225
C -0.89175 -0.89175  4.45875
C -7.13400 -7.13400  7.13400
C -7.13400 -5.35050  8.91750
C -5.35050 -7.13400  8.91750
C -5.35050 -5.35050  7.13400
C -6.24225 -6.24225  8.02575
C -6.24225 -4.45875  9.80925
C -4.45875 -6.24225  9.80925
C -4.45875 -4.45875  8.02575
C -7.13400 -7.13400 10.70100
C -7.13400 -5.35050 12.48450
C -5.35050 -7.13400 12.48450
C -5.35050 -5.35050 10.70100
C -6.24225 -6.24225 11.59275
C -6.24225 -4.45875 13.37625
C -4.45875 -6.24225 13.37625
C -4.45875 -4.45875 11.59275
C -7.13400 -3.56700  7.13400
C -7.13400 -1.78350  8.91750
C -5.35050 -3.56700  8.91750
C -5.35050 -1.78350  7.13400
C -6.24225 -2.67525  8.02575
C -6.24225 -0.89175  9.80925
C -4.45875 -2.67525  9.80925
C -4.45875 -0.89175  8.02575
C -7.13400 -3.56700 10.70100
C -7.13400 -1.78350 12.48450
C -5.35050 -3.56700 12.48450
C -5.35050 -1.78350 10.70100
C -6.24225 -2.67525 11.59275
C -6.24225 -0.89175 13.37625
C -4.45875 -2.67525 13.37625
C -4.45875 -0.89175 11.59275
C -3.56700 -7.13400  7.13400
C -3.56700 -5.35050  8.91750
C -1.78350 -7.13400  8.91750
C -1.78350 -5.35050  7.13400
C -2.67525 -6.24225  8.02575
C -2.67525 -4.45875  9.80925
C -0.89175 -6.24225  9.80925
C -0.89175 -4.45875  8.02575
C -3.56700 -7.13400 10.70100
C -3.56700 -5.35050 12.48450
C -1.78350 -7.13400 12.48450
C -1.78350 -5.35050 10.70100
C -2.67525 -6.24225 11.59275
C -2.67525 -4.45875 13.37625
C -0.89175 -6.24225 13.37625
C -0.89175 -4.45875 11.59275
C -3.56700 -3.56700  7.13400
C -3.56700 -1.78350  8.91750
C -1.78350 -3.56700  8.91750
C -1.78350 -1.78350  7.13400
C -2.67525 -2.67525  8.02575
C -2.67525 -0.89175  9.80925
C -0.89175 -2.67525  9.80925
C -0.89175 -0.89175  8.02575
C -3.56700 -3.56700 10.70100
C -3.56700 -1.78350 12.48450
C -1.78350 -3.56700 12.48450
C -1.78350 -1.78350 10.70100
C -2.67525 -2.67525 11.59275
C -2.67525 -0.89175 13.37625
C -0.89175 -2.67525 13.37625
C -0.89175 -0.89175 11.59275
C -7.13400 -0.00000 -7.13400
C -7.13400  1.78350 -5.35050
C -5.35050 -0.00000 -5.35050
C -5.35050  1.78350 -7.13400
C -6.24225  0.89175 -6.24225
C -6.24225  2.67525 -4.45875
C -4.45875  0.89175 -4.45875
C -4.45875  2.67525 -6.24225
C -7.13400 -0.00000 -3.56700
C -7.13400  1.78350 -1.78350
C -5.35050 -0.00000 -1.78350
C -5.35050  1.78350 -3.56700
C -6.24225  0.89175 -2.67525
C -6.24225  2.67525 -0.89175
C -4.45875  0.89175 -0.89175
C -4.45875  2.67525 -2.67525
C -7.13400  3.56700 -7.13400
C -7.13400  5.35050 -5.35050
C -5.35050  3.56700 -5.35050
C -5.35050  5.35050 -7.13400
C -6.24225  4.45875 -6.24225
C -6.24225  6.24225 -4.45875
C -4.45875  4.45875 -4.45875
C -4.45875  6.24225 -6.24225
C -7.13400  3.56700 -3.56700
C -7.13400  5.35050 -1.78350
C -5.35050  3.56700 -1.78350
C -5.35050  5.35050 -3.56700
C -6.24225  4.45875 -2.67525
C -6.24225  6.24225 -0.89175
C -4.45875  4.45875 -0.89175
C -4.45875  6.24225 -2.67525
C -3.56700 -0.00000 -7.13400
C -3.56700  1.78350 -5.35050
C -1.78350 -0.00000 -5.35050
C -1.78350  1.78350 -7.13400
C -2.67525  0.89175 -6.24225
C -2.67525  2.67525 -4.45875
C -0.89175  0.89175 -4.45875
C -0.89175  2.67525 -6.24225
C -3.56700 -0.00000 -3.56700
C -3.56700  1.78350 -1.78350
C -1.78350 -0.00000 -1.78350
C -1.78350  1.78350 -3.56700
C -2.67525  0.89175 -2.67525
C -2.67525  2.67525 -0.89175
C -0.89175  0.89175 -0.89175
C -0.89175  2.67525 -2.67525
C -3.56700  3.56700 -7.13400
C -3.56700  5.35050 -5.35050
C -1.78350  3.56700 -5.35050
C -1.78350  5.35050 -7.13400
C -2.67525  4.45875 -6.24225
C -2.67525  6.24225 -4.45875
C -0.89175  4.45875 -4.45875
C -0.89175  6.24225 -6.24225
C -3.56700  3.56700 -3.56700
C -3.56700  5.35050 -1.78350
C -1.78350  3.56700 -1.78350
C -1.78350  5.35050 -3.56700
C -2.67525  4.45875 -2.67525
C -2.67525  6.24225 -0.89175
C -0.89175  4.45875 -0.89175
C -0.89175  6.24225 -2.67525
C -7.13400 -0.00000 -0.00000
C -7.13400  1.78350  1.78350
C -5.35050 -0.00000  1.78350
C -5.35050  1.78350 -0.00000
C -6.24225  0.89175  0.89175
C -6.24225  2.67525  2.67525
C -4.45875  0.89175  2.67525
C -4.45875  2.67525  0.89175
C -7.13400 -0.00000  3.56700
C -7.13400  1.78350  5.35050
C -5.35050 -0.00000  5.35050
C -5.35050  1.78350  3.56700
C -6.24225  0.89175  4.45875
C -6.24225  2.67525  6.24225
C -4.45875  0.89175  6.24225
C -4.45875  2.67525  4.45875
C -7.13400  3.56700 -0.00000
C -7.13400  5.35050  1.78350
C -5.35050  3.56700  1.78350
C -5.35050  5.35050 -0.00000
C -6.24225  4.45875  0.89175
C -6.24225  6.24225  2.67525
C -4.45875  4.45875  2.67525
C -4.45875  6.24225  0.89175
C -7.13400  3.56700  3.56700
C -7.13400  5.35050  5.35050
C -5.35050  3.56700  5.35050
C -5.35050  5.35050  3.56700
C -6.24225  4.45875  4.45875
C -6.24225  6.24225  6.24225
C -4.45875  4.45875  6.24225
C -4.45875  6.24225  4.45875
C -3.56700 -0.00000 -0.00000
C -3.56700  1.78350  1.78350
C -1.78350 -0.00000  1.78350
C -1.78350  1.78350 -0.00000
C -2.67525  0.89175  0.89175
C -2.67525  2.67525  2.67525
C -0.89175  0.89175  2.67525
C -0.89175  2.67525  0.89175
C -3.56700 -0.00000  3.56700
C -3.56700  1.78350  5.35050
C -1.78350 -0.00000  5.35050
C -1.78350  1.78350  3.56700
C -2.67525  0.89175  4.45875
C -2.67525  2.67525  6.24225
C -0.89175  0.89175  6.24225
C -0.89175  2.67525  4.45875
C -3.56700  3.56700 -0.00000
C -3.56700  5.35050  1.78350
C -1.78350  3.56700  1.78350
C -1.78350  5.35050 -0.00000
C -2.67525  4.45875  0.89175
C -2.67525  6.24225  2.67525
C -0.89175  4.45875  2.67525
C -0.89175  6.24225  0.89175
C -3.56700  3.56700  3.56700
C -3.56700  5.35050  5.35050
C -1.78350  3.56700  5.35050
C -1.78350  5.35050  3.56700
C -2.67525  4.45875  4.45875
C -2.67525  6.24225  6.24225
C -0.89175  4.45875  6.24225
C -0.89175  6.24225  4.45875
C -7.13400 -0.00000  7.13400
C -7.13400  1.78350  8.91750
C -5.35050 -0.00000  8.91750
C -5.35050  1.78350  7.13400
C -6.24225  0.89175  8.02575
C -6.24225  2.67525  9.80925
C -4.45875  0.89175  9.80925
C -4.45875  2.67525  8.02575
C -7.13400 -0.00000 10.70100
C -7.13400  1.78350 12.48450
C -5.35050 -0.00000 12.48450
C -5.35050  1.78350 10.70100
C -6.24225  0.89175 11.59275
C -6.24225  2.67525 13.37625
C -4.45875  0.89175 13.37625
C -4.45875  2.67525 11.59275
C -7.13400  3.56700  7.13400
C -7.13400  5.35050  8.91750
C -5.35050  3.56700  8.91750
C -5.35050  5.35050  7.13400
C -6.24225  4.45875  8.02575
C -6.24225  6.24225  9.80925
C -4.45875  4.45875  9.80925
C -4.45875  6.24225  8.02575
C -7.13400  3.56700 10.70100
C -7.13400  5.35050 12.48450
C -5.35050  3.56700 12.48450
C -5.35050  5.35050 10.70100
C -6.24225  4.45875 11.59275
C -6.24225  6.24225 13.37625
C -4.45875  4.45875 13.37625
C -4.45875  6.24225 11.59275
C -3.56700 -0.00000  7.13400
C -3.56700  1.78350  8.91750
C -1.78350 -0.00000  8.91750
C -1.78350  1.78350  7.13400
C -2.67525  0.89175  8.02575
C -2.67525  2.67525  9.80925
C -0.89175  0.89175  9.80925
C -0.89175  2.67525  8.02575
C -3.56700 -0.00000 10.70100
C -3.56700  1.78350 12.48450
C -1.78350 -0.00000 12.48450
C -1.78350  1.78350 10.70100
C -2.67525  0.89175 11.59275
C -2.67525  2.67525 13.37625
C -0.89175  0.89175 13.37625
C -0.89175  2.67525 11.59275
C -3.56700  3.56700  7.13400
C -3.56700  5.35050  8.91750
C -1.78350  3.56700  8.91750
C -1.78350  5.35050  7.13400
C -2.67525  4.45875  8.02575
C -2.67525  6.24225  9.80925
C -0.89175  4.45875  9.80925
C -0.89175  6.24225  8.02575
C -3.56700  3.56700 10.70100
C -3.56700  5.35050 12.48450
C -1.78350  3.56700 12.48450
C -1.78350  5.35050 10.70100
C -2.67525  4.45875 11.59275
C -2.67525  6.24225 13.37625
C -0.89175  4.45875 13.37625
C -0.89175  6.24225 11.59275
C -7.13400  7.13400 -7.13400
C -7.13400  8.91750 -5.35050
C -5.35050  7.13400 -5.35050
C -5.35050  8.91750 -7.13400
C -6.24225  8.02575 -6.24225
C -6.24225  9.80925 -4.45875
C -4.45875  8.02575 -4.45875
C -4.45875  9.80925 -6.24225
C -7.13400  7.13400 -3.56700
C -7.13400  8.91750 -1.78350
C -5.35050  7.13400 -1.78350
C -5.35050  8.91750 -3.56700
C -6.24225  8.02575 -2.67525
C -6.24225  9.80925 -0.89175
C -4.45875  8.02575 -0.89175
C -4.45875  9.80925 -2.67525
C -7.13400 10.70100 -7.13400
C -7.13400 12.48450 -5.35050
C -5.35050 10.70100 -5.35050
C -5.35050 12.48450 -7.13400
C -6.24225 11.59275 -6.24225
C -6.24225 13.37625 -4.45875
C -4.45875 11.59275 -4.45875
C -4.45875 13.37625 -6.24225
C -7.13400 10.70100 -3.56700
C -7.13400 12.48450 -1.78350
C -5.35050 10.70100 -1.78350
C -5.35050 12.48450 -3.56700
C -6.24225 11.59275 -2.67525
C -6.24225 13.37625 -0.89175
C -4.45875 11.59275 -0.89175
C -4.45875 13.37625 -2.67525
C -3.56700  7.13400 -7.13400
C -3.56700  8.91750 -5.35050
C -1.78350  7.13400 -5.35050
C -1.78350  8.91750 -7.13400
C -2.67525  8.02575 -6.24225
C -2.67525  9.80925 -4.45875
C -0.89175  8.02575 -4.45875
C -0.89175  9.80925 -6.24225
C -3.56700  7.13400 -3.56700
C -3.56700  8.91750 -1.78350
C -1.78350  7.13400 -1.78350
C -1.78350  8.91750 -3.56700
C -2.67525  8.02575 -2.67525
C -2.67525  9.80925 -0.89175
C -0.89175  8.02575 -0.89175
C -0.89175  9.80925 -2.67525
C -3.56700 10.70100 -7.13400
C -3.56700 12.48450 -5.35050
C -1.78350 10.70100 -5.35050
C -1.78350 12.48450 -7.13400
C -2.67525 11.59275 -6.24225
C -2.67525 13.37625 -4.45875
C -0.89175 11.59275 -4.45875
C -0.89175 13.37625 -6.24225
C -3.56700 10.70100 -3.56700
C -3.56700 12.48450 -1.78350
C -1.78350 10.70100 -1.78350
C -1.78350 12.48450 -3.56700
C -2.67525 11.59275 -2.67525
C -2.67525 13.37625 -0.89175
C -0.89175 11.59275 -0.89175
C -0.89175 13.37625 -2.67525
C -7.13400  7.13400 -0.00000
C -7.13400  8.91750  1.78350
C -5.35050  7.13400  1.78350
C -5.35050  8.91750 -0.00000
C -6.24225  8.02575  0.89175
C -6.24225  9.80925  2.67525
C -4.45875  8.02575  2.67525
C -4.45875  9.80925  0.89175
C -7.13400  7.13400  3.56700
C -7.13400  8.91750  5.35050
C -5.35050  7.13400  5.35050
C -5.35050  8.91750  3.56700
C -6.24225  8.02575  4.45875
C -6.24225  9.80925  6.24225
C -4.45875  8.02575  6.24225
C -4.45875  9.80925  4.45875
C -7.13400 10.70100 -0.00000
C -7.13400 12.48450  1.78350
C -5.35050 10.70100  1.78350
C -5.35050 12.48450 -0.00000
C -6.24225 11.59275  0.89175
C -6.24225 13.37625  2.67525
C -4.45875 11.59275  2.67525
C -4.45875 13.37625  0.89175
C -7.13400 10.70100  3.56700
C -7.13400 12.48450  5.35050
C -5.35050 10.70100  5.35050
C -5.35050 12.48450  3.56700
C -6.24225 11.59275  4.45875
C -6.24225 13.37625  6.24225
C -4.45875 11.59275  6.24225
C -4.45875 13.37625  4.45875
C -3.56700  7.13400 -0.00000
C -3.56700  8.91750  1.78350
C -1.78350  7.13400  1.78350
C -1.78350  8.91750 -0.00000
C -2.67525  8.02575  0.89175
C -2.67525  9.80925  2.67525
C -0.89175  8.02575  2.67525
C -0.89175  9.80925  0.89175
C -3.56700  7.13400  3.56700
C -3.56700  8.91750  5.35050
C -1.78350  7.13400  5.35050
C -1.78350  8.91750  3.56700
C -2.67525  8.02575  4.45875
C -2.67525  9.80925  6.24225
C -0.89175  8.02575  6.24225
C -0.89175  9.80925  4.45875
C -3.56700 10.70100 -0.00000
C -3.56700 12.48450  1.78350
C -1.78350 10.70100  1.78350
C -1.78350 12.48450 -0.00000
C -2.67525 11.59275  0.89175
C -2.67525 13.37625  2.67525
C -0.89175 11.59275  2.67525
C -0.89175 13.37625  0.89175
C -3.56700 10.70100  3.56700
C -3.56700 12.48450  5.35050
C -1.78350 10.70100  5.35050
C -1.78350 12.48450  3.56700
C -2.67525 11.59275  4.45875
C -2.67525 13.37625  6.24225
C -0.89175 11.59275  6.24225
C -0.89175 13.37625  4.45875
C -7.13400  7.13400  7.13400
C -7.13400  8.91750  8.91750
C -5.35050  7.13400  8.91750
C -5.35050  8.91750  7.13400
C -6.24225  8.02575  8.02575
C -6.24225  9.80925  9.80925
C -4.45875  8.02575  9.80925
C -4.45875  9.80925  8.02575
C -7.13400  7.13400 10.70100
C -7.13400  8.91750 12.48450
C -5.35050  7.13400 12.48450
C -5.35050  8.91750 10.70100
C -6.24225  8.02575 11.59275
C -6.24225  9.80925 13.37625
C -4.45875  8.02575 13.37625
C -4.45875  9.80925 11.59275
C -7.13400 10.70100  7.13400
C -7.13400 12.48450  8.91750
C -5.35050 10.70100  8.91750
C -5.35050 12.48450  7.13400
C -6.24225 11.59275  8.02575
C -6.24225 13.37625  9.80925
C -4.45875 11.59275  9.80925
C -4.45875 13.37625  8.02575
C -7.13400 10.70100 10.70100
C -7.13400 12.48450 12.48450
C -5.35050 10.70100 12.48450
C -5.35050 12.48450 10.70100
C -6.24225 11.59275 11.59275
C -6.24225 13.37625 13.37625
C -4.45875 11.59275 13.37625
C -4.45875 13.37625 11.59275
C -3.56700  7.13400  7.13400
C -3.56700  8.91750  8.91750
C -1.78350  7.13400  8.91750
C -1.78350  8.91750  7.13400
C -2.67525  8.02575  8.02575
C -2.67525  9.80925  9.80925
C -0.89175  8.02575  9.80925
C -0.89175  9.80925  8.02575
C -3.56700  7.13400 10.70100
C -3.56700  8.91750 12.48450
C -1.78350  7.13400 12.48450
C -1.78350  8.91750 10.70100
C -2.67525  8.02575 11.59275
C -2.67525  9.80925 13.37625
C -0.89175  8.02575 13.37625
C -0.89175  9.80925 11.59275
C -3.56700 10.70100  7.13400
C -3.56700 12.48450  8.91750
C -1.78350 10.70100  8.91750
C -1.78350 12.48450  7.13400
C -2.67525 11.59275  8.02575
C -2.67525 13.37625  9.80925
C -0.89175 11.59275  9.80925
C -0.89175 13.37625  8.02575
C -3.56700 10.70100 10.70100
C -3.56700 12.48450 12.48450
C -1.78350 10.70100 12.48450
C -1.78350 12.48450 10.70100
C -2.67525 11.59275 11.59275
C -2.67525 13.37625 13.37625
C -0.89175 11.59275 13.37625
C -0.89175 13.37625 11.59275
C -0.00000 -7.13400 -7.13400
C -0.00000 -5.35050 -5.35050
C  1.78350 -7.13400 -5.35050
C  1.78350 -5.35050 -7.13400
C  0.89175 -6.24225 -6.24225
C  0.89175 -4.45875 -4.45875
C  2.67525 -6.24225 -4.45875
C  2.67525 -4.45875 -6.24225
C -0.00000 -7.13400 -3.56700
C -0.00000 -5.35050 -1.78350
C  1.78350 -7.13400 -1.78350
C  1.78350 -5.35050 -3.56700
C  0.89175 -6.24225 -2.67525
C  0.89175 -4.45875 -0.89175
C  2.67525 -6.24225 -0.89175
C  2.67525 -4.45875 -2.67525
C -0.00000 -3.56700 -7.13400
C -0.00000 -1.78350 -5.35050
C  1.78350 -3.56700 -5.35050
C  1.78350 -1.78350 -7.13400
C  0.89175 -2.67525 -6.24225
C  0.89175 -0.89175 -4.45875
C  2.67525 -2.67525 -4.45875
C  2.67525 -0.89175 -6.24225
C -0.00000 -3.56700 -3.56700
C -0.00000 -1.78350 -1.78350
C  1.78350 -3.56700 -1.78350
C  1.78350 -1.78350 -3.56700
C  0.89175 -2.67525 -2.67525
C  0.89175 -0.89175 -0.89175
C  2.67525 -2.67525 -0.89175
C  2.67525 -0.89175 -2.67525
C  3.56700 -7.13400 -7.13400
C  3.56700 -5.35050 -5.35050
C  5.35050 -7.13400 -5.35050
C  5.35050 -5.35050 -7.13400
C  4.45875 -6.24225 -6.24225
C  4.45875 -4.45875 -4.45875
C  6.24225 -6.24225 -4.45875
C  6.24225 -4.45875 -6.24225
C  3.56700 -7.13400 -3.56700
C  3.56700 -5.35050 -1.78350
C  5.35050 -7.13400 -1.78350
C  5.35050 -5.35050 -3.56700
C  4.45875 -6.24225 -2.67525
C  4.45875 -4.45875 -0.89175
C  6.24225 -6.24225 -0.89175
C  6.24225 -4.45875 -2.67525
C  3.56700 -3.56700 -7.13400
C  3.56700 -1.78350 -5.35050
C  5.35050 -3.56700 -5.35050
C  5.35050 -1.78350 -7.13400
C  4.45875 -2.67525 -6.24225
C  4.45875 -0.89175 -4.45875
C  6.24225 -2.67525 -4.45875
C  6.24225 -0.89175 -6.24225
C  3.56700 -3.56700 -3.56700
C  3.56700 -1.78350 -1.78350
C  5.35050 -3.56700 -1.78350
C  5.35050 -1.78350 -3.56700
C  4.45875 -2.67525 -2.67525
C  4.45875 -0.89175 -0.89175
C  6.24225 -2.67525 -0.89175
C  6.24225 -0.89175 -2.67525
C -0.00000 -7.13400 -0.00000
C -0.00000 -5.35050  1.78350
C  1.78350 -7.13400  1.78350
C  1.78350 -5.35050 -0.00000
C  0.89175 -6.24225  0.89175
C  0.89175 -4.45875  2.67525
C  2.67525 -6.24225  2.67525
C  2.67525 -4.45875  0.89175
C -0.00000 -7.13400  3.56700
C -0.00000 -5.35050  5.35050
C  1.78350 -7.13400  5.35050
C  1.78350 -5.35050  3.56700
C  0.89175 -6.24225  4.45875
C  0.89175 -4.45875  6.24225
C  2.67525 -6.24225  6.24225
C  2.67525 -4.45875  4.45875
C -0.00000 -3.56700 -0.00000
C -0.00000 -1.78350  1.78350
C  1.78350 -3.56700  1.78350
C  1.78350 -1.78350 -0.00000
C  0.89175 -2.67525  0.89175
C  0.89175 -0.89175  2.67525
C  2.67525 -2.67525  2.67525
C  2.67525 -0.89175  0.89175
C -0.00000 -3.56700  3.56700
C -0.00000 -1.78350  5.35050
C  1.78350 -3.56700  5.35050
C  1.78350 -1.78350  3.56700
C  0.89175 -2.67525  4.45875
C  0.89175 -0.89175  6.24225
C  2.67525 -2.67525  6.24225
C  2.67525 -0.89175  4.45875
C  3.56700 -7.13400 -0.00000
C  3.56700 -5.35050  1.78350
C  5.35050 -7.13400  1.78350
C  5.35050 -5.35050 -0.00000
C  4.45875 -6.24225  0.89175
C  4.45875 -4.45875  2.67525
C  6.24225 -6.24225  2.67525
C  6.24225 -4.45875  0.89175
C  3.56700 -7.13400  3.56700
C  3.56700 -5.35050  5.35050
C  5.35050 -7.13400  5.35050
C  5.35050 -5.35050  3.56700
C  4.45875 -6.24225  4.45875
C  4.45875 -4.45875  6.24225
C  6.24225 -6.24225  6.24225
C  6.24225 -4.45875  4.45875
C  3.56700 -3.56700 -0.00000
C  3.56700 -1.78350  1.78350
C  5.35050 -3.56700  1.78350
C  5.35050 -1.78350 -0.00000
C  4.45875 -2.67525  0.89175
C  4.45875 -0.89175  2.67525
C  6.24225 -2.67525  2.67525
C  6.24225 -0.89175  0.89175
C  3.56700 -3.56700  3.56700
C  3.56700 -1.78350  5.35050
C  5.35050 -3.56700  5.35050
C  5.35050 -1.78350  3.56700
C  4.45875 -2.67525  4.45875
C  4.45875 -0.89175  6.24225
C  6.24225 -2.67525  6.24225
C  6.24225 -0.89175  4.45875
C -0.00000 -7.13400  7.13400
C -0.00000 -5.35050  8.91750
C  1.78350 -7.13400  8.91750
C  1.78350 -5.35050  7.13400
C  0.89175 -6.24225  8.02575
C  0.89175 -4.45875  9.80925
C  2.67525 -6.24225  9.80925
C  2.67525 -4.45875  8.02575
C -0.00000 -7.13400 10.70100
C -0.00000 -5.35050 12.48450
C  1.78350 -7.13400 12.48450
C  1.78350 -5.35050 10.70100
C  0.89175 -6.24225 11.59275
C  0.89175 -4.45875 13.37625
C  2.67525 -6.24225 13.37625
C  2.67525 -4.45875 11.59275
C -0.00000 -3.56700  7.13400
C -0.00000 -1.78350  8.91750
C  1.78350 -3.56700  8.91750
C  1.78350 -1.78350  7.13400
C  0.89175 -2.67525  8.02575
C  0.89175 -0.89175  9.80925
C  2.67525 -2.67525  9.80925
C  2.67525 -0.89175  8.02575
C -0.00000 -3.56700 10.70100
C -0.00000 -1.78350 12.48450
C  1.78350 -3.56700 12.48450
C  1.78350 -1.78350 10.70100
C  0.89175 -2.67525 11.59275
C  0.89175 -0.89175 13.37625
C  2.67525 -2.67525 13.37625
C  2.67525 -0.89175 11.59275
C  3.56700 -7.13400  7.13400
C  3.56700 -5.35050  8.91750
C  5.35050 -7.13400  8.91750
C  5.35050 -5.35050  7.13400
C  4.45875 -6.24225  8.02575
C  4.45875 -4.45875  9.80925
C  6.24225 -6.24225  9.80925
C  6.24225 -4.45875  8.02575
C  3.56700 -7.13400 10.70100
C  3.56700 -5.35050 12.48450
C  5.35050 -7.13400 12.48450
C  5.35050 -5.35050 10.70100
C  4.45875 -6.24225 11.59275
C  4.45875 -4.45875 13.37625
C  6.24225 -6.24225 13.37625
C  6.24225 -4.45875 11.59275
C  3.56700 -3.56700  7.13400
C  3.56700 -1.78350  8.91750
C  5.35050 -3.56700  8.91750
C  5.35050 -1.78350  7.13400
C  4.45875 -2.67525  8.02575
C  4.45875 -0.89175  9.80925
C  6.24225 -2.67525  9.80925
C  6.24225 -0.89175  8.02575
C  3.56700 -3.56700 10.70100
C  3.56700 -1.78350 12.48450
C  5.35050 -3.56700 12.48450
C  5.35050 -1.78350 10.70100
C  4.45875 -2.67525 11.59275
C  4.45875 -0.89175 13.37625
C  6.24225 -2.67525 13.37625
C  6.24225 -0.89175 11.59275
C -0.00000 -0.00000 -7.13400
C -0.00000  1.78350 -5.35050
C  1.78350 -0.00000 -5.35050
C  1.78350  1.78350 -7.13400
C  0.89175  0.89175 -6.24225
C  0.89175  2.67525 -4.45875
C  2.67525  0.89175 -4.45875
C  2.67525  2.67525 -6.24225
C -0.00000 -0.00000 -3.56700
C -0.00000  1.78350 -1.78350
C  1.78350 -0.00000 -1.78350
C  1.78350  1.78350 -3.56700
C  0.89175  0.89175 -2.67525
C  0.89175  2.67525 -0.89175
C  2.67525  0.89175 -0.89175
C  2.67525  2.67525 -2.67525
C -0.00000  3.56700 -7.13400
C -0.00000  5.35050 -5.35050
C  1.78350  3.56700 -5.35050
C  1.78350  5.35050 -7.13400
C  0.89175  4.45875 -6.24225
C  0.89175  6.24225 -4.45875
C  2.67525  4.45875 -4.45875
C  2.67525  6.24225 -6.24225
C -0.00000  3.56700 -3.56700
C -0.00000  5.35050 -1.78350
C  1.78350  3.56700 -1.78350
C  1.78350  5.35050 -3.56700
C  0.89175  4.45875 -2.67525
C  0.89175  6.24225 -0.89175
C  2.67525  4.45875 -0.89175
C  2.67525  6.24225 -2.67525
C  3.56700 -0.00000 -7.13400
C  3.56700  1.78350 -5.35050
C  5.35050 -0.00000 -5.35050
C  5.35050  1.78350 -7.13400
C  4.45875  0.89175 -6.24225
C  4.45875  2.67525 -4.45875
C  6.24225  0.89175 -4.45875
C  6.24225  2.67525 -6.24225
C  3.56700 -0.00000 -3.56700
C  3.56700  1.78350 -1.78350
C  5.35050 -0.00000 -1.78350
C  5.35050  1.78350 -3.56700
C  4.45875  0.89175 -2.67525
C  4.45875  2.67525 -0.89175
C  6.24225  0.89175 -0.89175
C  6.24225  2.67525 -2.67525
C  3.56700  3.56700 -7.13400
C  3.56700  5.35050 -5.35050
C  5.35050  3.56700 -5.35050
C  5.35050  5.35050 -7.13400
C  4.45875  4.45875 -6.24225
C  4.45875  6.24225 -4.45875
C  6.24225  4.45875 -4.45875
C  6.24225  6.24225 -6.24225
C  3.56700  3.56700 -3.56700
C  3.56700  5.35050 -1.78350
C  5.35050  3.56700 -1.78350
C  5.35050  5.35050 -3.56700
C  4.45875  4.45875 -2.67525
C  4.45875  6.24225 -0.89175
C  6.24225  4.45875 -0.89175
C  6.24225  6.24225 -2.67525
C -0.00000 -0.00000 -0.00000
C -0.00000  1.78350  1.78350
C  1.78350 -0.00000  1.78350
C  1.78350  1.78350 -0.00000
C  0.89175  0.89175  0.89175
C  0.89175  2.67525  2.67525
C  2.67525  0.89175  2.67525
C  2.67525  2.67525  0.89175
C -0.00000 -0.00000  3.56700
C -0.00000  1.78350  5.35050
C  1.78350 -0.00000  5.35050
C  1.78350  1.78350  3.56700
C  0.89175  0.89175  4.45875
C  0.89175  2.67525  6.24225
C  2.67525  0.89175  6.24225
C  2.67525  2.67525  4.45875
C -0.00000  3.56700 -0.00000
C -0.00000  5.35050  1.78350
C  1.78350  3.56700  1.78350
C  1.78350  5.35050 -0.00000
C  0.89175  4.45875  0.89175
C  0.89175  6.24225  2.67525
C  2.67525  4.45875  2.67525
C  2.67525  6.24225  0.89175
C -0.00000  3.56700  3.56700
C -0.00000  5.35050  5.35050
C  1.78350  3.56700  5.35050
C  1.78350  5.35050  3.56700
C  0.89175  4.45875  4.45875
C  0.89175  6.24225  6.24225
C  2.67525  4.45875  6.24225
C  2.67525  6.24225  4.45875
C  3.56700 -0.00000 -0.00000
C  3.56700  1.78350  1.78350
C  5.35050 -0.00000  1.78350
C  5.35050  1.78350 -0.00000
C  4.45875  0.89175  0.89175
C  4.45875  2.67525  2.67525
C  6.24225  0.89175  2.67525
C  6.24225  2.67525  0.89175
C  3.56700 -0.00000  3.56700
C  3.56700  1.78350  5.35050
C  5.35050 -0.00000  5.35050
C  5.35050  1.78350  3.56700
C  4.45875  0.89175  4.45875
C  4.45875  2.67525  6.24225
C  6.24225  0.89175  6.24225
C  6.24225  2.67525  4.45875
C  3.56700  3.56700 -0.00000
C  3.56700  5.35050  1.78350
C  5.35050  3.56700  1.78350
C  5.35050  5.35050 -0.00000
C  4.45875  4.45875  0.89175
C  4.45875  6.24225  2.67525
C  6.24225  4.45875  2.67525
C  6.24225  6.24225  0.89175
C  3.56700  3.56700  3.56700
C  3.56700  5.35050  5.35050
C  5.35050  3.56700  5.35050
C  5.35050  5.35050  3.56700
C  4.45875  4.45875  4.45875
C  4.45875  6.24225  6.24225
C  6.24225  4.45875  6.24225
C  6.24225  6.24225  4.45875
C -0.00000 -0.00000  7.13400
C -0.00000  1.78350  8.91750
C  1.78350 -0.00000  8.91750
C  1.78350  1.78350  7.13400
C  0.89175  0.89175  8.02575
C  0.89175  2.67525  9.80925
C  2.67525  0.89175  9.80925
C  2.67525  2.67525  8.02575
C -0.00000 -0.00000 10.70100
C -0.00000  1.78350 12.48450
C  1.78350 -0.00000 12.48450
C  1.78350  1.78350 10.70100
C  0.89175  0.89175 11.59275
C  0.89175  2.67525 13.37625
C  2.67525  0.89175 13.37625
C  2.67525  2.67525 11.59275
C -0.00000  3.56700  7.13400
C -0.00000  5.35050  8.91750
C  1.78350  3.56700  8.91750
C  1.78350  5.35050  7.13400
C  0.89175  4.45875  8.02575
C  0.89175  6.24225  9.80925
C  2.67525  4.45875  9.80925
C  2.67525  6.24225  8.02575
C -0.00000  3.56700 10.70100
C -0.00000  5.35050 12.48450
C  1.78350  3.56700 12.48450
C  1.78350  5.35050 10.70100
C  0.89175  4.45875 11.59275
C  0.89175  6.24225 13.37625
C  2.67525  4.45875 13.37625
C  2.67525  6.24225 11.59275
C  3.56700 -0.00000  7.13400
C  3.56700  1.78350  8.91750
C  5.35050 -0.00000  8.91750
C  5.35050  1.78350  7.13400
C  4.45875  0.89175  8.02575
C  4.45875  2.67525  9.80925
C  6.24225  0.89175  9.80925
C  6.24225  2.67525  8.02575
C  3.56700 -0.00000 10.70100
C  3.56700  1.78350 12.48450
C  5.35050 -0.00000 12.48450
C  5.35050  1.78350 10.70100
C  4.45875  0.89175 11.59275
C  4.45875  2.67525 13.37625
C  6.24225  0.89175 13.37625
C  6.24225  2.67525 11.59275
C  3.56700  3.56700  7.13400
C  3.56700  5.35050  8.91750
C  5.35050  3.56700  8.91750
C  5.35050  5.35050  7.13400
C  4.45875  4.45875  8.02575
C  4.45875  6.24225  9.80925
C  6.24225  4.45875  9.80925
C  6.24225  6.24225  8.02575
C  3.56700  3.56700 10.70100
C  3.56700  5.35050 12.48450
C  5.35050  3.56700 12.48450
C  5.35050  5.35050 10.70100
C  4.45875  4.45875 11.59275
C  4.45875  6.24225 13.37625
C  6.24225  4.45875 13.37625
C  6.24225  6.24225 11.59275
C -0.00000  7.13400 -7.13400
C -0.00000  8.91750 -5.35050
C  1.78350  7.13400 -5.35050
C  1.78350  8.91750 -7.13400
C  0.89175  8.02575 -6.24225
C  0.89175  9.80925 -4.45875
C  2.67525  8.02575 -4.45875
C  2.67525  9.80925 -6.24225
C -0.00000  7.13400 -3.56700
C -0.00000  8.91750 -1.78350
C  1.78350  7.13400 -1.78350
C  1.78350  8.91750 -3.56700
C  0.89175  8.02575 -2.67525
C  0.89175  9.80925 -0.89175
C  2.67525  8.02575 -0.89175
C  2.67525  9.80925 -2.67525
C -0.00000 10.70100 -7.13400
C -0.00000 12.48450 -5.35050
C  1.78350 10.70100 -5.35050
C  1.78350 12.48450 -7.13400
C  0.89175 11.59275 -6.24225
C  0.89175 13.37625 -4.45875
C  2.67525 11.59275 -4.45875
C  2.67525 13.37625 -6.24225
C -0.00000 10.70100 -3.56700
C -0.00000 12.48450 -1.78350
C  1.78350 10.70100 -1.78350
C  1.78350 12.48450 -3.56700
C  0.89175 11.59275 -2.67525
C  0.89175 13.37625 -0.89175
C  2.67525 11.59275 -0.89175
C  2.67525 13.37625 -2.67525
C  3.56700  7.13400 -7.13400
C  3.56700  8.91750 -5.35050
C  5.35050  7.13400 -5.35050
C  5.35050  8.91750 -7.13400
C  4.45875  8.02575 -6.24225
C  4.45875  9.80925 -4.45875
C  6.24225  8.02575 -4.45875
C  6.24225  9.80925 -6.24225
C  3.56700  7.13400 -3.56700
C  3.56700  8.91750 -1.78350
C  5.35050  7.13400 -1.78350
C  5.35050  8.91750 -3.56700
C  4.45875  8.02575 -2.67525
C  4.45875  9.80925 -0.89175
C  6.24225  8.02575 -0.89175
C  6.24225  9.80925 -2.67525
C  3.56700 10.70100 -7.13400
C  3.56700 12.48450 -5.35050
C  5.35050 10.70100 -5.35050
C  5.35050 12.48450 -7.13400
C  4.45875 11.59275 -6.24225
C  4.45875 13.37625 -4.45875
C  6.24225 11.59275 -4.45875
C  6.24225 13.37625 -6.24225
C  3.56700 10.70100 -3.56700
C  3.56700 12.48450 -1.78350
C  5.35050 10.70100 -1.78350
C  5.35050 12.48450 -3.56700
C  4.45875 11.59275 -2.67525
C  4.45875 13.37625 -0.89175
C  6.24225 11.59275 -0.89175
C  6.24225 13.37625 -2.67525
C -0.00000  7.13400 -0.00000
C -0.00000  8.91750  1.78350
C  1.78350  7.13400  1.78350
C  1.78350  8.91750 -0.00000
C  0.89175  8.02575  0.89175
C  0.89175  9.80925  2.67525
C  2.67525  8.02575  2.67525
C  2.67525  9.80925  0.89175
C -0.00000  7.13400  3.56700
C -0.00000  8.91750  5.35050
C  1.78350  7.13400  5.35050
C  1.78350  8.91750  3.56700
C  0.89175  8.02575  4.45875
C  0.89175  9.80925  6.24225
C  2.67525  8.02575  6.24225
C  2.67525  9.80925  4.45875
C -0.00000 10.70100 -0.00000
C -0.00000 12.48450  1.78350
C  1.78350 10.70100  1.78350
C  1.78350 12.48450 -0.00000
C  0.89175 11.59275  0.89175
C  0.89175 13.37625  2.67525
C  2.67525 11.59275  2.67525
C  2.67525 13.37625  0.89175
C -0.00000 10.70100  3.56700
C -0.00000 12.48450  5.35050
C  1.78350 10.70100  5.35050
C  1.78350 12.48450  3.56700
C  0.89175 11.59275  4.45875
C  0.89175 13.37625  6.24225
C  2.67525 11.59275  6.24225
C  2.67525 13.37625  4.45875
C  3.56700  7.13400 -0.00000
C  3.56700  8.91750  1.78350
C  5.35050  7.13400  1.78350
C  5.35050  8.91750 -0.00000
C  4.45875  8.02575  0.89175
C  4.45875  9.80925  2.67525
C  6.24225  8.02575  2.67525
C  6.24225  9.80925  0.89175
C  3.56700  7.13400  3.56700
C  3.56700  8.91750  5.35050
C  5.35050  7.13400  5.35050
C  5.35050  8.91750  3.56700
C  4.45875  8.02575  4.45875
C  4.45875  9.80925  6.24225
C  6.24225  8.02575  6.24225
C  6.24225  9.80925  4.45875
C  3.56700 10.70100 -0.00000
C  3.56700 12.48450  1.78350
C  5.35050 10.70100  1.78350
C  5.35050 12.48450 -0.00000
C  4.45875 11.59275  0.89175
C  4.45875 13.37625  2.67525
C  6.24225 11.59275  2.67525
C  6.24225 13.37625  0.89175
C  3.56700 10.70100  3.56700
C  3.56700 12.48450  5.35050
C  5.35050 10.70100  5.35050
C  5.35050 12.48450  3.56700
C  4.45875 11.59275  4.45875
C  4.45875 13.37625  6.24225
C  6.24225 11.59275  6.24225
C  6.24225 13.37625  4.45875
C -0.00000  7.13400  7.13400
C -0.00000  8.91750  8.91750
C  1.78350  7.13400  8.91750
C  1.78350  8.91750  7.13400
C  0.89175  8.02575  8.02575
C  0.89175  9.80925  9.80925
C  2.67525  8.02575  9.80925
C  2.67525  9.80925  8.02575
C -0.00000  7.13400 10.70100
C -0.00000  8.91750 12.48450
C  1.78350  7.13400 12.48450
C  1.78350  8.91750 10.70100
C  0.89175  8.02575 11.59275
C  0.89175  9.80925 13.37625
C  2.67525  8.02575 13.37625
C  2.67525  9.80925 11.59275
C -0.00000 10.70100  7.13400
C -0.00000 12.48450  8.91750
C  1.78350 10.70100  8.91750
C  1.78350 12.48450  7.13400
C  0.89175 11.59275  8.02575
C  0.89175 13.37625  9.80925
C  2.67525 11.59275  9.80925
C  2.67525 13.37625  8.02575
C -0.00000 10.70100 10.70100
C -0.00000 12.48450 12.48450
C  1.78350 10.70100 12.48450
C  1.78350 12.48450 10.70100
C  0.89175 11.59275 11.59275
C  0.89175 13.37625 13.37625
C  2.67525 11.59275 13.37625
C  2.67525 13.37625 11.59275
C  3.56700  7.13400  7.13400
C  3.56700  8.91750  8.91750
C  5.35050  7.13400  8.91750
C  5.35050  8.91750  7.13400
C  4.45875  8.02575  8.02575
C  4.45875  9.80925  9.80925
C  6.24225  8.02575  9.80925
C  6.24225  9.80925  8.02575
C  3.56700  7.13400 10.70100
C  3.56700  8.91750 12.48450
C  5.35050  7.13400 12.48450
C  5.35050  8.91750 10.70100
C  4.45875  8.02575 11.59275
C  4.45875  9.80925 13.37625
C  6.24225  8.02575 13.37625
C  6.24225  9.80925 11.59275
C  3.56700 10.70100  7.13400
C  3.56700 12.48450  8.91750
C  5.35050 10.70100  8.91750
C  5.35050 12.48450  7.13400
C  4.45875 11.59275  8.02575
C  4.45875 13.37625  9.80925
C  6.24225 11.59275  9.80925
C  6.24225 13.37625  8.02575
C  3.56700 10.70100 10.70100
C  3.56700 12.48450 12.48450
C  5.35050 10.70100 12.48450
C  5.35050 12.48450 10.70100
C  4.45875 11.59275 11.59275
C  4.45875 13.37625 13.37625
C  6.24225 11.59275 13.37625
C  6.24225 13.37625 11.59275
C  7.13400 -7.13400 -7.13400
C  7.13400 -5.35050 -5.35050
C  8.91750 -7.13400 -5.35050
C  8.91750 -5.35050 -7.13400
C  8.02575 -6.24225 -6.24225
C  8.02575 -4.45875 -4.45875
C  9.80925 -6.24225 -4.45875
C  9.80925 -4.45875 -6.24225
C  7.13400 -7.13400 -3.56700
C  7.13400 -5.35050 -1.78350
C  8.91750 -7.13400 -1.78350
C  8.91750 -5.35050 -3.56700
C  8.02575 -6.24225 -2.67525
C  8.02575 -4.45875 -0.89175
C  9.80925 -6.24225 -0.89175
C  9.80925 -4.45875 -2.67525
C  7.13400 -3.56700 -7.13400
C  7.13400 -1.78350 -5.35050
C  8.91750 -3.56700 -5.35050
C  8.91750 -1.78350 -7.13400
C  8.02575 -2.67525 -6.24225
C  8.02575 -0.89175 -4.45875
C  9.80925 -2.67525 -4.45875
C  9.80925 -0.89175 -6.24225
C  7.13400 -3.56700 -3.56700
C  7.13400 -1.78350 -1.78350
C  8.91750 -3.56700 -1.78350
C  8.91750 -1.78350 -3.56700
C  8.02575 -2.67525 -2.67525
C  8.02575 -0.89175 -0.89175
C  9.80925 -2.67525 -0.89175
C  9.80925 -0.89175 -2.67525
C 10.70100 -7.13400 -7.13400
C 10.70100 -5.35050 -5.35050
C 12.48450 -7.13400 -5.35050
C 12.48450 -5.35050 -7.13400
C 11.59275 -6.24225 -6.24225
C 11.59275 -4.45875 -4.45875
C 13.37625 -6.24225 -4.45875
C 13.37625 -4.45875 -6.24225
C 10.70100 -7.13400 -3.56700
C 10.70100 -5.35050 -1.78350
C 12.48450 -7.13400 -1.78350
C 12.48450 -5.35050 -3.56700
C 11.59275 -6.24225 -2.67525
C 11.59275 -4.45875 -0.89175
C 13.37625 -6.24225 -0.89175
C 13.37625 -4.45875 -2.67525
C 10.70100 -3.56700 -7.13400
C 10.70100 -1.78350 -5.35050
C 12.48450 -3.56700 -5.35050
C 12.48450 -1.78350 -7.13400
C 11.59275 -2.67525 -6.24225
C 11.59275 -0.89175 -4.45875
C 13.37625 -2.67525 -4.45875
C 13.37625 -0.89175 -6.24225
C 10.70100 -3.56700 -3.56700
C 10.70100 -1.78350 -1.78350
C 12.48450 -3.56700 -1.78350
C 12.48450 -1.78350 -3.56700
C 11.59275 -2.67525 -2.67525
C 11.59275 -0.89175 -0.89175
C 13.37625 -2.67525 -0.89175
C 13.37625 -0.89175 -2.67525
C  7.13400 -7.13400 -0.00000
C  7.13400 -5.35050  1.78350
C  8.91750 -7.13400  1.78350
C  8.91750 -5.35050 -0.00000
C  8.02575 -6.24225  0.89175
C  8.02575 -4.45875  2.67525
C  9.80925 -6.24225  2.67525
C  9.80925 -4.45875  0.89175
C  7.13400 -7.13400  3.56700
C  7.13400 -5.35050  5.35050
C  8.91750 -7.13400  5.35050
C  8.91750 -5.35050  3.56700
C  8.02575 -6.24225  4.45875
C  8.02575 -4.45875  6.24225
C  9.80925 -6.24225  6.24225
C  9.80925 -4.45875  4.45875
C  7.13400 -3.56700 -0.00000
C  7.13400 -1.78350  1.78350
C  8.91750 -3.56700  1.78350
C  8.91750 -1.78350 -0.00000
C  8.02575 -2.67525  0.89175
C  8.02575 -0.89175  2.67525
C  9.80925 -2.67525  2.67525
C  9.80925 -0.89175  0.89175
C  7.13400 -3.56700  3.56700
C  7.13400 -1.78350  5.35050
C  8.91750 -3.56700  5.35050
C  8.91750 -1.78350  3.56700
C  8.02575 -2.67525  4.45875
C  8.02575 -0.89175  6.24225
C  9.80925 -2.67525  6.24225
C  9.80925 -0.89175  4.45875
C 10.70100 -7.13400 -0.00000
C 10.70100 -5.35050  1.78350
C 12.48450 -7.13400  1.78350
C 12.48450 -5.35050 -0.00000
C 11.59275 -6.24225  0.89175
C 11.59275 -4.45875  2.67525
C 13.37625 -6.24225  2.67525
C 13.37625 -4.45875  0.89175
C 10.70100 -7.13400  3.56700
C 10.70100 -5.35050  5.35050
C 12.48450 -7.13400  5.35050
C 12.48450 -5.35050  3.56700
C 11.59275 -6.24225  4.45875
C 11.59275 -4.45875  6.24225
C 13.37625 -6.24225  6.24225
C 13.37625 -4.45875  4.45875
C 10.70100 -3.56700 -0.00000
C 10.70100 -1.78350  1.78350
C 12.48450 -3.56700  1.78350
C 12.48450 -1.78350 -0.00000
C 11.59275 -2.67525  0.89175
C 11.59275 -0.89175  2.67525
C 13.37625 -2.67525  2.67525
C 13.37625 -0.89175  0.89175
C 10.70100 -3.56700  3.56700
C 10.70100 -1.78350  5.35050
C 12.48450 -3.56700  5.35050
C 12.48450 -1.78350  3.56700
C 11.59275 -2.67525  4.45875
C 11.59275 -0.89175  6.24225
C 13.37625 -2.67525  6.24225
C 13.37625 -0.89175  4.45875
C  7.13400 -7.13400  7.13400
C  7.13400 -5.35050  8.91750
C  8.91750 -7.13400  8.91750
C  8.91750 -5.35050  7.13400
C  8.02575 -6.24225  8.02575
C  8.02575 -4.45875  9.80925
C  9.80925 -6.24225  9.80925
C  9.80925 -4.45875  8.02575
C  7.13400 -7.13400 10.70100
C  7.13400 -5.35050 12.48450
C  8.91750 -7.13400 12.48450
C  8.91750 -5.35050 10.70100
C  8.02575 -6.24225 11.59275
C  8.02575 -4.45875 13.37625
C  9.80925 -6.24225 13.37625
C  9.80925 -4.45875 11.59275
C  7.13400 -3.56700  7.13400
C  7.13400 -1.78350  8.91750
C  8.91750 -3.56700  8.91750
C  8.91750 -1.78350  7.13400
C  8.02575 -2.67525  8.02575
C  8.02575 -0.89175  9.80925
C  9.80925 -2.67525  9.80925
C  9.80925 -0.89175  8.02575
C  7.13400 -3.56700 10.70100
C  7.13400 -1.78350 12.48450
C  8.91750 -3.56700 12.48450
C  8.91750 -1.78350 10.70100
C  8.02575 -2.67525 11.59275
C  8.02575 -0.89175 13.37625
C  9.80925 -2.67525 13.37625
C  9.80925 -0.89175 11.59275
C 10.70100 -7.13400  7.13400
C 10.70100 -5.35050  8.91750
C 12.48450 -7.13400  8.91750
C 12.48450 -5.35050  7.13400
C 11.59275 -6.24225  8.02575
C 11.59275 -4.45875  9.80925
C 13.37625 -6.24225  9.80925
C 13.37625 -4.45875  8.02575
C 10.70100 -7.13400 10.70100
C 10.70100 -5.35050 12.48450
C 12.48450 -7.13400 12.48450
C 12.48450 -5.35050 10.70100
C 11.59275 -6.24225 11.59275
C 11.59275 -4.45875 13.37625
C 13.37625 -6.24225 13.37625
C 13.37625 -4.45875 11.59275
C 10.70100 -3.56700  7.13400
C 10.70100 -1.78350  8.91750
C 12.48450 -3.56700  8.91750
C 12.48450 -1.78350  7.13400
C 11.59275 -2.67525  8.02575
C 11.59275 -0.89175  9.80925
C 13.37625 -2.67525  9.80925
C 13.37625 -0.89175  8.02575
C 10.70100 -3.56700 10.70100
C 10.70100 -1.78350 12.48450
C 12.48450 -3.56700 12.48450
C 12.48450 -1.78350 10.70100
C 11.59275 -2.67525 11.59275
C 11.59275 -0.89175 13.37625
C 13.37625 -2.67525 13.37625
C 13.37625 -0.89175 11.59275
C  7.13400 -0.00000 -7.13400
C  7.13400  1.78350 -5.35050
C  8.91750 -0.00000 -5.35050
C  8.91750  1.78350 -7.13400
C  8.02575  0.89175 -6.24225
C  8.02575  2.67525 -4.45875
C  9.80925  0.89175 -4.45875
C  9.80925  2.67525 -6.24225
C  7.13400 -0.00000 -3.56700
C  7.13400  1.78350 -1.78350
C  8.91750 -0.00000 -1.78350
C  8.91750  1.78350 -3.56700
C  8.02575  0.89175 -2.67525
C  8.02575  2.67525 -0.89175
C  9.80925  0.89175 -0.89175
C  9.80925  2.67525 -2.67525
C  7.13400  3.56700 -7.13400
C  7.13400  5.35050 -5.35050
C  8.91750  3.56700 -5.35050
C  8.91750  5.35050 -7.13400
C  8.02575  4.45875 -6.24225
C  8.02575  6.24225 -4.45875
C  9.80925  4.45875 -4.45875
C  9.80925  6.24225 -6.24225
C  7.13400  3.56700 -3.56700
C  7.13400  5.35050 -1.78350
C  8.91750  3.56700 -1.78350
C  8.91750  5.35050 -3.56700
C  8.02575  4.45875 -2.67525
C  8.02575  6.24225 -0.89175
C  9.80925  4.45875 -0.89175
C  9.80925  6.24225 -2.67525
C 10.70100 -0.00000 -7.13400
C 10.70100  1.78350 -5.35050
C 12.48450 -0.00000 -5.35050
C 12.48450  1.78350 -7.13400
C 11.59275  0.89175 -6.24225
C 11.59275  2.67525 -4.45875
C 13.37625  0.89175 -4.45875
C 13.37625  2.67525 -6.24225
C 10.70100 -0.00000 -3.56700
C 10.70100  1.78350 -1.78350
C 12.48450 -0.00000 -1.78350
C 12.48450  1.78350 -3.56700
C 11.59275  0.89175 -2.67525
C 11.59275  2.67525 -0.89175
C 13.37625  0.89175 -0.89175
C 13.37625  2.67525 -2.67525
C 10.70100  3.56700 -7.13400
C 10.70100  5.35050 -5.35050
C 12.48450  3.56700 -5.35050
C 12.48450  5.35050 -7.13400
C 11.59275  4.45875 -6.24225
C 11.59275  6.24225 -4.45875
C 13.37625  4.45875 -4.45875
C 13.37625  6.24225 -6.24225
C 10.70100  3.56700 -3.56700
C 10.70100  5.35050 -1.78350
C 12.48450  3.56700 -1.78350
C 12.48450  5.35050 -3.56700
C 11.59275  4.45875 -2.67525
C 11.59275  6.24225 -0.89175
C 13.37625  4.45875 -0.89175
C 13.37625  6.24225 -2.67525
C  7.13400 -0.00000 -0.00000
C  7.13400  1.78350  1.78350
C  8.91750 -0.00000  1.78350
C  8.91750  1.78350 -0.00000
C  8.02575  0.89175  0.89175
C  8.02575  2.67525  2.67525
C  9.80925  0.89175  2.67525
C  9.80925  2.67525  0.89175
C  7.13400 -0.00000  3.56700
C  7.13400  1.78350  5.35050
C  8.91750 -0.00000  5.35050
C  8.91750  1.78350  3.56700
C  8.02575  0.89175  4.45875
C  8.02575  2.67525  6.24225
C  9.80925  0.89175  6.24225
C  9.80925  2.67525  4.45875
C  7.13400  3.56700 -0.00000
C  7.13400  5.35050  1.78350
C  8.91750  3.56700  1.78350
C  8.91750  5.35050 -0.00000
C  8.02575  4.45875  0.89175
C  8.02575  6.24225  2.67525
C  9.80925  4.45875  2.67525
C  9.80925  6.24225  0.89175
C  7.13400  3.56700  3.56700
C  7.13400  5.35050  5.35050
C  8.91750  3.56700  5.35050
C  8.91750  5.35050  3.56700
C  8.02575  4.45875  4.45875
C  8.02575  6.24225  6.24225
C  9.80925  4.45875  6.24225
C  9.80925  6.24225  4.45875
C 10.70100 -0.00000 -0.00000
C 10.70100  1.78350  1.78350
C 12.48450 -0.00000  1.78350
C 12.48450  1.78350 -0.00000
C 11.59275  0.89175  0.89175
C 11.59275  2.67525  2.67525
C 13.37625  0.89175  2.67525
C 13.37625  2.67525  0.89175
C 10.70100 -0.00000  3.56700
C 10.70100  1.78350  5.35050
C 12.48450 -0.00000  5.35050
C 12.48450  1.78350  3.56700
C 11.59275  0.89175  4.45875
C 11.59275  2.67525  6.24225
C 13.37625  0.89175  6.24225
C 13.37625  2.67525  4.45875
C 10.70100  3.56700 -0.00000
C 10.70100  5.35050  1.78350
C 12.48450  3.56700  1.78350
C 12.48450  5.35050 -0.00000
C 11.59275  4.45875  0.89175
C 11.59275  6.24225  2.67525
C 13.37625  4.45875  2.67525
C 13.37625  6.24225  0.89175
C 10.70100  3.56700  3.56700
C 10.70100  5.35050  5.35050
C 12.48450  3.56700  5.35050
C 12.48450  5.35050  3.56700
C 11.59275  4.45875  4.45875
C 11.59275  6.24225  6.24225
C 13.37625  4.45875  6.24225
C 13.37625  6.24225  4.45875
C  7.13400 -0.00000  7.13400
C  7.13400  1.78350  8.91750
C  8.91750 -0.00000  8.91750
C  8.91750  1.78350  7.13400
C  8.02575  0.89175  8.02575
C  8.02575  2.67525  9.80925
C  9.80925  0.89175  9.80925
C  9.80925  2.67525  8.02575
C  7.13400 -0.00000 10.70100
C  7.13400  1.78350 12.48450
C  8.91750 -0.00000 12.48450
C  8.91750  1.78350 10.70100
C  8.02575  0.89175 11.59275
C  8.02575  2.67525 13.37625
C  9.80925  0.89175 13.37625
C  9.80925  2.67525 11.59275
C  7.13400  3.56700  7.13400
C  7.13400  5.35050  8.91750
C  8.91750  3.56700  8.91750
C  8.91750  5.35050  7.13400
C  8.02575  4.45875  8.02575
C  8.02575  6.24225  9.80925
C  9.80925  4.45875  9.80925
C  9.80925  6.24225  8.02575
C  7.13400  3.56700 10.70100
C  7.13400  5.35050 12.48450
C  8.91750  3.56700 12.48450
C  8.91750  5.35050 10.70100
C  8.02575  4.45875 11.59275
C  8.02575  6.24225 13.37625
C  9.80925  4.45875 13.37625
C  9.80925  6.24225 11.59275
C 10.70100 -0.00000  7.13400
C 10.70100  1.78350  8.91750
C 12.48450 -0.00000  8.91750
C 12.48450  1.78350  7.13400
C 11.59275  0.89175  8.02575
C 11.59275  2.67525  9.80925
C 13.37625  0.89175  9.80925
C 13.37625  2.67525  8.02575
C 10.70100 -0.00000 10.70100
C 10.70100  1.78350 12.48450
C 12.48450 -0.00000 12.48450
C 12.48450  1.78350 10.70100
C 11.59275  0.89175 11.59275
C 11.59275  2.67525 13.37625
C 13.37625  0.89175 13.37625
C 13.37625  2.67525 11.59275
C 10.70100  3.56700  7.13400
C 10.70100  5.35050  8.91750
C 12.48450  3.56700  8.91750
C 12.48450  5.35050  7.13400
C 11.59275  4.45875  8.02575
C 11.59275  6.24225  9.80925
C 13.37625  4.45875  9.80925
C 13.37625  6.24225  8.02575
C 10.70100  3.56700 10.70100
C 10.70100  5.35050 12.48450
C 12.48450  3.56700 12.48450
C 12.48450  5.35050 10.70100
C 11.59275  4.45875 11.59275
C 11.59275  6.24225 13.37625
C 13.37625  4.45875 13.37625
C 13.37625  6.24225 11.59275
C  7.13400  7.13400 -7.13400
C  7.13400  8.91750 -5.35050
C  8.91750  7.13400 -5.35050
C  8.91750  8.91750 -7.13400
C  8.02575  8.02575 -6.24225
C  8.02575  9.80925 -4.45875
C  9.80925  8.02575 -4.45875
C  9.80925  9.80925 -6.24225
C  7.13400  7.13400 -3.56700
C  7.13400  8.91750 -1.78350
C  8.91750  7.13400 -1.78350
C  8.91750  8.91750 -3.56700
C  8.02575  8.02575 -2.67525
C  8.02575  9.80925 -0.89175
C  9.80925  8.02575 -0.89175
C  9.80925  9.80925 -2.67525
C  7.13400 10.70100 -7.13400
C  7.13400 12.48450 -5.35050
C  8.91750 10.70100 -5.35050
C  8.91750 12.48450 -7.13400
C  8.02575 11.59275 -6.24225
C  8.02575 13.37625 -4.45875
C  9.80925 11.59275 -4.45875
C  9.80925 13.37625 -6.24225
C  7.13400 10.70100 -3.56700
C  7.13400 12.48450 -1.78350
C  8.91750 10.70100 -1.78350
C  8.91750 12.48450 -3.56700
C  8.02575 11.59275 -2.67525
C  8.02575 13.37625 -0.89175
C  9.80925 11.59275 -0.89175
C  9.80925 13.37625 -2.67525
C 10.70100  7.13400 -7.13400
C 10.70100  8.91750 -5.35050
C 12.48450  7.13400 -5.35050
C 12.48450  8.91750 -7.13400
C 11.59275  8.02575 -6.24225
C 11.59275  9.80925 -4.45875
C 13.37625  8.02575 -4.45875
C 13.37625  9.80925 -6.24225
C 10.70100  7.13400 -3.56700
C 10.70100  8.91750 -1.78350
C 12.48450  7.13400 -1.78350
C 12.48450  8.91750 -3.56700
C 11.59275  8.02575 -2.67525
C 11.59275  9.80925 -0.89175
C 13.37625  8.02575 -0.89175
C 13.37625  9.80925 -2.67525
C 10.70100 10.70100 -7.13400
C 10.70100 12.48450 -5.35050
C 12.48450 10.70100 -5.35050
C 12.48450 12.48450 -7.13400
C 11.59275 11.59275 -6.24225
C 11.59275 13.37625 -4.45875
C 13.37625 11.59275 -4.45875
C 13.37625 13.37625 -6.24225
C 10.70100 10.70100 -3.56700
C 10.70100 12.48450 -1.78350
C 12.48450 10.70100 -1.78350
C 12.48450 12.48450 -3.56700
C 11.59275 11.59275 -2.67525
C 11.59275 13.37625 -0.89175
C 13.37625 11.59275 -0.89175
C 13.37625 13.37625 -2.67525
C  7.13400  7.13400 -0.00000
C  7.13400  8.91750  1.78350
C  8.91750  7.13400  1.78350
C  8.91750  8.91750 -0.00000
C  8.02575  8.02575  0.89175
C  8.02575  9.80925  2.67525
C  9.80925  8.02575  2.67525
C  9.80925  9.80925  0.89175
C  7.13400  7.13400  3.56700
C  7.13400  8.91750  5.35050
C  8.91750  7.13400  5.35050
C  8.91750  8.91750  3.56700
C  8.02575  8.02575  4.45875
C  8.02575  9.80925  6.24225
C  9.80925  8.02575  6.24225
C  9.80925  9.80925  4.45875
C  7.13400 10.70100 -0.00000
C  7.13400 12.48450  1.78350
C  8.91750 10.70100  1.78350
C  8.91750 12.48450 -0.00000
C  8.02575 11.59275  0.89175
C  8.02575 13.37625  2.67525
C  9.80925 11.59275  2.67525
C  9.80925 13.37625  0.89175
C  7.13400 10.70100  3.56700
C  7.13400 12.48450  5.35050
C  8.91750 10.70100  5.35050
C  8.91750 12.48450  3.56700
C  8.02575 11.59275  4.45875
C  8.02575 13.37625  6.24225
C  9.80925 11.59275  6.24225
C  9.80925 13.37625  4.45875
C 10.70100  7.13400 -0.00000
C 10.70100  8.91750  1.78350
C 12.48450  7.13400  1.78350
C 12.48450  8.91750 -0.00000
C 11.59275  8.02575  0.89175
C 11.59275  9.80925  2.67525
C 13.37625  8.02575  2.67525
C 13.37625  9.80925  0.89175
C 10.70100  7.13400  3.56700
C 10.70100  8.91750  5.35050
C 12.48450  7.13400  5.35050
C 12.48450  8.91750  3.56700
C 11.59275  8.02575  4.45875
C 11.59275  9.80925  6.24225
C 13.37625  8.02575  6.24225
C 13.37625  9.80925  4.45875
C 10.70100 10.70100 -0.00000
C 10.70100 12.48450  1.78350
C 12.48450 10.70100  1.78350
C 12.48450 12.48450 -0.00000
C 11.59275 11.59275  0.89175
C 11.59275 13.37625  2.67525
C 13.37625 11.59275  2.67525
C 13.37625 13.37625  0.89175
C 10.70100 10.70100  3.56700
C 10.70100 12.48450  5.35050
C 12.48450 10.70100  5.35050
C 12.48450 12.48450  3.56700
C 11.59275 11.59275  4.45875
C 11.59275 13.37625  6.24225
C 13.37625 11.59275  6.24225
C 13.37625 13.37625  4.45875
C  7.13400  7.13400  7.13400
C  7.13400  8.91750  8.91750
C  8.91750  7.13400  8.91750
C  8.91750  8.91750  7.13400
C  8.02575  8.02575  8.02575
C  8.02575  9.80925  9.80925
C  9.80925  8.02575  9.80925
C  9.80925  9.80925  8.02575
C  7.13400  7.13400 10.70100
C  7.13400  8.91750 12.48450
C  8.91750  7.13400 12.48450
C  8.91750  8.91750 10.70100
C  8.02575  8.02575 11.59275
C  8.02575  9.80925 13.37625
C  9.80925  8.02575 13.37625
C  9.80925  9.80925 11.59275
C  7.13400 10.70100  7.13400
C  7.13400 12.48450  8.91750
C  8.91750 10.70100  8.91750
C  8.91750 12.48450  7.13400
C  8.02575 11.59275  8.02575
C  8.02575 13.37625  9.80925
C  9.80925 11.59275  9.80925
C  9.80925 13.37625  8.02575
C  7.13400 10.70100 10.70100
C  7.13400 12.48450 12.48450
C  8.91750 10.70100 12.48450
C  8.91750 12.48450 10.70100
C  8.02575 11.59275 11.59275
C  8.02575 13.37625 13.37625
C  9.80925 11.59275 13.37625
C  9.80925 13.37625 11.59275
C 10.70100  7.13400  7.13400
C 10.70100  8.91750  8.91750
C 12.48450  7.13400  8.91750
C 12.48450  8.91750  7.13400
C 11.59275  8.02575  8.02575
C 11.59275  9.80925  9.80925
C 13.37625  8.02575  9.80925
C 13.37625  9.80925  8.02575
C 10.70100  7.13400 10.70100
C 10.70100  8.91750 12.48450
C 12.48450  7.13400 12.48450
C 12.48450  8.91750 10.70100
C 11.59275  8.02575 11.59275
C 11.59275  9.80925 13.37625
C 13.37625  8.02575 13.37625
C 13.37625  9.80925 11.59275
C 10.70100 10.70100  7.13400
C 10.70100 12.48450  8.91750
C 12.48450 10.70100  8.91750
C 12.48450 12.48450  7.13400
C 11.59275 11.59275  8.02575
C 11.59275 13.37625  9.80925
C 13.37625 11.59275  9.80925
C 13.37625 13.37625  8.02575
C 10.70100 10.70100 10.70100
C 10.70100 12.48450 12.48450
C 12.48450 10.70100 12.48450
C 12.48450 12.48450 10.70100
C 11.59275 11.59275 11.59275
C 11.59275 13.37625 13.37625
C 13.37625 11.59275 13.37625
C 13.37625 13.37625 11.59275
