512 

Si    0.67887   0.67888   0.67887   0.000000287849512   0.000000287795330   0.000000281668528
Si    3.39437   0.67888   3.39437  -0.000000301284690   0.000008739322621  -0.000000300170475
Si    0.67887   3.39438   3.39437   0.000008739368328  -0.000000301279557  -0.000000300161966
Si    3.39437   3.39438   0.67887  -0.000000304086633  -0.000000304005212   0.000008743808247
Si    4.75212   2.03662   2.03662   0.000006174444219  -0.000004995993603  -0.000004988053688
Si    4.75212   4.75212   4.75212  -0.000001386611564  -0.000001386730931  -0.000001396193584
Si    2.03662   2.03662   4.75212  -0.000005003834073  -0.000005003818368   0.000006163706242
Si    2.03662   4.75212   2.03662  -0.000004995960860   0.000006174439915  -0.000004987983255
Si    0.67887   0.67888   6.10987  -0.000003885431523  -0.000003885511873   0.000006583455569
Si    3.39437   0.67888   8.82537  -0.000000014720101   0.000003014310148  -0.000002137459134
Si    0.67887   3.39438   8.82537   0.000003014264516  -0.000000014634201  -0.000002137415834
Si    3.39437   3.39438   6.10987   0.000000077412482   0.000000077379453   0.000004295554282
Si    4.75212   2.03662   7.46762   0.000001799735777   0.000008992305653  -0.000003068049737
Si    4.75212   4.75212  10.18313  -0.000002301554623  -0.000002301608206   0.000007467519658
Si    2.03662   2.03662  10.18313  -0.000001858879656  -0.000001858907050   0.000005185832978
Si    2.03662   4.75212   7.46762   0.000008992286405   0.000001799790783  -0.000003068056674
Si    0.67887   0.67888  11.54087   0.000001773533115   0.000001773681940   0.000004589261808
Si    3.39437   0.67888  14.25638   0.000001378996218   0.000004542242107   0.000000848637028
Si    0.67887   3.39438  14.25638   0.000004542335137   0.000001379029194   0.000000848687571
Si    3.39437   3.39438  11.54087   0.000004014514598   0.000004014466804  -0.000005766492424
Si    4.75212   2.03662  12.89862  -0.000003103349335  -0.000003493663297   0.000002216933636
Si    4.75212   4.75212  15.61412  -0.000000438637114  -0.000000438637866   0.000000624122619
Si    2.03662   2.03662  15.61412   0.000002688195893   0.000002688360427  -0.000006644913182
Si    2.03662   4.75212  12.89862  -0.000003493684220  -0.000003103339267   0.000002216984774
Si    0.67887   0.67888  16.97187  -0.000000480277735  -0.000000480231445   0.000001530460004
Si    3.39437   0.67888  19.68737  -0.000004818965164  -0.000001247299210  -0.000001210056325
Si    0.67887   3.39438  19.68737  -0.000001247300218  -0.000004818853342  -0.000001210114987
Si    3.39437   3.39438  16.97187   0.000000597296662   0.000000597323383  -0.000003536450781
Si    4.75212   2.03662  18.32963   0.000000696134830   0.000004149263806   0.000000658573621
Si    4.75212   4.75212  21.04512   0.000002606997915   0.000002606981568  -0.000003464470497
Si    2.03662   2.03662  21.04512  -0.000001560462346  -0.000001560484783  -0.000000008262141
Si    2.03662   4.75212  18.32963   0.000004149224907   0.000000696055595   0.000000658537248
Si    0.67887   6.10987   0.67887  -0.000003879298075   0.000006574809394  -0.000003883701537
Si    3.39437   6.10987   3.39437   0.000000069646943   0.000004299465721   0.000000070333188
Si    0.67887   8.82537   3.39437   0.000003010576057  -0.000002139925869  -0.000000005261684
Si    3.39437   8.82537   0.67887  -0.000000006605415  -0.000002134225104   0.000003014927762
Si    4.75212   7.46762   2.03662   0.000001801193185  -0.000003074956434   0.000008988057799
Si    4.75212  10.18313   4.75212  -0.000002299306002   0.000007474139444  -0.000002298758816
Si    2.03662   7.46762   4.75212   0.000008983351487  -0.000003080473376   0.000001799112488
Si    2.03662  10.18313   2.03662  -0.000001870131573   0.000005192131692  -0.000001868838413
Si    0.67887   6.10987   6.10987   0.000001069313666   0.000001180314671   0.000001176298460
Si    3.39437   6.10987   8.82537   0.000005750457939   0.000002243621224   0.000004212399694
Si    0.67887   8.82537   8.82537   0.000000526285172   0.000000590945064   0.000000596758847
Si    3.39437   8.82537   6.10987   0.000005744711521   0.000004214111059   0.000002246697852
Si    4.75212   7.46762   7.46762   0.000000162059222   0.000001757211183   0.000001753466415
Si    4.75212  10.18313  10.18313  -0.000002452171647  -0.000003028939211  -0.000003017676258
Si    2.03662   7.46762  10.18313   0.000002000163294   0.000004857491867  -0.000002432724858
Si    2.03662  10.18313   7.46762   0.000002006395185  -0.000002428393099   0.000004851900876
Si    0.67887   6.10987  11.54087   0.000004688517068  -0.000001695916988  -0.000002388576183
Si    3.39437   6.10987  14.25638  -0.000004054249582   0.000002169541324   0.000005257558069
Si    0.67887   8.82537  14.25638  -0.000001687779477  -0.000000894468106   0.000003040843518
Si    3.39437   8.82537  11.54087  -0.000001175228702  -0.000001146158539  -0.000007856336768
Si    4.75212   7.46762  12.89862   0.000001291439158   0.000006436278704   0.000003267915788
Si    4.75212  10.18313  15.61412  -0.000003341581528   0.000000876766167  -0.000003805619171
Si    2.03662   7.46762  15.61412  -0.000002804865324  -0.000000097414600  -0.000001228326487
Si    2.03662  10.18313  12.89862  -0.000002199312509  -0.000003101111107   0.000000562205539
Si    0.67887   6.10987  16.97187   0.000003741904432   0.000000294649022  -0.000000110534612
Si    3.39437   6.10987  19.68737   0.000000604130647  -0.000004495369266   0.000005005154872
Si    0.67887   8.82537  19.68737  -0.000002825883723   0.000003287585561   0.000000455041710
Si    3.39437   8.82537  16.97187   0.000000634385349  -0.000001562555144   0.000001075756000
Si    4.75212   7.46762  18.32963  -0.000000088617039  -0.000003257402953  -0.000001623794337
Si    4.75212  10.18313  21.04512   0.000005518882239   0.000005002122282  -0.000005117744717
Si    2.03662   7.46762  21.04512  -0.000006184330204  -0.000005164222804   0.000002242742929
Si    2.03662  10.18313  18.32963   0.000002237117538   0.000003226529544  -0.000000141062318
Si    0.67887  11.54087   0.67887   0.000001766787647   0.000004589104720   0.000001764348898
Si    3.39437  11.54087   3.39437   0.000004011829690  -0.000005765398072   0.000004015051534
Si    0.67887  14.25638   3.39437   0.000004540177377   0.000000848682229   0.000001378209039
Si    3.39437  14.25638   0.67887   0.000001379282768   0.000000847325926   0.000004539767153
Si    4.75212  12.89862   2.03662  -0.000003103567172   0.000002211585568  -0.000003492365502
Si    4.75212  15.61412   4.75212  -0.000000438231947   0.000000635189899  -0.000000429943790
Si    2.03662  12.89862   4.75212  -0.000003482905827   0.000002207998798  -0.000003097753268
Si    2.03662  15.61412   2.03662   0.000002693771440  -0.000006638710678   0.000002684292527
Si    0.67887  11.54087   6.10987   0.000004696417617  -0.000002386594361  -0.000001708133331
Si    3.39437  11.54087   8.82537  -0.000001177328037  -0.000007858459597  -0.000001145537506
Si    0.67887  14.25638   8.82537  -0.000001687148193   0.000003037739162  -0.000000897461581
Si    3.39437  14.25638   6.10987  -0.000004054214795   0.000005258282420   0.000002174569853
Si    4.75212  12.89862   7.46762   0.000001291072215   0.000003259513759   0.000006433785168
Si    4.75212  15.61412  10.18313  -0.000003331974871  -0.000003820399590   0.000000879585996
Si    2.03662  12.89862  10.18313  -0.000002212126231   0.000000577517467  -0.000003092300043
Si    2.03662  15.61412   7.46762  -0.000002803768021  -0.000001223582309  -0.000000101180345
Si    0.67887  11.54087  11.54087   0.000004552481073  -0.000003631256067  -0.000003632541244
Si    3.39437  11.54087  14.25638  -0.000004757279757   0.000006692425527  -0.000002435040724
Si    0.67887  14.25638  14.25638   0.000000519494805   0.000001641224206   0.000001644459801
Si    3.39437  14.25638  11.54087  -0.000004762655461  -0.000002431949071   0.000006693287189
Si    4.75212  12.89862  12.89862   0.000000018044783  -0.000001761197172  -0.000001764775286
Si    4.75212  15.61412  15.61412   0.000000292620572  -0.000001615108541  -0.000001616538685
Si    2.03662  12.89862  15.61412   0.000007187443803   0.000000515911650  -0.000000602548202
Si    2.03662  15.61412  12.89862   0.000007179692875  -0.000000609407216   0.000000516047538
Si    0.67887  11.54087  16.97187   0.000005125102824  -0.000004997652787  -0.000005524873032
Si    3.39437  11.54087  19.68737   0.000000133793466  -0.000003226429219  -0.000002242250030
Si    0.67887  14.25638  19.68737  -0.000002253225177   0.000005173760274   0.000006187622257
Si    3.39437  14.25638  16.97187   0.000001622637419   0.000003255863819   0.000000093011609
Si    4.75212  12.89862  18.32963  -0.000001073994824   0.000001568280160  -0.000000646352133
Si    4.75212  15.61412  21.04512   0.000000109930981  -0.000000299923614  -0.000003730994103
Si    2.03662  12.89862  21.04512  -0.000000453038341  -0.000003288500915   0.000002835778749
Si    2.03662  15.61412  18.32963  -0.000005010380754   0.000004495525922  -0.000000615345624
Si    0.67887  16.97187   0.67887  -0.000000465000489   0.000001535536793  -0.000000466705905
Si    3.39437  16.97187   3.39437   0.000000594275834  -0.000003535319261   0.000000600038104
Si    0.67887  19.68737   3.39437  -0.000001253008249  -0.000001213769545  -0.000004828740762
Si    3.39437  19.68737   0.67887  -0.000004824523238  -0.000001213737405  -0.000001249864344
Si    4.75212  18.32963   2.03662   0.000000710438558   0.000000649646250   0.000004144274464
Si    4.75212  21.04512   4.75212   0.000002615322872  -0.000003452332320   0.000002605033004
Si    2.03662  18.32963   4.75212   0.000004143343385   0.000000651456430   0.000000701774179
Si    2.03662  21.04512   2.03662  -0.000001574919993  -0.000000004053562  -0.000001562183435
Si    0.67887  16.97187   6.10987   0.000003735134033  -0.000000107815241   0.000000302224639
Si    3.39437  16.97187   8.82537   0.000000636147059   0.000001076959867  -0.000001558187185
Si    0.67887  19.68737   8.82537  -0.000002832012076   0.000000453345423   0.000003282216198
Si    3.39437  19.68737   6.10987   0.000000614793675   0.000005002551764  -0.000004499701961
Si    4.75212  18.32963   7.46762  -0.000000099232410  -0.000001630994488  -0.000003258274307
Si    4.75212  21.04512  10.18313   0.000005522436738  -0.000005124159266   0.000004994675364
Si    2.03662  18.32963  10.18313   0.000002236887281  -0.000000130287983   0.000003228436928
Si    2.03662  21.04512   7.46762  -0.000006180363995   0.000002239080441  -0.000005167254968
Si    0.67887  16.97187  11.54087   0.000005124121894  -0.000005522403805  -0.000004994633348
Si    3.39437  16.97187  14.25638   0.000001630993772   0.000000099257226   0.000003258269628
Si    0.67887  19.68737  14.25638  -0.000002239066657   0.000006180299344   0.000005167305659
Si    3.39437  19.68737  11.54087   0.000000130352193  -0.000002236900368  -0.000003228398989
Si    4.75212  18.32963  12.89862  -0.000001077039762  -0.000000636136382   0.000001558097187
Si    4.75212  21.04512  15.61412   0.000000107938115  -0.000003735112947  -0.000000302216380
Si    2.03662  18.32963  15.61412  -0.000005002493410  -0.000000614728254   0.000004499701661
Si    2.03662  21.04512  12.89862  -0.000000453333623   0.000002832031516  -0.000003282201645
Si    0.67887  16.97187  16.97187   0.000003452220781  -0.000002615330357  -0.000002605020594
Si    3.39437  16.97187  19.68737  -0.000000649661922  -0.000000710412985  -0.000004144279360
Si    0.67887  19.68737  19.68737   0.000000004085301   0.000001575044835   0.000001562206941
Si    3.39437  19.68737  16.97187  -0.000000651513398  -0.000004143368929  -0.000000701785752
Si    4.75212  18.32963  18.32963   0.000003535313041  -0.000000594198054  -0.000000600018237
Si    4.75212  21.04512  21.04512  -0.000001535524599   0.000000465036310   0.000000466681125
Si    2.03662  18.32963  21.04512   0.000001213747377   0.000004824478256   0.000001249865336
Si    2.03662  21.04512  18.32963   0.000001213806344   0.000001252941756   0.000004828736162
Si    6.10988   0.67888   0.67887   0.000006574804265  -0.000003879236089  -0.000003883701890
Si    8.82537   0.67888   3.39437  -0.000002139996062   0.000003010591500  -0.000000005303037
Si    6.10988   3.39438   3.39437   0.000004299431197   0.000000069680652   0.000000070375733
Si    8.82537   3.39438   0.67887  -0.000002134041072  -0.000000006626634   0.000003014843693
Si   10.18313   2.03662   2.03662   0.000005192194263  -0.000001870116445  -0.000001868882585
Si   10.18313   4.75212   4.75212   0.000007474106250  -0.000002299200194  -0.000002298778011
Si    7.46762   2.03662   4.75212  -0.000003080490766   0.000008983426468   0.000001799142174
Si    7.46762   4.75212   2.03662  -0.000003074990303   0.000001801202053   0.000008988134464
Si    6.10988   0.67888   6.10987   0.000001180343728   0.000001069319638   0.000001176297629
Si    8.82537   0.67888   8.82537   0.000000591019716   0.000000526201530   0.000000596660919
Si    6.10988   3.39438   8.82537   0.000002243598613   0.000005750472783   0.000004212379710
Si    8.82537   3.39438   6.10987   0.000004214179730   0.000005744694679   0.000002246664630
Si   10.18313   2.03662   7.46762  -0.000002428457183   0.000002006419147   0.000004851916432
Si   10.18313   4.75212  10.18313  -0.000003028878147  -0.000002452197222  -0.000003017692388
Si    7.46762   2.03662  10.18313   0.000004857488399   0.000002000181541  -0.000002432700548
Si    7.46762   4.75212   7.46762   0.000001757110996   0.000000161986440   0.000001753492564
Si    6.10988   0.67888  11.54087  -0.000001695881854   0.000004688479332  -0.000002388489231
Si    8.82537   0.67888  14.25638  -0.000000894427946  -0.000001687801456   0.000003040879033
Si    6.10988   3.39438  14.25638   0.000002169581912  -0.000004054331031   0.000005257588930
Si    8.82537   3.39438  11.54087  -0.000001146119910  -0.000001175243665  -0.000007856374157
Si   10.18313   2.03662  12.89862  -0.000003101095604  -0.000002199288890   0.000000562189636
Si   10.18313   4.75212  15.61412   0.000000876740025  -0.000003341634357  -0.000003805631411
Si    7.46762   2.03662  15.61412  -0.000000097480773  -0.000002804781943  -0.000001228400004
Si    7.46762   4.75212  12.89862   0.000006436224793   0.000001291400840   0.000003268008179
Si    6.10988   0.67888  16.97187   0.000000294749589   0.000003741832347  -0.000000110521766
Si    8.82537   0.67888  19.68737   0.000003287538195  -0.000002825790223   0.000000455108394
Si    6.10988   3.39438  19.68737  -0.000004495444736   0.000000604112247   0.000005005152099
Si    8.82537   3.39438  16.97187  -0.000001562604170   0.000000634368974   0.000001075734466
Si   10.18313   2.03662  18.32963   0.000003226587456   0.000002237122400  -0.000000141039245
Si   10.18313   4.75212  21.04512   0.000005002065019   0.000005518853271  -0.000005117680528
Si    7.46762   2.03662  21.04512  -0.000005164157792  -0.000006184517518   0.000002242692471
Si    7.46762   4.75212  18.32963  -0.000003257338247  -0.000000088628863  -0.000001623780125
Si    6.10988   6.10987   0.67887   0.000001169480344   0.000001169512230   0.000001074550551
Si    8.82537   6.10987   3.39437   0.000004220000230   0.000002241852092   0.000005740258021
Si    6.10988   8.82537   3.39437   0.000002241872334   0.000004220012656   0.000005740179884
Si    8.82537   8.82537   0.67887   0.000000602650147   0.000000602588744   0.000000532477227
Si   10.18313   7.46762   2.03662  -0.000002429886086   0.000004861977508   0.000001999093521
Si   10.18313  10.18313   4.75212  -0.000003026459528  -0.000003026504869  -0.000002459879481
Si    7.46762   7.46762   4.75212   0.000001746541892   0.000001746542267   0.000000164886857
Si    7.46762  10.18313   2.03662   0.000004861940338  -0.000002429919709   0.000001999201166
Si    6.10988   6.10987   6.10987   0.000002961659674   0.000002961673957   0.000002963136436
Si    8.82537   6.10987   8.82537  -0.000001789988031   0.000000807170430  -0.000001791700232
Si    6.10988   8.82537   8.82537   0.000000807193740  -0.000001790004503  -0.000001791703806
Si    8.82537   8.82537   6.10987  -0.000001788156121  -0.000001788127269   0.000000811644956
Si   10.18313   7.46762   7.46762  -0.000003344858906  -0.000000063475725  -0.000000061601031
Si   10.18313  10.18313  10.18313  -0.000003658583645  -0.000003658613350  -0.000003660391553
Si    7.46762   7.46762  10.18313  -0.000000058110563  -0.000000058061036  -0.000003348155919
Si    7.46762  10.18313   7.46762  -0.000000063455563  -0.000003344899320  -0.000000061710565
Si    6.10988   6.10987  11.54087   0.000004695711434   0.000004695710969   0.000000405163228
Si    8.82537   6.10987  14.25638   0.000000190260996   0.000000467294725   0.000003277402033
Si    6.10988   8.82537  14.25638   0.000000467349792   0.000000190269986   0.000003277447597
Si    8.82537   8.82537  11.54087   0.000003012140728   0.000003012197802   0.000000923248814
Si   10.18313   7.46762  12.89862  -0.000000336808749   0.000003662080892   0.000004568878975
Si   10.18313  10.18313  15.61412  -0.000000862895830  -0.000000862950004  -0.000000235300444
Si    7.46762   7.46762  15.61412   0.000000548493122   0.000000548541245   0.000003155409881
Si    7.46762  10.18313  12.89862   0.000003662120531  -0.000000336882278   0.000004568891250
Si    6.10988   6.10987  16.97187   0.000001635045510   0.000001635075856  -0.000000292067775
Si    8.82537   6.10987  19.68737  -0.000000532820988   0.000000615526773  -0.000007185272194
Si    6.10988   8.82537  19.68737   0.000000615455361  -0.000000532787611  -0.000007185310831
Si    8.82537   8.82537  16.97187   0.000001746537671   0.000001746519036  -0.000000010030785
Si   10.18313   7.46762  18.32963  -0.000006698037635   0.000002429989000   0.000004760983258
Si   10.18313  10.18313  21.04512   0.000003632635551   0.000003632677401  -0.000004560118227
Si    7.46762   7.46762  21.04512  -0.000001640674432  -0.000001640778516  -0.000000510727465
Si    7.46762  10.18313  18.32963   0.000002429983695  -0.000006697973245   0.000004761003374
Si    6.10988  11.54087   0.67887  -0.000001709946284  -0.000002389989551   0.000004698458280
Si    8.82537  11.54087   3.39437  -0.000001147696485  -0.000007860731285  -0.000001184205520
Si    6.10988  14.25638   3.39437   0.000002171951302   0.000005259424558  -0.000004056068024
Si    8.82537  14.25638   0.67887  -0.000000889732265   0.000003042437701  -0.000001688433328
Si   10.18313  12.89862   2.03662  -0.000003105533859   0.000000567509941  -0.000002198374371
Si   10.18313  15.61412   4.75212   0.000000863821123  -0.000003813751074  -0.000003340331038
Si    7.46762  12.89862   4.75212   0.000006448287527   0.000003272691472   0.000001295076821
Si    7.46762  15.61412   2.03662  -0.000000091307844  -0.000001233140886  -0.000002805147977
Si    6.10988  11.54087   6.10987   0.000004703808264   0.000000398641482   0.000004706172680
Si    8.82537  11.54087   8.82537   0.000003008933563   0.000000917725038   0.000003003327568
Si    6.10988  14.25638   8.82537   0.000000475797654   0.000003284322072   0.000000182776115
Si    8.82537  14.25638   6.10987   0.000000185705093   0.000003277811664   0.000000470799704
Si   10.18313  12.89862   7.46762  -0.000000331991476   0.000004566935254   0.000003665310197
Si   10.18313  15.61412  10.18313  -0.000000862021870  -0.000000231380030  -0.000000869753389
Si    7.46762  12.89862  10.18313   0.000003652703755   0.000004574844897  -0.000000335409600
Si    7.46762  15.61412   7.46762   0.000000547845606   0.000003162455718   0.000000548901954
Si    6.10988  11.54087  11.54087   0.000000231495292   0.000000861921940   0.000000869738440
Si    8.82537  11.54087  14.25638  -0.000004567064467   0.000000332057444  -0.000003665368340
Si    6.10988  14.25638  14.25638  -0.000003162521328  -0.000000547783520  -0.000000548832137
Si    8.82537  14.25638  11.54087  -0.000004574855070  -0.000003652702374   0.000000335329535
Si   10.18313  12.89862  12.89862  -0.000000917690335  -0.000003008999361  -0.000003003430807
Si   10.18313  15.61412  15.61412  -0.000000398630471  -0.000004703787367  -0.000004706237639
Si    7.46762  12.89862  15.61412  -0.000003277785874  -0.000000185742800  -0.000000470895990
Si    7.46762  15.61412  12.89862  -0.000003284382317  -0.000000475817546  -0.000000182714739
Si    6.10988  11.54087  16.97187   0.000003813718713  -0.000000863801766   0.000003340396084
Si    8.82537  11.54087  19.68737  -0.000000567527956   0.000003105544267   0.000002198414889
Si    6.10988  14.25638  19.68737   0.000001233168434   0.000000091299078   0.000002805196566
Si    8.82537  14.25638  16.97187  -0.000003272653262  -0.000006448248278  -0.000001294984747
Si   10.18313  12.89862  18.32963   0.000007860714816   0.000001147657575   0.000001184190459
Si   10.18313  15.61412  21.04512   0.000002390023153   0.000001709889261  -0.000004698330444
Si    7.46762  12.89862  21.04512  -0.000003042327700   0.000000889694822   0.000001688413777
Si    7.46762  15.61412  18.32963  -0.000005259436253  -0.000002171920412   0.000004056044975
Si    6.10988  16.97187   0.67887   0.000000299942945  -0.000000109901757   0.000003731003621
Si    8.82537  16.97187   3.39437  -0.000001568254796   0.000001073984298   0.000000646347916
Si    6.10988  19.68737   3.39437  -0.000004495541825   0.000005010479283   0.000000615343789
Si    8.82537  19.68737   0.67887   0.000003288465300   0.000000453052064  -0.000002835734659
Si   10.18313  18.32963   2.03662   0.000003226483325  -0.000000133783584   0.000002242234750
Si   10.18313  21.04512   4.75212   0.000004997671835  -0.000005125145422   0.000005524883590
Si    7.46762  18.32963   4.75212  -0.000003255868978  -0.000001622528374  -0.000000092966712
Si    7.46762  21.04512   2.03662  -0.000005173683658   0.000002253204791  -0.000006187564678
Si    6.10988  16.97187   6.10987   0.000001615015865  -0.000000292564852   0.000001616551352
Si    8.82537  16.97187   8.82537   0.000001761211110  -0.000000018066361   0.000001764863773
Si    6.10988  19.68737   8.82537   0.000000609395278  -0.000007179641684  -0.000000516033334
Si    8.82537  19.68737   6.10987  -0.000000515938196  -0.000007187386765   0.000000602544970
Si   10.18313  18.32963   7.46762  -0.000006692419803   0.000004757293991   0.000002435056839
Si   10.18313  21.04512  10.18313   0.000003631373037  -0.000004552436590   0.000003632480388
Si    7.46762  18.32963  10.18313   0.000002432036033   0.000004762694953  -0.000006693382037
Si    7.46762  21.04512   7.46762  -0.000001641116159  -0.000000519471603  -0.000001644476931
Si    6.10988  16.97187  11.54087   0.000003820322734   0.000003331981938  -0.000000879620776
Si    8.82537  16.97187  14.25638  -0.000003259543071  -0.000001291075734  -0.000006433761173
Si    6.10988  19.68737  14.25638   0.000001223507519   0.000002803866295   0.000000101155695
Si    8.82537  19.68737  11.54087  -0.000000577566903   0.000002212049466   0.000003092329045
Si   10.18313  18.32963  12.89862   0.000007858384641   0.000001177314749   0.000001145526850
Si   10.18313  21.04512  15.61412   0.000002386508277  -0.000004696346733   0.000001708112645
Si    7.46762  18.32963  15.61412  -0.000005258238197   0.000004054193851  -0.000002174671982
Si    7.46762  21.04512  12.89862  -0.000003037742859   0.000001687181893   0.000000897478747
Si    6.10988  16.97187  16.97187  -0.000000635123414   0.000000438242644   0.000000429939793
Si    8.82537  16.97187  19.68737  -0.000002211595484   0.000003103624110   0.000003492378094
Si    6.10988  19.68737  19.68737   0.000006638734517  -0.000002693815723  -0.000002684305185
Si    8.82537  19.68737  16.97187  -0.000002207957693   0.000003482873086   0.000003097749810
Si   10.18313  18.32963  18.32963   0.000005765300218  -0.000004011746828  -0.000004015038445
Si   10.18313  21.04512  21.04512  -0.000004589090618  -0.000001766757050  -0.000001764322323
Si    7.46762  18.32963  21.04512  -0.000000847378028  -0.000001379256136  -0.000004539758031
Si    7.46762  21.04512  18.32963  -0.000000848702050  -0.000004540218259  -0.000001378235252
Si   11.54087   0.67888   0.67887   0.000004589133728   0.000001766790744   0.000001764385865
Si   14.25638   0.67888   3.39437   0.000000848613777   0.000004540278102   0.000001378194733
Si   11.54087   3.39438   3.39437  -0.000005765441021   0.000004011754228   0.000004015084181
Si   14.25638   3.39438   0.67887   0.000000847350033   0.000001379277647   0.000004539775135
Si   15.61412   2.03662   2.03662  -0.000006638744639   0.000002693742111   0.000002684311469
Si   15.61412   4.75212   4.75212   0.000000635104516  -0.000000438243954  -0.000000429927832
Si   12.89862   2.03662   4.75212   0.000002208023433  -0.000003482918627  -0.000003097725869
Si   12.89862   4.75212   2.03662   0.000002211683036  -0.000003103573965  -0.000003492465445
Si   11.54087   0.67888   6.10987  -0.000002386503610   0.000004696289521  -0.000001708109202
Si   14.25638   0.67888   8.82537   0.000003037765895  -0.000001687169483  -0.000000897451605
Si   11.54087   3.39438   8.82537  -0.000007858401813  -0.000001177332317  -0.000001145479160
Si   14.25638   3.39438   6.10987   0.000005258185217  -0.000004054112487   0.000002174564660
Si   15.61412   2.03662   7.46762  -0.000001223455897  -0.000002803839765  -0.000000101109819
Si   15.61412   4.75212  10.18313  -0.000003820421376  -0.000003331968492   0.000000879571265
Si   12.89862   2.03662  10.18313   0.000000577533230  -0.000002212105119  -0.000003092315528
Si   12.89862   4.75212   7.46762   0.000003259508645   0.000001291049132   0.000006433738465
Si   11.54087   0.67888  11.54087  -0.000003631306858   0.000004552446892  -0.000003632513347
Si   14.25638   0.67888  14.25638   0.000001641131768   0.000000519475409   0.000001644401623
Si   11.54087   3.39438  14.25638   0.000006692471078  -0.000004757255473  -0.000002435058691
Si   14.25638   3.39438  11.54087  -0.000002432010948  -0.000004762705210   0.000006693365378
Si   15.61412   2.03662  12.89862  -0.000000609435620   0.000007179670517   0.000000516058798
Si   15.61412   4.75212  15.61412  -0.000001615060726   0.000000292572159  -0.000001616511009
Si   12.89862   2.03662  15.61412   0.000000515886911   0.000007187463877  -0.000000602598412
Si   12.89862   4.75212  12.89862  -0.000001761222005   0.000000018026750  -0.000001764810907
Si   11.54087   0.67888  16.97187  -0.000004997698972   0.000005125178391  -0.000005524917242
Si   14.25638   0.67888  19.68737   0.000005173691889  -0.000002253181669   0.000006187656981
Si   11.54087   3.39438  19.68737  -0.000003226410540   0.000000133732941  -0.000002242223575
Si   14.25638   3.39438  16.97187   0.000003255841341   0.000001622596662   0.000000093018907
Si   15.61412   2.03662  18.32963   0.000004495561103  -0.000005010427570  -0.000000615393795
Si   15.61412   4.75212  21.04512  -0.000000299949533   0.000000109943358  -0.000003731014406
Si   12.89862   2.03662  21.04512  -0.000003288531535  -0.000000453037364   0.000002835752814
Si   12.89862   4.75212  18.32963   0.000001568279891  -0.000001073964575  -0.000000646419716
Si   11.54087   6.10987   0.67887  -0.000002389949531  -0.000001709905324   0.000004698430425
Si   14.25638   6.10987   3.39437   0.000005259434581   0.000002171839223  -0.000004056009583
Si   11.54087   8.82537   3.39437  -0.000007860729573  -0.000001147723921  -0.000001184183240
Si   14.25638   8.82537   0.67887   0.000003042398129  -0.000000889681079  -0.000001688452926
Si   15.61412   7.46762   2.03662  -0.000001233185820  -0.000000091365303  -0.000002805218952
Si   15.61412  10.18313   4.75212  -0.000003813654699   0.000000863734811  -0.000003340348273
Si   12.89862   7.46762   4.75212   0.000003272622057   0.000006448258141   0.000001295014204
Si   12.89862  10.18313   2.03662   0.000000567468431  -0.000003105459205  -0.000002198415882
Si   11.54087   6.10987   6.10987   0.000000398641288   0.000004703780781   0.000004706138618
Si   14.25638   6.10987   8.82537   0.000003284292124   0.000000475791010   0.000000182834580
Si   11.54087   8.82537   8.82537   0.000000917784728   0.000003008911559   0.000003003363242
Si   14.25638   8.82537   6.10987   0.000003277834068   0.000000185752343   0.000000470902951
Si   15.61412   7.46762   7.46762   0.000003162534962   0.000000547867651   0.000000548859017
Si   15.61412  10.18313  10.18313  -0.000000231395503  -0.000000861941732  -0.000000869823807
Si   12.89862   7.46762  10.18313   0.000004574914581   0.000003652752806  -0.000000335395270
Si   12.89862  10.18313   7.46762   0.000004566966900  -0.000000332087727   0.000003665361729
Si   11.54087   6.10987  11.54087   0.000000861958432   0.000000231477539   0.000000869795704
Si   14.25638   6.10987  14.25638  -0.000000547852927  -0.000003162490215  -0.000000548920463
Si   11.54087   8.82537  14.25638   0.000000332033309  -0.000004566998144  -0.000003665333983
Si   14.25638   8.82537  11.54087  -0.000003652687322  -0.000004574907228   0.000000335424394
Si   15.61412   7.46762  12.89862  -0.000000475882719  -0.000003284359496  -0.000000182849132
Si   15.61412  10.18313  15.61412  -0.000004703839391  -0.000000398644620  -0.000004706171199
Si   12.89862   7.46762  15.61412  -0.000000185738765  -0.000003277736250  -0.000000470803940
Si   12.89862  10.18313  12.89862  -0.000003008952410  -0.000000917671076  -0.000003003434646
Si   11.54087   6.10987  16.97187  -0.000000863783007   0.000003813681421   0.000003340457379
Si   14.25638   6.10987  19.68737   0.000000091218088   0.000001233207132   0.000002805189739
Si   11.54087   8.82537  19.68737   0.000003105515347  -0.000000567473542   0.000002198420181
Si   14.25638   8.82537  16.97187  -0.000006448251437  -0.000003272623309  -0.000001295094692
Si   15.61412   7.46762  18.32963  -0.000002171810099  -0.000005259465660   0.000004056079921
Si   15.61412  10.18313  21.04512   0.000001709874242   0.000002390011263  -0.000004698452326
Si   12.89862   7.46762  21.04512   0.000000889774373  -0.000003042439665   0.000001688403742
Si   12.89862  10.18313  18.32963   0.000001147701899   0.000007860730539   0.000001184184653
Si   11.54087  11.54087   0.67887  -0.000003632591109  -0.000003632745381   0.000004560100685
Si   14.25638  11.54087   3.39437  -0.000002429996040   0.000006698054618  -0.000004760954559
Si   11.54087  14.25638   3.39437   0.000006697988637  -0.000002430024363  -0.000004761016401
Si   14.25638  14.25638   0.67887   0.000001640675691   0.000001640666984   0.000000510729103
Si   15.61412  12.89862   2.03662  -0.000000615449213   0.000000532726238   0.000007185291232
Si   15.61412  15.61412   4.75212  -0.000001635045083  -0.000001635070597   0.000000291985366
Si   12.89862  12.89862   4.75212  -0.000001746603400  -0.000001746577871   0.000000010014258
Si   12.89862  15.61412   2.03662   0.000000532783220  -0.000000615514059   0.000007185254099
Si   11.54087  11.54087   6.10987   0.000000862836643   0.000000862980492   0.000000235359752
Si   14.25638  11.54087   8.82537  -0.000003662131216   0.000000336821059  -0.000004568877820
Si   11.54087  14.25638   8.82537   0.000000336823537  -0.000003662127327  -0.000004568915435
Si   14.25638  14.25638   6.10987  -0.000000548480123  -0.000000548494442  -0.000003155357201
Si   15.61412  12.89862   7.46762  -0.000000467371172  -0.000000190222725  -0.000003277492762
Si   15.61412  15.61412  10.18313  -0.000004695682713  -0.000004695694527  -0.000000405248061
Si   12.89862  12.89862  10.18313  -0.000003012138692  -0.000003012102552  -0.000000923273303
Si   12.89862  15.61412   7.46762  -0.000000190218077  -0.000000467306064  -0.000003277408426
Si   11.54087  11.54087  11.54087   0.000003658581132   0.000003658632890   0.000003660507736
Si   14.25638  11.54087  14.25638   0.000000063409489   0.000003344866247   0.000000061656710
Si   11.54087  14.25638  14.25638   0.000003344867283   0.000000063443688   0.000000061686820
Si   14.25638  14.25638  11.54087   0.000000058066253   0.000000058040446   0.000003348102821
Si   15.61412  12.89862  12.89862  -0.000000807237386   0.000001789980021   0.000001791690050
Si   15.61412  15.61412  15.61412  -0.000002961747874  -0.000002961682029  -0.000002963102626
Si   12.89862  12.89862  15.61412   0.000001788092647   0.000001788040916  -0.000000811709190
Si   12.89862  15.61412  12.89862   0.000001790010546  -0.000000807187301   0.000001791715541
Si   11.54087  11.54087  16.97187   0.000003026458639   0.000003026458407   0.000002459804449
Si   14.25638  11.54087  19.68737  -0.000004861952436   0.000002429862658  -0.000001999045348
Si   11.54087  14.25638  19.68737   0.000002429859562  -0.000004861965579  -0.000001999161927
Si   14.25638  14.25638  16.97187  -0.000001746418452  -0.000001746494035  -0.000000164910780
Si   15.61412  12.89862  18.32963  -0.000002241838814  -0.000004220024656  -0.000005740260058
Si   15.61412  15.61412  21.04512  -0.000001169544118  -0.000001169537152  -0.000001074641799
Si   12.89862  12.89862  21.04512  -0.000000602604378  -0.000000602653671  -0.000000532421944
Si   12.89862  15.61412  18.32963  -0.000004220025348  -0.000002241786660  -0.000005740282252
Si   11.54087  16.97187   0.67887  -0.000005002205136  -0.000005518900078   0.000005117707551
Si   14.25638  16.97187   3.39437   0.000003257405261   0.000000088630765   0.000001623822114
Si   11.54087  19.68737   3.39437  -0.000003226646771  -0.000002237171794   0.000000141087131
Si   14.25638  19.68737   0.67887   0.000005164153083   0.000006184410451  -0.000002242770313
Si   15.61412  18.32963   2.03662   0.000004495376708  -0.000000604151386  -0.000005005137486
Si   15.61412  21.04512   4.75212  -0.000000294668904  -0.000003741829874   0.000000110631014
Si   12.89862  18.32963   4.75212   0.000001562581096  -0.000000634322170  -0.000001075798108
Si   12.89862  21.04512   2.03662  -0.000003287552668   0.000002825900219  -0.000000455084883
Si   11.54087  16.97187   6.10987  -0.000000876806987   0.000003341581971   0.000003805634605
Si   14.25638  16.97187   8.82537  -0.000006436212888  -0.000001291426021  -0.000003267962419
Si   11.54087  19.68737   8.82537   0.000003101156792   0.000002199297302  -0.000000562204011
Si   14.25638  19.68737   6.10987   0.000000097462611   0.000002804789106   0.000001228378149
Si   15.61412  18.32963   7.46762  -0.000002169570542   0.000004054313723  -0.000005257554118
Si   15.61412  21.04512  10.18313   0.000001695956756  -0.000004688489582   0.000002388469406
Si   12.89862  18.32963  10.18313   0.000001146096154   0.000001175216624   0.000007856353989
Si   12.89862  21.04512   7.46762   0.000000894440205   0.000001687818981  -0.000003040900376
Si   11.54087  16.97187  11.54087   0.000003028975566   0.000002452196599   0.000003017604807
Si   14.25638  16.97187  14.25638  -0.000001757177603  -0.000000162066178  -0.000001753461479
Si   11.54087  19.68737  14.25638   0.000002428507076  -0.000002006341329  -0.000004851902198
Si   14.25638  19.68737  11.54087  -0.000004857488538  -0.000002000129571   0.000002432723957
Si   15.61412  18.32963  12.89862  -0.000002243507275  -0.000005750475567  -0.000004212420454
Si   15.61412  21.04512  15.61412  -0.000001180344861  -0.000001069291099  -0.000001176199862
Si   12.89862  18.32963  15.61412  -0.000004214122227  -0.000005744639635  -0.000002246732330
Si   12.89862  21.04512  12.89862  -0.000000591051719  -0.000000526217106  -0.000000596672863
Si   11.54087  16.97187  16.97187  -0.000007474153668   0.000002299215225   0.000002298834411
Si   14.25638  16.97187  19.68737   0.000003075042530  -0.000001801202914  -0.000008988067521
Si   11.54087  19.68737  19.68737  -0.000005192138784   0.000001870118329   0.000001868910452
Si   14.25638  19.68737  16.97187   0.000003080414843  -0.000008983363057  -0.000001799119530
Si   15.61412  18.32963  18.32963  -0.000004299399188  -0.000000069614040  -0.000000070290328
Si   15.61412  21.04512  21.04512  -0.000006574800811   0.000003879257095   0.000003883717632
Si   12.89862  18.32963  21.04512   0.000002134183180   0.000000006668039  -0.000003014854446
Si   12.89862  21.04512  18.32963   0.000002139937344  -0.000003010626445   0.000000005257459
Si   16.97187   0.67888   0.67887   0.000001535601477  -0.000000465012144  -0.000000466680652
Si   19.68737   0.67888   3.39437  -0.000001213789713  -0.000001253023950  -0.000004828743731
Si   16.97187   3.39438   3.39437  -0.000003535283181   0.000000594212768   0.000000599952064
Si   19.68737   3.39438   0.67887  -0.000001213733093  -0.000004824556717  -0.000001249824957
Si   21.04512   2.03662   2.03662  -0.000000004113192  -0.000001574933866  -0.000001562183309
Si   21.04512   4.75212   4.75212  -0.000003452288408   0.000002615328664   0.000002604979425
Si   18.32963   2.03662   4.75212   0.000000651453145   0.000004143368414   0.000000701738136
Si   18.32963   4.75212   2.03662   0.000000649663194   0.000000710485850   0.000004144320946
Si   16.97187   0.67888   6.10987  -0.000000107919214   0.000003735164660   0.000000302218531
Si   19.68737   0.67888   8.82537   0.000000453359160  -0.000002831983408   0.000003282234296
Si   16.97187   3.39438   8.82537   0.000001076993348   0.000000636179840  -0.000001558162434
Si   19.68737   3.39438   6.10987   0.000005002479679   0.000000614807607  -0.000004499702004
Si   21.04512   2.03662   7.46762   0.000002239018510  -0.000006180348039  -0.000005167234528
Si   21.04512   4.75212  10.18313  -0.000005124119815   0.000005522433035   0.000004994690955
Si   18.32963   2.03662  10.18313  -0.000000130288026   0.000002236864268   0.000003228394081
Si   18.32963   4.75212   7.46762  -0.000001630919621  -0.000000099313181  -0.000003258304075
Si   16.97187   0.67888  11.54087  -0.000005522382868   0.000005124044817  -0.000004994667186
Si   19.68737   0.67888  14.25638   0.000006180298946  -0.000002239095661   0.000005167265668
Si   16.97187   3.39438  14.25638   0.000000099300672   0.000001630973220   0.000003258284747
Si   19.68737   3.39438  11.54087  -0.000002236880644   0.000000130275976  -0.000003228391780
Si   21.04512   2.03662  12.89862   0.000002832030937  -0.000000453344230  -0.000003282217637
Si   21.04512   4.75212  15.61412  -0.000003735175665   0.000000107893701  -0.000000302172878
Si   18.32963   2.03662  15.61412  -0.000000614734772  -0.000005002509506   0.000004499743404
Si   18.32963   4.75212  12.89862  -0.000000636202352  -0.000001077007837   0.000001558154426
Si   16.97187   0.67888  16.97187  -0.000002615304960   0.000003452347935  -0.000002605073160
Si   19.68737   0.67888  19.68737   0.000001574968026   0.000000004082684   0.000001562136639
Si   16.97187   3.39438  19.68737  -0.000000710509239  -0.000000649689649  -0.000004144304450
Si   19.68737   3.39438  16.97187  -0.000004143431897  -0.000000651458913  -0.000000701803618
Si   21.04512   2.03662  18.32963   0.000001252964363   0.000001213769393   0.000004828686019
Si   21.04512   4.75212  21.04512   0.000000465059784  -0.000001535552578   0.000000466695754
Si   18.32963   2.03662  21.04512   0.000004824504055   0.000001213709996   0.000001249840947
Si   18.32963   4.75212  18.32963  -0.000000594167924   0.000003535376393  -0.000000600073567
Si   16.97187   6.10987   0.67887  -0.000000110006669   0.000000299956412   0.000003731023039
Si   19.68737   6.10987   3.39437   0.000005010420351  -0.000004495555545   0.000000615359428
Si   16.97187   8.82537   3.39437   0.000001074023584  -0.000001568292036   0.000000646445279
Si   19.68737   8.82537   0.67887   0.000000453016974   0.000003288513032  -0.000002835767048
Si   21.04512   7.46762   2.03662   0.000002253136845  -0.000005173774982  -0.000006187663832
Si   21.04512  10.18313   4.75212  -0.000005125128825   0.000004997735382   0.000005524798440
Si   18.32963   7.46762   4.75212  -0.000001622624957  -0.000003255806734  -0.000000093002486
Si   18.32963  10.18313   2.03662  -0.000000133745717   0.000003226490048   0.000002242285575
Si   16.97187   6.10987   6.10987  -0.000000292576521   0.000001615086969   0.000001616519374
Si   19.68737   6.10987   8.82537  -0.000007179673970   0.000000609346897  -0.000000516019181
Si   16.97187   8.82537   8.82537  -0.000000018158113   0.000001761163642   0.000001764816403
Si   19.68737   8.82537   6.10987  -0.000007187435489  -0.000000515970322   0.000000602576090
Si   21.04512   7.46762   7.46762  -0.000000519440014  -0.000001641132765  -0.000001644520521
Si   21.04512  10.18313  10.18313  -0.000004552413642   0.000003631324999   0.000003632506262
Si   18.32963   7.46762  10.18313   0.000004762669119   0.000002431994271  -0.000006693329787
Si   18.32963  10.18313   7.46762   0.000004757298583  -0.000006692389624   0.000002435007877
Si   16.97187   6.10987  11.54087   0.000003331959018   0.000003820352977  -0.000000879603086
Si   19.68737   6.10987  14.25638   0.000002803892102   0.000001223513271   0.000000101160628
Si   16.97187   8.82537  14.25638  -0.000001291100991  -0.000003259582173  -0.000006433723178
Si   19.68737   8.82537  11.54087   0.000002212093267  -0.000000577570999   0.000003092292513
Si   21.04512   7.46762  12.89862   0.000001687174044  -0.000003037779375   0.000000897480217
Si   21.04512  10.18313  15.61412  -0.000004696375482   0.000002386555891   0.000001708095383
Si   18.32963   7.46762  15.61412   0.000004054119663  -0.000005258200711  -0.000002174545497
Si   18.32963  10.18313  12.89862   0.000001177337002   0.000007858378822   0.000001145551743
Si   16.97187   6.10987  16.97187   0.000000438258842  -0.000000635109569   0.000000429966652
Si   19.68737   6.10987  19.68737  -0.000002693767039   0.000006638696846  -0.000002684286518
Si   16.97187   8.82537  19.68737   0.000003103544346  -0.000002211633126   0.000003492372461
Si   19.68737   8.82537  16.97187   0.000003482935187  -0.000002208098392   0.000003097761090
Si   21.04512   7.46762  18.32963  -0.000004540221489  -0.000000848665061  -0.000001378219528
Si   21.04512  10.18313  21.04512  -0.000001766799446  -0.000004589175448  -0.000001764325529
Si   18.32963   7.46762  21.04512  -0.000001379248866  -0.000000847357459  -0.000004539724674
Si   18.32963  10.18313  18.32963  -0.000004011737172   0.000005765404258  -0.000004015024706
Si   16.97187  11.54087   0.67887  -0.000005518852816  -0.000005002094776   0.000005117686257
Si   19.68737  11.54087   3.39437  -0.000002237104002  -0.000003226645090   0.000000141124036
Si   16.97187  14.25638   3.39437   0.000000088566369   0.000003257384536   0.000001623856547
Si   19.68737  14.25638   0.67887   0.000006184420522   0.000005164230955  -0.000002242723864
Si   21.04512  12.89862   2.03662   0.000002825919398  -0.000003287515687  -0.000000455081570
Si   21.04512  15.61412   4.75212  -0.000003741911762  -0.000000294791712   0.000000110480955
Si   18.32963  12.89862   4.75212  -0.000000634373926   0.000001562620198  -0.000001075690354
Si   18.32963  15.61412   2.03662  -0.000000604139350   0.000004495365700  -0.000005005174336
Si   16.97187  11.54087   6.10987   0.000003341590714  -0.000000876748397   0.000003805620081
Si   19.68737  11.54087   8.82537   0.000002199255115   0.000003101191735  -0.000000562131426
Si   16.97187  14.25638   8.82537  -0.000001291438880  -0.000006436196838  -0.000003267971425
Si   19.68737  14.25638   6.10987   0.000002804841219   0.000000097467852   0.000001228355037
Si   21.04512  12.89862   7.46762   0.000001687746776   0.000000894465750  -0.000003040902198
Si   21.04512  15.61412  10.18313  -0.000004688504626   0.000001695975890   0.000002388512405
Si   18.32963  12.89862  10.18313   0.000001175242763   0.000001146079214   0.000007856342541
Si   18.32963  15.61412   7.46762   0.000004054297350  -0.000002169631755  -0.000005257451014
Si   16.97187  11.54087  11.54087   0.000002452196240   0.000003028946841   0.000003017693683
Si   19.68737  11.54087  14.25638  -0.000002006419945   0.000002428372149  -0.000004851937798
Si   16.97187  14.25638  14.25638  -0.000000162026677  -0.000001757176001  -0.000001753457479
Si   19.68737  14.25638  11.54087  -0.000002000163987  -0.000004857474273   0.000002432716983
Si   21.04512  12.89862  12.89862  -0.000000526256054  -0.000000590995728  -0.000000596685429
Si   21.04512  15.61412  15.61412  -0.000001069250019  -0.000001180400024  -0.000001176221832
Si   18.32963  12.89862  15.61412  -0.000005744587478  -0.000004214164208  -0.000002246751661
Si   18.32963  15.61412  12.89862  -0.000005750459195  -0.000002243532498  -0.000004212417349
Si   16.97187  11.54087  16.97187   0.000002299203992  -0.000007474164397   0.000002298817275
Si   19.68737  11.54087  19.68737   0.000001870059665  -0.000005192130756   0.000001868820394
Si   16.97187  14.25638  19.68737  -0.000001801225597   0.000003074997322  -0.000008987978061
Si   19.68737  14.25638  16.97187  -0.000008983435907   0.000003080469786  -0.000001799174145
Si   21.04512  12.89862  18.32963  -0.000003010530557   0.000002139921600   0.000000005276883
Si   21.04512  15.61412  21.04512   0.000003879248565  -0.000006574836844   0.000003883733007
Si   18.32963  12.89862  21.04512   0.000000006606778   0.000002134182754  -0.000003014899005
Si   18.32963  15.61412  18.32963  -0.000000069542772  -0.000004299426737  -0.000000070297875
Si   16.97187  16.97187   0.67887  -0.000002606934178  -0.000002606974426   0.000003464510820
Si   19.68737  16.97187   3.39437  -0.000004149162786  -0.000000696084283  -0.000000658522765
Si   16.97187  19.68737   3.39437  -0.000000696067614  -0.000004149236656  -0.000000658546199
Si   19.68737  19.68737   0.67887   0.000001560399141   0.000001560468721   0.000000008257720
Si   21.04512  18.32963   2.03662   0.000001247312972   0.000004818906213   0.000001210138245
Si   21.04512  21.04512   4.75212   0.000000480292196   0.000000480288956  -0.000001530431328
Si   18.32963  18.32963   4.75212  -0.000000597368082  -0.000000597310729   0.000003536510096
Si   18.32963  21.04512   2.03662   0.000004818939478   0.000001247279720   0.000001210047778
Si   16.97187  16.97187   6.10987   0.000000438604888   0.000000438696146  -0.000000624133040
Si   19.68737  16.97187   8.82537   0.000003493667765   0.000003103296870  -0.000002216961366
Si   16.97187  19.68737   8.82537   0.000003103317334   0.000003493722037  -0.000002216951923
Si   19.68737  19.68737   6.10987  -0.000002688325843  -0.000002688254692   0.000006644912188
Si   21.04512  18.32963   7.46762  -0.000004542298960  -0.000001378996223  -0.000000848710142
Si   21.04512  21.04512  10.18313  -0.000001773633196  -0.000001773644873  -0.000004589260468
Si   18.32963  18.32963  10.18313  -0.000004014426468  -0.000004014431086   0.000005766527078
Si   18.32963  21.04512   7.46762  -0.000001378970152  -0.000004542316732  -0.000000848758192
Si   16.97187  16.97187  11.54087   0.000002301558733   0.000002301541699  -0.000007467540038
Si   19.68737  16.97187  14.25638  -0.000008992382468  -0.000001799690412   0.000003067953125
Si   16.97187  19.68737  14.25638  -0.000001799745890  -0.000008992338690   0.000003068088691
Si   19.68737  19.68737  11.54087   0.000001858886438   0.000001858890382  -0.000005185814056
Si   21.04512  18.32963  12.89862  -0.000003014299262   0.000000014647912   0.000002137385952
Si   21.04512  21.04512  15.61412   0.000003885419822   0.000003885464283  -0.000006583532495
Si   18.32963  18.32963  15.61412  -0.000000077380449  -0.000000077415182  -0.000004295572880
Si   18.32963  21.04512  12.89862   0.000000014684095  -0.000003014245155   0.000002137346748
Si   16.97187  16.97187  16.97187   0.000001386577492   0.000001386656602   0.000001396177349
Si   19.68737  16.97187  19.68737   0.000004995940552  -0.000006174431752   0.000004988049041
Si   16.97187  19.68737  19.68737  -0.000006174482761   0.000004996002780   0.000004988036064
Si   19.68737  19.68737  16.97187   0.000005003852599   0.000005003789464  -0.000006163749916
Si   21.04512  18.32963  18.32963  -0.000008739357747   0.000000301254398   0.000000300157750
Si   21.04512  21.04512  21.04512  -0.000000287777121  -0.000000287864499  -0.000000281685363
Si   18.32963  18.32963  21.04512   0.000000304073859   0.000000304079384  -0.000008743757130
Si   18.32963  21.04512  18.32963   0.000000301276735  -0.000008739238937   0.000000300168105
