216 

Si    0.67888   0.67888   0.67888   0.000008999706905   0.000008999706952   0.000008981271648
Si    3.39437   0.67888   3.39437  -0.000008999707026   0.000008999707009  -0.000008981271693
Si    0.67888   3.39437   3.39437   0.000008999706908  -0.000008999706960  -0.000008981271617
Si    3.39437   3.39437   0.67888  -0.000008999707019  -0.000008999707033   0.000008981271707
Si    4.75213   2.03662   2.03662   0.000007115123084  -0.000000000000009   0.000000000000003
Si    4.75213   4.75213   4.75213   0.000008153982292   0.000008153982409   0.000008157473783
Si    2.03662   2.03662   4.75213  -0.000000000000074   0.000000000000087   0.000007121901916
Si    2.03662   4.75213   2.03662  -0.000000000000076   0.000007115123080   0.000000000000098
Si    0.67888   0.67888   6.10987   0.000002866728738   0.000002866728907   0.000000874880762
Si    3.39437   0.67888   8.82538  -0.000008153982387   0.000008153982418   0.000008157473752
Si    0.67888   3.39437   8.82538   0.000008153982261  -0.000008153982303   0.000008157473677
Si    3.39437   3.39437   6.10987  -0.000002866728877  -0.000002866728753   0.000000874880770
Si    4.75213   2.03662   7.46762   0.000002884640393   0.000000879957741  -0.000002880198969
Si    4.75213   4.75213  10.18313   0.000002866728784   0.000002866728807  -0.000000874880855
Si    2.03662   2.03662  10.18313  -0.000000000000048   0.000000000000018  -0.000000000000004
Si    2.03662   4.75213   7.46762   0.000000879957602   0.000002884640463  -0.000002880199032
Si    0.67888   0.67888  11.54087   0.000008153982280   0.000008153982353  -0.000008157473706
Si    3.39437   0.67888  14.25638  -0.000002866728868   0.000002866728758  -0.000000874880777
Si    0.67888   3.39437  14.25638   0.000002866728744  -0.000002866728906  -0.000000874880782
Si    3.39437   3.39437  11.54087  -0.000008153982394  -0.000008153982412  -0.000008157473784
Si    4.75213   2.03662  12.89863   0.000002884640388  -0.000000879957720   0.000002880198972
Si    4.75213   4.75213  15.61412   0.000008999706947   0.000008999706935  -0.000008981271617
Si    2.03662   2.03662  15.61412  -0.000000000000065  -0.000000000000070  -0.000007121901896
Si    2.03662   4.75213  12.89863  -0.000000879957735   0.000002884640369   0.000002880198935
Si    0.67888   6.10987   0.67888   0.000002884640328   0.000000879957659   0.000002880199065
Si    3.39437   6.10987   3.39437  -0.000002884640455   0.000000879957675  -0.000002880198881
Si    0.67888   8.82538   3.39437   0.000008153982258   0.000008153982312  -0.000008157473656
Si    3.39437   8.82538   0.67888  -0.000008153982362   0.000008153982395   0.000008157473809
Si    4.75213   7.46762   2.03662   0.000002866728804  -0.000002866728813   0.000000874880858
Si    4.75213  10.18313   4.75213   0.000002884640406  -0.000000879957736   0.000002880198965
Si    2.03662   7.46762   4.75213   0.000000879957612  -0.000002884640450   0.000002880199034
Si    2.03662  10.18313   2.03662  -0.000000000000038   0.000000000000000   0.000000000000052
Si    0.67888   6.10987   6.10987   0.000007115122992   0.000000000000005   0.000000000000003
Si    3.39437   6.10987   8.82538  -0.000002884640477  -0.000000879957691   0.000002880198896
Si    0.67888   8.82538   8.82538   0.000008999706909   0.000008999706927   0.000008981271580
Si    3.39437   8.82538   6.10987  -0.000002866728867   0.000002866728748  -0.000000874880791
Si    4.75213   7.46762   7.46762   0.000008153982299  -0.000008153982389  -0.000008157473802
Si    4.75213  10.18313  10.18313   0.000007115123071  -0.000000000000011  -0.000000000000042
Si    2.03662   7.46762  10.18313  -0.000000000000063  -0.000007115123116  -0.000000000000114
Si    2.03662  10.18313   7.46762  -0.000000000000073  -0.000000000000096  -0.000007121901955
Si    0.67888   6.10987  11.54087   0.000002884640323  -0.000000879957704  -0.000002880199061
Si    3.39437   6.10987  14.25638  -0.000007115123153  -0.000000000000017  -0.000000000000008
Si    0.67888   8.82538  14.25638   0.000002866728750   0.000002866728860   0.000000874880790
Si    3.39437   8.82538  11.54087  -0.000008999707033   0.000008999706993  -0.000008981271720
Si    4.75213   7.46762  12.89863   0.000008999706950  -0.000008999706982   0.000008981271636
Si    4.75213  10.18313  15.61412   0.000002884640409   0.000000879957731  -0.000002880198931
Si    2.03662   7.46762  15.61412  -0.000000879957723  -0.000002884640414  -0.000002880198927
Si    2.03662  10.18313  12.89863  -0.000000000000064   0.000000000000060   0.000007121901908
Si    0.67888  11.54087   0.67888   0.000008153982255  -0.000008153982313   0.000008157473739
Si    3.39437  11.54087   3.39437  -0.000008153982379  -0.000008153982393  -0.000008157473743
Si    0.67888  14.25638   3.39437   0.000002884640314  -0.000000879957669  -0.000002880199026
Si    3.39437  14.25638   0.67888  -0.000002884640456  -0.000000879957665   0.000002880198942
Si    4.75213  12.89863   2.03662   0.000002866728823   0.000002866728830  -0.000000874880810
Si    4.75213  15.61412   4.75213   0.000008999706949  -0.000008999706958   0.000008981271623
Si    2.03662  12.89863   4.75213  -0.000000879957731   0.000002884640373   0.000002880198946
Si    2.03662  15.61412   2.03662  -0.000000000000059  -0.000007115123092  -0.000000000000060
Si    0.67888  11.54087   6.10987   0.000002866728719  -0.000002866728907  -0.000000874880798
Si    3.39437  11.54087   8.82538  -0.000008999707030  -0.000008999707019   0.000008981271646
Si    0.67888  14.25638   8.82538   0.000002884640323   0.000000879957691   0.000002880199002
Si    3.39437  14.25638   6.10987  -0.000007115123161  -0.000000000000011  -0.000000000000031
Si    4.75213  12.89863   7.46762   0.000008999706964   0.000008999706954  -0.000008981271670
Si    4.75213  15.61412  10.18313   0.000002866728796  -0.000002866728790   0.000000874880823
Si    2.03662  12.89863  10.18313  -0.000000000000067   0.000007115123101   0.000000000000043
Si    2.03662  15.61412   7.46762  -0.000000879957727  -0.000002884640379  -0.000002880198966
Si    0.67888  11.54087  11.54087   0.000008999706908  -0.000008999706950  -0.000008981271650
Si    3.39437  11.54087  14.25638  -0.000002866728858  -0.000002866728741   0.000000874880798
Si    0.67888  14.25638  14.25638   0.000007115123013   0.000000000000029   0.000000000000017
Si    3.39437  14.25638  11.54087  -0.000002884640451   0.000000879957695  -0.000002880198912
Si    4.75213  12.89863  12.89863   0.000008153982315   0.000008153982420   0.000008157473780
Si    4.75213  15.61412  15.61412   0.000008153982325  -0.000008153982369  -0.000008157473740
Si    2.03662  12.89863  15.61412   0.000000879957628   0.000002884640479  -0.000002880198991
Si    2.03662  15.61412  12.89863   0.000000879957616  -0.000002884640422   0.000002880199025
Si    6.10987   0.67888   0.67888   0.000000879957687   0.000002884640375   0.000002880198981
Si    8.82538   0.67888   3.39437   0.000008153982327   0.000008153982381  -0.000008157473780
Si    6.10987   3.39437   3.39437   0.000000879957679  -0.000002884640412  -0.000002880198955
Si    8.82538   3.39437   0.67888   0.000008153982319  -0.000008153982416   0.000008157473789
Si   10.18313   2.03662   2.03662  -0.000000000000086  -0.000000000000013   0.000000000000012
Si   10.18313   4.75213   4.75213  -0.000000879957667   0.000002884640452   0.000002880199007
Si    7.46762   2.03662   4.75213  -0.000002884640433   0.000000879957725   0.000002880198958
Si    7.46762   4.75213   2.03662  -0.000002866728835   0.000002866728811   0.000000874880847
Si    6.10987   0.67888   6.10987  -0.000000000000010   0.000007115123160  -0.000000000000019
Si    8.82538   0.67888   8.82538   0.000008999706958   0.000008999707041   0.000008981271706
Si    6.10987   3.39437   8.82538  -0.000000879957691  -0.000002884640396   0.000002880198949
Si    8.82538   3.39437   6.10987   0.000002866728810  -0.000002866728783  -0.000000874880768
Si   10.18313   2.03662   7.46762  -0.000000000000027   0.000000000000077  -0.000007121901891
Si   10.18313   4.75213  10.18313  -0.000000000000023   0.000007115123060  -0.000000000000087
Si    7.46762   2.03662  10.18313  -0.000007115123099   0.000000000000007  -0.000000000000002
Si    7.46762   4.75213   7.46762  -0.000008153982352   0.000008153982370  -0.000008157473749
Si    6.10987   0.67888  11.54087  -0.000000879957689   0.000002884640418  -0.000002880198964
Si    8.82538   0.67888  14.25638   0.000002866728786   0.000002866728792   0.000000874880778
Si    6.10987   3.39437  14.25638  -0.000000000000009  -0.000007115123183  -0.000000000000005
Si    8.82538   3.39437  11.54087   0.000008999706954  -0.000008999707059  -0.000008981271721
Si   10.18313   2.03662  12.89863  -0.000000000000034  -0.000000000000067   0.000007121901884
Si   10.18313   4.75213  15.61412   0.000000879957649   0.000002884640377  -0.000002880198922
Si    7.46762   2.03662  15.61412  -0.000002884640442  -0.000000879957723  -0.000002880198943
Si    7.46762   4.75213  12.89863  -0.000008999707017   0.000008999706917   0.000008981271618
Si    6.10987   6.10987   0.67888  -0.000000000000005  -0.000000000000000   0.000007121902000
Si    8.82538   6.10987   3.39437   0.000002884640409  -0.000000879957651  -0.000002880198925
Si    6.10987   8.82538   3.39437  -0.000000879957677   0.000002884640408  -0.000002880198933
Si    8.82538   8.82538   0.67888   0.000008999706950   0.000008999707064   0.000008981271768
Si   10.18313   7.46762   2.03662  -0.000000000000022  -0.000007115123055   0.000000000000093
Si   10.18313  10.18313   4.75213  -0.000000000000050  -0.000000000000070   0.000007121901882
Si    7.46762   7.46762   4.75213  -0.000008153982353  -0.000008153982333   0.000008157473743
Si    7.46762  10.18313   2.03662  -0.000007115123093   0.000000000000014   0.000000000000035
Si    6.10987   6.10987   6.10987  -0.000000000000049  -0.000000000000002  -0.000000000000005
Si    8.82538   6.10987   8.82538   0.000002884640403   0.000000879957643   0.000002880198905
Si    6.10987   8.82538   8.82538   0.000000879957668   0.000002884640380   0.000002880198918
Si    8.82538   8.82538   6.10987   0.000002866728821   0.000002866728797   0.000000874880726
Si   10.18313   7.46762   7.46762  -0.000000879957657  -0.000002884640438  -0.000002880199040
Si   10.18313  10.18313  10.18313  -0.000000000000057  -0.000000000000004  -0.000000000000047
Si    7.46762   7.46762  10.18313  -0.000002866728843  -0.000002866728825  -0.000000874880870
Si    7.46762  10.18313   7.46762  -0.000002884640425  -0.000000879957739  -0.000002880199014
Si    6.10987   6.10987  11.54087  -0.000000000000035  -0.000000000000024  -0.000007121901989
Si    8.82538   6.10987  14.25638   0.000007115123084  -0.000000000000016   0.000000000000015
Si    6.10987   8.82538  14.25638  -0.000000000000017   0.000007115123157   0.000000000000039
Si    8.82538   8.82538  11.54087   0.000008153982321   0.000008153982387  -0.000008157473794
Si   10.18313   7.46762  12.89863   0.000000879957662  -0.000002884640394   0.000002880198957
Si   10.18313  10.18313  15.61412  -0.000000000000050   0.000000000000073  -0.000007121901822
Si    7.46762   7.46762  15.61412  -0.000008999707006  -0.000008999706940  -0.000008981271568
Si    7.46762  10.18313  12.89863  -0.000002884640427   0.000000879957733   0.000002880198982
Si    6.10987  11.54087   0.67888  -0.000000879957659  -0.000002884640394   0.000002880199006
Si    8.82538  11.54087   3.39437   0.000008999706956  -0.000008999707056  -0.000008981271709
Si    6.10987  14.25638   3.39437  -0.000000000000003  -0.000000000000008  -0.000007121901974
Si    8.82538  14.25638   0.67888   0.000002884640391   0.000000879957650   0.000002880198969
Si   10.18313  12.89863   2.03662  -0.000000000000025   0.000007115123078  -0.000000000000040
Si   10.18313  15.61412   4.75213   0.000000879957644  -0.000002884640386   0.000002880198923
Si    7.46762  12.89863   4.75213  -0.000008999706999   0.000008999706929   0.000008981271594
Si    7.46762  15.61412   2.03662  -0.000002866728822  -0.000002866728823  -0.000000874880814
Si    6.10987  11.54087   6.10987  -0.000000000000017  -0.000007115123169  -0.000000000000055
Si    8.82538  11.54087   8.82538   0.000008153982333  -0.000008153982408   0.000008157473720
Si    6.10987  14.25638   8.82538  -0.000000000000011   0.000000000000013   0.000007121901951
Si    8.82538  14.25638   6.10987   0.000007115123095  -0.000000000000017  -0.000000000000026
Si   10.18313  12.89863   7.46762   0.000000879957654   0.000002884640376  -0.000002880199005
Si   10.18313  15.61412  10.18313  -0.000000000000027  -0.000007115123035   0.000000000000042
Si    7.46762  12.89863  10.18313  -0.000002866728836   0.000002866728835   0.000000874880807
Si    7.46762  15.61412   7.46762  -0.000008999707014  -0.000008999706934  -0.000008981271642
Si    6.10987  11.54087  11.54087   0.000000879957687  -0.000002884640395  -0.000002880198968
Si    8.82538  11.54087  14.25638   0.000002866728797  -0.000002866728776  -0.000000874880721
Si    6.10987  14.25638  14.25638  -0.000000000000036   0.000000000000021   0.000000000000035
Si    8.82538  14.25638  11.54087   0.000002884640403  -0.000000879957631  -0.000002880198935
Si   10.18313  12.89863  12.89863  -0.000000879957689   0.000002884640475   0.000002880199023
Si   10.18313  15.61412  15.61412  -0.000000879957685  -0.000002884640431  -0.000002880198969
Si    7.46762  12.89863  15.61412  -0.000008153982338   0.000008153982377  -0.000008157473687
Si    7.46762  15.61412  12.89863  -0.000008153982357  -0.000008153982340   0.000008157473743
Si   11.54087   0.67888   0.67888  -0.000008153982397   0.000008153982300   0.000008157473714
Si   14.25638   0.67888   3.39437  -0.000000879957740   0.000002884640435  -0.000002880198992
Si   11.54087   3.39437   3.39437  -0.000008153982370  -0.000008153982318  -0.000008157473667
Si   14.25638   3.39437   0.67888  -0.000000879957741  -0.000002884640446   0.000002880199014
Si   15.61412   2.03662   2.03662  -0.000007115123162   0.000000000000004   0.000000000000024
Si   15.61412   4.75213   4.75213  -0.000008999707086   0.000008999707053   0.000008981271734
Si   12.89863   2.03662   4.75213   0.000002884640325  -0.000000879957599   0.000002880199009
Si   12.89863   4.75213   2.03662   0.000002866728751   0.000002866728850  -0.000000874880670
Si   11.54087   0.67888   6.10987  -0.000002866728862   0.000002866728891  -0.000000874880782
Si   14.25638   0.67888   8.82538   0.000000879957583   0.000002884640464   0.000002880198998
Si   11.54087   3.39437   8.82538  -0.000008999707050  -0.000008999706955   0.000008981271617
Si   14.25638   3.39437   6.10987  -0.000000000000074  -0.000007115122996   0.000000000000007
Si   15.61412   2.03662   7.46762  -0.000002884640502  -0.000000879957580  -0.000002880198992
Si   15.61412   4.75213  10.18313  -0.000002866728908   0.000002866728819   0.000000874880672
Si   12.89863   2.03662  10.18313   0.000007115123046   0.000000000000025  -0.000000000000017
Si   12.89863   4.75213   7.46762   0.000008999706944   0.000008999707034  -0.000008981271722
Si   11.54087   0.67888  11.54087  -0.000008999707065   0.000008999706969  -0.000008981271645
Si   14.25638   0.67888  14.25638  -0.000000000000079   0.000007115123023  -0.000000000000002
Si   11.54087   3.39437  14.25638  -0.000002866728860  -0.000002866728918   0.000000874880781
Si   14.25638   3.39437  11.54087   0.000000879957595  -0.000002884640458  -0.000002880199027
Si   15.61412   2.03662  12.89863  -0.000002884640487   0.000000879957624   0.000002880198979
Si   15.61412   4.75213  15.61412  -0.000008153982428   0.000008153982321  -0.000008157473691
Si   12.89863   2.03662  15.61412   0.000002884640341   0.000000879957584  -0.000002880198983
Si   12.89863   4.75213  12.89863   0.000008153982292   0.000008153982316   0.000008157473671
Si   11.54087   6.10987   0.67888  -0.000002884640471  -0.000000879957660   0.000002880199076
Si   14.25638   6.10987   3.39437  -0.000000000000096   0.000000000000021  -0.000007121901795
Si   11.54087   8.82538   3.39437  -0.000008999707063   0.000008999706978  -0.000008981271602
Si   14.25638   8.82538   0.67888   0.000000879957571   0.000002884640434   0.000002880199065
Si   15.61412   7.46762   2.03662  -0.000002866728918  -0.000002866728828  -0.000000874880665
Si   15.61412  10.18313   4.75213  -0.000002884640505   0.000000879957600   0.000002880198988
Si   12.89863   7.46762   4.75213   0.000008999706935  -0.000008999707029   0.000008981271726
Si   12.89863  10.18313   2.03662   0.000007115123030   0.000000000000014   0.000000000000047
Si   11.54087   6.10987   6.10987  -0.000007115123115   0.000000000000013  -0.000000000000018
Si   14.25638   6.10987   8.82538  -0.000000000000087  -0.000000000000025   0.000007121901790
Si   11.54087   8.82538   8.82538  -0.000008153982396   0.000008153982303   0.000008157473624
Si   14.25638   8.82538   6.10987  -0.000000000000100   0.000007115123001  -0.000000000000035
Si   15.61412   7.46762   7.46762  -0.000008999707070  -0.000008999707048  -0.000008981271744
Si   15.61412  10.18313  10.18313  -0.000007115123159  -0.000000000000012  -0.000000000000036
Si   12.89863   7.46762  10.18313   0.000002866728752  -0.000002866728879   0.000000874880658
Si   12.89863  10.18313   7.46762   0.000002884640343   0.000000879957584  -0.000002880199054
Si   11.54087   6.10987  11.54087  -0.000002884640453   0.000000879957620  -0.000002880199080
Si   14.25638   6.10987  14.25638  -0.000000000000066  -0.000000000000024   0.000000000000006
Si   11.54087   8.82538  14.25638  -0.000002866728878   0.000002866728888  -0.000000874880743
Si   14.25638   8.82538  11.54087  -0.000000879957739   0.000002884640410  -0.000002880199036
Si   15.61412   7.46762  12.89863  -0.000008153982419  -0.000008153982364   0.000008157473695
Si   15.61412  10.18313  15.61412  -0.000002884640504  -0.000000879957594  -0.000002880198934
Si   12.89863   7.46762  15.61412   0.000008153982289  -0.000008153982335  -0.000008157473653
Si   12.89863  10.18313  12.89863   0.000002884640343  -0.000000879957598   0.000002880199022
Si   11.54087  11.54087   0.67888  -0.000008999707074  -0.000008999706954   0.000008981271689
Si   14.25638  11.54087   3.39437   0.000000879957560  -0.000002884640454  -0.000002880198981
Si   11.54087  14.25638   3.39437  -0.000002884640465   0.000000879957639  -0.000002880199037
Si   14.25638  14.25638   0.67888  -0.000000000000105   0.000000000000004   0.000007121901866
Si   15.61412  12.89863   2.03662  -0.000002866728914   0.000002866728842   0.000000874880747
Si   15.61412  15.61412   4.75213  -0.000008153982445  -0.000008153982338   0.000008157473688
Si   12.89863  12.89863   4.75213   0.000008153982291   0.000008153982318   0.000008157473687
Si   12.89863  15.61412   2.03662   0.000002866728735  -0.000002866728858   0.000000874880722
Si   11.54087  11.54087   6.10987  -0.000002866728862  -0.000002866728902   0.000000874880726
Si   14.25638  11.54087   8.82538  -0.000000879957731  -0.000002884640438   0.000002880198946
Si   11.54087  14.25638   8.82538  -0.000002884640451  -0.000000879957658   0.000002880199009
Si   14.25638  14.25638   6.10987  -0.000000000000077  -0.000000000000018  -0.000000000000027
Si   15.61412  12.89863   7.46762  -0.000008153982458   0.000008153982325  -0.000008157473748
Si   15.61412  15.61412  10.18313  -0.000002866728901  -0.000002866728805  -0.000000874880718
Si   12.89863  12.89863  10.18313   0.000002866728736   0.000002866728871  -0.000000874880742
Si   12.89863  15.61412   7.46762   0.000008153982280  -0.000008153982316  -0.000008157473732
Si   11.54087  11.54087  11.54087  -0.000008153982394  -0.000008153982323  -0.000008157473706
Si   14.25638  11.54087  14.25638  -0.000000000000097  -0.000007115123004   0.000000000000030
Si   11.54087  14.25638  14.25638  -0.000007115123140   0.000000000000018   0.000000000000031
Si   14.25638  14.25638  11.54087  -0.000000000000082   0.000000000000038  -0.000007121901833
Si   15.61412  12.89863  12.89863  -0.000008999707078   0.000008999707053   0.000008981271709
Si   15.61412  15.61412  15.61412  -0.000008999707075  -0.000008999707013  -0.000008981271677
Si   12.89863  12.89863  15.61412   0.000008999706909   0.000008999707052  -0.000008981271647
Si   12.89863  15.61412  12.89863   0.000008999706913  -0.000008999707001   0.000008981271713
