216 

Si    0.72888   0.67888   0.67888   0.013554452280106   0.000001990648755   0.000001990768035
Si    3.39437   0.67888   3.39437  -0.000199990072473   0.000120264753685  -0.000193514414676
Si    0.67888   3.39437   3.39437   0.000422774778700  -0.000114170466776  -0.000114504532903
Si    3.39437   3.39437   0.67888  -0.000200042613141  -0.000193659288824   0.000120664623854
Si    4.75213   2.03662   2.03662   0.000010573415563   0.000025269049256   0.000025400469751
Si    4.75213   4.75213   4.75213   0.000016293683627   0.000007131085908   0.000007121692389
Si    2.03662   2.03662   4.75213   0.000033542263528  -0.000036257060295   0.000033866721329
Si    2.03662   4.75213   2.03662   0.000033457049952   0.000033946110751  -0.000036346238822
Si    0.67888   0.67888   6.10987  -0.000019085112416   0.000002861016456   0.000000653026540
Si    3.39437   0.67888   8.82538  -0.000020012149764   0.000008154452103   0.000008156471115
Si    0.67888   3.39437   8.82538  -0.000003688257472  -0.000008033160961   0.000011483762621
Si    3.39437   3.39437   6.10987  -0.000019401069207   0.000022372308633  -0.000003060494322
Si    4.75213   2.03662   7.46762   0.000001034444312  -0.000009021102423  -0.000000596538854
Si    4.75213   4.75213  10.18313   0.000002565744045  -0.000017228307316  -0.000003758681782
Si    2.03662   2.03662  10.18313   0.000015281529158   0.000001235476161   0.000002273367400
Si    2.03662   4.75213   7.46762   0.000012656309798  -0.000007457297342   0.000008757448237
Si    0.67888   0.67888  11.54087  -0.000013795352349   0.000008181442206  -0.000007934167763
Si    3.39437   0.67888  14.25638  -0.000194039321712  -0.000108274608601   0.000183818810592
Si    0.67888   3.39437  14.25638   0.000422019469541   0.000108390726428  -0.000112502182187
Si    3.39437   3.39437  11.54087  -0.000024786484820   0.000017866103838   0.000003898444592
Si    4.75213   2.03662  12.89863  -0.000016027712060   0.000051354635369   0.000024940545575
Si    4.75213   4.75213  15.61412  -0.000009865943468  -0.000013068166338  -0.000061114634750
Si    2.03662   2.03662  15.61412  -0.003371499479486  -0.002473717096488   0.002466598705764
Si    2.03662   4.75213  12.89863  -0.000177685184704   0.000054526654600  -0.000048805081395
Si    0.67888   6.10987   0.67888  -0.000018924365301   0.000000662470325   0.000002868392027
Si    3.39437   6.10987   3.39437  -0.000019465271402  -0.000003059856526   0.000022347607690
Si    0.67888   8.82538   3.39437  -0.000003744047077   0.000011457021666  -0.000008032065724
Si    3.39437   8.82538   0.67888  -0.000019972899110   0.000008152960686   0.000008157702629
Si    4.75213   7.46762   2.03662   0.000001048573574  -0.000000599626381  -0.000009040474759
Si    4.75213  10.18313   4.75213   0.000002690058601  -0.000003774797401  -0.000017207934460
Si    2.03662   7.46762   4.75213   0.000012644287790   0.000008752730598  -0.000007407520603
Si    2.03662  10.18313   2.03662   0.000015290869941   0.000002252528247   0.000001448275749
Si    0.67888   6.10987   6.10987   0.000108631660103  -0.000020937801584  -0.000020956316117
Si    3.39437   6.10987   8.82538  -0.000007164047185   0.000014916622692   0.000006023776856
Si    0.67888   8.82538   8.82538   0.000118913915507   0.000008999702280   0.000008981288447
Si    3.39437   8.82538   6.10987  -0.000007156040416   0.000006014456481   0.000014921539598
Si    4.75213   7.46762   7.46762   0.000009618944978  -0.000012782483165  -0.000012791404988
Si    4.75213  10.18313  10.18313   0.000008580629745   0.000004629411359   0.000004634850662
Si    2.03662   7.46762  10.18313  -0.000063035321313  -0.000005493963402  -0.000001644698529
Si    2.03662  10.18313   7.46762  -0.000063035427485  -0.000001624169864  -0.000005480096143
Si    0.67888   6.10987  11.54087   0.000106103016860   0.000019950383263  -0.000023732752346
Si    3.39437   6.10987  14.25638  -0.000023729866178  -0.000012047543318  -0.000025910641065
Si    0.67888   8.82538  14.25638  -0.000009029083070  -0.000000436036883   0.000000750355753
Si    3.39437   8.82538  11.54087  -0.000013287576635   0.000005852089187  -0.000024778481767
Si    4.75213   7.46762  12.89863   0.000008801779738  -0.000006105445905   0.000029071000577
Si    4.75213  10.18313  15.61412   0.000001066963373  -0.000001387703354   0.000007033754718
Si    2.03662   7.46762  15.61412   0.000014411970073  -0.000005137381764  -0.000004327569348
Si    2.03662  10.18313  12.89863   0.000011764074676  -0.000011636372408   0.000017410561197
Si    0.67888  11.54087   0.67888  -0.000013664202239  -0.000007934912949   0.000008173153299
Si    3.39437  11.54087   3.39437  -0.000024777006598   0.000003897532931   0.000017747390678
Si    0.67888  14.25638   3.39437   0.000422041056424  -0.000112160512891   0.000108725138512
Si    3.39437  14.25638   0.67888  -0.000194100265066   0.000183941119747  -0.000108679213252
Si    4.75213  12.89863   2.03662  -0.000016001898397   0.000024932946698   0.000051242602059
Si    4.75213  15.61412   4.75213  -0.000009910695447  -0.000061250068025  -0.000013080621603
Si    2.03662  12.89863   4.75213  -0.000177685290657  -0.000048767289629   0.000054554167287
Si    2.03662  15.61412   2.03662  -0.003371497005451   0.002466482621305  -0.002473841165025
Si    0.67888  11.54087   6.10987   0.000106084641550  -0.000023696572316   0.000019978342593
Si    3.39437  11.54087   8.82538  -0.000013277765603  -0.000024797037164   0.000005837783970
Si    0.67888  14.25638   8.82538  -0.000008955673221   0.000000759716806  -0.000000445836876
Si    3.39437  14.25638   6.10987  -0.000023736120369  -0.000026028942409  -0.000012051824546
Si    4.75213  12.89863   7.46762   0.000008695753069   0.000029096006575  -0.000006098138029
Si    4.75213  15.61412  10.18313   0.000001017782712   0.000007032563705  -0.000001409257803
Si    2.03662  12.89863  10.18313   0.000011776139212   0.000017458023828  -0.000011636682820
Si    2.03662  15.61412   7.46762   0.000014402296573  -0.000004119875662  -0.000005153862391
Si    0.67888  11.54087  11.54087   0.000110515023168   0.000011941472168   0.000011978383030
Si    3.39437  11.54087  14.25638  -0.000019437258168   0.000001068641406  -0.000024352268011
Si    0.67888  14.25638  14.25638   0.000420831246638   0.000105077429111   0.000105428384961
Si    3.39437  14.25638  11.54087  -0.000019409658775  -0.000024356280860   0.000001050646941
Si    4.75213  12.89863  12.89863   0.000016294739805   0.000009175077202   0.000009191006933
Si    4.75213  15.61412  15.61412   0.000011539825534  -0.000033386600927  -0.000033521761475
Si    2.03662  12.89863  15.61412   0.000034355800866  -0.000023932330196   0.000033472292159
Si    2.03662  15.61412  12.89863   0.000034438923988   0.000033378781733  -0.000023849174402
Si    6.10987   0.67888   0.67888  -0.000005158911114   0.000002872321818   0.000002868708465
Si    8.82538   0.67888   3.39437   0.000005832453473   0.000004819362767  -0.000008021889121
Si    6.10987   3.39437   3.39437   0.000002262172009  -0.000015119009990  -0.000015112982831
Si    8.82538   3.39437   0.67888   0.000005857009831  -0.000008017940712   0.000004833598059
Si   10.18313   2.03662   2.03662   0.000000019651618   0.000002239741373   0.000002253423090
Si   10.18313   4.75213   4.75213  -0.000001024336212   0.000000059053283   0.000000045055713
Si    7.46762   2.03662   4.75213   0.000000523131083   0.000012655381358   0.000004996522535
Si    7.46762   4.75213   2.03662   0.000000534066702   0.000004986268497   0.000012657651807
Si    6.10987   0.67888   6.10987  -0.000000627714784   0.000028679784100  -0.000012289390132
Si    8.82538   0.67888   8.82538   0.000010652300362   0.000009002687464   0.000008981075305
Si    6.10987   3.39437   8.82538   0.000000207282349   0.000012736766100   0.000001214374771
Si    8.82538   3.39437   6.10987   0.000004795227266  -0.000006103991781   0.000000743370174
Si   10.18313   2.03662   7.46762  -0.000004936065334  -0.000001186385232  -0.000007873289831
Si   10.18313   4.75213  10.18313   0.000002552746927   0.000011796073618  -0.000005326757069
Si    7.46762   2.03662  10.18313  -0.000012411775551   0.000002251230818  -0.000000343552801
Si    7.46762   4.75213   7.46762  -0.000005574664957   0.000003643783603  -0.000013450906977
Si    6.10987   0.67888  11.54087  -0.000001506833154  -0.000018674776850   0.000009407684841
Si    8.82538   0.67888  14.25638   0.000000544983419   0.000006201720857   0.000000738997644
Si    6.10987   3.39437  14.25638   0.000001632276339  -0.000011263988870   0.000004141737950
Si    8.82538   3.39437  11.54087   0.000011108705418  -0.000005886188409  -0.000007353106325
Si   10.18313   2.03662  12.89863   0.000003291910243  -0.000011538444806   0.000009485393679
Si   10.18313   4.75213  15.61412   0.000004164495823   0.000000518037761   0.000008664707570
Si    7.46762   2.03662  15.61412  -0.000002636465388  -0.000003256160536  -0.000000492623459
Si    7.46762   4.75213  12.89863  -0.000009076931504   0.000011936152786   0.000006035537441
Si    6.10987   6.10987   0.67888  -0.000000744657651  -0.000012300330473   0.000028679584439
Si    8.82538   6.10987   3.39437   0.000004813868897   0.000000745565579  -0.000006109981624
Si    6.10987   8.82538   3.39437   0.000000198130796   0.000001217974707   0.000012732365625
Si    8.82538   8.82538   0.67888   0.000010607145265   0.000008999501203   0.000008984187063
Si   10.18313   7.46762   2.03662  -0.000004929796199  -0.000007884342729  -0.000001191243241
Si   10.18313  10.18313   4.75213   0.000002559543385  -0.000005328820132   0.000011808039717
Si    7.46762   7.46762   4.75213  -0.000005567309101  -0.000013448581684   0.000003642280698
Si    7.46762  10.18313   2.03662  -0.000012402151872  -0.000000360760693   0.000002257546540
Si    6.10987   6.10987   6.10987  -0.000002075830667   0.000003403407403   0.000003406634996
Si    8.82538   6.10987   8.82538   0.000001051433692   0.000000856618157   0.000002880530786
Si    6.10987   8.82538   8.82538  -0.000000936063115   0.000002884052897   0.000002879606511
Si    8.82538   8.82538   6.10987   0.000001031576462   0.000002857638167   0.000000851411926
Si   10.18313   7.46762   7.46762  -0.000000947557350  -0.000002693040210  -0.000002704397908
Si   10.18313  10.18313  10.18313  -0.000000067758946  -0.000000191027842  -0.000000175304672
Si    7.46762   7.46762  10.18313  -0.000002917299201  -0.000003045154511  -0.000000712029330
Si    7.46762  10.18313   7.46762  -0.000002935154717  -0.000000701096141  -0.000003042564350
Si    6.10987   6.10987  11.54087  -0.000001922749768   0.000003523291150  -0.000010631184596
Si    8.82538   6.10987  14.25638   0.000009221800463  -0.000001636341241  -0.000003106315374
Si    6.10987   8.82538  14.25638   0.000001078454883   0.000008783165965  -0.000015613726371
Si    8.82538   8.82538  11.54087   0.000006318695024   0.000008163113212  -0.000008134282215
Si   10.18313   7.46762  12.89863   0.000003438805751   0.000002444575674  -0.000001805989268
Si   10.18313  10.18313  15.61412  -0.000004929573865   0.000000768923300  -0.000005935620464
Si    7.46762   7.46762  15.61412  -0.000014290319277  -0.000008640420296  -0.000011242388557
Si    7.46762  10.18313  12.89863  -0.000000297714090   0.000006173309137   0.000007396489337
Si    6.10987  11.54087   0.67888  -0.000001623575593   0.000009414332430  -0.000018673076621
Si    8.82538  11.54087   3.39437   0.000011107964195  -0.000007364137331  -0.000005874775513
Si    6.10987  14.25638   3.39437   0.000001632459038   0.000004148867690  -0.000011263507224
Si    8.82538  14.25638   0.67888   0.000000587372632   0.000000743633329   0.000006204508434
Si   10.18313  12.89863   2.03662   0.000003285758102   0.000009483024797  -0.000011547264755
Si   10.18313  15.61412   4.75213   0.000004170841829   0.000008651432201   0.000000517963859
Si    7.46762  12.89863   4.75213  -0.000009077020336   0.000006062167026   0.000011925927798
Si    7.46762  15.61412   2.03662  -0.000002618425238  -0.000000492907755  -0.000003264741963
Si    6.10987  11.54087   6.10987  -0.000001922645206  -0.000010638711743   0.000003509122178
Si    8.82538  11.54087   8.82538   0.000006320628721  -0.000008130914198   0.000008157172363
Si    6.10987  14.25638   8.82538   0.000001087582674  -0.000015622454640   0.000008789108308
Si    8.82538  14.25638   6.10987   0.000009222520702  -0.000003113302311  -0.000001628939656
Si   10.18313  12.89863   7.46762   0.000003432009813  -0.000001796359973   0.000002446984897
Si   10.18313  15.61412  10.18313  -0.000004935704147  -0.000005933563576   0.000000751137449
Si    7.46762  12.89863  10.18313  -0.000000287074120   0.000007378015426   0.000006167033642
Si    7.46762  15.61412   7.46762  -0.000014299988493  -0.000011254368592  -0.000008639211115
Si    6.10987  11.54087  11.54087  -0.000001196341204  -0.000006287884986  -0.000006286662636
Si    8.82538  11.54087  14.25638   0.000004794328678  -0.000004491332954   0.000002352856054
Si    6.10987  14.25638  14.25638   0.000001391245941   0.000012228475105   0.000012226878422
Si    8.82538  14.25638  11.54087   0.000004811508253   0.000002355206978  -0.000004497521711
Si   10.18313  12.89863  12.89863  -0.000001021508023   0.000005714736268   0.000005719892502
Si   10.18313  15.61412  15.61412  -0.000000859140606  -0.000005123823175  -0.000005132936007
Si    7.46762  12.89863  15.61412  -0.000004752696955   0.000006034285875  -0.000019940654552
Si    7.46762  15.61412  12.89863  -0.000004745865239  -0.000019929862267   0.000006040968814
Si   11.54087   0.67888   0.67888  -0.000013899586687   0.000008144060833   0.000008147520865
Si   14.25638   0.67888   3.39437  -0.000183757489819   0.000108388826737   0.000174871159344
Si   11.54087   3.39437   3.39437  -0.000007172418290  -0.000003904783472  -0.000003914443056
Si   14.25638   3.39437   0.67888  -0.000183804103968   0.000174969723598   0.000108790105575
Si   15.61412   2.03662   2.03662  -0.003224256436424   0.002172625294488   0.002172765728190
Si   15.61412   4.75213   4.75213  -0.000181686136253  -0.000042204523452  -0.000042263609627
Si   12.89863   2.03662   4.75213  -0.000013466912150  -0.000051769071662   0.000022759899422
Si   12.89863   4.75213   2.03662  -0.000013429006628   0.000022746565861  -0.000051651256497
Si   11.54087   0.67888   6.10987  -0.000002778623392   0.000023141151052   0.000010923645762
Si   14.25638   0.67888   8.82538  -0.000011239972570   0.000002885477700   0.000002879380553
Si   11.54087   3.39437   8.82538  -0.000008044352393  -0.000024953625338   0.000007405290880
Si   14.25638   3.39437   6.10987  -0.000016564435829  -0.000032762749266   0.000012368052044
Si   15.61412   2.03662   7.46762   0.000012501750014  -0.000002320263286  -0.000000523267652
Si   15.61412   4.75213  10.18313   0.000008549610430   0.000013130472193   0.000012535109623
Si   12.89863   2.03662  10.18313   0.000005492631643   0.000010582020937   0.000002198501257
Si   12.89863   4.75213   7.46762   0.000008743358404   0.000029202033980  -0.000011881512143
Si   11.54087   0.67888  11.54087  -0.000008909465961  -0.000011269597756  -0.000020775716654
Si   14.25638   0.67888  14.25638  -0.000182933013854  -0.000098281712527  -0.000177788396327
Si   11.54087   3.39437  14.25638  -0.000001405130692   0.000009310833732  -0.000011301024473
Si   14.25638   3.39437  11.54087  -0.000015776669123  -0.000029183036371  -0.000007307927628
Si   15.61412   2.03662  12.89863   0.000028279191485   0.000039291151305   0.000027480890173
Si   15.61412   4.75213  15.61412   0.000022872473407  -0.000016587770213  -0.000046631018689
Si   12.89863   2.03662  15.61412   0.000007077443492  -0.000025095656855   0.000023270901227
Si   12.89863   4.75213  12.89863   0.000016292986496   0.000009337096586   0.000006967697233
Si   11.54087   6.10987   0.67888  -0.000002904430241   0.000010930413808   0.000023148073465
Si   14.25638   6.10987   3.39437  -0.000016554164095   0.000012362322734  -0.000032667241030
Si   11.54087   8.82538   3.39437  -0.000008054236430   0.000007423172468  -0.000024929177182
Si   14.25638   8.82538   0.67888  -0.000011204156676   0.000002883824078   0.000002881078374
Si   15.61412   7.46762   2.03662   0.000012544590364  -0.000000532257216  -0.000002546494426
Si   15.61412  10.18313   4.75213   0.000008518226961   0.000012539399108   0.000013096206367
Si   12.89863   7.46762   4.75213   0.000008846829303  -0.000011912109413   0.000029178753421
Si   12.89863  10.18313   2.03662   0.000005522830911   0.000002180927976   0.000010591400446
Si   11.54087   6.10987   6.10987  -0.000009112357336  -0.000003444983922  -0.000003430329889
Si   14.25638   6.10987   8.82538  -0.000004090619523  -0.000015753569632   0.000010297190809
Si   11.54087   8.82538   8.82538  -0.000009906087043   0.000008153520230   0.000008157020514
Si   14.25638   8.82538   6.10987  -0.000004098646580   0.000010294916507  -0.000015754782770
Si   15.61412   7.46762   7.46762  -0.000071653775538  -0.000010789330577  -0.000010792600369
Si   15.61412  10.18313  10.18313  -0.000069762758476   0.000001786385635   0.000001808026827
Si   12.89863   7.46762  10.18313   0.000004184930482   0.000001695942184  -0.000003694818054
Si   12.89863  10.18313   7.46762   0.000004202830538  -0.000003684181520   0.000001688003322
Si   11.54087   6.10987  11.54087  -0.000004807716449  -0.000002648295783   0.000000649964522
Si   14.25638   6.10987  14.25638  -0.000016700947967   0.000004431572400   0.000026304258390
Si   11.54087   8.82538  14.25638  -0.000001920869327   0.000004442976801   0.000015071943991
Si   14.25638   8.82538  11.54087  -0.000004978433932  -0.000000294060589   0.000012872802493
Si   15.61412   7.46762  12.89863   0.000003248548958  -0.000019813268591  -0.000002058475554
Si   15.61412  10.18313  15.61412   0.000012527910034  -0.000003216719170  -0.000001213306674
Si   12.89863   7.46762  15.61412   0.000006558661994  -0.000010332513679  -0.000018749893751
Si   12.89863  10.18313  12.89863   0.000002739187038   0.000002036317848  -0.000017315596188
Si   11.54087  11.54087   0.67888  -0.000009017180702  -0.000020806020725  -0.000011281460761
Si   14.25638  11.54087   3.39437  -0.000015819734682  -0.000007317145556  -0.000029177894374
Si   11.54087  14.25638   3.39437  -0.000001423094879  -0.000011295745487   0.000009297518212
Si   14.25638  14.25638   0.67888  -0.000182972041314  -0.000177892241882  -0.000098680703280
Si   15.61412  12.89863   2.03662   0.000028150664723   0.000027556137431   0.000039376850044
Si   15.61412  15.61412   4.75213   0.000023018208831  -0.000046542664204  -0.000016495898476
Si   12.89863  12.89863   4.75213   0.000016292584137   0.000006968861430   0.000009345570295
Si   12.89863  15.61412   2.03662   0.000007060260658   0.000023162729233  -0.000025222843537
Si   11.54087  11.54087   6.10987  -0.000004789794269   0.000000660604189  -0.000002656181177
Si   14.25638  11.54087   8.82538  -0.000004970305111   0.000012867158538  -0.000000293996116
Si   11.54087  14.25638   8.82538  -0.000001928911799   0.000015072975777   0.000004455884538
Si   14.25638  14.25638   6.10987  -0.000016659750459   0.000026304189208   0.000004427055423
Si   15.61412  12.89863   7.46762   0.000003262134383  -0.000002109481661  -0.000019817515439
Si   15.61412  15.61412  10.18313   0.000012522279323  -0.000001431027013  -0.000003234071086
Si   12.89863  12.89863  10.18313   0.000002618424870  -0.000017333306854   0.000002029381143
Si   12.89863  15.61412   7.46762   0.000006527984516  -0.000018737085000  -0.000010353698119
Si   11.54087  11.54087  11.54087  -0.000010149164037  -0.000004709647645  -0.000004727837885
Si   14.25638  11.54087  14.25638  -0.000016561721865  -0.000019475805633   0.000025546604422
Si   11.54087  14.25638  14.25638  -0.000006141278259  -0.000004256687887  -0.000004250375879
Si   14.25638  14.25638  11.54087  -0.000016569770681   0.000025650550818  -0.000019488563900
Si   15.61412  12.89863  12.89863  -0.000181690416830   0.000060224262539   0.000060247034101
Si   15.61412  15.61412  15.61412  -0.003226191362399  -0.002181521593173  -0.002181649264090
Si   12.89863  12.89863  15.61412  -0.000007268633104  -0.000010866034274   0.000041758416078
Si   12.89863  15.61412  12.89863  -0.000007324460909   0.000041852289325  -0.000010884052747
