216 

Si    0.67888   0.67888   0.67888   0.000009230650292   0.000009230650239   0.000009212822700
Si    3.39437   0.67888   3.39437  -0.000009230650245   0.000009230650452  -0.000009212822883
Si    0.67888   3.39437   3.39437   0.000009230650340  -0.000009230650240  -0.000009212822666
Si    3.39437   3.39437   0.67888  -0.000009230650230  -0.000009230650450   0.000009212822891
Si    4.75213   2.03662   2.03662   0.000007339841269   0.000000000000008  -0.000000000000006
Si    4.75213   4.75213   4.75213   0.000008381558221   0.000008381558292   0.000008385471950
Si    2.03662   2.03662   4.75213   0.000000000000013   0.000000000000320   0.000007347272532
Si    2.03662   4.75213   2.03662   0.000000000000005   0.000007339841094   0.000000000000316
Si    0.67888   0.67888   6.10987   0.000003092513373   0.000003092513579   0.000000875645221
Si    3.39437   0.67888   8.82538  -0.000008381558135   0.000008381558284   0.000008385471875
Si    0.67888   3.39437   8.82538   0.000008381558230  -0.000008381557900   0.000008385471581
Si    3.39437   3.39437   6.10987  -0.000003092513330  -0.000003092513081   0.000000875645315
Si    4.75213   2.03662   7.46762   0.000003110689406   0.000000880662922  -0.000003106557904
Si    4.75213   4.75213  10.18313   0.000003092513490   0.000003092513555  -0.000000875645580
Si    2.03662   2.03662  10.18313   0.000000000000138   0.000000000000059  -0.000000000000019
Si    2.03662   4.75213   7.46762   0.000000880662708   0.000003110689599  -0.000003106558022
Si    0.67888   0.67888  11.54087   0.000008381558209   0.000008381557985  -0.000008385471584
Si    3.39437   0.67888  14.25638  -0.000003092513317   0.000003092513158  -0.000000875645299
Si    0.67888   3.39437  14.25638   0.000003092513387  -0.000003092513606  -0.000000875645214
Si    3.39437   3.39437  11.54087  -0.000008381558149  -0.000008381558215  -0.000008385471915
Si    4.75213   2.03662  12.89863   0.000003110689436  -0.000000880662824   0.000003106557906
Si    4.75213   4.75213  15.61412   0.000009230650375   0.000009230650132  -0.000009212822664
Si    2.03662   2.03662  15.61412   0.000000000000010  -0.000000000000265  -0.000007347272519
Si    2.03662   4.75213  12.89863  -0.000000880662567   0.000003110689291   0.000003106557709
Si    0.67888   6.10987   0.67888   0.000003110689325   0.000000880662500   0.000003106558024
Si    3.39437   6.10987   3.39437  -0.000003110689245   0.000000880662593  -0.000003106557476
Si    0.67888   8.82538   3.39437   0.000008381558175   0.000008381557981  -0.000008385471490
Si    3.39437   8.82538   0.67888  -0.000008381558147   0.000008381558243   0.000008385471919
Si    4.75213   7.46762   2.03662   0.000003092513486  -0.000003092513497   0.000000875645621
Si    4.75213  10.18313   4.75213   0.000003110689422  -0.000000880662896   0.000003106558001
Si    2.03662   7.46762   4.75213   0.000000880662702  -0.000003110689490   0.000003106558129
Si    2.03662  10.18313   2.03662   0.000000000000082  -0.000000000000011   0.000000000000094
Si    0.67888   6.10987   6.10987   0.000007339841220   0.000000000000071   0.000000000000043
Si    3.39437   6.10987   8.82538  -0.000003110689257  -0.000000880662532   0.000003106557562
Si    0.67888   8.82538   8.82538   0.000009230650395   0.000009230650240   0.000009212822628
Si    3.39437   8.82538   6.10987  -0.000003092513338   0.000003092513112  -0.000000875645209
Si    4.75213   7.46762   7.46762   0.000008381558192  -0.000008381558208  -0.000008385471860
Si    4.75213  10.18313  10.18313   0.000007339841229  -0.000000000000060  -0.000000000000076
Si    2.03662   7.46762  10.18313   0.000000000000071  -0.000007339841080  -0.000000000000341
Si    2.03662  10.18313   7.46762   0.000000000000010  -0.000000000000335  -0.000007347272513
Si    0.67888   6.10987  11.54087   0.000003110689388  -0.000000880662501  -0.000003106558070
Si    3.39437   6.10987  14.25638  -0.000007339841179  -0.000000000000011  -0.000000000000092
Si    0.67888   8.82538  14.25638   0.000003092513423   0.000003092513558   0.000000875645165
Si    3.39437   8.82538  11.54087  -0.000009230650228   0.000009230650391  -0.000009212822998
Si    4.75213   7.46762  12.89863   0.000009230650370  -0.000009230650177   0.000009212822521
Si    4.75213  10.18313  15.61412   0.000003110689414   0.000000880662851  -0.000003106557962
Si    2.03662   7.46762  15.61412  -0.000000880662600  -0.000003110689292  -0.000003106557785
Si    2.03662  10.18313  12.89863   0.000000000000030   0.000000000000232   0.000007347272417
Si    0.67888  11.54087   0.67888   0.000008381558120  -0.000008381557942   0.000008385471635
Si    3.39437  11.54087   3.39437  -0.000008381558168  -0.000008381558288  -0.000008385471792
Si    0.67888  14.25638   3.39437   0.000003110689244  -0.000000880662543  -0.000003106557974
Si    3.39437  14.25638   0.67888  -0.000003110689265  -0.000000880662567   0.000003106557575
Si    4.75213  12.89863   2.03662   0.000003092513543   0.000003092513499  -0.000000875645513
Si    4.75213  15.61412   4.75213   0.000009230650410  -0.000009230650168   0.000009212822633
Si    2.03662  12.89863   4.75213  -0.000000880662657   0.000003110689193   0.000003106557819
Si    2.03662  15.61412   2.03662  -0.000000000000004  -0.000007339841091  -0.000000000000277
Si    0.67888  11.54087   6.10987   0.000003092513357  -0.000003092513629  -0.000000875645198
Si    3.39437  11.54087   8.82538  -0.000009230650241  -0.000009230650508   0.000009212822850
Si    0.67888  14.25638   8.82538   0.000003110689328   0.000000880662481   0.000003106557943
Si    3.39437  14.25638   6.10987  -0.000007339841202  -0.000000000000057   0.000000000000023
Si    4.75213  12.89863   7.46762   0.000009230650404   0.000009230650089  -0.000009212822628
Si    4.75213  15.61412  10.18313   0.000003092513495  -0.000003092513495   0.000000875645554
Si    2.03662  12.89863  10.18313   0.000000000000022   0.000007339841019   0.000000000000208
Si    2.03662  15.61412   7.46762  -0.000000880662635  -0.000003110689283  -0.000003106557766
Si    0.67888  11.54087  11.54087   0.000009230650376  -0.000009230650291  -0.000009212822765
Si    3.39437  11.54087  14.25638  -0.000003092513322  -0.000003092513152   0.000000875645236
Si    0.67888  14.25638  14.25638   0.000007339841143   0.000000000000012   0.000000000000015
Si    3.39437  14.25638  11.54087  -0.000003110689225   0.000000880662574  -0.000003106557582
Si    4.75213  12.89863  12.89863   0.000008381558261   0.000008381558236   0.000008385471824
Si    4.75213  15.61412  15.61412   0.000008381558289  -0.000008381558193  -0.000008385471887
Si    2.03662  12.89863  15.61412   0.000000880662663   0.000003110689547  -0.000003106558040
Si    2.03662  15.61412  12.89863   0.000000880662686  -0.000003110689491   0.000003106558021
Si    6.10987   0.67888   0.67888   0.000000880662890   0.000003110689264   0.000003106557770
Si    8.82538   0.67888   3.39437   0.000008381558334   0.000008381558303  -0.000008385472039
Si    6.10987   3.39437   3.39437   0.000000880662836  -0.000003110689284  -0.000003106557777
Si    8.82538   3.39437   0.67888   0.000008381558306  -0.000008381558421   0.000008385472008
Si   10.18313   2.03662   2.03662   0.000000000000027  -0.000000000000058  -0.000000000000019
Si   10.18313   4.75213   4.75213  -0.000000880662635   0.000003110689353   0.000003106557809
Si    7.46762   2.03662   4.75213  -0.000003110689248   0.000000880662937   0.000003106557672
Si    7.46762   4.75213   2.03662  -0.000003092513313   0.000003092513222   0.000000875645658
Si    6.10987   0.67888   6.10987   0.000000000000108   0.000007339841413  -0.000000000000151
Si    8.82538   0.67888   8.82538   0.000009230650330   0.000009230650359   0.000009212822865
Si    6.10987   3.39437   8.82538  -0.000000880662633  -0.000003110689080   0.000003106557627
Si    8.82538   3.39437   6.10987   0.000003092513444  -0.000003092513162  -0.000000875645465
Si   10.18313   2.03662   7.46762   0.000000000000065   0.000000000000174  -0.000007347272707
Si   10.18313   4.75213  10.18313   0.000000000000044   0.000007339841285  -0.000000000000193
Si    7.46762   2.03662  10.18313  -0.000007339841092   0.000000000000009   0.000000000000020
Si    7.46762   4.75213   7.46762  -0.000008381558162   0.000008381558421  -0.000008385471987
Si    6.10987   0.67888  11.54087  -0.000000880662571   0.000003110689144  -0.000003106557601
Si    8.82538   0.67888  14.25638   0.000003092513475   0.000003092513138   0.000000875645472
Si    6.10987   3.39437  14.25638   0.000000000000088  -0.000007339841432   0.000000000000116
Si    8.82538   3.39437  11.54087   0.000009230650290  -0.000009230650400  -0.000009212822846
Si   10.18313   2.03662  12.89863   0.000000000000043  -0.000000000000238   0.000007347272726
Si   10.18313   4.75213  15.61412   0.000000880662761   0.000003110689102  -0.000003106557624
Si    7.46762   2.03662  15.61412  -0.000003110689233  -0.000000880662971  -0.000003106557672
Si    7.46762   4.75213  12.89863  -0.000009230650274   0.000009230650198   0.000009212822644
Si    6.10987   6.10987   0.67888   0.000000000000088  -0.000000000000183   0.000007347272829
Si    8.82538   6.10987   3.39437   0.000003110689408  -0.000000880662737  -0.000003106557557
Si    6.10987   8.82538   3.39437  -0.000000880662582   0.000003110689114  -0.000003106557493
Si    8.82538   8.82538   0.67888   0.000009230650365   0.000009230650446   0.000009212822933
Si   10.18313   7.46762   2.03662   0.000000000000091  -0.000007339841244   0.000000000000235
Si   10.18313  10.18313   4.75213   0.000000000000087  -0.000000000000156   0.000007347272696
Si    7.46762   7.46762   4.75213  -0.000008381558152  -0.000008381558320   0.000008385472061
Si    7.46762  10.18313   2.03662  -0.000007339841008   0.000000000000032   0.000000000000074
Si    6.10987   6.10987   6.10987   0.000000000000065   0.000000000000043   0.000000000000038
Si    8.82538   6.10987   8.82538   0.000003110689311   0.000000880662780   0.000003106557578
Si    6.10987   8.82538   8.82538   0.000000880662762   0.000003110689263   0.000003106557764
Si    8.82538   8.82538   6.10987   0.000003092513465   0.000003092513199   0.000000875645443
Si   10.18313   7.46762   7.46762  -0.000000880662643  -0.000003110689267  -0.000003106557866
Si   10.18313  10.18313  10.18313  -0.000000000000015   0.000000000000024  -0.000000000000053
Si    7.46762   7.46762  10.18313  -0.000003092513393  -0.000003092513233  -0.000000875645676
Si    7.46762  10.18313   7.46762  -0.000003110689287  -0.000000880662950  -0.000003106557690
Si    6.10987   6.10987  11.54087   0.000000000000009   0.000000000000175  -0.000007347272878
Si    8.82538   6.10987  14.25638   0.000007339841215  -0.000000000000027  -0.000000000000027
Si    6.10987   8.82538  14.25638   0.000000000000070   0.000007339841405  -0.000000000000220
Si    8.82538   8.82538  11.54087   0.000008381558207   0.000008381558359  -0.000008385472039
Si   10.18313   7.46762  12.89863   0.000000880662727  -0.000003110689150   0.000003106557614
Si   10.18313  10.18313  15.61412   0.000000000000077   0.000000000000258  -0.000007347272640
Si    7.46762   7.46762  15.61412  -0.000009230650224  -0.000009230650237  -0.000009212822691
Si    7.46762  10.18313  12.89863  -0.000003110689272   0.000000880662939   0.000003106557607
Si    6.10987  11.54087   0.67888  -0.000000880662518  -0.000003110689102   0.000003106557649
Si    8.82538  11.54087   3.39437   0.000009230650395  -0.000009230650382  -0.000009212822826
Si    6.10987  14.25638   3.39437   0.000000000000151   0.000000000000140  -0.000007347272794
Si    8.82538  14.25638   0.67888   0.000003110689454   0.000000880662766   0.000003106557614
Si   10.18313  12.89863   2.03662   0.000000000000123   0.000007339841322  -0.000000000000156
Si   10.18313  15.61412   4.75213   0.000000880662784  -0.000003110689193   0.000003106557599
Si    7.46762  12.89863   4.75213  -0.000009230650163   0.000009230650194   0.000009212822681
Si    7.46762  15.61412   2.03662  -0.000003092513219  -0.000003092513244  -0.000000875645622
Si    6.10987  11.54087   6.10987   0.000000000000079  -0.000007339841464   0.000000000000176
Si    8.82538  11.54087   8.82538   0.000008381558246  -0.000008381558374   0.000008385471951
Si    6.10987  14.25638   8.82538   0.000000000000099  -0.000000000000186   0.000007347272805
Si    8.82538  14.25638   6.10987   0.000007339841277  -0.000000000000062  -0.000000000000040
Si   10.18313  12.89863   7.46762   0.000000880662735   0.000003110689132  -0.000003106557714
Si   10.18313  15.61412  10.18313   0.000000000000045  -0.000007339841286   0.000000000000185
Si    7.46762  12.89863  10.18313  -0.000003092513317   0.000003092513214   0.000000875645610
Si    7.46762  15.61412   7.46762  -0.000009230650218  -0.000009230650256  -0.000009212822679
Si    6.10987  11.54087  11.54087   0.000000880662837  -0.000003110689309  -0.000003106557829
Si    8.82538  11.54087  14.25638   0.000003092513475  -0.000003092513099  -0.000000875645432
Si    6.10987  14.25638  14.25638   0.000000000000170   0.000000000000034  -0.000000000000005
Si    8.82538  14.25638  11.54087   0.000003110689392  -0.000000880662737  -0.000003106557578
Si   10.18313  12.89863  12.89863  -0.000000880662668   0.000003110689378   0.000003106557862
Si   10.18313  15.61412  15.61412  -0.000000880662616  -0.000003110689351  -0.000003106557796
Si    7.46762  12.89863  15.61412  -0.000008381558036   0.000008381558418  -0.000008385471990
Si    7.46762  15.61412  12.89863  -0.000008381558087  -0.000008381558365   0.000008385472004
Si   11.54087   0.67888   0.67888  -0.000008381558105   0.000008381558099   0.000008385471813
Si   14.25638   0.67888   3.39437  -0.000000880662680   0.000003110689415  -0.000003106557962
Si   11.54087   3.39437   3.39437  -0.000008381558085  -0.000008381558196  -0.000008385471803
Si   14.25638   3.39437   0.67888  -0.000000880662662  -0.000003110689500   0.000003106557965
Si   15.61412   2.03662   2.03662  -0.000007339841263  -0.000000000000028  -0.000000000000002
Si   15.61412   4.75213   4.75213  -0.000009230650329   0.000009230650405   0.000009212822877
Si   12.89863   2.03662   4.75213   0.000003110689309  -0.000000880662450   0.000003106557654
Si   12.89863   4.75213   2.03662   0.000003092513390   0.000003092513230  -0.000000875645076
Si   11.54087   0.67888   6.10987  -0.000003092513326   0.000003092513550  -0.000000875645578
Si   14.25638   0.67888   8.82538   0.000000880662677   0.000003110689341   0.000003106557828
Si   11.54087   3.39437   8.82538  -0.000009230650322  -0.000009230650117   0.000009212822564
Si   14.25638   3.39437   6.10987   0.000000000000084  -0.000007339840898  -0.000000000000093
Si   15.61412   2.03662   7.46762  -0.000003110689269  -0.000000880662452  -0.000003106557986
Si   15.61412   4.75213  10.18313  -0.000003092513278   0.000003092513564   0.000000875645109
Si   12.89863   2.03662  10.18313   0.000007339841237   0.000000000000003  -0.000000000000015
Si   12.89863   4.75213   7.46762   0.000009230650397   0.000009230650552  -0.000009212823018
Si   11.54087   0.67888  11.54087  -0.000009230650360   0.000009230650093  -0.000009212822531
Si   14.25638   0.67888  14.25638   0.000000000000035   0.000007339840888   0.000000000000143
Si   11.54087   3.39437  14.25638  -0.000003092513340  -0.000003092513675   0.000000875645571
Si   14.25638   3.39437  11.54087   0.000000880662692  -0.000003110689388  -0.000003106557853
Si   15.61412   2.03662  12.89863  -0.000003110689271   0.000000880662477   0.000003106557988
Si   15.61412   4.75213  15.61412  -0.000008381558132   0.000008381558023  -0.000008385471688
Si   12.89863   2.03662  15.61412   0.000003110689302   0.000000880662341  -0.000003106557655
Si   12.89863   4.75213  12.89863   0.000008381558272   0.000008381558117   0.000008385471762
Si   11.54087   6.10987   0.67888  -0.000003110689264  -0.000000880662853   0.000003106558087
Si   14.25638   6.10987   3.39437   0.000000000000055  -0.000000000000047  -0.000007347272282
Si   11.54087   8.82538   3.39437  -0.000009230650311   0.000009230650185  -0.000009212822521
Si   14.25638   8.82538   0.67888   0.000000880662639   0.000003110689385   0.000003106557929
Si   15.61412   7.46762   2.03662  -0.000003092513366  -0.000003092513497  -0.000000875645075
Si   15.61412  10.18313   4.75213  -0.000003110689294   0.000000880662469   0.000003106558024
Si   12.89863   7.46762   4.75213   0.000009230650393  -0.000009230650478   0.000009212823013
Si   12.89863  10.18313   2.03662   0.000007339841213   0.000000000000069   0.000000000000076
Si   11.54087   6.10987   6.10987  -0.000007339841061   0.000000000000043  -0.000000000000030
Si   14.25638   6.10987   8.82538   0.000000000000117   0.000000000000112   0.000007347272272
Si   11.54087   8.82538   8.82538  -0.000008381558112   0.000008381558175   0.000008385471723
Si   14.25638   8.82538   6.10987   0.000000000000077   0.000007339840962   0.000000000000073
Si   15.61412   7.46762   7.46762  -0.000009230650273  -0.000009230650337  -0.000009212822869
Si   15.61412  10.18313  10.18313  -0.000007339841171  -0.000000000000022  -0.000000000000059
Si   12.89863   7.46762  10.18313   0.000003092513429  -0.000003092513232   0.000000875645043
Si   12.89863  10.18313   7.46762   0.000003110689361   0.000000880662425  -0.000003106557764
Si   11.54087   6.10987  11.54087  -0.000003110689303   0.000000880662813  -0.000003106558068
Si   14.25638   6.10987  14.25638   0.000000000000060  -0.000000000000026  -0.000000000000001
Si   11.54087   8.82538  14.25638  -0.000003092513359   0.000003092513635  -0.000000875645508
Si   14.25638   8.82538  11.54087  -0.000000880662576   0.000003110689461  -0.000003106558016
Si   15.61412   7.46762  12.89863  -0.000008381558086  -0.000008381558062   0.000008385471642
Si   15.61412  10.18313  15.61412  -0.000003110689311  -0.000000880662426  -0.000003106557932
Si   12.89863   7.46762  15.61412   0.000008381558263  -0.000008381558126  -0.000008385471718
Si   12.89863  10.18313  12.89863   0.000003110689341  -0.000000880662371   0.000003106557699
Si   11.54087  11.54087   0.67888  -0.000009230650319  -0.000009230650051   0.000009212822647
Si   14.25638  11.54087   3.39437   0.000000880662617  -0.000003110689341  -0.000003106557804
Si   11.54087  14.25638   3.39437  -0.000003110689276   0.000000880662788  -0.000003106558053
Si   14.25638  14.25638   0.67888  -0.000000000000024   0.000000000000108   0.000007347272364
Si   15.61412  12.89863   2.03662  -0.000003092513418   0.000003092513543   0.000000875645205
Si   15.61412  15.61412   4.75213  -0.000008381558193  -0.000008381558112   0.000008385471674
Si   12.89863  12.89863   4.75213   0.000008381558266   0.000008381558100   0.000008385471734
Si   12.89863  15.61412   2.03662   0.000003092513353  -0.000003092513303   0.000000875645093
Si   11.54087  11.54087   6.10987  -0.000003092513318  -0.000003092513601   0.000000875645468
Si   14.25638  11.54087   8.82538  -0.000000880662588  -0.000003110689470   0.000003106557845
Si   11.54087  14.25638   8.82538  -0.000003110689268  -0.000000880662866   0.000003106557978
Si   14.25638  14.25638   6.10987   0.000000000000023  -0.000000000000052  -0.000000000000045
Si   15.61412  12.89863   7.46762  -0.000008381558150   0.000008381557989  -0.000008385471743
Si   15.61412  15.61412  10.18313  -0.000003092513352  -0.000003092513541  -0.000000875645184
Si   12.89863  12.89863  10.18313   0.000003092513401   0.000003092513266  -0.000000875645155
Si   12.89863  15.61412   7.46762   0.000008381558258  -0.000008381558178  -0.000008385471828
Si   11.54087  11.54087  11.54087  -0.000008381558121  -0.000008381558148  -0.000008385471813
Si   14.25638  11.54087  14.25638   0.000000000000037  -0.000007339840896  -0.000000000000060
Si   11.54087  14.25638  14.25638  -0.000007339841092   0.000000000000037   0.000000000000066
Si   14.25638  14.25638  11.54087   0.000000000000050  -0.000000000000088  -0.000007347272318
Si   15.61412  12.89863  12.89863  -0.000009230650350   0.000009230650396   0.000009212822844
Si   15.61412  15.61412  15.61412  -0.000009230650397  -0.000009230650362  -0.000009212822800
Si   12.89863  12.89863  15.61412   0.000009230650332   0.000009230650589  -0.000009212822902
Si   12.89863  15.61412  12.89863   0.000009230650328  -0.000009230650533   0.000009212823041
