216 

Si    0.67888   0.67888   0.67888   0.000006054896516   0.000006054891932   0.000006037998868
Si    3.39437   0.67888   3.39437  -0.000006054887847   0.000006054892070  -0.000006037998691
Si    0.67888   3.39437   3.39437   0.000006054896240  -0.000006054892053  -0.000006037998737
Si    3.39437   3.39437   0.67888  -0.000006054887681  -0.000006054892020   0.000006037998677
Si    4.75213   2.03662   2.03662   0.000008390602692  -0.000000000000071   0.000000000000006
Si    4.75213   4.75213   4.75213   0.000004929171944   0.000004929167336   0.000004933352659
Si    2.03662   2.03662   4.75213   0.000000000005145   0.000000000000039   0.000008395804554
Si    2.03662   4.75213   2.03662   0.000000000004893   0.000008390598506  -0.000000000000036
Si    0.67888   0.67888   6.10987   0.000002760052373   0.000002760047863   0.000000194082880
Si    3.39437   0.67888   8.82538  -0.000004929162964   0.000004929167608   0.000004933352728
Si    0.67888   3.39437   8.82538   0.000004929171475  -0.000004929167337   0.000004933352695
Si    3.39437   3.39437   6.10987  -0.000002760043554  -0.000002760048005   0.000000194082882
Si    4.75213   2.03662   7.46762   0.000002774852972   0.000000198723491  -0.000002771134939
Si    4.75213   4.75213  10.18313   0.000002760052109   0.000002760047739  -0.000000194082680
Si    2.03662   2.03662  10.18313   0.000000000005233  -0.000000000000094   0.000000000000082
Si    2.03662   4.75213   7.46762   0.000000198728688   0.000002774849046  -0.000002771134777
Si    0.67888   0.67888  11.54087   0.000004929171670   0.000004929167266  -0.000004933352639
Si    3.39437   0.67888  14.25638  -0.000002760043361   0.000002760047612  -0.000000194083054
Si    0.67888   3.39437  14.25638   0.000002760051852  -0.000002760047978  -0.000000194082961
Si    3.39437   3.39437  11.54087  -0.000004929162996  -0.000004929167639  -0.000004933352700
Si    4.75213   2.03662  12.89863   0.000002774852925  -0.000000198723603   0.000002771134733
Si    4.75213   4.75213  15.61412   0.000006054896410   0.000006054892061  -0.000006037998758
Si    2.03662   2.03662  15.61412   0.000000000004780   0.000000000000072  -0.000008395804299
Si    2.03662   4.75213  12.89863  -0.000000198718443   0.000002774849043   0.000002771134567
Si    0.67888   6.10987   0.67888   0.000002774853132   0.000000198723612   0.000002771134803
Si    3.39437   6.10987   3.39437  -0.000002774844736   0.000000198723318  -0.000002771134661
Si    0.67888   8.82538   3.39437   0.000004929171392   0.000004929167443  -0.000004933352647
Si    3.39437   8.82538   0.67888  -0.000004929163123   0.000004929167785   0.000004933352640
Si    4.75213   7.46762   2.03662   0.000002760052032  -0.000002760047708   0.000000194082887
Si    4.75213  10.18313   4.75213   0.000002774853015  -0.000000198723338   0.000002771134623
Si    2.03662   7.46762   4.75213   0.000000198728529  -0.000002774848919   0.000002771134553
Si    2.03662  10.18313   2.03662   0.000000000005491   0.000000000000057  -0.000000000000032
Si    0.67888   6.10987   6.10987   0.000008390602653  -0.000000000000030   0.000000000000191
Si    3.39437   6.10987   8.82538  -0.000002774844952  -0.000000198723306   0.000002771134492
Si    0.67888   8.82538   8.82538   0.000006054896329   0.000006054891997   0.000006037998546
Si    3.39437   8.82538   6.10987  -0.000002760043436   0.000002760048012  -0.000000194082594
Si    4.75213   7.46762   7.46762   0.000004929171940  -0.000004929167219  -0.000004933352635
Si    4.75213  10.18313  10.18313   0.000008390602675  -0.000000000000000  -0.000000000000152
Si    2.03662   7.46762  10.18313   0.000000000005114  -0.000008390598163   0.000000000000286
Si    2.03662  10.18313   7.46762   0.000000000005178  -0.000000000000024  -0.000008395804453
Si    0.67888   6.10987  11.54087   0.000002774853217  -0.000000198723636  -0.000002771135035
Si    3.39437   6.10987  14.25638  -0.000008390594098   0.000000000000074  -0.000000000000027
Si    0.67888   8.82538  14.25638   0.000002760052056   0.000002760047791   0.000000194082859
Si    3.39437   8.82538  11.54087  -0.000006054887985   0.000006054892034  -0.000006037998783
Si    4.75213   7.46762  12.89863   0.000006054896498  -0.000006054892052   0.000006037998825
Si    4.75213  10.18313  15.61412   0.000002774853002   0.000000198723583  -0.000002771134726
Si    2.03662   7.46762  15.61412  -0.000000198718424  -0.000002774848869  -0.000002771134491
Si    2.03662  10.18313  12.89863   0.000000000005144   0.000000000000010   0.000008395804403
Si    0.67888  11.54087   0.67888   0.000004929171830  -0.000004929167394   0.000004933352621
Si    3.39437  11.54087   3.39437  -0.000004929163109  -0.000004929167791  -0.000004933352546
Si    0.67888  14.25638   3.39437   0.000002774853298  -0.000000198723659  -0.000002771134466
Si    3.39437  14.25638   0.67888  -0.000002774844701  -0.000000198723511   0.000002771134752
Si    4.75213  12.89863   2.03662   0.000002760052121   0.000002760047921  -0.000000194082921
Si    4.75213  15.61412   4.75213   0.000006054896259  -0.000006054892084   0.000006037998725
Si    2.03662  12.89863   4.75213  -0.000000198718581   0.000002774848681   0.000002771134522
Si    2.03662  15.61412   2.03662   0.000000000005158  -0.000008390598265  -0.000000000000256
Si    0.67888  11.54087   6.10987   0.000002760052084  -0.000002760047716  -0.000000194082935
Si    3.39437  11.54087   8.82538  -0.000006054887752  -0.000006054892003   0.000006037998594
Si    0.67888  14.25638   8.82538   0.000002774852901   0.000000198723569   0.000002771134905
Si    3.39437  14.25638   6.10987  -0.000008390593594  -0.000000000000180   0.000000000000057
Si    4.75213  12.89863   7.46762   0.000006054896239   0.000006054892095  -0.000006037998633
Si    4.75213  15.61412  10.18313   0.000002760051925  -0.000002760047914   0.000000194082818
Si    2.03662  12.89863  10.18313   0.000000000004814   0.000008390597889  -0.000000000000186
Si    2.03662  15.61412   7.46762  -0.000000198718554  -0.000002774848744  -0.000002771134758
Si    0.67888  11.54087  11.54087   0.000006054896420  -0.000006054891954  -0.000006037998691
Si    3.39437  11.54087  14.25638  -0.000002760043593  -0.000002760047768   0.000000194082945
Si    0.67888  14.25638  14.25638   0.000008390602638  -0.000000000000006   0.000000000000042
Si    3.39437  14.25638  11.54087  -0.000002774844287   0.000000198723616  -0.000002771134523
Si    4.75213  12.89863  12.89863   0.000004929171858   0.000004929167399   0.000004933352603
Si    4.75213  15.61412  15.61412   0.000004929171834  -0.000004929167361  -0.000004933352593
Si    2.03662  12.89863  15.61412   0.000000198728882   0.000002774848661  -0.000002771134850
Si    2.03662  15.61412  12.89863   0.000000198728536  -0.000002774848720   0.000002771134725
Si    6.10987   0.67888   0.67888   0.000000198728659   0.000002774848977   0.000002771134831
Si    8.82538   0.67888   3.39437   0.000004929172058   0.000004929167330  -0.000004933352647
Si    6.10987   3.39437   3.39437   0.000000198728428  -0.000002774848966  -0.000002771134680
Si    8.82538   3.39437   0.67888   0.000004929171949  -0.000004929167302   0.000004933352618
Si   10.18313   2.03662   2.03662   0.000000000005160  -0.000000000000020   0.000000000000092
Si   10.18313   4.75213   4.75213  -0.000000198718565   0.000002774848700   0.000002771134515
Si    7.46762   2.03662   4.75213  -0.000002774844621   0.000000198723337   0.000002771134624
Si    7.46762   4.75213   2.03662  -0.000002760043045   0.000002760047646   0.000000194082696
Si    6.10987   0.67888   6.10987   0.000000000005252   0.000008390598257   0.000000000000220
Si    8.82538   0.67888   8.82538   0.000006054896125   0.000006054891948   0.000006037998615
Si    6.10987   3.39437   8.82538  -0.000000198718276  -0.000002774848942   0.000002771134673
Si    8.82538   3.39437   6.10987   0.000002760052310  -0.000002760047645  -0.000000194082952
Si   10.18313   2.03662   7.46762   0.000000000005321  -0.000000000000018  -0.000008395804187
Si   10.18313   4.75213  10.18313   0.000000000005231   0.000008390598052  -0.000000000000203
Si    7.46762   2.03662  10.18313  -0.000008390593747  -0.000000000000055   0.000000000000026
Si    7.46762   4.75213   7.46762  -0.000004929163383   0.000004929167580  -0.000004933352776
Si    6.10987   0.67888  11.54087  -0.000000198718167   0.000002774848884  -0.000002771134641
Si    8.82538   0.67888  14.25638   0.000002760052008   0.000002760047937   0.000000194083081
Si    6.10987   3.39437  14.25638   0.000000000005084  -0.000008390598116   0.000000000000036
Si    8.82538   3.39437  11.54087   0.000006054896154  -0.000006054892072  -0.000006037998547
Si   10.18313   2.03662  12.89863   0.000000000005129   0.000000000000104   0.000008395804239
Si   10.18313   4.75213  15.61412   0.000000198728582   0.000002774848693  -0.000002771134830
Si    7.46762   2.03662  15.61412  -0.000002774844344  -0.000000198723746  -0.000002771134708
Si    7.46762   4.75213  12.89863  -0.000006054887699   0.000006054892113   0.000006037998847
Si    6.10987   6.10987   0.67888   0.000000000004977   0.000000000000021   0.000008395804240
Si    8.82538   6.10987   3.39437   0.000002774853060  -0.000000198723524  -0.000002771134472
Si    6.10987   8.82538   3.39437  -0.000000198718542   0.000002774848922  -0.000002771134531
Si    8.82538   8.82538   0.67888   0.000006054895949   0.000006054892039   0.000006037998847
Si   10.18313   7.46762   2.03662   0.000000000005076  -0.000008390598146  -0.000000000000055
Si   10.18313  10.18313   4.75213   0.000000000005032  -0.000000000000037   0.000008395804455
Si    7.46762   7.46762   4.75213  -0.000004929163130  -0.000004929167757   0.000004933352746
Si    7.46762  10.18313   2.03662  -0.000008390593794   0.000000000000215  -0.000000000000096
Si    6.10987   6.10987   6.10987   0.000000000005448   0.000000000000095  -0.000000000000139
Si    8.82538   6.10987   8.82538   0.000002774853265   0.000000198723574   0.000002771134907
Si    6.10987   8.82538   8.82538   0.000000198728288   0.000002774848767   0.000002771135053
Si    8.82538   8.82538   6.10987   0.000002760052176   0.000002760047747   0.000000194082827
Si   10.18313   7.46762   7.46762  -0.000000198718682  -0.000002774848841  -0.000002771134744
Si   10.18313  10.18313  10.18313   0.000000000005085   0.000000000000025   0.000000000000047
Si    7.46762   7.46762  10.18313  -0.000002760043615  -0.000002760047789  -0.000000194083066
Si    7.46762  10.18313   7.46762  -0.000002774844453  -0.000000198723180  -0.000002771134681
Si    6.10987   6.10987  11.54087   0.000000000005247   0.000000000000050  -0.000008395804365
Si    8.82538   6.10987  14.25638   0.000008390602545  -0.000000000000010  -0.000000000000019
Si    6.10987   8.82538  14.25638   0.000000000004772   0.000008390598223   0.000000000000065
Si    8.82538   8.82538  11.54087   0.000004929172072   0.000004929167377  -0.000004933352688
Si   10.18313   7.46762  12.89863   0.000000198728623  -0.000002774848890   0.000002771134826
Si   10.18313  10.18313  15.61412   0.000000000005170   0.000000000000100  -0.000008395804340
Si    7.46762   7.46762  15.61412  -0.000006054887524  -0.000006054892139  -0.000006037998722
Si    7.46762  10.18313  12.89863  -0.000002774844467   0.000000198723754   0.000002771134656
Si    6.10987  11.54087   0.67888  -0.000000198718278  -0.000002774849038   0.000002771134648
Si    8.82538  11.54087   3.39437   0.000006054895929  -0.000006054892028  -0.000006037998908
Si    6.10987  14.25638   3.39437   0.000000000005140  -0.000000000000158  -0.000008395804289
Si    8.82538  14.25638   0.67888   0.000002774853255   0.000000198723374   0.000002771134859
Si   10.18313  12.89863   2.03662   0.000000000004959   0.000008390598524  -0.000000000000089
Si   10.18313  15.61412   4.75213   0.000000198728615  -0.000002774848782   0.000002771134711
Si    7.46762  12.89863   4.75213  -0.000006054887892   0.000006054892090   0.000006037998751
Si    7.46762  15.61412   2.03662  -0.000002760043473  -0.000002760047582  -0.000000194082919
Si    6.10987  11.54087   6.10987   0.000000000005077  -0.000008390598325  -0.000000000000115
Si    8.82538  11.54087   8.82538   0.000004929171803  -0.000004929167462   0.000004933352559
Si    6.10987  14.25638   8.82538   0.000000000005116   0.000000000000055   0.000008395804189
Si    8.82538  14.25638   6.10987   0.000008390602510   0.000000000000018   0.000000000000140
Si   10.18313  12.89863   7.46762   0.000000198728372   0.000002774849034  -0.000002771134726
Si   10.18313  15.61412  10.18313   0.000000000004849  -0.000008390598282  -0.000000000000058
Si    7.46762  12.89863  10.18313  -0.000002760043351   0.000002760047693   0.000000194083079
Si    7.46762  15.61412   7.46762  -0.000006054887798  -0.000006054892117  -0.000006037998879
Si    6.10987  11.54087  11.54087   0.000000198728532  -0.000002774848769  -0.000002771134863
Si    8.82538  11.54087  14.25638   0.000002760052068  -0.000002760047941  -0.000000194082916
Si    6.10987  14.25638  14.25638   0.000000000005373  -0.000000000000262   0.000000000000035
Si    8.82538  14.25638  11.54087   0.000002774853265  -0.000000198723643  -0.000002771134793
Si   10.18313  12.89863  12.89863  -0.000000198718583   0.000002774849055   0.000002771134653
Si   10.18313  15.61412  15.61412  -0.000000198718353  -0.000002774848828  -0.000002771134731
Si    7.46762  12.89863  15.61412  -0.000004929163411   0.000004929167666  -0.000004933352708
Si    7.46762  15.61412  12.89863  -0.000004929163193  -0.000004929167405   0.000004933352690
Si   11.54087   0.67888   0.67888  -0.000004929163219   0.000004929167710   0.000004933352640
Si   14.25638   0.67888   3.39437  -0.000000198718543   0.000002774848814  -0.000002771134620
Si   11.54087   3.39437   3.39437  -0.000004929163307  -0.000004929167635  -0.000004933352708
Si   14.25638   3.39437   0.67888  -0.000000198718535  -0.000002774848847   0.000002771134663
Si   15.61412   2.03662   2.03662  -0.000008390594002   0.000000000000194  -0.000000000000018
Si   15.61412   4.75213   4.75213  -0.000006054887785   0.000006054892070   0.000006037998670
Si   12.89863   2.03662   4.75213   0.000002774853131  -0.000000198723681   0.000002771134719
Si   12.89863   4.75213   2.03662   0.000002760052036   0.000002760047827  -0.000000194082866
Si   11.54087   0.67888   6.10987  -0.000002760043573   0.000002760047802  -0.000000194082867
Si   14.25638   0.67888   8.82538   0.000000198728445   0.000002774848994   0.000002771135073
Si   11.54087   3.39437   8.82538  -0.000006054887693  -0.000006054892137   0.000006037998566
Si   14.25638   3.39437   6.10987   0.000000000005023  -0.000008390598120   0.000000000000136
Si   15.61412   2.03662   7.46762  -0.000002774844631  -0.000000198723513  -0.000002771134688
Si   15.61412   4.75213  10.18313  -0.000002760043536   0.000002760047855   0.000000194083044
Si   12.89863   2.03662  10.18313   0.000008390602395   0.000000000000059  -0.000000000000150
Si   12.89863   4.75213   7.46762   0.000006054896334   0.000006054892182  -0.000006037998636
Si   11.54087   0.67888  11.54087  -0.000006054887627   0.000006054892284  -0.000006037998594
Si   14.25638   0.67888  14.25638   0.000000000005093   0.000008390598436   0.000000000000177
Si   11.54087   3.39437  14.25638  -0.000002760043540  -0.000002760047922   0.000000194083218
Si   14.25638   3.39437  11.54087   0.000000198728687  -0.000002774849012  -0.000002771134741
Si   15.61412   2.03662  12.89863  -0.000002774844438   0.000000198723848   0.000002771134635
Si   15.61412   4.75213  15.61412  -0.000004929163133   0.000004929167519  -0.000004933352831
Si   12.89863   2.03662  15.61412   0.000002774853012   0.000000198723681  -0.000002771134916
Si   12.89863   4.75213  12.89863   0.000004929171998   0.000004929167516   0.000004933352509
Si   11.54087   6.10987   0.67888  -0.000002774844368  -0.000000198723578   0.000002771134500
Si   14.25638   6.10987   3.39437   0.000000000005146   0.000000000000006  -0.000008395804482
Si   11.54087   8.82538   3.39437  -0.000006054887523   0.000006054891903  -0.000006037998645
Si   14.25638   8.82538   0.67888   0.000000198728672   0.000002774848719   0.000002771134802
Si   15.61412   7.46762   2.03662  -0.000002760043128  -0.000002760047727  -0.000000194082881
Si   15.61412  10.18313   4.75213  -0.000002774844238   0.000000198723459   0.000002771134742
Si   12.89863   7.46762   4.75213   0.000006054895939  -0.000006054892013   0.000006037998812
Si   12.89863  10.18313   2.03662   0.000008390602559   0.000000000000048  -0.000000000000097
Si   11.54087   6.10987   6.10987  -0.000008390593628  -0.000000000000075  -0.000000000000018
Si   14.25638   6.10987   8.82538   0.000000000005267  -0.000000000000294   0.000008395804276
Si   11.54087   8.82538   8.82538  -0.000004929163210   0.000004929167688   0.000004933352910
Si   14.25638   8.82538   6.10987   0.000000000005218   0.000008390598174   0.000000000000103
Si   15.61412   7.46762   7.46762  -0.000006054887846  -0.000006054892043  -0.000006037998781
Si   15.61412  10.18313  10.18313  -0.000008390593796  -0.000000000000105  -0.000000000000005
Si   12.89863   7.46762  10.18313   0.000002760052227  -0.000002760047971   0.000000194082816
Si   12.89863  10.18313   7.46762   0.000002774853123   0.000000198723428  -0.000002771134893
Si   11.54087   6.10987  11.54087  -0.000002774844554   0.000000198723456  -0.000002771134485
Si   14.25638   6.10987  14.25638   0.000000000005288  -0.000000000000037  -0.000000000000011
Si   11.54087   8.82538  14.25638  -0.000002760043526   0.000002760047773  -0.000000194083056
Si   14.25638   8.82538  11.54087  -0.000000198718565   0.000002774848988  -0.000002771134507
Si   15.61412   7.46762  12.89863  -0.000004929163372  -0.000004929167554   0.000004933352891
Si   15.61412  10.18313  15.61412  -0.000002774844565  -0.000000198723427  -0.000002771134746
Si   12.89863   7.46762  15.61412   0.000004929171859  -0.000004929167562  -0.000004933352469
Si   12.89863  10.18313  12.89863   0.000002774853304  -0.000000198723377   0.000002771134801
Si   11.54087  11.54087   0.67888  -0.000006054887748  -0.000006054892096   0.000006037998776
Si   14.25638  11.54087   3.39437   0.000000198728505  -0.000002774848882  -0.000002771134787
Si   11.54087  14.25638   3.39437  -0.000002774844835   0.000000198723430  -0.000002771134643
Si   14.25638  14.25638   0.67888   0.000000000005251  -0.000000000000024   0.000008395804350
Si   15.61412  12.89863   2.03662  -0.000002760043624   0.000002760047740   0.000000194082878
Si   15.61412  15.61412   4.75213  -0.000004929163452  -0.000004929167664   0.000004933352716
Si   12.89863  12.89863   4.75213   0.000004929172010   0.000004929167219   0.000004933352699
Si   12.89863  15.61412   2.03662   0.000002760052239  -0.000002760047569   0.000000194082913
Si   11.54087  11.54087   6.10987  -0.000002760043281  -0.000002760047723   0.000000194082781
Si   14.25638  11.54087   8.82538  -0.000000198718417  -0.000002774848811   0.000002771134695
Si   11.54087  14.25638   8.82538  -0.000002774844725  -0.000000198723425   0.000002771134658
Si   14.25638  14.25638   6.10987   0.000000000005206   0.000000000000102  -0.000000000000074
Si   15.61412  12.89863   7.46762  -0.000004929162927   0.000004929167574  -0.000004933352795
Si   15.61412  15.61412  10.18313  -0.000002760043162  -0.000002760047710  -0.000000194083151
Si   12.89863  12.89863  10.18313   0.000002760052100   0.000002760047773  -0.000000194082758
Si   12.89863  15.61412   7.46762   0.000004929172035  -0.000004929167132  -0.000004933352695
Si   11.54087  11.54087  11.54087  -0.000004929163081  -0.000004929167794  -0.000004933352841
Si   14.25638  11.54087  14.25638   0.000000000005224  -0.000008390598417  -0.000000000000164
Si   11.54087  14.25638  14.25638  -0.000008390594251   0.000000000000047   0.000000000000163
Si   14.25638  14.25638  11.54087   0.000000000005248   0.000000000000055  -0.000008395804336
Si   15.61412  12.89863  12.89863  -0.000006054887837   0.000006054891979   0.000006037998842
Si   15.61412  15.61412  15.61412  -0.000006054887886  -0.000006054892021  -0.000006037998805
Si   12.89863  12.89863  15.61412   0.000006054896230   0.000006054892014  -0.000006037998728
Si   12.89863  15.61412  12.89863   0.000006054896303  -0.000006054892148   0.000006037998628
