216 

Si    0.67888   0.67888   0.67888   0.000009230650306   0.000009230650295   0.000009212822698
Si    3.39437   0.67888   3.39437  -0.000009230650240   0.000009230650524  -0.000009212822923
Si    0.67888   3.39437   3.39437   0.000009230650359  -0.000009230650251  -0.000009212822727
Si    3.39437   3.39437   0.67888  -0.000009230650237  -0.000009230650444   0.000009212822861
Si    4.75213   2.03662   2.03662   0.000007339841274   0.000000000000028  -0.000000000000019
Si    4.75213   4.75213   4.75213   0.000008381558209   0.000008381558242   0.000008385471876
Si    2.03662   2.03662   4.75213   0.000000000000032   0.000000000000340   0.000007347272486
Si    2.03662   4.75213   2.03662   0.000000000000028   0.000007339841054   0.000000000000276
Si    0.67888   0.67888   6.10987   0.000003092513372   0.000003092513638   0.000000875645195
Si    3.39437   0.67888   8.82538  -0.000008381558118   0.000008381558330   0.000008385471893
Si    0.67888   3.39437   8.82538   0.000008381558283  -0.000008381557924   0.000008385471596
Si    3.39437   3.39437   6.10987  -0.000003092513302  -0.000003092513101   0.000000875645284
Si    4.75213   2.03662   7.46762   0.000003110689443   0.000000880662935  -0.000003106557911
Si    4.75213   4.75213  10.18313   0.000003092513481   0.000003092513515  -0.000000875645546
Si    2.03662   2.03662  10.18313   0.000000000000165   0.000000000000075   0.000000000000020
Si    2.03662   4.75213   7.46762   0.000000880662737   0.000003110689541  -0.000003106558021
Si    0.67888   0.67888  11.54087   0.000008381558235   0.000008381558002  -0.000008385471536
Si    3.39437   0.67888  14.25638  -0.000003092513312   0.000003092513211  -0.000000875645285
Si    0.67888   3.39437  14.25638   0.000003092513430  -0.000003092513588  -0.000000875645192
Si    3.39437   3.39437  11.54087  -0.000008381558128  -0.000008381558221  -0.000008385471867
Si    4.75213   2.03662  12.89863   0.000003110689420  -0.000000880662806   0.000003106557942
Si    4.75213   4.75213  15.61412   0.000009230650375   0.000009230650116  -0.000009212822645
Si    2.03662   2.03662  15.61412   0.000000000000022  -0.000000000000239  -0.000007347272507
Si    2.03662   4.75213  12.89863  -0.000000880662538   0.000003110689263   0.000003106557769
Si    0.67888   6.10987   0.67888   0.000003110689332   0.000000880662456   0.000003106557992
Si    3.39437   6.10987   3.39437  -0.000003110689235   0.000000880662518  -0.000003106557529
Si    0.67888   8.82538   3.39437   0.000008381558148   0.000008381557931  -0.000008385471591
Si    3.39437   8.82538   0.67888  -0.000008381558137   0.000008381558194   0.000008385471859
Si    4.75213   7.46762   2.03662   0.000003092513503  -0.000003092513582   0.000000875645564
Si    4.75213  10.18313   4.75213   0.000003110689454  -0.000000880662923   0.000003106557969
Si    2.03662   7.46762   4.75213   0.000000880662723  -0.000003110689586   0.000003106558062
Si    2.03662  10.18313   2.03662   0.000000000000080  -0.000000000000052   0.000000000000024
Si    0.67888   6.10987   6.10987   0.000007339841241  -0.000000000000007  -0.000000000000003
Si    3.39437   6.10987   8.82538  -0.000003110689232  -0.000000880662600   0.000003106557581
Si    0.67888   8.82538   8.82538   0.000009230650416   0.000009230650204   0.000009212822686
Si    3.39437   8.82538   6.10987  -0.000003092513310   0.000003092513067  -0.000000875645248
Si    4.75213   7.46762   7.46762   0.000008381558210  -0.000008381558312  -0.000008385471842
Si    4.75213  10.18313  10.18313   0.000007339841246  -0.000000000000060  -0.000000000000014
Si    2.03662   7.46762  10.18313   0.000000000000092  -0.000007339841135  -0.000000000000275
Si    2.03662  10.18313   7.46762   0.000000000000030  -0.000000000000340  -0.000007347272479
Si    0.67888   6.10987  11.54087   0.000003110689426  -0.000000880662544  -0.000003106557991
Si    3.39437   6.10987  14.25638  -0.000007339841182  -0.000000000000050  -0.000000000000054
Si    0.67888   8.82538  14.25638   0.000003092513409   0.000003092513530   0.000000875645195
Si    3.39437   8.82538  11.54087  -0.000009230650206   0.000009230650349  -0.000009212822920
Si    4.75213   7.46762  12.89863   0.000009230650384  -0.000009230650224   0.000009212822571
Si    4.75213  10.18313  15.61412   0.000003110689438   0.000000880662819  -0.000003106557975
Si    2.03662   7.46762  15.61412  -0.000000880662591  -0.000003110689338  -0.000003106557788
Si    2.03662  10.18313  12.89863   0.000000000000028   0.000000000000227   0.000007347272471
Si    0.67888  11.54087   0.67888   0.000008381558103  -0.000008381557957   0.000008385471581
Si    3.39437  11.54087   3.39437  -0.000008381558146  -0.000008381558282  -0.000008385471875
Si    0.67888  14.25638   3.39437   0.000003110689232  -0.000000880662471  -0.000003106558030
Si    3.39437  14.25638   0.67888  -0.000003110689247  -0.000000880662527   0.000003106557532
Si    4.75213  12.89863   2.03662   0.000003092513573   0.000003092513527  -0.000000875645568
Si    4.75213  15.61412   4.75213   0.000009230650435  -0.000009230650097   0.000009212822617
Si    2.03662  12.89863   4.75213  -0.000000880662653   0.000003110689248   0.000003106557763
Si    2.03662  15.61412   2.03662  -0.000000000000013  -0.000007339841020  -0.000000000000309
Si    0.67888  11.54087   6.10987   0.000003092513359  -0.000003092513597  -0.000000875645223
Si    3.39437  11.54087   8.82538  -0.000009230650213  -0.000009230650485   0.000009212822906
Si    0.67888  14.25638   8.82538   0.000003110689337   0.000000880662545   0.000003106557993
Si    3.39437  14.25638   6.10987  -0.000007339841161   0.000000000000037   0.000000000000024
Si    4.75213  12.89863   7.46762   0.000009230650433   0.000009230650147  -0.000009212822607
Si    4.75213  15.61412  10.18313   0.000003092513503  -0.000003092513449   0.000000875645586
Si    2.03662  12.89863  10.18313   0.000000000000032   0.000007339841055   0.000000000000292
Si    2.03662  15.61412   7.46762  -0.000000880662619  -0.000003110689210  -0.000003106557770
Si    0.67888  11.54087  11.54087   0.000009230650385  -0.000009230650290  -0.000009212822692
Si    3.39437  11.54087  14.25638  -0.000003092513314  -0.000003092513162   0.000000875645238
Si    0.67888  14.25638  14.25638   0.000007339841147   0.000000000000043   0.000000000000035
Si    3.39437  14.25638  11.54087  -0.000003110689202   0.000000880662622  -0.000003106557539
Si    4.75213  12.89863  12.89863   0.000008381558260   0.000008381558242   0.000008385471845
Si    4.75213  15.61412  15.61412   0.000008381558285  -0.000008381558140  -0.000008385471883
Si    2.03662  12.89863  15.61412   0.000000880662654   0.000003110689560  -0.000003106558059
Si    2.03662  15.61412  12.89863   0.000000880662709  -0.000003110689455   0.000003106558050
Si    6.10987   0.67888   0.67888   0.000000880662881   0.000003110689321   0.000003106557740
Si    8.82538   0.67888   3.39437   0.000008381558329   0.000008381558339  -0.000008385472062
Si    6.10987   3.39437   3.39437   0.000000880662835  -0.000003110689281  -0.000003106557799
Si    8.82538   3.39437   0.67888   0.000008381558275  -0.000008381558413   0.000008385472017
Si   10.18313   2.03662   2.03662   0.000000000000012  -0.000000000000044  -0.000000000000014
Si   10.18313   4.75213   4.75213  -0.000000880662673   0.000003110689330   0.000003106557755
Si    7.46762   2.03662   4.75213  -0.000003110689268   0.000000880662952   0.000003106557638
Si    7.46762   4.75213   2.03662  -0.000003092513318   0.000003092513211   0.000000875645635
Si    6.10987   0.67888   6.10987   0.000000000000106   0.000007339841466  -0.000000000000172
Si    8.82538   0.67888   8.82538   0.000009230650294   0.000009230650371   0.000009212822845
Si    6.10987   3.39437   8.82538  -0.000000880662666  -0.000003110689099   0.000003106557608
Si    8.82538   3.39437   6.10987   0.000003092513406  -0.000003092513186  -0.000000875645520
Si   10.18313   2.03662   7.46762   0.000000000000037   0.000000000000163  -0.000007347272744
Si   10.18313   4.75213  10.18313  -0.000000000000011   0.000007339841275  -0.000000000000181
Si    7.46762   2.03662  10.18313  -0.000007339841143   0.000000000000024   0.000000000000032
Si    7.46762   4.75213   7.46762  -0.000008381558191   0.000008381558378  -0.000008385472005
Si    6.10987   0.67888  11.54087  -0.000000880662597   0.000003110689180  -0.000003106557585
Si    8.82538   0.67888  14.25638   0.000003092513451   0.000003092513152   0.000000875645509
Si    6.10987   3.39437  14.25638   0.000000000000054  -0.000007339841416   0.000000000000154
Si    8.82538   3.39437  11.54087   0.000009230650233  -0.000009230650431  -0.000009212822830
Si   10.18313   2.03662  12.89863   0.000000000000021  -0.000000000000244   0.000007347272785
Si   10.18313   4.75213  15.61412   0.000000880662740   0.000003110689104  -0.000003106557588
Si    7.46762   2.03662  15.61412  -0.000003110689278  -0.000000880662955  -0.000003106557637
Si    7.46762   4.75213  12.89863  -0.000009230650316   0.000009230650205   0.000009212822685
Si    6.10987   6.10987   0.67888   0.000000000000084  -0.000000000000209   0.000007347272808
Si    8.82538   6.10987   3.39437   0.000003110689401  -0.000000880662777  -0.000003106557607
Si    6.10987   8.82538   3.39437  -0.000000880662553   0.000003110689057  -0.000003106557560
Si    8.82538   8.82538   0.67888   0.000009230650381   0.000009230650431   0.000009212822905
Si   10.18313   7.46762   2.03662   0.000000000000097  -0.000007339841273   0.000000000000184
Si   10.18313  10.18313   4.75213   0.000000000000086  -0.000000000000157   0.000007347272620
Si    7.46762   7.46762   4.75213  -0.000008381558134  -0.000008381558383   0.000008385472002
Si    7.46762  10.18313   2.03662  -0.000007339840965  -0.000000000000003  -0.000000000000003
Si    6.10987   6.10987   6.10987   0.000000000000094  -0.000000000000031   0.000000000000003
Si    8.82538   6.10987   8.82538   0.000003110689273   0.000000880662760   0.000003106557574
Si    6.10987   8.82538   8.82538   0.000000880662783   0.000003110689235   0.000003106557805
Si    8.82538   8.82538   6.10987   0.000003092513447   0.000003092513166   0.000000875645405
Si   10.18313   7.46762   7.46762  -0.000000880662687  -0.000003110689299  -0.000003106557896
Si   10.18313  10.18313  10.18313  -0.000000000000030   0.000000000000036   0.000000000000001
Si    7.46762   7.46762  10.18313  -0.000003092513405  -0.000003092513280  -0.000000875645631
Si    7.46762  10.18313   7.46762  -0.000003110689252  -0.000000880662959  -0.000003106557692
Si    6.10987   6.10987  11.54087  -0.000000000000009   0.000000000000143  -0.000007347272815
Si    8.82538   6.10987  14.25638   0.000007339841176  -0.000000000000024   0.000000000000032
Si    6.10987   8.82538  14.25638   0.000000000000064   0.000007339841381  -0.000000000000197
Si    8.82538   8.82538  11.54087   0.000008381558206   0.000008381558382  -0.000008385471967
Si   10.18313   7.46762  12.89863   0.000000880662702  -0.000003110689134   0.000003106557691
Si   10.18313  10.18313  15.61412   0.000000000000087   0.000000000000238  -0.000007347272634
Si    7.46762   7.46762  15.61412  -0.000009230650228  -0.000009230650272  -0.000009212822670
Si    7.46762  10.18313  12.89863  -0.000003110689272   0.000000880662920   0.000003106557668
Si    6.10987  11.54087   0.67888  -0.000000880662496  -0.000003110689088   0.000003106557612
Si    8.82538  11.54087   3.39437   0.000009230650428  -0.000009230650380  -0.000009212822887
Si    6.10987  14.25638   3.39437   0.000000000000190   0.000000000000205  -0.000007347272833
Si    8.82538  14.25638   0.67888   0.000003110689465   0.000000880662792   0.000003106557597
Si   10.18313  12.89863   2.03662   0.000000000000131   0.000007339841321  -0.000000000000190
Si   10.18313  15.61412   4.75213   0.000000880662776  -0.000003110689158   0.000003106557564
Si    7.46762  12.89863   4.75213  -0.000009230650137   0.000009230650240   0.000009212822656
Si    7.46762  15.61412   2.03662  -0.000003092513206  -0.000003092513215  -0.000000875645640
Si    6.10987  11.54087   6.10987   0.000000000000131  -0.000007339841432   0.000000000000161
Si    8.82538  11.54087   8.82538   0.000008381558247  -0.000008381558357   0.000008385471978
Si    6.10987  14.25638   8.82538   0.000000000000106  -0.000000000000130   0.000007347272822
Si    8.82538  14.25638   6.10987   0.000007339841257  -0.000000000000020  -0.000000000000074
Si   10.18313  12.89863   7.46762   0.000000880662734   0.000003110689170  -0.000003106557720
Si   10.18313  15.61412  10.18313   0.000000000000026  -0.000007339841290   0.000000000000211
Si    7.46762  12.89863  10.18313  -0.000003092513315   0.000003092513254   0.000000875645662
Si    7.46762  15.61412   7.46762  -0.000009230650217  -0.000009230650215  -0.000009212822694
Si    6.10987  11.54087  11.54087   0.000000880662853  -0.000003110689300  -0.000003106557773
Si    8.82538  11.54087  14.25638   0.000003092513503  -0.000003092513103  -0.000000875645402
Si    6.10987  14.25638  14.25638   0.000000000000177   0.000000000000055   0.000000000000010
Si    8.82538  14.25638  11.54087   0.000003110689394  -0.000000880662750  -0.000003106557556
Si   10.18313  12.89863  12.89863  -0.000000880662672   0.000003110689382   0.000003106557911
Si   10.18313  15.61412  15.61412  -0.000000880662607  -0.000003110689357  -0.000003106557758
Si    7.46762  12.89863  15.61412  -0.000008381558025   0.000008381558408  -0.000008385471994
Si    7.46762  15.61412  12.89863  -0.000008381558114  -0.000008381558356   0.000008385472055
Si   11.54087   0.67888   0.67888  -0.000008381558102   0.000008381558108   0.000008385471809
Si   14.25638   0.67888   3.39437  -0.000000880662681   0.000003110689440  -0.000003106558010
Si   11.54087   3.39437   3.39437  -0.000008381558118  -0.000008381558200  -0.000008385471854
Si   14.25638   3.39437   0.67888  -0.000000880662644  -0.000003110689520   0.000003106557975
Si   15.61412   2.03662   2.03662  -0.000007339841254   0.000000000000006  -0.000000000000040
Si   15.61412   4.75213   4.75213  -0.000009230650317   0.000009230650361   0.000009212822813
Si   12.89863   2.03662   4.75213   0.000003110689315  -0.000000880662452   0.000003106557595
Si   12.89863   4.75213   2.03662   0.000003092513374   0.000003092513219  -0.000000875645103
Si   11.54087   0.67888   6.10987  -0.000003092513361   0.000003092513574  -0.000000875645637
Si   14.25638   0.67888   8.82538   0.000000880662698   0.000003110689353   0.000003106557836
Si   11.54087   3.39437   8.82538  -0.000009230650359  -0.000009230650145   0.000009212822542
Si   14.25638   3.39437   6.10987   0.000000000000108  -0.000007339840920  -0.000000000000159
Si   15.61412   2.03662   7.46762  -0.000003110689228  -0.000000880662458  -0.000003106558017
Si   15.61412   4.75213  10.18313  -0.000003092513223   0.000003092513541   0.000000875645175
Si   12.89863   2.03662  10.18313   0.000007339841260  -0.000000000000028   0.000000000000013
Si   12.89863   4.75213   7.46762   0.000009230650396   0.000009230650520  -0.000009212823059
Si   11.54087   0.67888  11.54087  -0.000009230650364   0.000009230650075  -0.000009212822495
Si   14.25638   0.67888  14.25638   0.000000000000063   0.000007339840896   0.000000000000193
Si   11.54087   3.39437  14.25638  -0.000003092513357  -0.000003092513660   0.000000875645621
Si   14.25638   3.39437  11.54087   0.000000880662728  -0.000003110689384  -0.000003106557789
Si   15.61412   2.03662  12.89863  -0.000003110689228   0.000000880662471   0.000003106558032
Si   15.61412   4.75213  15.61412  -0.000008381558112   0.000008381558035  -0.000008385471686
Si   12.89863   2.03662  15.61412   0.000003110689325   0.000000880662356  -0.000003106557616
Si   12.89863   4.75213  12.89863   0.000008381558294   0.000008381558107   0.000008385471844
Si   11.54087   6.10987   0.67888  -0.000003110689277  -0.000000880662843   0.000003106558077
Si   14.25638   6.10987   3.39437   0.000000000000057  -0.000000000000094  -0.000007347272353
Si   11.54087   8.82538   3.39437  -0.000009230650341   0.000009230650192  -0.000009212822614
Si   14.25638   8.82538   0.67888   0.000000880662606   0.000003110689376   0.000003106557877
Si   15.61412   7.46762   2.03662  -0.000003092513364  -0.000003092513566  -0.000000875645143
Si   15.61412  10.18313   4.75213  -0.000003110689321   0.000000880662465   0.000003106557957
Si   12.89863   7.46762   4.75213   0.000009230650346  -0.000009230650517   0.000009212822931
Si   12.89863  10.18313   2.03662   0.000007339841169   0.000000000000045   0.000000000000018
Si   11.54087   6.10987   6.10987  -0.000007339841102   0.000000000000010  -0.000000000000094
Si   14.25638   6.10987   8.82538   0.000000000000139   0.000000000000088   0.000007347272276
Si   11.54087   8.82538   8.82538  -0.000008381558148   0.000008381558191   0.000008385471747
Si   14.25638   8.82538   6.10987   0.000000000000066   0.000007339840939   0.000000000000016
Si   15.61412   7.46762   7.46762  -0.000009230650261  -0.000009230650412  -0.000009212822863
Si   15.61412  10.18313  10.18313  -0.000007339841167  -0.000000000000016   0.000000000000033
Si   12.89863   7.46762  10.18313   0.000003092513422  -0.000003092513245   0.000000875645107
Si   12.89863  10.18313   7.46762   0.000003110689306   0.000000880662441  -0.000003106557775
Si   11.54087   6.10987  11.54087  -0.000003110689304   0.000000880662825  -0.000003106557990
Si   14.25638   6.10987  14.25638   0.000000000000090  -0.000000000000045   0.000000000000052
Si   11.54087   8.82538  14.25638  -0.000003092513363   0.000003092513649  -0.000000875645451
Si   14.25638   8.82538  11.54087  -0.000000880662573   0.000003110689455  -0.000003106557930
Si   15.61412   7.46762  12.89863  -0.000008381558073  -0.000008381558075   0.000008385471725
Si   15.61412  10.18313  15.61412  -0.000003110689336  -0.000000880662454  -0.000003106557934
Si   12.89863   7.46762  15.61412   0.000008381558261  -0.000008381558125  -0.000008385471696
Si   12.89863  10.18313  12.89863   0.000003110689326  -0.000000880662373   0.000003106557775
Si   11.54087  11.54087   0.67888  -0.000009230650325  -0.000009230650054   0.000009212822623
Si   14.25638  11.54087   3.39437   0.000000880662569  -0.000003110689326  -0.000003106557894
Si   11.54087  14.25638   3.39437  -0.000003110689279   0.000000880662824  -0.000003106558094
Si   14.25638  14.25638   0.67888  -0.000000000000047   0.000000000000126   0.000007347272336
Si   15.61412  12.89863   2.03662  -0.000003092513462   0.000003092513569   0.000000875645156
Si   15.61412  15.61412   4.75213  -0.000008381558204  -0.000008381558053   0.000008385471633
Si   12.89863  12.89863   4.75213   0.000008381558218   0.000008381558133   0.000008385471666
Si   12.89863  15.61412   2.03662   0.000003092513348  -0.000003092513275   0.000000875645077
Si   11.54087  11.54087   6.10987  -0.000003092513350  -0.000003092513580   0.000000875645425
Si   14.25638  11.54087   8.82538  -0.000000880662624  -0.000003110689428   0.000003106557893
Si   11.54087  14.25638   8.82538  -0.000003110689294  -0.000000880662849   0.000003106557996
Si   14.25638  14.25638   6.10987  -0.000000000000001   0.000000000000002  -0.000000000000084
Si   15.61412  12.89863   7.46762  -0.000008381558158   0.000008381558038  -0.000008385471734
Si   15.61412  15.61412  10.18313  -0.000003092513337  -0.000003092513521  -0.000000875645140
Si   12.89863  12.89863  10.18313   0.000003092513387   0.000003092513268  -0.000000875645084
Si   12.89863  15.61412   7.46762   0.000008381558234  -0.000008381558152  -0.000008385471846
Si   11.54087  11.54087  11.54087  -0.000008381558130  -0.000008381558130  -0.000008385471735
Si   14.25638  11.54087  14.25638   0.000000000000013  -0.000007339840884  -0.000000000000015
Si   11.54087  14.25638  14.25638  -0.000007339841093   0.000000000000023   0.000000000000110
Si   14.25638  14.25638  11.54087   0.000000000000038  -0.000000000000075  -0.000007347272255
Si   15.61412  12.89863  12.89863  -0.000009230650369   0.000009230650406   0.000009212822890
Si   15.61412  15.61412  15.61412  -0.000009230650414  -0.000009230650328  -0.000009212822809
Si   12.89863  12.89863  15.61412   0.000009230650316   0.000009230650577  -0.000009212822919
Si   12.89863  15.61412  12.89863   0.000009230650356  -0.000009230650554   0.000009212823089
