128 

Si    0.67888   0.67887   0.67887  -0.000005948196483  -0.000005948196683  -0.000005948194645
Si    2.03662   2.03662   2.03662  -0.000008293266044  -0.000008293266042  -0.000008293267847
Si    3.39438   3.39438   0.67888  -0.000005948196227  -0.000005948196526  -0.000005948194677
Si    4.75212   4.75212   2.03662  -0.000008293265659  -0.000008293265604  -0.000008293268062
Si    6.10988   6.10988   0.67888  -0.000005948196675  -0.000005948196634  -0.000005948194645
Si    7.46762   7.46762   2.03662  -0.000008293265870  -0.000008293265781  -0.000008293267716
Si    8.82538   8.82538   0.67888  -0.000005948196392  -0.000005948196665  -0.000005948194855
Si   10.18313  10.18313   2.03662  -0.000008293265790  -0.000008293265899  -0.000008293267709
Si    3.39438   0.67887   3.39437  -0.000005948196680  -0.000005948196730  -0.000005948194432
Si    4.75212   2.03662   4.75212  -0.000008293265900  -0.000008293265751  -0.000008293267636
Si    6.10987   3.39438   3.39438  -0.000005948196451  -0.000005948196342  -0.000005948194504
Si    7.46762   4.75213   4.75213  -0.000008293266202  -0.000008293266000  -0.000008293268034
Si    8.82537   6.10987   3.39438  -0.000005948196461  -0.000005948196845  -0.000005948194635
Si   10.18313   7.46763   4.75213  -0.000008293265744  -0.000008293265661  -0.000008293267776
Si   11.54087   8.82537   3.39437  -0.000005948196535  -0.000005948196523  -0.000005948194636
Si   12.89862  10.18313   4.75212  -0.000008293265517  -0.000008293265975  -0.000008293268264
Si    6.10987   0.67887   6.10987  -0.000005948196478  -0.000005948196522  -0.000005948194804
Si    7.46762   2.03662   7.46762  -0.000008293265835  -0.000008293266056  -0.000008293267665
Si    8.82537   3.39438   6.10987  -0.000005948196313  -0.000005948196405  -0.000005948194788
Si   10.18313   4.75213   7.46763  -0.000008293266109  -0.000008293265835  -0.000008293267596
Si   11.54087   6.10987   6.10987  -0.000005948196599  -0.000005948196699  -0.000005948195045
Si   12.89862   7.46762   7.46762  -0.000008293265802  -0.000008293265451  -0.000008293267851
Si   14.25637   8.82537   6.10987  -0.000005948196853  -0.000005948196921  -0.000005948195001
Si   15.61412  10.18313   7.46762  -0.000008293265828  -0.000008293265585  -0.000008293267423
Si    8.82537   0.67888   8.82538  -0.000005948196508  -0.000005948196305  -0.000005948194899
Si   10.18313   2.03662  10.18313  -0.000008293265959  -0.000008293265615  -0.000008293267663
Si   11.54087   3.39437   8.82538  -0.000005948196639  -0.000005948196655  -0.000005948194918
Si   12.89862   4.75212  10.18313  -0.000008293265998  -0.000008293265862  -0.000008293267771
Si   14.25637   6.10987   8.82537  -0.000005948196281  -0.000005948196675  -0.000005948194831
Si   15.61412   7.46762  10.18313  -0.000008293266007  -0.000008293265947  -0.000008293267863
Si   16.97187   8.82537   8.82537  -0.000005948196593  -0.000005948196529  -0.000005948194826
Si   18.32963  10.18313  10.18313  -0.000008293265855  -0.000008293265864  -0.000008293267645
Si    0.67887   3.39437   3.39438  -0.000005948196455  -0.000005948196584  -0.000005948194912
Si    2.03662   4.75212   4.75212  -0.000008293266042  -0.000008293265618  -0.000008293267529
Si    3.39437   6.10987   3.39438  -0.000005948196386  -0.000005948196259  -0.000005948194519
Si    4.75213   7.46762   4.75212  -0.000008293265974  -0.000008293265948  -0.000008293267895
Si    6.10987   8.82537   3.39438  -0.000005948196802  -0.000005948196805  -0.000005948194906
Si    7.46763  10.18313   4.75213  -0.000008293265658  -0.000008293265802  -0.000008293267687
Si    8.82537  11.54087   3.39438  -0.000005948196325  -0.000005948196588  -0.000005948194593
Si   10.18313  12.89862   4.75212  -0.000008293266140  -0.000008293266089  -0.000008293267926
Si    3.39438   3.39438   6.10987  -0.000005948196552  -0.000005948196655  -0.000005948195028
Si    4.75213   4.75213   7.46762  -0.000008293265856  -0.000008293266022  -0.000008293267400
Si    6.10987   6.10987   6.10987  -0.000005948196352  -0.000005948196579  -0.000005948194909
Si    7.46762   7.46762   7.46762  -0.000008293265871  -0.000008293265994  -0.000008293267751
Si    8.82537   8.82537   6.10987  -0.000005948196254  -0.000005948196714  -0.000005948194842
Si   10.18313  10.18313   7.46762  -0.000008293265504  -0.000008293265849  -0.000008293267922
Si   11.54087  11.54087   6.10987  -0.000005948196771  -0.000005948196565  -0.000005948194504
Si   12.89862  12.89862   7.46762  -0.000008293265807  -0.000008293265909  -0.000008293267623
Si    6.10987   3.39438   8.82537  -0.000005948196731  -0.000005948196507  -0.000005948194904
Si    7.46763   4.75213  10.18313  -0.000008293265334  -0.000008293265893  -0.000008293267541
Si    8.82537   6.10987   8.82537  -0.000005948196507  -0.000005948196723  -0.000005948194905
Si   10.18313   7.46762  10.18313  -0.000008293265942  -0.000008293265755  -0.000008293267579
Si   11.54087   8.82537   8.82537  -0.000005948196591  -0.000005948196565  -0.000005948194655
Si   12.89862  10.18313  10.18313  -0.000008293265978  -0.000008293265828  -0.000008293267821
Si   14.25637  11.54087   8.82537  -0.000005948196493  -0.000005948196674  -0.000005948194772
Si   15.61412  12.89862  10.18313  -0.000008293265536  -0.000008293266081  -0.000008293267850
Si    8.82537   3.39438  11.54087  -0.000005948197005  -0.000005948196965  -0.000005948195061
Si   10.18313   4.75212  12.89862  -0.000008293265488  -0.000008293265670  -0.000008293267684
Si   11.54087   6.10987  11.54087  -0.000005948196643  -0.000005948196738  -0.000005948194844
Si   12.89862   7.46762  12.89862  -0.000008293266039  -0.000008293265855  -0.000008293267679
Si   14.25637   8.82537  11.54087  -0.000005948196506  -0.000005948196436  -0.000005948194758
Si   15.61412  10.18313  12.89862  -0.000008293265807  -0.000008293266006  -0.000008293267673
Si   16.97187  11.54087  11.54087  -0.000005948196896  -0.000005948196562  -0.000005948194904
Si   18.32963  12.89862  12.89862  -0.000008293265532  -0.000008293265473  -0.000008293267877
Si    0.67888   6.10987   6.10987  -0.000005948196591  -0.000005948196677  -0.000005948195046
Si    2.03662   7.46762   7.46762  -0.000008293265813  -0.000008293265448  -0.000008293267830
Si    3.39438   8.82537   6.10987  -0.000005948196843  -0.000005948196949  -0.000005948195007
Si    4.75213  10.18313   7.46763  -0.000008293265814  -0.000008293265568  -0.000008293267430
Si    6.10987  11.54087   6.10987  -0.000005948196499  -0.000005948196543  -0.000005948194781
Si    7.46762  12.89862   7.46762  -0.000008293265835  -0.000008293266046  -0.000008293267671
Si    8.82537  14.25637   6.10987  -0.000005948196315  -0.000005948196419  -0.000005948194794
Si   10.18313  15.61412   7.46762  -0.000008293266097  -0.000008293265829  -0.000008293267597
Si    3.39438   6.10987   8.82537  -0.000005948196261  -0.000005948196692  -0.000005948194871
Si    4.75213   7.46763  10.18313  -0.000008293266012  -0.000008293265944  -0.000008293267825
Si    6.10987   8.82537   8.82537  -0.000005948196585  -0.000005948196532  -0.000005948194838
Si    7.46762  10.18313  10.18313  -0.000008293265855  -0.000008293265862  -0.000008293267626
Si    8.82537  11.54087   8.82537  -0.000005948196512  -0.000005948196310  -0.000005948194904
Si   10.18313  12.89862  10.18313  -0.000008293265936  -0.000008293265608  -0.000008293267677
Si   11.54087  14.25637   8.82537  -0.000005948196647  -0.000005948196668  -0.000005948194906
Si   12.89862  15.61412  10.18313  -0.000008293266000  -0.000008293265866  -0.000008293267760
Si    6.10987   6.10987  11.54087  -0.000005948196681  -0.000005948196644  -0.000005948194658
Si    7.46762   7.46762  12.89862  -0.000008293265877  -0.000008293265775  -0.000008293267704
Si    8.82537   8.82537  11.54087  -0.000005948196399  -0.000005948196676  -0.000005948194880
Si   10.18313  10.18313  12.89862  -0.000008293265781  -0.000008293265891  -0.000008293267695
Si   11.54087  11.54087  11.54087  -0.000005948196487  -0.000005948196689  -0.000005948194651
Si   12.89862  12.89862  12.89862  -0.000008293266043  -0.000008293266042  -0.000008293267856
Si   14.25637  14.25637  11.54087  -0.000005948196222  -0.000005948196536  -0.000005948194676
Si   15.61412  15.61412  12.89862  -0.000008293265647  -0.000008293265607  -0.000008293268063
Si    8.82537   6.10987  14.25637  -0.000005948196448  -0.000005948196854  -0.000005948194666
Si   10.18313   7.46762  15.61412  -0.000008293265750  -0.000008293265674  -0.000008293267766
Si   11.54087   8.82537  14.25637  -0.000005948196521  -0.000005948196516  -0.000005948194656
Si   12.89862  10.18313  15.61412  -0.000008293265519  -0.000008293265978  -0.000008293268264
Si   14.25637  11.54087  14.25637  -0.000005948196660  -0.000005948196724  -0.000005948194433
Si   15.61412  12.89862  15.61412  -0.000008293265901  -0.000008293265774  -0.000008293267630
Si   16.97187  14.25637  14.25637  -0.000005948196450  -0.000005948196353  -0.000005948194531
Si   18.32963  15.61412  15.61412  -0.000008293266186  -0.000008293265994  -0.000008293268034
Si    0.67888   8.82537   8.82537  -0.000005948196582  -0.000005948196549  -0.000005948194667
Si    2.03662  10.18313  10.18313  -0.000008293265993  -0.000008293265837  -0.000008293267828
Si    3.39437  11.54087   8.82537  -0.000005948196510  -0.000005948196670  -0.000005948194778
Si    4.75212  12.89862  10.18313  -0.000008293265528  -0.000008293266077  -0.000008293267869
Si    6.10987  14.25637   8.82537  -0.000005948196736  -0.000005948196522  -0.000005948194895
Si    7.46762  15.61412  10.18313  -0.000008293265348  -0.000008293265897  -0.000008293267555
Si    8.82537  16.97187   8.82537  -0.000005948196520  -0.000005948196727  -0.000005948194914
Si   10.18313  18.32963  10.18313  -0.000008293265920  -0.000008293265745  -0.000008293267565
Si    3.39438   8.82537  11.54087  -0.000005948196492  -0.000005948196422  -0.000005948194759
Si    4.75213  10.18313  12.89862  -0.000008293265795  -0.000008293266017  -0.000008293267689
Si    6.10987  11.54087  11.54087  -0.000005948196889  -0.000005948196543  -0.000005948194908
Si    7.46762  12.89862  12.89862  -0.000008293265558  -0.000008293265496  -0.000008293267875
Si    8.82537  14.25637  11.54087  -0.000005948196999  -0.000005948196970  -0.000005948195090
Si   10.18313  15.61412  12.89862  -0.000008293265477  -0.000008293265675  -0.000008293267687
Si   11.54087  16.97187  11.54087  -0.000005948196638  -0.000005948196729  -0.000005948194852
Si   12.89862  18.32963  12.89862  -0.000008293266050  -0.000008293265866  -0.000008293267673
Si    6.10987   8.82537  14.25637  -0.000005948196803  -0.000005948196802  -0.000005948194909
Si    7.46762  10.18313  15.61412  -0.000008293265662  -0.000008293265798  -0.000008293267693
Si    8.82537  11.54087  14.25637  -0.000005948196322  -0.000005948196591  -0.000005948194578
Si   10.18313  12.89862  15.61412  -0.000008293266126  -0.000008293266088  -0.000008293267921
Si   11.54087  14.25637  14.25637  -0.000005948196459  -0.000005948196603  -0.000005948194895
Si   12.89862  15.61412  15.61412  -0.000008293266029  -0.000008293265603  -0.000008293267542
Si   14.25637  16.97187  14.25637  -0.000005948196377  -0.000005948196277  -0.000005948194527
Si   15.61412  18.32963  15.61412  -0.000008293265977  -0.000008293265943  -0.000008293267911
Si    8.82537   8.82537  16.97187  -0.000005948196257  -0.000005948196734  -0.000005948194865
Si   10.18313  10.18313  18.32963  -0.000008293265492  -0.000008293265851  -0.000008293267917
Si   11.54087  11.54087  16.97187  -0.000005948196778  -0.000005948196579  -0.000005948194520
Si   12.89862  12.89862  18.32963  -0.000008293265798  -0.000008293265906  -0.000008293267626
Si   14.25637  14.25637  16.97187  -0.000005948196565  -0.000005948196666  -0.000005948195032
Si   15.61412  15.61412  18.32963  -0.000008293265854  -0.000008293266037  -0.000008293267399
Si   16.97187  16.97187  16.97187  -0.000005948196364  -0.000005948196579  -0.000005948194906
Si   18.32963  18.32963  18.32963  -0.000008293265858  -0.000008293265984  -0.000008293267728
