216 

Si    0.72888   0.67888   0.67888   0.013554452281372   0.000001990648786   0.000001990768067
Si    3.39437   0.67888   3.39437  -0.000199990070284   0.000120264754604  -0.000193514415676
Si    0.67888   3.39437   3.39437   0.000422774778912  -0.000114170466642  -0.000114504532778
Si    3.39437   3.39437   0.67888  -0.000200042610945  -0.000193659289824   0.000120664624770
Si    4.75213   2.03662   2.03662   0.000010573417674   0.000025269048830   0.000025400469308
Si    4.75213   4.75213   4.75213   0.000016293683202   0.000007131083159   0.000007121689641
Si    2.03662   2.03662   4.75213   0.000033542264029  -0.000036257059450   0.000033866720657
Si    2.03662   4.75213   2.03662   0.000033457050462   0.000033946110079  -0.000036346237983
Si    0.67888   0.67888   6.10987  -0.000019085112768   0.000002861017692   0.000000653026531
Si    3.39437   0.67888   8.82538  -0.000020012149771   0.000008154452128   0.000008156471126
Si    0.67888   3.39437   8.82538  -0.000003688258640  -0.000008033162366   0.000011483761075
Si    3.39437   3.39437   6.10987  -0.000019401069664   0.000022372306775  -0.000003060496500
Si    4.75213   2.03662   7.46762   0.000001034445019  -0.000009021103741  -0.000000596540271
Si    4.75213   4.75213  10.18313   0.000002565744329  -0.000017228311030  -0.000003758681239
Si    2.03662   2.03662  10.18313   0.000015281528690   0.000001235474343   0.000002273367214
Si    2.03662   4.75213   7.46762   0.000012656307986  -0.000007457299452   0.000008757446448
Si    0.67888   0.67888  11.54087  -0.000013795352701   0.000008181440958  -0.000007934167767
Si    3.39437   0.67888  14.25638  -0.000194039319510  -0.000108274609520   0.000183818811575
Si    0.67888   3.39437  14.25638   0.000422019470058   0.000108390725568  -0.000112502181282
Si    3.39437   3.39437  11.54087  -0.000024786484444   0.000017866100870   0.000003898445406
Si    4.75213   2.03662  12.89863  -0.000016027710234   0.000051354632796   0.000024940547739
Si    4.75213   4.75213  15.61412  -0.000009865941641  -0.000013068168477  -0.000061114632146
Si    2.03662   2.03662  15.61412  -0.003371499477923  -0.002473717097631   0.002466598706874
Si    2.03662   4.75213  12.89863  -0.000177685185404   0.000054526652787  -0.000048805079630
Si    0.67888   6.10987   0.67888  -0.000018924365663   0.000000662470299   0.000002868393213
Si    3.39437   6.10987   3.39437  -0.000019465271868  -0.000003059858697   0.000022347605829
Si    0.67888   8.82538   3.39437  -0.000003744048242   0.000011457020121  -0.000008032067128
Si    3.39437   8.82538   0.67888  -0.000019972899129   0.000008152960711   0.000008157702658
Si    4.75213   7.46762   2.03662   0.000001048574302  -0.000000599627808  -0.000009040476081
Si    4.75213  10.18313   4.75213   0.000002690058887  -0.000003774796848  -0.000017207938175
Si    2.03662   7.46762   4.75213   0.000012644285995   0.000008752728825  -0.000007407522707
Si    2.03662  10.18313   2.03662   0.000015290869465   0.000002252528050   0.000001448273930
Si    0.67888   6.10987   6.10987   0.000108631658205  -0.000020937803505  -0.000020956318036
Si    3.39437   6.10987   8.82538  -0.000007164049191   0.000014916620046   0.000006023775245
Si    0.67888   8.82538   8.82538   0.000118913912696   0.000008999702280   0.000008981288453
Si    3.39437   8.82538   6.10987  -0.000007156042418   0.000006014454867   0.000014921536958
Si    4.75213   7.46762   7.46762   0.000009618943019  -0.000012782485221  -0.000012791407044
Si    4.75213  10.18313  10.18313   0.000008580627741   0.000004629413424   0.000004634852723
Si    2.03662   7.46762  10.18313  -0.000063035324585  -0.000005493963960  -0.000001644698040
Si    2.03662  10.18313   7.46762  -0.000063035430762  -0.000001624169365  -0.000005480096711
Si    0.67888   6.10987  11.54087   0.000106103015237   0.000019950383115  -0.000023732752160
Si    3.39437   6.10987  14.25638  -0.000023729865815  -0.000012047544166  -0.000025910638108
Si    0.67888   8.82538  14.25638  -0.000009029084243  -0.000000436035375   0.000000750357161
Si    3.39437   8.82538  11.54087  -0.000013287578635   0.000005852090762  -0.000024778479144
Si    4.75213   7.46762  12.89863   0.000008801779998  -0.000006105446435   0.000029071004293
Si    4.75213  10.18313  15.61412   0.000001066964076  -0.000001387701973   0.000007033756026
Si    2.03662   7.46762  15.61412   0.000014411969561  -0.000005137381561  -0.000004327567495
Si    2.03662  10.18313  12.89863   0.000011764072886  -0.000011636370611   0.000017410563322
Si    0.67888  11.54087   0.67888  -0.000013664202587  -0.000007934912955   0.000008173152117
Si    3.39437  11.54087   3.39437  -0.000024777006228   0.000003897533746   0.000017747387707
Si    0.67888  14.25638   3.39437   0.000422041056951  -0.000112160511992   0.000108725137658
Si    3.39437  14.25638   0.67888  -0.000194100262868   0.000183941120732  -0.000108679214169
Si    4.75213  12.89863   2.03662  -0.000016001896558   0.000024932948841   0.000051242599479
Si    4.75213  15.61412   4.75213  -0.000009910693618  -0.000061250065415  -0.000013080623746
Si    2.03662  12.89863   4.75213  -0.000177685291381  -0.000048767287867   0.000054554165460
Si    2.03662  15.61412   2.03662  -0.003371497003897   0.002466482622416  -0.002473841166173
Si    0.67888  11.54087   6.10987   0.000106084639951  -0.000023696572132   0.000019978342449
Si    3.39437  11.54087   8.82538  -0.000013277767603  -0.000024797034543   0.000005837785558
Si    0.67888  14.25638   8.82538  -0.000008955674384   0.000000759718222  -0.000000445835380
Si    3.39437  14.25638   6.10987  -0.000023736119990  -0.000026028939444  -0.000012051825391
Si    4.75213  12.89863   7.46762   0.000008695753341   0.000029096010298  -0.000006098138564
Si    4.75213  15.61412  10.18313   0.000001017783420   0.000007032565024  -0.000001409256420
Si    2.03662  12.89863  10.18313   0.000011776137421   0.000017458025961  -0.000011636681032
Si    2.03662  15.61412   7.46762   0.000014402296058  -0.000004119873822  -0.000005153862192
Si    0.67888  11.54087  11.54087   0.000110515021283   0.000011941474069   0.000011978384937
Si    3.39437  11.54087  14.25638  -0.000019437258623   0.000001068643596  -0.000024352266117
Si    0.67888  14.25638  14.25638   0.000420831246842   0.000105077428989   0.000105428384829
Si    3.39437  14.25638  11.54087  -0.000019409659223  -0.000024356278972   0.000001050649121
Si    4.75213  12.89863  12.89863   0.000016294739362   0.000009175079908   0.000009191009632
Si    4.75213  15.61412  15.61412   0.000011539827659  -0.000033386600464  -0.000033521761015
Si    2.03662  12.89863  15.61412   0.000034355801361  -0.000023932329488   0.000033472291345
Si    2.03662  15.61412  12.89863   0.000034438924493   0.000033378780925  -0.000023849173698
Si    6.10987   0.67888   0.67888  -0.000005158909767   0.000002872321842   0.000002868708491
Si    8.82538   0.67888   3.39437   0.000005832450847   0.000004819362329  -0.000008021890865
Si    6.10987   3.39437   3.39437   0.000002262171510  -0.000015119012444  -0.000015112985288
Si    8.82538   3.39437   0.67888   0.000005857007223  -0.000008017942464   0.000004833597610
Si   10.18313   2.03662   2.03662   0.000000019649335   0.000002239740361   0.000002253422071
Si   10.18313   4.75213   4.75213  -0.000001024334701   0.000000059050453   0.000000045052880
Si    7.46762   2.03662   4.75213   0.000000523129566   0.000012655379310   0.000004996520270
Si    7.46762   4.75213   2.03662   0.000000534065200   0.000004986266231   0.000012657649759
Si    6.10987   0.67888   6.10987  -0.000000627714474   0.000028679784653  -0.000012289392270
Si    8.82538   0.67888   8.82538   0.000010652299025   0.000009002687486   0.000008981075309
Si    6.10987   3.39437   8.82538   0.000000207282452   0.000012736762557   0.000001214374157
Si    8.82538   3.39437   6.10987   0.000004795226235  -0.000006103995420   0.000000743368621
Si   10.18313   2.03662   7.46762  -0.000004936065299  -0.000001186386807  -0.000007873290819
Si   10.18313   4.75213  10.18313   0.000002552747056   0.000011796071778  -0.000005326755434
Si    7.46762   2.03662  10.18313  -0.000012411776121   0.000002251228915  -0.000000343551718
Si    7.46762   4.75213   7.46762  -0.000005574666006   0.000003643778758  -0.000013450907843
Si    6.10987   0.67888  11.54087  -0.000001506832852  -0.000018674777406   0.000009407686952
Si    8.82538   0.67888  14.25638   0.000000544980807   0.000006201721284   0.000000738999386
Si    6.10987   3.39437  14.25638   0.000001632277980  -0.000011263991616   0.000004141740731
Si    8.82538   3.39437  11.54087   0.000011108704487  -0.000005886190372  -0.000007353103782
Si   10.18313   2.03662  12.89863   0.000003291908204  -0.000011538445270   0.000009485395346
Si   10.18313   4.75213  15.61412   0.000004164493774   0.000000518036123   0.000008664708060
Si    7.46762   2.03662  15.61412  -0.000002636466537  -0.000003256161645  -0.000000492622372
Si    7.46762   4.75213  12.89863  -0.000009076930817   0.000011936150054   0.000006035540133
Si    6.10987   6.10987   0.67888  -0.000000744657356  -0.000012300332614   0.000028679584994
Si    8.82538   6.10987   3.39437   0.000004813867846   0.000000745564024  -0.000006109985259
Si    6.10987   8.82538   3.39437   0.000000198130908   0.000001217974090   0.000012732362082
Si    8.82538   8.82538   0.67888   0.000010607143948   0.000008999501210   0.000008984187089
Si   10.18313   7.46762   2.03662  -0.000004929796159  -0.000007884343719  -0.000001191244811
Si   10.18313  10.18313   4.75213   0.000002559543509  -0.000005328818495   0.000011808037882
Si    7.46762   7.46762   4.75213  -0.000005567310151  -0.000013448582545   0.000003642275864
Si    7.46762  10.18313   2.03662  -0.000012402152447  -0.000000360759618   0.000002257544634
Si    6.10987   6.10987   6.10987  -0.000002075832609   0.000003403403962   0.000003406631560
Si    8.82538   6.10987   8.82538   0.000001051434750   0.000000856614952   0.000002880532755
Si    6.10987   8.82538   8.82538  -0.000000936064143   0.000002884052895   0.000002879606527
Si    8.82538   8.82538   6.10987   0.000001031577523   0.000002857640140   0.000000851408713
Si   10.18313   7.46762   7.46762  -0.000000947554232  -0.000002693040867  -0.000002704398576
Si   10.18313  10.18313  10.18313  -0.000000067755799  -0.000000191027161  -0.000000175303997
Si    7.46762   7.46762  10.18313  -0.000002917298472  -0.000003045157348  -0.000000712026545
Si    7.46762  10.18313   7.46762  -0.000002935153982  -0.000000701093357  -0.000003042567187
Si    6.10987   6.10987  11.54087  -0.000001922748051   0.000003523288391  -0.000010631181799
Si    8.82538   6.10987  14.25638   0.000009221799510  -0.000001636343803  -0.000003106313417
Si    6.10987   8.82538  14.25638   0.000001078455012   0.000008783166548  -0.000015613722829
Si    8.82538   8.82538  11.54087   0.000006318696092   0.000008163111193  -0.000008134279031
Si   10.18313   7.46762  12.89863   0.000003438805869   0.000002444574044  -0.000001805987417
Si   10.18313  10.18313  15.61412  -0.000004929573826   0.000000768924223  -0.000005935618931
Si    7.46762   7.46762  15.61412  -0.000014290319848  -0.000008640421369  -0.000011242386634
Si    7.46762  10.18313  12.89863  -0.000000297715141   0.000006173310001   0.000007396494200
Si    6.10987  11.54087   0.67888  -0.000001623575311   0.000009414334563  -0.000018673077176
Si    8.82538  11.54087   3.39437   0.000011107963250  -0.000007364134791  -0.000005874777473
Si    6.10987  14.25638   3.39437   0.000001632460672   0.000004148870472  -0.000011263509954
Si    8.82538  14.25638   0.67888   0.000000587370013   0.000000743635070   0.000006204508867
Si   10.18313  12.89863   2.03662   0.000003285756067   0.000009483026463  -0.000011547265216
Si   10.18313  15.61412   4.75213   0.000004170839779   0.000008651432694   0.000000517962212
Si    7.46762  12.89863   4.75213  -0.000009077019654   0.000006062169713   0.000011925925067
Si    7.46762  15.61412   2.03662  -0.000002618426383  -0.000000492906676  -0.000003264743078
Si    6.10987  11.54087   6.10987  -0.000001922643487  -0.000010638708954   0.000003509119409
Si    8.82538  11.54087   8.82538   0.000006320629791  -0.000008130911005   0.000008157170342
Si    6.10987  14.25638   8.82538   0.000001087582807  -0.000015622451113   0.000008789108895
Si    8.82538  14.25638   6.10987   0.000009222519752  -0.000003113300343  -0.000001628942219
Si   10.18313  12.89863   7.46762   0.000003432009931  -0.000001796358114   0.000002446983282
Si   10.18313  15.61412  10.18313  -0.000004935704119  -0.000005933562031   0.000000751138379
Si    7.46762  12.89863  10.18313  -0.000000287075182   0.000007378020300   0.000006167034505
Si    7.46762  15.61412   7.46762  -0.000014299989068  -0.000011254366672  -0.000008639212182
Si    6.10987  11.54087  11.54087  -0.000001196343178  -0.000006287881570  -0.000006286659212
Si    8.82538  11.54087  14.25638   0.000004794327641  -0.000004491331364   0.000002352859743
Si    6.10987  14.25638  14.25638   0.000001391245510   0.000012228477542   0.000012226880876
Si    8.82538  14.25638  11.54087   0.000004811507223   0.000002355210667  -0.000004497520129
Si   10.18313  12.89863  12.89863  -0.000001021506510   0.000005714739054   0.000005719895301
Si   10.18313  15.61412  15.61412  -0.000000859142922  -0.000005123822126  -0.000005132934966
Si    7.46762  12.89863  15.61412  -0.000004752698454   0.000006034288164  -0.000019940652485
Si    7.46762  15.61412  12.89863  -0.000004745866754  -0.000019929860201   0.000006040971100
Si   11.54087   0.67888   0.67888  -0.000013899587889   0.000008144060865   0.000008147520902
Si   14.25638   0.67888   3.39437  -0.000183757489303   0.000108388827961   0.000174871159435
Si   11.54087   3.39437   3.39437  -0.000007172417674  -0.000003904783839  -0.000003914443417
Si   14.25638   3.39437   0.67888  -0.000183804103464   0.000174969723689   0.000108790106800
Si   15.61412   2.03662   2.03662  -0.003224256436060   0.002172625295193   0.002172765728891
Si   15.61412   4.75213   4.75213  -0.000181686136206  -0.000042204523757  -0.000042263609930
Si   12.89863   2.03662   4.75213  -0.000013466910888  -0.000051769071107   0.000022759899184
Si   12.89863   4.75213   2.03662  -0.000013429005344   0.000022746565615  -0.000051651255949
Si   11.54087   0.67888   6.10987  -0.000002778623054   0.000023141151925   0.000010923645226
Si   14.25638   0.67888   8.82538  -0.000011239971649   0.000002885477736   0.000002879380559
Si   11.54087   3.39437   8.82538  -0.000008044350541  -0.000024953627187   0.000007405290415
Si   14.25638   3.39437   6.10987  -0.000016564434738  -0.000032762749080   0.000012368051563
Si   15.61412   2.03662   7.46762   0.000012501750111  -0.000002320263258  -0.000000523268139
Si   15.61412   4.75213  10.18313   0.000008549609968   0.000013130471056   0.000012535108608
Si   12.89863   2.03662  10.18313   0.000005492633377   0.000010582019802   0.000002198500724
Si   12.89863   4.75213   7.46762   0.000008743361553   0.000029202032518  -0.000011881513818
Si   11.54087   0.67888  11.54087  -0.000008909465630  -0.000011269598627  -0.000020775716140
Si   14.25638   0.67888  14.25638  -0.000182933013339  -0.000098281713748  -0.000177788396429
Si   11.54087   3.39437  14.25638  -0.000001405131874   0.000009310832530  -0.000011301023233
Si   14.25638   3.39437  11.54087  -0.000015776668418  -0.000029183037866  -0.000007307928103
Si   15.61412   2.03662  12.89863   0.000028279191571   0.000039291149701   0.000027480889887
Si   15.61412   4.75213  15.61412   0.000022872473492  -0.000016587769894  -0.000046631017088
Si   12.89863   2.03662  15.61412   0.000007077443125  -0.000025095657502   0.000023270901850
Si   12.89863   4.75213  12.89863   0.000016292986848   0.000009337095948   0.000006967697806
Si   11.54087   6.10987   0.67888  -0.000002904429911   0.000010930413271   0.000023148074346
Si   14.25638   6.10987   3.39437  -0.000016554163005   0.000012362322253  -0.000032667240842
Si   11.54087   8.82538   3.39437  -0.000008054234569   0.000007423172009  -0.000024929179032
Si   14.25638   8.82538   0.67888  -0.000011204155758   0.000002883824086   0.000002881078408
Si   15.61412   7.46762   2.03662   0.000012544590461  -0.000000532257708  -0.000002546494399
Si   15.61412  10.18313   4.75213   0.000008518226480   0.000012539398091   0.000013096205233
Si   12.89863   7.46762   4.75213   0.000008846832464  -0.000011912111098   0.000029178751964
Si   12.89863  10.18313   2.03662   0.000005522832652   0.000002180927446   0.000010591399306
Si   11.54087   6.10987   6.10987  -0.000009112353197  -0.000003444985597  -0.000003430331566
Si   14.25638   6.10987   8.82538  -0.000004090618028  -0.000015753570689   0.000010297189366
Si   11.54087   8.82538   8.82538  -0.000009906083593   0.000008153520239   0.000008157020536
Si   14.25638   8.82538   6.10987  -0.000004098645070   0.000010294915054  -0.000015754783840
Si   15.61412   7.46762   7.46762  -0.000071653776548  -0.000010789331745  -0.000010792601546
Si   15.61412  10.18313  10.18313  -0.000069762759494   0.000001786386817   0.000001808028018
Si   12.89863   7.46762  10.18313   0.000004184932946   0.000001695941996  -0.000003694817918
Si   12.89863  10.18313   7.46762   0.000004202833005  -0.000003684181359   0.000001688003139
Si   11.54087   6.10987  11.54087  -0.000004807715641  -0.000002648297200   0.000000649965966
Si   14.25638   6.10987  14.25638  -0.000016700947214   0.000004431572847   0.000026304259857
Si   11.54087   8.82538  14.25638  -0.000001920867486   0.000004442977245   0.000015071945836
Si   14.25638   8.82538  11.54087  -0.000004978432427  -0.000000294059158   0.000012872803517
Si   15.61412   7.46762  12.89863   0.000003248548502  -0.000019813267583  -0.000002058474385
Si   15.61412  10.18313  15.61412   0.000012527910121  -0.000003216718718  -0.000001213306724
Si   12.89863   7.46762  15.61412   0.000006558663738  -0.000010332513129  -0.000018749892568
Si   12.89863  10.18313  12.89863   0.000002739190214   0.000002036319543  -0.000017315594726
Si   11.54087  11.54087   0.67888  -0.000009017180370  -0.000020806020212  -0.000011281461642
Si   14.25638  11.54087   3.39437  -0.000015819733974  -0.000007317146035  -0.000029177895854
Si   11.54087  14.25638   3.39437  -0.000001423096052  -0.000011295744257   0.000009297517006
Si   14.25638  14.25638   0.67888  -0.000182972040787  -0.000177892241986  -0.000098680704498
Si   15.61412  12.89863   2.03662   0.000028150664802   0.000027556137152   0.000039376848437
Si   15.61412  15.61412   4.75213   0.000023018208914  -0.000046542662590  -0.000016495898157
Si   12.89863  12.89863   4.75213   0.000016292584495   0.000006968862010   0.000009345569665
Si   12.89863  15.61412   2.03662   0.000007060260275   0.000023162729857  -0.000025222844187
Si   11.54087  11.54087   6.10987  -0.000004789793440   0.000000660605621  -0.000002656182596
Si   14.25638  11.54087   8.82538  -0.000004970303619   0.000012867159559  -0.000000293994696
Si   11.54087  14.25638   8.82538  -0.000001928909945   0.000015072977616   0.000004455884991
Si   14.25638  14.25638   6.10987  -0.000016659749715   0.000026304190683   0.000004427055874
Si   15.61412  12.89863   7.46762   0.000003262133931  -0.000002109480497  -0.000019817514434
Si   15.61412  15.61412  10.18313   0.000012522279409  -0.000001431027070  -0.000003234070626
Si   12.89863  12.89863  10.18313   0.000002618428042  -0.000017333305386   0.000002029382831
Si   12.89863  15.61412   7.46762   0.000006527986260  -0.000018737083827  -0.000010353697576
Si   11.54087  11.54087  11.54087  -0.000010149159873  -0.000004709646003  -0.000004727836239
Si   14.25638  11.54087  14.25638  -0.000016561720771  -0.000019475805126   0.000025546604281
Si   11.54087  14.25638  14.25638  -0.000006141277662  -0.000004256687530  -0.000004250375520
Si   14.25638  14.25638  11.54087  -0.000016569769592   0.000025650550673  -0.000019488563392
Si   15.61412  12.89863  12.89863  -0.000181690416794   0.000060224262812   0.000060247034374
Si   15.61412  15.61412  15.61412  -0.003226191362021  -0.002181521593859  -0.002181649264768
Si   12.89863  12.89863  15.61412  -0.000007268631837  -0.000010866034021   0.000041758415559
Si   12.89863  15.61412  12.89863  -0.000007324459636   0.000041852288796  -0.000010884052490
