216 

Si    0.72888   0.67888   0.67888   0.013554452287878   0.000001990644138   0.000001990773520
Si    3.39437   0.67888   3.39437  -0.000199990081825   0.000120264736453  -0.000193514414196
Si    0.67888   3.39437   3.39437   0.000422774775987  -0.000114170473793  -0.000114504532193
Si    3.39437   3.39437   0.67888  -0.000200042621703  -0.000193659297963   0.000120664619838
Si    4.75213   2.03662   2.03662   0.000010573415577   0.000025269035609   0.000025400447201
Si    4.75213   4.75213   4.75213   0.000016293684953   0.000007131082470   0.000007121679575
Si    2.03662   2.03662   4.75213   0.000033542284903  -0.000036257072620   0.000033866716492
Si    2.03662   4.75213   2.03662   0.000033457068413   0.000033946091132  -0.000036346240992
Si    0.67888   0.67888   6.10987  -0.000019085112046   0.000002861009529   0.000000653013845
Si    3.39437   0.67888   8.82538  -0.000020012153422   0.000008154449385   0.000008156472063
Si    0.67888   3.39437   8.82538  -0.000003688265707  -0.000008033179622   0.000011483773794
Si    3.39437   3.39437   6.10987  -0.000019401066428   0.000022372300048  -0.000003060493676
Si    4.75213   2.03662   7.46762   0.000001034446244  -0.000009021106313  -0.000000596543935
Si    4.75213   4.75213  10.18313   0.000002565743136  -0.000017228310664  -0.000003758687679
Si    2.03662   2.03662  10.18313   0.000015281540341   0.000001235477079   0.000002273368035
Si    2.03662   4.75213   7.46762   0.000012656335622  -0.000007457299712   0.000008757446381
Si    0.67888   0.67888  11.54087  -0.000013795363560   0.000008181445155  -0.000007934182812
Si    3.39437   0.67888  14.25638  -0.000194039289973  -0.000108274604492   0.000183818802583
Si    0.67888   3.39437  14.25638   0.000422019484497   0.000108390738892  -0.000112502184886
Si    3.39437   3.39437  11.54087  -0.000024786490754   0.000017866121318   0.000003898441006
Si    4.75213   2.03662  12.89863  -0.000016027705678   0.000051354618268   0.000024940564471
Si    4.75213   4.75213  15.61412  -0.000009865947619  -0.000013068157931  -0.000061114632583
Si    2.03662   2.03662  15.61412  -0.003371499458334  -0.002473717092972   0.002466598714873
Si    2.03662   4.75213  12.89863  -0.000177685190120   0.000054526638697  -0.000048805060235
Si    0.67888   6.10987   0.67888  -0.000018924383197   0.000000662459727   0.000002868388976
Si    3.39437   6.10987   3.39437  -0.000019465263066  -0.000003059853201   0.000022347604768
Si    0.67888   8.82538   3.39437  -0.000003744030703   0.000011457037342  -0.000008032054840
Si    3.39437   8.82538   0.67888  -0.000019972880966   0.000008152951681   0.000008157704942
Si    4.75213   7.46762   2.03662   0.000001048548791  -0.000000599636550  -0.000009040483800
Si    4.75213  10.18313   4.75213   0.000002690057212  -0.000003774793527  -0.000017207925285
Si    2.03662   7.46762   4.75213   0.000012644278870   0.000008752735426  -0.000007407523798
Si    2.03662  10.18313   2.03662   0.000015290855662   0.000002252524559   0.000001448284941
Si    0.67888   6.10987   6.10987   0.000108631657551  -0.000020937793894  -0.000020956327266
Si    3.39437   6.10987   8.82538  -0.000007164044666   0.000014916601373   0.000006023785335
Si    0.67888   8.82538   8.82538   0.000118913913836   0.000008999710461   0.000008981287702
Si    3.39437   8.82538   6.10987  -0.000007156031140   0.000006014468019   0.000014921543274
Si    4.75213   7.46762   7.46762   0.000009618951170  -0.000012782464219  -0.000012791386237
Si    4.75213  10.18313  10.18313   0.000008580626247   0.000004629404490   0.000004634830365
Si    2.03662   7.46762  10.18313  -0.000063035311867  -0.000005493958730  -0.000001644699794
Si    2.03662  10.18313   7.46762  -0.000063035416756  -0.000001624174785  -0.000005480112250
Si    0.67888   6.10987  11.54087   0.000106103007605   0.000019950384927  -0.000023732729144
Si    3.39437   6.10987  14.25638  -0.000023729864032  -0.000012047555360  -0.000025910648875
Si    0.67888   8.82538  14.25638  -0.000009029072246  -0.000000436057063   0.000000750345069
Si    3.39437   8.82538  11.54087  -0.000013287570501   0.000005852095059  -0.000024778475623
Si    4.75213   7.46762  12.89863   0.000008801769670  -0.000006105452512   0.000029071014115
Si    4.75213  10.18313  15.61412   0.000001066954990  -0.000001387688908   0.000007033779520
Si    2.03662   7.46762  15.61412   0.000014411960992  -0.000005137376213  -0.000004327575899
Si    2.03662  10.18313  12.89863   0.000011764079967  -0.000011636359008   0.000017410565231
Si    0.67888  11.54087   0.67888  -0.000013664212970  -0.000007934906050   0.000008173168366
Si    3.39437  11.54087   3.39437  -0.000024776990158   0.000003897556004   0.000017747400661
Si    0.67888  14.25638   3.39437   0.000422041057072  -0.000112160510023   0.000108725154661
Si    3.39437  14.25638   0.67888  -0.000194100258316   0.000183941118118  -0.000108679205853
Si    4.75213  12.89863   2.03662  -0.000016001904780   0.000024932958973   0.000051242595177
Si    4.75213  15.61412   4.75213  -0.000009910685451  -0.000061250058326  -0.000013080624912
Si    2.03662  12.89863   4.75213  -0.000177685285257  -0.000048767281219   0.000054554151948
Si    2.03662  15.61412   2.03662  -0.003371496986099   0.002466482621448  -0.002473841168228
Si    0.67888  11.54087   6.10987   0.000106084636447  -0.000023696563430   0.000019978336198
Si    3.39437  11.54087   8.82538  -0.000013277733512  -0.000024797036938   0.000005837779849
Si    0.67888  14.25638   8.82538  -0.000008955667953   0.000000759736359  -0.000000445834246
Si    3.39437  14.25638   6.10987  -0.000023736114101  -0.000026028951521  -0.000012051831653
Si    4.75213  12.89863   7.46762   0.000008695741425   0.000029096009603  -0.000006098154446
Si    4.75213  15.61412  10.18313   0.000001017769365   0.000007032563972  -0.000001409252824
Si    2.03662  12.89863  10.18313   0.000011776149214   0.000017458038514  -0.000011636678345
Si    2.03662  15.61412   7.46762   0.000014402319113  -0.000004119866831  -0.000005153873644
Si    0.67888  11.54087  11.54087   0.000110515034279   0.000011941466036   0.000011978377928
Si    3.39437  11.54087  14.25638  -0.000019437246729   0.000001068643518  -0.000024352243202
Si    0.67888  14.25638  14.25638   0.000420831243251   0.000105077441419   0.000105428411680
Si    3.39437  14.25638  11.54087  -0.000019409647003  -0.000024356293874   0.000001050641381
Si    4.75213  12.89863  12.89863   0.000016294764985   0.000009175079205   0.000009191019062
Si    4.75213  15.61412  15.61412   0.000011539823634  -0.000033386588544  -0.000033521761724
Si    2.03662  12.89863  15.61412   0.000034355820521  -0.000023932313801   0.000033472304566
Si    2.03662  15.61412  12.89863   0.000034438943478   0.000033378785579  -0.000023849172066
Si    6.10987   0.67888   0.67888  -0.000005158907582   0.000002872310131   0.000002868713025
Si    8.82538   0.67888   3.39437   0.000005832440572   0.000004819340050  -0.000008021905937
Si    6.10987   3.39437   3.39437   0.000002262174669  -0.000015119022982  -0.000015112976920
Si    8.82538   3.39437   0.67888   0.000005857012021  -0.000008017938986   0.000004833598253
Si   10.18313   2.03662   2.03662   0.000000019643464   0.000002239730467   0.000002253411960
Si   10.18313   4.75213   4.75213  -0.000001024335565   0.000000059052331   0.000000045040003
Si    7.46762   2.03662   4.75213   0.000000523113956   0.000012655384504   0.000004996531365
Si    7.46762   4.75213   2.03662   0.000000534059718   0.000004986279758   0.000012657666133
Si    6.10987   0.67888   6.10987  -0.000000627721955   0.000028679756742  -0.000012289389008
Si    8.82538   0.67888   8.82538   0.000010652309604   0.000009002697243   0.000008981067694
Si    6.10987   3.39437   8.82538   0.000000207275383   0.000012736745042   0.000001214365697
Si    8.82538   3.39437   6.10987   0.000004795215833  -0.000006103985891   0.000000743364158
Si   10.18313   2.03662   7.46762  -0.000004936073979  -0.000001186373873  -0.000007873264570
Si   10.18313   4.75213  10.18313   0.000002552743436   0.000011796080077  -0.000005326755976
Si    7.46762   2.03662  10.18313  -0.000012411787769   0.000002251226457  -0.000000343537793
Si    7.46762   4.75213   7.46762  -0.000005574676686   0.000003643763228  -0.000013450915061
Si    6.10987   0.67888  11.54087  -0.000001506840866  -0.000018674765573   0.000009407699150
Si    8.82538   0.67888  14.25638   0.000000544982639   0.000006201716676   0.000000738993015
Si    6.10987   3.39437  14.25638   0.000001632261085  -0.000011264012582   0.000004141744787
Si    8.82538   3.39437  11.54087   0.000011108700277  -0.000005886192129  -0.000007353115492
Si   10.18313   2.03662  12.89863   0.000003291901218  -0.000011538450774   0.000009485394583
Si   10.18313   4.75213  15.61412   0.000004164509167   0.000000518046162   0.000008664702520
Si    7.46762   2.03662  15.61412  -0.000002636473036  -0.000003256166773  -0.000000492615494
Si    7.46762   4.75213  12.89863  -0.000009076945202   0.000011936171594   0.000006035520124
Si    6.10987   6.10987   0.67888  -0.000000744641933  -0.000012300338853   0.000028679590039
Si    8.82538   6.10987   3.39437   0.000004813862294   0.000000745544529  -0.000006109979095
Si    6.10987   8.82538   3.39437   0.000000198123052   0.000001217983395   0.000012732368740
Si    8.82538   8.82538   0.67888   0.000010607127945   0.000008999510055   0.000008984184968
Si   10.18313   7.46762   2.03662  -0.000004929792996  -0.000007884332372  -0.000001191247977
Si   10.18313  10.18313   4.75213   0.000002559539494  -0.000005328818939   0.000011808045439
Si    7.46762   7.46762   4.75213  -0.000005567302241  -0.000013448580419   0.000003642281054
Si    7.46762  10.18313   2.03662  -0.000012402143579  -0.000000360777067   0.000002257536653
Si    6.10987   6.10987   6.10987  -0.000002075827621   0.000003403402326   0.000003406619352
Si    8.82538   6.10987   8.82538   0.000001051444373   0.000000856621462   0.000002880532357
Si    6.10987   8.82538   8.82538  -0.000000936062353   0.000002884044009   0.000002879601962
Si    8.82538   8.82538   6.10987   0.000001031562590   0.000002857637461   0.000000851384810
Si   10.18313   7.46762   7.46762  -0.000000947571597  -0.000002693029742  -0.000002704389611
Si   10.18313  10.18313  10.18313  -0.000000067754925  -0.000000191023778  -0.000000175306588
Si    7.46762   7.46762  10.18313  -0.000002917291007  -0.000003045148641  -0.000000712035086
Si    7.46762  10.18313   7.46762  -0.000002935169796  -0.000000701113810  -0.000003042575323
Si    6.10987   6.10987  11.54087  -0.000001922749601   0.000003523288574  -0.000010631175837
Si    8.82538   6.10987  14.25638   0.000009221828834  -0.000001636356503  -0.000003106326437
Si    6.10987   8.82538  14.25638   0.000001078466094   0.000008783163061  -0.000015613740514
Si    8.82538   8.82538  11.54087   0.000006318695142   0.000008163132169  -0.000008134279162
Si   10.18313   7.46762  12.89863   0.000003438818511   0.000002444564522  -0.000001805972207
Si   10.18313  10.18313  15.61412  -0.000004929529738   0.000000768932119  -0.000005935619390
Si    7.46762   7.46762  15.61412  -0.000014290335945  -0.000008640407031  -0.000011242367347
Si    7.46762  10.18313  12.89863  -0.000000297735562   0.000006173313848   0.000007396488986
Si    6.10987  11.54087   0.67888  -0.000001623573249   0.000009414354628  -0.000018673104408
Si    8.82538  11.54087   3.39437   0.000011107958348  -0.000007364118724  -0.000005874762755
Si    6.10987  14.25638   3.39437   0.000001632432443   0.000004148886534  -0.000011263501339
Si    8.82538  14.25638   0.67888   0.000000587370812   0.000000743636173   0.000006204488265
Si   10.18313  12.89863   2.03662   0.000003285759874   0.000009483010464  -0.000011547278739
Si   10.18313  15.61412   4.75213   0.000004170832421   0.000008651426221   0.000000517968696
Si    7.46762  12.89863   4.75213  -0.000009077004075   0.000006062163287   0.000011925923826
Si    7.46762  15.61412   2.03662  -0.000002618430803  -0.000000492900443  -0.000003264746614
Si    6.10987  11.54087   6.10987  -0.000001922648660  -0.000010638718291   0.000003509118721
Si    8.82538  11.54087   8.82538   0.000006320637222  -0.000008130889387   0.000008157176270
Si    6.10987  14.25638   8.82538   0.000001087589145  -0.000015622436807   0.000008789113798
Si    8.82538  14.25638   6.10987   0.000009222506698  -0.000003113296179  -0.000001628966830
Si   10.18313  12.89863   7.46762   0.000003432000153  -0.000001796346521   0.000002446996111
Si   10.18313  15.61412  10.18313  -0.000004935692077  -0.000005933560317   0.000000751141381
Si    7.46762  12.89863  10.18313  -0.000000287081187   0.000007378015896   0.000006167037921
Si    7.46762  15.61412   7.46762  -0.000014300006226  -0.000011254361444  -0.000008639214219
Si    6.10987  11.54087  11.54087  -0.000001196332865  -0.000006287868476  -0.000006286640045
Si    8.82538  11.54087  14.25638   0.000004794318342  -0.000004491307166   0.000002352869530
Si    6.10987  14.25638  14.25638   0.000001391239485   0.000012228470238   0.000012226860714
Si    8.82538  14.25638  11.54087   0.000004811506503   0.000002355204298  -0.000004497527557
Si   10.18313  12.89863  12.89863  -0.000001021514130   0.000005714750050   0.000005719894025
Si   10.18313  15.61412  15.61412  -0.000000859144487  -0.000005123823979  -0.000005132933149
Si    7.46762  12.89863  15.61412  -0.000004752689305   0.000006034290677  -0.000019940645736
Si    7.46762  15.61412  12.89863  -0.000004745865099  -0.000019929854567   0.000006040984046
Si   11.54087   0.67888   0.67888  -0.000013899616694   0.000008144061577   0.000008147531585
Si   14.25638   0.67888   3.39437  -0.000183757480417   0.000108388837841   0.000174871150137
Si   11.54087   3.39437   3.39437  -0.000007172434268  -0.000003904766423  -0.000003914440585
Si   14.25638   3.39437   0.67888  -0.000183804094679   0.000174969719902   0.000108790100965
Si   15.61412   2.03662   2.03662  -0.003224256437147   0.002172625302289   0.002172765720416
Si   15.61412   4.75213   4.75213  -0.000181686134446  -0.000042204540912  -0.000042263634282
Si   12.89863   2.03662   4.75213  -0.000013466899996  -0.000051769091797   0.000022759902210
Si   12.89863   4.75213   2.03662  -0.000013429000454   0.000022746574603  -0.000051651257888
Si   11.54087   0.67888   6.10987  -0.000002778625735   0.000023141153509   0.000010923652640
Si   14.25638   0.67888   8.82538  -0.000011239979095   0.000002885480944   0.000002879367174
Si   11.54087   3.39437   8.82538  -0.000008044334554  -0.000024953641093   0.000007405278335
Si   14.25638   3.39437   6.10987  -0.000016564425099  -0.000032762766835   0.000012368052335
Si   15.61412   2.03662   7.46762   0.000012501757194  -0.000002320265613  -0.000000523249457
Si   15.61412   4.75213  10.18313   0.000008549620786   0.000013130465535   0.000012535106269
Si   12.89863   2.03662  10.18313   0.000005492614028   0.000010582007073   0.000002198499874
Si   12.89863   4.75213   7.46762   0.000008743347890   0.000029202028896  -0.000011881507700
Si   11.54087   0.67888  11.54087  -0.000008909462860  -0.000011269609758  -0.000020775717410
Si   14.25638   0.67888  14.25638  -0.000182933014448  -0.000098281701992  -0.000177788401055
Si   11.54087   3.39437  14.25638  -0.000001405143216   0.000009310835410  -0.000011301013722
Si   14.25638   3.39437  11.54087  -0.000015776653280  -0.000029183059709  -0.000007307909830
Si   15.61412   2.03662  12.89863   0.000028279188793   0.000039291166961   0.000027480887232
Si   15.61412   4.75213  15.61412   0.000022872471537  -0.000016587784646  -0.000046631022266
Si   12.89863   2.03662  15.61412   0.000007077463840  -0.000025095656672   0.000023270897590
Si   12.89863   4.75213  12.89863   0.000016292994364   0.000009337096171   0.000006967703686
Si   11.54087   6.10987   0.67888  -0.000002904432749   0.000010930403431   0.000023148061222
Si   14.25638   6.10987   3.39437  -0.000016554167866   0.000012362310683  -0.000032667255525
Si   11.54087   8.82538   3.39437  -0.000008054249620   0.000007423161487  -0.000024929180665
Si   14.25638   8.82538   0.67888  -0.000011204143723   0.000002883813301   0.000002881097699
Si   15.61412   7.46762   2.03662   0.000012544571574  -0.000000532234298  -0.000002546509550
Si   15.61412  10.18313   4.75213   0.000008518235728   0.000012539394333   0.000013096193430
Si   12.89863   7.46762   4.75213   0.000008846820160  -0.000011912100960   0.000029178754825
Si   12.89863  10.18313   2.03662   0.000005522843372   0.000002180923905   0.000010591397325
Si   11.54087   6.10987   6.10987  -0.000009112345618  -0.000003445005074  -0.000003430333270
Si   14.25638   6.10987   8.82538  -0.000004090634729  -0.000015753585571   0.000010297189966
Si   11.54087   8.82538   8.82538  -0.000009906089050   0.000008153524677   0.000008157029290
Si   14.25638   8.82538   6.10987  -0.000004098665012   0.000010294915071  -0.000015754794900
Si   15.61412   7.46762   7.46762  -0.000071653755594  -0.000010789323439  -0.000010792593874
Si   15.61412  10.18313  10.18313  -0.000069762764997   0.000001786383040   0.000001808026887
Si   12.89863   7.46762  10.18313   0.000004184937961   0.000001695930861  -0.000003694822489
Si   12.89863  10.18313   7.46762   0.000004202824032  -0.000003684190226   0.000001688004564
Si   11.54087   6.10987  11.54087  -0.000004807725980  -0.000002648299396   0.000000649966035
Si   14.25638   6.10987  14.25638  -0.000016700940928   0.000004431571345   0.000026304237242
Si   11.54087   8.82538  14.25638  -0.000001920893220   0.000004442981939   0.000015071943880
Si   14.25638   8.82538  11.54087  -0.000004978438042  -0.000000294051798   0.000012872805401
Si   15.61412   7.46762  12.89863   0.000003248552820  -0.000019813287859  -0.000002058461587
Si   15.61412  10.18313  15.61412   0.000012527895130  -0.000003216698770  -0.000001213300001
Si   12.89863   7.46762  15.61412   0.000006558661094  -0.000010332529595  -0.000018749886329
Si   12.89863  10.18313  12.89863   0.000002739196295   0.000002036309408  -0.000017315591057
Si   11.54087  11.54087   0.67888  -0.000009017192486  -0.000020806016085  -0.000011281455945
Si   14.25638  11.54087   3.39437  -0.000015819723566  -0.000007317137313  -0.000029177888916
Si   11.54087  14.25638   3.39437  -0.000001423094862  -0.000011295734919   0.000009297529087
Si   14.25638  14.25638   0.67888  -0.000182972034592  -0.000177892228299  -0.000098680688688
Si   15.61412  12.89863   2.03662   0.000028150680312   0.000027556147883   0.000039376854502
Si   15.61412  15.61412   4.75213   0.000023018227996  -0.000046542676631  -0.000016495899099
Si   12.89863  12.89863   4.75213   0.000016292585297   0.000006968873176   0.000009345571280
Si   12.89863  15.61412   2.03662   0.000007060262712   0.000023162712753  -0.000025222842988
Si   11.54087  11.54087   6.10987  -0.000004789781918   0.000000660603402  -0.000002656186503
Si   14.25638  11.54087   8.82538  -0.000004970328489   0.000012867164333  -0.000000293994541
Si   11.54087  14.25638   8.82538  -0.000001928911158   0.000015072976108   0.000004455875071
Si   14.25638  14.25638   6.10987  -0.000016659757832   0.000026304189504   0.000004427046111
Si   15.61412  12.89863   7.46762   0.000003262143058  -0.000002109474498  -0.000019817535958
Si   15.61412  15.61412  10.18313   0.000012522283801  -0.000001431025547  -0.000003234069489
Si   12.89863  12.89863  10.18313   0.000002618426759  -0.000017333312094   0.000002029384777
Si   12.89863  15.61412   7.46762   0.000006527994473  -0.000018737085405  -0.000010353708671
Si   11.54087  11.54087  11.54087  -0.000010149176973  -0.000004709634980  -0.000004727846540
Si   14.25638  11.54087  14.25638  -0.000016561712399  -0.000019475819287   0.000025546623403
Si   11.54087  14.25638  14.25638  -0.000006141284691  -0.000004256675018  -0.000004250400496
Si   14.25638  14.25638  11.54087  -0.000016569770698   0.000025650548615  -0.000019488556349
Si   15.61412  12.89863  12.89863  -0.000181690416505   0.000060224266710   0.000060247037478
Si   15.61412  15.61412  15.61412  -0.003226191352245  -0.002181521593849  -0.002181649282129
Si   12.89863  12.89863  15.61412  -0.000007268657062  -0.000010866043727   0.000041758404955
Si   12.89863  15.61412  12.89863  -0.000007324465463   0.000041852296340  -0.000010884045192
