CRYSTAL
PRIMVEC
  16.293000   0.000000   0.000000
   0.000000  16.293000   0.000000
   0.000000   0.000000  16.293000
PRIMCOORD
 216 1
Si     7.289E-01     6.789E-01     6.789E-01     3.771E-11     4.422E-11     1.258E-10
Si     3.394E+00     6.789E-01     3.394E+00     5.086E-11    -1.123E-11    -1.023E-10
Si     6.789E-01     3.394E+00     3.394E+00     1.007E-10    -7.232E-11     3.944E-11
Si     3.394E+00     3.394E+00     6.789E-01     1.455E-10     2.191E-11    -8.236E-11
Si     4.752E+00     2.037E+00     2.037E+00    -7.164E-11    -9.229E-11    -1.373E-10
Si     4.752E+00     4.752E+00     4.752E+00    -7.536E-12    -1.303E-10     7.534E-11
Si     2.037E+00     2.037E+00     4.752E+00    -3.244E-11     1.666E-13     3.578E-11
Si     2.037E+00     4.752E+00     2.037E+00     3.402E-11     2.026E-11    -1.481E-10
Si     6.789E-01     6.789E-01     6.110E+00    -4.717E-11     1.720E-10    -2.219E-10
Si     3.394E+00     6.789E-01     8.825E+00     1.525E-10    -9.400E-11     1.888E-11
Si     6.789E-01     3.394E+00     8.825E+00    -5.172E-11    -1.518E-11    -3.215E-10
Si     3.394E+00     3.394E+00     6.110E+00     9.321E-11     1.442E-10     1.406E-11
Si     4.752E+00     2.037E+00     7.468E+00     4.479E-11    -3.205E-11    -2.238E-10
Si     4.752E+00     4.752E+00     1.018E+01    -5.751E-11     5.744E-11    -2.128E-11
Si     2.037E+00     2.037E+00     1.018E+01    -4.314E-11    -3.208E-11    -3.448E-11
Si     2.037E+00     4.752E+00     7.468E+00     7.195E-11     2.368E-11    -1.023E-10
Si     6.789E-01     6.789E-01     1.154E+01    -4.903E-11    -6.303E-11     2.550E-10
Si     3.394E+00     6.789E-01     1.426E+01    -9.934E-11     2.309E-11     4.792E-10
Si     6.789E-01     3.394E+00     1.426E+01    -7.980E-11     1.366E-10     1.026E-10
Si     3.394E+00     3.394E+00     1.154E+01     1.156E-10    -1.067E-11     2.581E-10
Si     4.752E+00     2.037E+00     1.290E+01    -1.200E-11    -3.477E-11    -4.819E-10
Si     4.752E+00     4.752E+00     1.561E+01    -1.908E-10    -3.113E-11    -2.428E-11
Si     2.037E+00     2.037E+00     1.561E+01    -8.806E-11    -5.257E-11    -4.234E-12
Si     2.037E+00     4.752E+00     1.290E+01    -8.747E-11    -7.047E-11     2.172E-11
Si     6.789E-01     6.110E+00     6.789E-01     2.031E-11     4.003E-11    -5.552E-11
Si     3.394E+00     6.110E+00     3.394E+00    -1.273E-10    -1.814E-11    -1.620E-10
Si     6.789E-01     8.825E+00     3.394E+00     1.677E-10    -2.996E-11    -2.798E-10
Si     3.394E+00     8.825E+00     6.789E-01     1.671E-10    -1.502E-11     6.890E-11
Si     4.752E+00     7.468E+00     2.037E+00    -4.899E-12     1.276E-10    -3.266E-10
Si     4.752E+00     1.018E+01     4.752E+00     1.687E-10    -4.771E-12    -2.188E-10
Si     2.037E+00     7.468E+00     4.752E+00     7.475E-11     5.394E-11     4.803E-10
Si     2.037E+00     1.018E+01     2.037E+00    -1.461E-10    -9.275E-11     1.590E-10
Si     6.789E-01     6.110E+00     6.110E+00    -6.264E-11     5.521E-11     7.180E-11
Si     3.394E+00     6.110E+00     8.825E+00    -6.013E-11     4.486E-11     1.128E-10
Si     6.789E-01     8.825E+00     8.825E+00    -1.308E-10     2.685E-12     5.264E-11
Si     3.394E+00     8.825E+00     6.110E+00    -1.734E-10    -1.980E-11     1.551E-10
Si     4.752E+00     7.468E+00     7.468E+00     6.995E-11    -1.909E-11    -7.432E-11
Si     4.752E+00     1.018E+01     1.018E+01    -4.426E-12    -4.521E-11     7.487E-11
Si     2.037E+00     7.468E+00     1.018E+01     9.785E-11    -7.767E-11     1.553E-10
Si     2.037E+00     1.018E+01     7.468E+00    -2.507E-11    -4.005E-11     5.526E-11
Si     6.789E-01     6.110E+00     1.154E+01     1.181E-10    -1.070E-10    -1.423E-11
Si     3.394E+00     6.110E+00     1.426E+01     1.793E-10    -4.039E-11    -3.002E-10
Si     6.789E-01     8.825E+00     1.426E+01    -7.865E-11    -1.404E-11     4.361E-10
Si     3.394E+00     8.825E+00     1.154E+01    -2.056E-11     8.430E-11     1.155E-10
Si     4.752E+00     7.468E+00     1.290E+01     1.560E-11     2.234E-11     4.895E-10
Si     4.752E+00     1.018E+01     1.561E+01     4.900E-11    -1.309E-10     7.566E-12
Si     2.037E+00     7.468E+00     1.561E+01     1.351E-11     2.272E-11    -1.340E-10
Si     2.037E+00     1.018E+01     1.290E+01    -1.004E-10    -3.850E-11    -2.750E-10
Si     6.789E-01     1.154E+01     6.789E-01     6.452E-11     5.119E-12    -1.500E-10
Si     3.394E+00     1.154E+01     3.394E+00    -1.180E-10     2.912E-11    -1.071E-10
Si     6.789E-01     1.426E+01     3.394E+00     9.779E-11     3.170E-11    -2.961E-10
Si     3.394E+00     1.426E+01     6.789E-01     1.508E-10    -7.492E-11    -1.274E-10
Si     4.752E+00     1.290E+01     2.037E+00    -2.309E-11    -5.568E-12    -8.879E-11
Si     4.752E+00     1.561E+01     4.752E+00    -1.986E-10     7.776E-11     1.590E-10
Si     2.037E+00     1.290E+01     4.752E+00     3.230E-11    -3.256E-11     1.655E-10
Si     2.037E+00     1.561E+01     2.037E+00    -2.508E-11     7.963E-11     4.348E-11
Si     6.789E-01     1.154E+01     6.110E+00     1.010E-10     2.284E-11    -2.268E-12
Si     3.394E+00     1.154E+01     8.825E+00     2.212E-11     5.377E-11    -8.412E-11
Si     6.789E-01     1.426E+01     8.825E+00    -1.702E-11    -2.217E-11     9.897E-11
Si     3.394E+00     1.426E+01     6.110E+00     1.301E-13    -5.230E-11     2.441E-11
Si     4.752E+00     1.290E+01     7.468E+00     1.192E-10    -3.605E-11     1.361E-10
Si     4.752E+00     1.561E+01     1.018E+01    -1.067E-10     6.342E-11     4.695E-10
Si     2.037E+00     1.290E+01     1.018E+01     1.690E-10    -2.869E-12     2.343E-10
Si     2.037E+00     1.561E+01     7.468E+00    -5.060E-12    -8.450E-12    -2.947E-11
Si     6.789E-01     1.154E+01     1.154E+01    -2.600E-12    -1.785E-11     2.955E-10
Si     3.394E+00     1.154E+01     1.426E+01     7.893E-11     1.533E-10    -1.027E-10
Si     6.789E-01     1.426E+01     1.426E+01     1.073E-10     5.813E-11     1.063E-10
Si     3.394E+00     1.426E+01     1.154E+01    -2.281E-10     3.259E-11    -2.894E-10
Si     4.752E+00     1.290E+01     1.290E+01    -1.431E-11     5.744E-11     4.247E-11
Si     4.752E+00     1.561E+01     1.561E+01     1.146E-10     7.547E-11    -1.015E-10
Si     2.037E+00     1.290E+01     1.561E+01    -9.977E-11    -1.500E-11    -3.755E-11
Si     2.037E+00     1.561E+01     1.290E+01     7.149E-11    -3.993E-11    -1.894E-10
Si     6.110E+00     6.789E-01     6.789E-01     1.451E-10    -6.615E-11    -2.396E-11
Si     8.825E+00     6.789E-01     3.394E+00     2.355E-11     1.066E-10    -4.020E-10
Si     6.110E+00     3.394E+00     3.394E+00    -7.293E-11     5.284E-12     1.320E-10
Si     8.825E+00     3.394E+00     6.789E-01    -8.947E-11     5.729E-11     2.241E-10
Si     1.018E+01     2.037E+00     2.037E+00    -4.647E-11     1.735E-11    -7.527E-11
Si     1.018E+01     4.752E+00     4.752E+00     1.220E-10    -2.505E-11     3.056E-10
Si     7.468E+00     2.037E+00     4.752E+00    -1.645E-10    -2.231E-11     1.460E-10
Si     7.468E+00     4.752E+00     2.037E+00     7.301E-11    -1.787E-11     2.019E-10
Si     6.110E+00     6.789E-01     6.110E+00     1.185E-10     2.775E-11     5.775E-10
Si     8.825E+00     6.789E-01     8.825E+00    -1.154E-10     6.016E-11    -8.773E-11
Si     6.110E+00     3.394E+00     8.825E+00    -1.020E-10    -1.059E-10     9.118E-11
Si     8.825E+00     3.394E+00     6.110E+00    -1.125E-10     4.314E-11    -2.102E-10
Si     1.018E+01     2.037E+00     7.468E+00     1.533E-10    -3.240E-11    -1.826E-10
Si     1.018E+01     4.752E+00     1.018E+01     8.397E-11    -1.118E-10    -4.148E-10
Si     7.468E+00     2.037E+00     1.018E+01    -4.007E-11    -3.285E-11     3.854E-10
Si     7.468E+00     4.752E+00     7.468E+00    -1.096E-10    -3.343E-12     1.945E-10
Si     6.110E+00     6.789E-01     1.154E+01    -9.481E-11     7.326E-12    -3.684E-11
Si     8.825E+00     6.789E-01     1.426E+01    -4.113E-11     1.160E-10    -1.567E-10
Si     6.110E+00     3.394E+00     1.426E+01     4.480E-11     3.150E-11     2.758E-10
Si     8.825E+00     3.394E+00     1.154E+01     6.069E-11     6.897E-11     7.612E-11
Si     1.018E+01     2.037E+00     1.290E+01    -2.543E-10     2.617E-11     2.575E-10
Si     1.018E+01     4.752E+00     1.561E+01     1.228E-10     1.198E-10     1.228E-10
Si     7.468E+00     2.037E+00     1.561E+01    -1.067E-10     6.668E-11    -3.060E-10
Si     7.468E+00     4.752E+00     1.290E+01     7.815E-11     2.105E-11    -3.972E-10
Si     6.110E+00     6.110E+00     6.789E-01    -8.122E-11     3.014E-11    -5.055E-11
Si     8.825E+00     6.110E+00     3.394E+00    -3.643E-12     1.146E-10    -8.930E-11
Si     6.110E+00     8.825E+00     3.394E+00     4.321E-11    -1.516E-10     1.477E-10
Si     8.825E+00     8.825E+00     6.789E-01     6.761E-11    -3.105E-11    -5.635E-11
Si     1.018E+01     7.468E+00     2.037E+00    -2.846E-11    -6.853E-11     2.982E-10
Si     1.018E+01     1.018E+01     4.752E+00     1.064E-10     2.883E-11    -5.858E-11
Si     7.468E+00     7.468E+00     4.752E+00    -5.366E-11     1.239E-10    -1.313E-11
Si     7.468E+00     1.018E+01     2.037E+00    -1.190E-10     1.424E-10    -2.728E-10
Si     6.110E+00     6.110E+00     6.110E+00     8.487E-11    -1.810E-11    -2.055E-10
Si     8.825E+00     6.110E+00     8.825E+00    -4.893E-11     1.701E-10     1.882E-10
Si     6.110E+00     8.825E+00     8.825E+00    -1.063E-10     5.983E-11    -1.665E-12
Si     8.825E+00     8.825E+00     6.110E+00    -7.134E-11    -7.796E-11     2.730E-10
Si     1.018E+01     7.468E+00     7.468E+00     1.462E-10     4.345E-11    -2.729E-10
Si     1.018E+01     1.018E+01     1.018E+01    -3.779E-11    -1.479E-10     2.700E-10
Si     7.468E+00     7.468E+00     1.018E+01     7.900E-11    -1.107E-10    -2.355E-10
Si     7.468E+00     1.018E+01     7.468E+00     7.299E-11    -3.589E-11    -1.064E-10
Si     6.110E+00     6.110E+00     1.154E+01    -3.538E-11    -8.051E-11    -7.352E-11
Si     8.825E+00     6.110E+00     1.426E+01    -5.980E-11    -3.304E-11     2.031E-10
Si     6.110E+00     8.825E+00     1.426E+01    -4.256E-11     2.347E-11     1.317E-10
Si     8.825E+00     8.825E+00     1.154E+01     1.672E-10     5.288E-11     1.093E-10
Si     1.018E+01     7.468E+00     1.290E+01    -5.259E-11    -5.152E-11     1.665E-10
Si     1.018E+01     1.018E+01     1.561E+01    -6.005E-11    -6.400E-11    -1.741E-10
Si     7.468E+00     7.468E+00     1.561E+01    -2.738E-11     2.294E-11    -1.241E-10
Si     7.468E+00     1.018E+01     1.290E+01    -1.209E-10    -7.289E-11    -2.152E-10
Si     6.110E+00     1.154E+01     6.789E-01     8.034E-11     4.025E-11     1.351E-10
Si     8.825E+00     1.154E+01     3.394E+00    -1.458E-11    -5.801E-11     3.269E-10
Si     6.110E+00     1.426E+01     3.394E+00     9.654E-11     3.649E-11    -1.949E-10
Si     8.825E+00     1.426E+01     6.789E-01     3.153E-11     1.630E-10    -1.935E-10
Si     1.018E+01     1.290E+01     2.037E+00     6.009E-11    -7.033E-12     1.112E-12
Si     1.018E+01     1.561E+01     4.752E+00     1.716E-10     5.563E-12     1.419E-10
Si     7.468E+00     1.290E+01     4.752E+00     8.811E-11    -6.348E-11     1.859E-10
Si     7.468E+00     1.561E+01     2.037E+00     1.138E-11    -1.832E-10     2.265E-10
Si     6.110E+00     1.154E+01     6.110E+00    -1.057E-10     1.441E-10     2.545E-13
Si     8.825E+00     1.154E+01     8.825E+00     1.228E-10     9.125E-11     1.508E-11
Si     6.110E+00     1.426E+01     8.825E+00    -1.041E-10     4.909E-11    -1.535E-10
Si     8.825E+00     1.426E+01     6.110E+00    -4.276E-11    -4.914E-11    -8.212E-11
Si     1.018E+01     1.290E+01     7.468E+00    -1.347E-10    -5.167E-11     1.836E-10
Si     1.018E+01     1.561E+01     1.018E+01    -1.386E-10     2.255E-11    -1.418E-10
Si     7.468E+00     1.290E+01     1.018E+01     1.288E-10     1.929E-11    -4.950E-10
Si     7.468E+00     1.561E+01     7.468E+00     9.428E-11     3.802E-11    -3.994E-10
Si     6.110E+00     1.154E+01     1.154E+01     2.197E-11     8.927E-11     2.430E-10
Si     8.825E+00     1.154E+01     1.426E+01     1.213E-10     2.033E-12    -1.484E-10
Si     6.110E+00     1.426E+01     1.426E+01    -9.376E-11    -3.806E-11     6.779E-11
Si     8.825E+00     1.426E+01     1.154E+01    -7.589E-11     2.988E-11    -4.989E-11
Si     1.018E+01     1.290E+01     1.290E+01     8.408E-11     1.514E-11     2.121E-10
Si     1.018E+01     1.561E+01     1.561E+01    -1.925E-10    -1.970E-10     2.929E-10
Si     7.468E+00     1.290E+01     1.561E+01    -1.731E-10     7.446E-11     6.515E-11
Si     7.468E+00     1.561E+01     1.290E+01     7.230E-11    -6.802E-11     1.482E-10
Si     1.154E+01     6.789E-01     6.789E-01     9.946E-11    -4.192E-11    -1.369E-10
Si     1.426E+01     6.789E-01     3.394E+00    -2.157E-11    -2.751E-12     1.421E-10
Si     1.154E+01     3.394E+00     3.394E+00    -4.492E-11     2.409E-11    -5.438E-11
Si     1.426E+01     3.394E+00     6.789E-01    -7.792E-11    -9.059E-11     1.141E-10
Si     1.561E+01     2.037E+00     2.037E+00    -8.639E-11     6.797E-11    -9.223E-11
Si     1.561E+01     4.752E+00     4.752E+00    -1.929E-10    -3.750E-11     1.886E-10
Si     1.290E+01     2.037E+00     4.752E+00     1.732E-10    -2.751E-11    -3.362E-10
Si     1.290E+01     4.752E+00     2.037E+00     1.826E-10    -5.164E-11    -1.534E-10
Si     1.154E+01     6.789E-01     6.110E+00    -1.420E-10     5.976E-11     1.937E-10
Si     1.426E+01     6.789E-01     8.825E+00    -4.068E-12    -6.816E-11    -1.797E-10
Si     1.154E+01     3.394E+00     8.825E+00     6.567E-11    -5.949E-11     5.677E-10
Si     1.426E+01     3.394E+00     6.110E+00    -7.840E-11    -6.082E-11     8.122E-11
Si     1.561E+01     2.037E+00     7.468E+00    -1.644E-11     4.891E-11     1.289E-10
Si     1.561E+01     4.752E+00     1.018E+01    -3.883E-11     1.610E-11     2.073E-10
Si     1.290E+01     2.037E+00     1.018E+01     5.190E-12     2.867E-11    -4.770E-10
Si     1.290E+01     4.752E+00     7.468E+00     2.170E-11    -4.388E-11     3.483E-11
Si     1.154E+01     6.789E-01     1.154E+01     5.952E-11    -9.100E-11    -8.496E-11
Si     1.426E+01     6.789E-01     1.426E+01     1.180E-10    -2.214E-11    -9.641E-11
Si     1.154E+01     3.394E+00     1.426E+01     4.825E-11    -1.405E-11     7.585E-11
Si     1.426E+01     3.394E+00     1.154E+01    -8.873E-11    -7.312E-13     3.596E-11
Si     1.561E+01     2.037E+00     1.290E+01    -5.178E-11    -3.914E-11     2.251E-11
Si     1.561E+01     4.752E+00     1.561E+01     4.770E-12    -1.992E-11     9.630E-11
Si     1.290E+01     2.037E+00     1.561E+01    -8.422E-11     7.082E-11     5.519E-12
Si     1.290E+01     4.752E+00     1.290E+01     2.203E-10     6.011E-11    -1.596E-11
Si     1.154E+01     6.110E+00     6.789E-01    -4.811E-11     3.582E-11     4.511E-12
Si     1.426E+01     6.110E+00     3.394E+00     1.302E-11     4.018E-11    -8.803E-11
Si     1.154E+01     8.825E+00     3.394E+00     8.988E-11     8.399E-11    -3.345E-11
Si     1.426E+01     8.825E+00     6.789E-01    -2.932E-11     5.918E-12    -1.032E-10
Si     1.561E+01     7.468E+00     2.037E+00    -6.061E-11    -2.066E-11     2.191E-10
Si     1.561E+01     1.018E+01     4.752E+00    -8.798E-11     1.237E-11     6.108E-11
Si     1.290E+01     7.468E+00     4.752E+00    -8.304E-11    -6.341E-11     8.103E-11
Si     1.290E+01     1.018E+01     2.037E+00     9.840E-11    -1.169E-10    -6.576E-11
Si     1.154E+01     6.110E+00     6.110E+00     1.899E-10    -7.313E-11    -7.550E-11
Si     1.426E+01     6.110E+00     8.825E+00    -6.261E-12     1.761E-10     2.412E-10
Si     1.154E+01     8.825E+00     8.825E+00    -4.139E-11    -4.458E-11    -4.405E-11
Si     1.426E+01     8.825E+00     6.110E+00     2.210E-11    -6.110E-11    -1.262E-11
Si     1.561E+01     7.468E+00     7.468E+00    -2.342E-12    -3.826E-11    -8.225E-10
Si     1.561E+01     1.018E+01     1.018E+01     2.020E-11     7.233E-11     7.121E-11
Si     1.290E+01     7.468E+00     1.018E+01     2.122E-11    -1.210E-10    -1.333E-10
Si     1.290E+01     1.018E+01     7.468E+00    -6.943E-11    -7.085E-12     2.087E-10
Si     1.154E+01     6.110E+00     1.154E+01    -1.463E-11     5.051E-11    -3.453E-10
Si     1.426E+01     6.110E+00     1.426E+01    -3.710E-11    -9.007E-11     8.838E-11
Si     1.154E+01     8.825E+00     1.426E+01     5.115E-11    -8.272E-11     9.785E-11
Si     1.426E+01     8.825E+00     1.154E+01     2.177E-10     1.577E-12    -2.796E-10
Si     1.561E+01     7.468E+00     1.290E+01    -7.252E-11     1.018E-10    -2.044E-10
Si     1.561E+01     1.018E+01     1.561E+01     1.301E-10     1.134E-10    -1.281E-10
Si     1.290E+01     7.468E+00     1.561E+01     3.256E-11    -1.157E-10    -1.681E-10
Si     1.290E+01     1.018E+01     1.290E+01    -1.043E-10     6.856E-11     1.362E-10
Si     1.154E+01     1.154E+01     6.789E-01     4.983E-11     1.198E-10     2.255E-10
Si     1.426E+01     1.154E+01     3.394E+00    -8.156E-11     1.452E-10    -1.901E-10
Si     1.154E+01     1.426E+01     3.394E+00     9.106E-11    -5.506E-11     3.294E-11
Si     1.426E+01     1.426E+01     6.789E-01    -3.203E-11    -1.270E-10    -1.971E-10
Si     1.561E+01     1.290E+01     2.037E+00     2.825E-11     1.858E-11     1.435E-11
Si     1.561E+01     1.561E+01     4.752E+00    -8.963E-11    -1.220E-10     1.878E-10
Si     1.290E+01     1.290E+01     4.752E+00    -1.609E-10    -1.914E-10    -2.521E-10
Si     1.290E+01     1.561E+01     2.037E+00    -5.928E-11     1.293E-10     1.794E-10
Si     1.154E+01     1.154E+01     6.110E+00    -7.024E-11    -2.389E-11     1.290E-10
Si     1.426E+01     1.154E+01     8.825E+00    -1.128E-10     5.963E-11    -6.433E-11
Si     1.154E+01     1.426E+01     8.825E+00     5.370E-11    -1.000E-11    -1.806E-10
Si     1.426E+01     1.426E+01     6.110E+00     7.918E-12     2.887E-11     2.297E-10
Si     1.561E+01     1.290E+01     7.468E+00    -4.293E-11    -6.667E-11    -8.017E-12
Si     1.561E+01     1.561E+01     1.018E+01    -7.796E-11     1.426E-12    -4.344E-10
Si     1.290E+01     1.290E+01     1.018E+01     6.926E-11     1.859E-11    -2.601E-10
Si     1.290E+01     1.561E+01     7.468E+00     3.062E-11    -7.590E-12    -3.679E-11
Si     1.154E+01     1.154E+01     1.154E+01    -9.872E-11    -2.539E-11     2.321E-10
Si     1.426E+01     1.154E+01     1.426E+01     2.439E-11    -7.719E-11     2.242E-10
Si     1.154E+01     1.426E+01     1.426E+01     1.819E-10     2.117E-11     1.402E-10
Si     1.426E+01     1.426E+01     1.154E+01     1.681E-10     8.437E-12     8.804E-11
Si     1.561E+01     1.290E+01     1.290E+01     2.850E-11     4.097E-12    -3.672E-10
Si     1.561E+01     1.561E+01     1.561E+01    -1.361E-10     4.903E-12     3.258E-10
Si     1.290E+01     1.290E+01     1.561E+01    -8.802E-11     1.116E-10    -2.839E-10
Si     1.290E+01     1.561E+01     1.290E+01    -4.880E-11    -2.079E-11     8.654E-11
