216 

Si    0.67888   0.67888   0.67888   0.000006054896264   0.000006054891918   0.000006037998531
Si    3.39437   0.67888   3.39437  -0.000006054887803   0.000006054891918  -0.000006037998717
Si    0.67888   3.39437   3.39437   0.000006054896293  -0.000006054892013  -0.000006037998861
Si    3.39437   3.39437   0.67888  -0.000006054887948  -0.000006054892015   0.000006037998708
Si    4.75213   2.03662   2.03662   0.000008390602838   0.000000000000098   0.000000000000043
Si    4.75213   4.75213   4.75213   0.000004929171874   0.000004929167390   0.000004933352465
Si    2.03662   2.03662   4.75213   0.000000000005185   0.000000000000259   0.000008395804336
Si    2.03662   4.75213   2.03662   0.000000000005008   0.000008390598221   0.000000000000127
Si    0.67888   0.67888   6.10987   0.000002760051832   0.000002760047789   0.000000194083219
Si    3.39437   0.67888   8.82538  -0.000004929163378   0.000004929167495   0.000004933352915
Si    0.67888   3.39437   8.82538   0.000004929171584  -0.000004929167408   0.000004933352623
Si    3.39437   3.39437   6.10987  -0.000002760043388  -0.000002760047942   0.000000194082897
Si    4.75213   2.03662   7.46762   0.000002774853249   0.000000198723562  -0.000002771134956
Si    4.75213   4.75213  10.18313   0.000002760052097   0.000002760047723  -0.000000194082714
Si    2.03662   2.03662  10.18313   0.000000000005008  -0.000000000000021  -0.000000000000161
Si    2.03662   4.75213   7.46762   0.000000198728099   0.000002774848894  -0.000002771134764
Si    0.67888   0.67888  11.54087   0.000004929171941   0.000004929167657  -0.000004933352742
Si    3.39437   0.67888  14.25638  -0.000002760043591   0.000002760047607  -0.000000194083102
Si    0.67888   3.39437  14.25638   0.000002760051990  -0.000002760047610  -0.000000194083052
Si    3.39437   3.39437  11.54087  -0.000004929163025  -0.000004929167540  -0.000004933352823
Si    4.75213   2.03662  12.89863   0.000002774853388  -0.000000198723436   0.000002771134900
Si    4.75213   4.75213  15.61412   0.000006054896436   0.000006054891909  -0.000006037998731
Si    2.03662   2.03662  15.61412   0.000000000005131  -0.000000000000122  -0.000008395804068
Si    2.03662   4.75213  12.89863  -0.000000198718582   0.000002774848916   0.000002771134604
Si    0.67888   6.10987   0.67888   0.000002774853284   0.000000198723671   0.000002771134703
Si    3.39437   6.10987   3.39437  -0.000002774844773   0.000000198723601  -0.000002771134486
Si    0.67888   8.82538   3.39437   0.000004929171723   0.000004929167401  -0.000004933352477
Si    3.39437   8.82538   0.67888  -0.000004929163111   0.000004929167673   0.000004933352666
Si    4.75213   7.46762   2.03662   0.000002760052192  -0.000002760047995   0.000000194082736
Si    4.75213  10.18313   4.75213   0.000002774853178  -0.000000198723506   0.000002771134622
Si    2.03662   7.46762   4.75213   0.000000198728390  -0.000002774849285   0.000002771134781
Si    2.03662  10.18313   2.03662   0.000000000005145   0.000000000000016  -0.000000000000075
Si    0.67888   6.10987   6.10987   0.000008390602872   0.000000000000160   0.000000000000005
Si    3.39437   6.10987   8.82538  -0.000002774844562  -0.000000198723470   0.000002771134617
Si    0.67888   8.82538   8.82538   0.000006054896227   0.000006054892246   0.000006037998793
Si    3.39437   8.82538   6.10987  -0.000002760043381   0.000002760047859  -0.000000194082878
Si    4.75213   7.46762   7.46762   0.000004929171948  -0.000004929167123  -0.000004933352562
Si    4.75213  10.18313  10.18313   0.000008390602559   0.000000000000014   0.000000000000032
Si    2.03662   7.46762  10.18313   0.000000000005140  -0.000008390598234  -0.000000000000048
Si    2.03662  10.18313   7.46762   0.000000000005065  -0.000000000000079  -0.000008395804277
Si    0.67888   6.10987  11.54087   0.000002774852940  -0.000000198723822  -0.000002771134830
Si    3.39437   6.10987  14.25638  -0.000008390593928   0.000000000000228  -0.000000000000013
Si    0.67888   8.82538  14.25638   0.000002760052005   0.000002760047895   0.000000194082978
Si    3.39437   8.82538  11.54087  -0.000006054887560   0.000006054892046  -0.000006037998605
Si    4.75213   7.46762  12.89863   0.000006054895966  -0.000006054891912   0.000006037998508
Si    4.75213  10.18313  15.61412   0.000002774853204   0.000000198723379  -0.000002771134693
Si    2.03662   7.46762  15.61412  -0.000000198718503  -0.000002774849029  -0.000002771134629
Si    2.03662  10.18313  12.89863   0.000000000005009  -0.000000000000144   0.000008395804274
Si    0.67888  11.54087   0.67888   0.000004929171653  -0.000004929167456   0.000004933352666
Si    3.39437  11.54087   3.39437  -0.000004929163100  -0.000004929167526  -0.000004933352562
Si    0.67888  14.25638   3.39437   0.000002774852963  -0.000000198723627  -0.000002771134624
Si    3.39437  14.25638   0.67888  -0.000002774844546  -0.000000198723542   0.000002771134776
Si    4.75213  12.89863   2.03662   0.000002760052202   0.000002760047886  -0.000000194082708
Si    4.75213  15.61412   4.75213   0.000006054896312  -0.000006054892051   0.000006037998741
Si    2.03662  12.89863   4.75213  -0.000000198718383   0.000002774848841   0.000002771134363
Si    2.03662  15.61412   2.03662   0.000000000005136  -0.000008390598137   0.000000000000109
Si    0.67888  11.54087   6.10987   0.000002760051986  -0.000002760047879  -0.000000194082794
Si    3.39437  11.54087   8.82538  -0.000006054887964  -0.000006054892048   0.000006037998844
Si    0.67888  14.25638   8.82538   0.000002774853075   0.000000198723608   0.000002771134916
Si    3.39437  14.25638   6.10987  -0.000008390593864   0.000000000000037   0.000000000000018
Si    4.75213  12.89863   7.46762   0.000006054896217   0.000006054891940  -0.000006037998690
Si    4.75213  15.61412  10.18313   0.000002760052114  -0.000002760047829   0.000000194082953
Si    2.03662  12.89863  10.18313   0.000000000005153   0.000008390598309  -0.000000000000059
Si    2.03662  15.61412   7.46762  -0.000000198718526  -0.000002774848739  -0.000002771134734
Si    0.67888  11.54087  11.54087   0.000006054896395  -0.000006054892215  -0.000006037998873
Si    3.39437  11.54087  14.25638  -0.000002760043298  -0.000002760047630   0.000000194082851
Si    0.67888  14.25638  14.25638   0.000008390602620  -0.000000000000068   0.000000000000029
Si    3.39437  14.25638  11.54087  -0.000002774844579   0.000000198723439  -0.000002771134795
Si    4.75213  12.89863  12.89863   0.000004929172112   0.000004929167395   0.000004933352614
Si    4.75213  15.61412  15.61412   0.000004929172137  -0.000004929167339  -0.000004933352667
Si    2.03662  12.89863  15.61412   0.000000198728429   0.000002774848880  -0.000002771134816
Si    2.03662  15.61412  12.89863   0.000000198728557  -0.000002774848819   0.000002771134799
Si    6.10987   0.67888   0.67888   0.000000198728625   0.000002774848781   0.000002771134933
Si    8.82538   0.67888   3.39437   0.000004929171755   0.000004929167656  -0.000004933352767
Si    6.10987   3.39437   3.39437   0.000000198728395  -0.000002774849020  -0.000002771134779
Si    8.82538   3.39437   0.67888   0.000004929171906  -0.000004929167571   0.000004933352571
Si   10.18313   2.03662   2.03662   0.000000000005421  -0.000000000000038   0.000000000000076
Si   10.18313   4.75213   4.75213  -0.000000198718504   0.000002774848959   0.000002771134743
Si    7.46762   2.03662   4.75213  -0.000002774844494   0.000000198723266   0.000002771134844
Si    7.46762   4.75213   2.03662  -0.000002760043440   0.000002760048064   0.000000194082784
Si    6.10987   0.67888   6.10987   0.000000000005112   0.000008390598414  -0.000000000000157
Si    8.82538   0.67888   8.82538   0.000006054896254   0.000006054892015   0.000006037998819
Si    6.10987   3.39437   8.82538  -0.000000198718372  -0.000002774848867   0.000002771134752
Si    8.82538   3.39437   6.10987   0.000002760052109  -0.000002760047839  -0.000000194083145
Si   10.18313   2.03662   7.46762   0.000000000004866  -0.000000000000097  -0.000008395804181
Si   10.18313   4.75213  10.18313   0.000000000004918   0.000008390598171   0.000000000000051
Si    7.46762   2.03662  10.18313  -0.000008390593967  -0.000000000000010   0.000000000000036
Si    7.46762   4.75213   7.46762  -0.000004929163150   0.000004929167685  -0.000004933352569
Si    6.10987   0.67888  11.54087  -0.000000198718298   0.000002774848850  -0.000002771134814
Si    8.82538   0.67888  14.25638   0.000002760052049   0.000002760047897   0.000000194083118
Si    6.10987   3.39437  14.25638   0.000000000005156  -0.000008390598255  -0.000000000000013
Si    8.82538   3.39437  11.54087   0.000006054896132  -0.000006054892037  -0.000006037998648
Si   10.18313   2.03662  12.89863   0.000000000004963   0.000000000000061   0.000008395804160
Si   10.18313   4.75213  15.61412   0.000000198728543   0.000002774848962  -0.000002771134876
Si    7.46762   2.03662  15.61412  -0.000002774844529  -0.000000198723450  -0.000002771134864
Si    7.46762   4.75213  12.89863  -0.000006054887818   0.000006054891902   0.000006037998560
Si    6.10987   6.10987   0.67888   0.000000000005295   0.000000000000069   0.000008395804464
Si    8.82538   6.10987   3.39437   0.000002774853065  -0.000000198723819  -0.000002771134782
Si    6.10987   8.82538   3.39437  -0.000000198718363   0.000002774848966  -0.000002771134360
Si    8.82538   8.82538   0.67888   0.000006054896160   0.000006054892209   0.000006037998811
Si   10.18313   7.46762   2.03662   0.000000000004987  -0.000008390598037  -0.000000000000126
Si   10.18313  10.18313   4.75213   0.000000000005009   0.000000000000027   0.000008395804285
Si    7.46762   7.46762   4.75213  -0.000004929163283  -0.000004929167484   0.000004933352609
Si    7.46762  10.18313   2.03662  -0.000008390593688  -0.000000000000128  -0.000000000000075
Si    6.10987   6.10987   6.10987   0.000000000005109  -0.000000000000094   0.000000000000003
Si    8.82538   6.10987   8.82538   0.000002774853111   0.000000198723772   0.000002771134825
Si    6.10987   8.82538   8.82538   0.000000198728794   0.000002774848865   0.000002771134637
Si    8.82538   8.82538   6.10987   0.000002760052114   0.000002760047796   0.000000194083015
Si   10.18313   7.46762   7.46762  -0.000000198718759  -0.000002774848906  -0.000002771134575
Si   10.18313  10.18313  10.18313   0.000000000005452   0.000000000000077   0.000000000000228
Si    7.46762   7.46762  10.18313  -0.000002760043445  -0.000002760047774  -0.000000194083002
Si    7.46762  10.18313   7.46762  -0.000002774844749  -0.000000198723468  -0.000002771134500
Si    6.10987   6.10987  11.54087   0.000000000005205  -0.000000000000030  -0.000008395804339
Si    8.82538   6.10987  14.25638   0.000008390602436  -0.000000000000048   0.000000000000276
Si    6.10987   8.82538  14.25638   0.000000000005143   0.000008390598218   0.000000000000119
Si    8.82538   8.82538  11.54087   0.000004929171813   0.000004929167263  -0.000004933352716
Si   10.18313   7.46762  12.89863   0.000000198728798  -0.000002774848803   0.000002771134630
Si   10.18313  10.18313  15.61412   0.000000000004925  -0.000000000000092  -0.000008395804350
Si    7.46762   7.46762  15.61412  -0.000006054887739  -0.000006054892034  -0.000006037998620
Si    7.46762  10.18313  12.89863  -0.000002774844564   0.000000198723747   0.000002771134700
Si    6.10987  11.54087   0.67888  -0.000000198718338  -0.000002774848750   0.000002771134406
Si    8.82538  11.54087   3.39437   0.000006054896159  -0.000006054892025  -0.000006037998820
Si    6.10987  14.25638   3.39437   0.000000000005081   0.000000000000167  -0.000008395804591
Si    8.82538  14.25638   0.67888   0.000002774853076   0.000000198723587   0.000002771134615
Si   10.18313  12.89863   2.03662   0.000000000004903   0.000008390598363  -0.000000000000085
Si   10.18313  15.61412   4.75213   0.000000198728734  -0.000002774848988   0.000002771134882
Si    7.46762  12.89863   4.75213  -0.000006054887789   0.000006054891877   0.000006037998707
Si    7.46762  15.61412   2.03662  -0.000002760043402  -0.000002760047939  -0.000000194082914
Si    6.10987  11.54087   6.10987   0.000000000005212  -0.000008390598351  -0.000000000000044
Si    8.82538  11.54087   8.82538   0.000004929171794  -0.000004929167363   0.000004933352486
Si    6.10987  14.25638   8.82538   0.000000000005353  -0.000000000000065   0.000008395804510
Si    8.82538  14.25638   6.10987   0.000008390602615  -0.000000000000050   0.000000000000021
Si   10.18313  12.89863   7.46762   0.000000198728550   0.000002774849000  -0.000002771134722
Si   10.18313  15.61412  10.18313   0.000000000005002  -0.000008390598387  -0.000000000000153
Si    7.46762  12.89863  10.18313  -0.000002760043643   0.000002760047591   0.000000194082955
Si    7.46762  15.61412   7.46762  -0.000006054887790  -0.000006054891900  -0.000006037998791
Si    6.10987  11.54087  11.54087   0.000000198728802  -0.000002774848719  -0.000002771134671
Si    8.82538  11.54087  14.25638   0.000002760051847  -0.000002760047726  -0.000000194082949
Si    6.10987  14.25638  14.25638   0.000000000005236  -0.000000000000175  -0.000000000000054
Si    8.82538  14.25638  11.54087   0.000002774853438  -0.000000198723620  -0.000002771134666
Si   10.18313  12.89863  12.89863  -0.000000198718656   0.000002774848783   0.000002771134551
Si   10.18313  15.61412  15.61412  -0.000000198718599  -0.000002774849050  -0.000002771134517
Si    7.46762  12.89863  15.61412  -0.000004929163083   0.000004929167559  -0.000004933352697
Si    7.46762  15.61412  12.89863  -0.000004929163333  -0.000004929167544   0.000004933352802
Si   11.54087   0.67888   0.67888  -0.000004929163295   0.000004929167576   0.000004933352819
Si   14.25638   0.67888   3.39437  -0.000000198718324   0.000002774848674  -0.000002771134533
Si   11.54087   3.39437   3.39437  -0.000004929163234  -0.000004929167648  -0.000004933352843
Si   14.25638   3.39437   0.67888  -0.000000198717989  -0.000002774848748   0.000002771134477
Si   15.61412   2.03662   2.03662  -0.000008390594263   0.000000000000209   0.000000000000078
Si   15.61412   4.75213   4.75213  -0.000006054887880   0.000006054891831   0.000006037998798
Si   12.89863   2.03662   4.75213   0.000002774853097  -0.000000198723581   0.000002771134505
Si   12.89863   4.75213   2.03662   0.000002760052192   0.000002760047817  -0.000000194082569
Si   11.54087   0.67888   6.10987  -0.000002760043350   0.000002760047684  -0.000000194083059
Si   14.25638   0.67888   8.82538   0.000000198728642   0.000002774849123   0.000002771134700
Si   11.54087   3.39437   8.82538  -0.000006054887499  -0.000006054891983   0.000006037998575
Si   14.25638   3.39437   6.10987   0.000000000005321  -0.000008390598203   0.000000000000008
Si   15.61412   2.03662   7.46762  -0.000002774844124  -0.000000198723389  -0.000002771134691
Si   15.61412   4.75213  10.18313  -0.000002760043151   0.000002760047831   0.000000194082801
Si   12.89863   2.03662  10.18313   0.000008390602640  -0.000000000000199   0.000000000000221
Si   12.89863   4.75213   7.46762   0.000006054896319   0.000006054892017  -0.000006037998614
Si   11.54087   0.67888  11.54087  -0.000006054887577   0.000006054892010  -0.000006037998558
Si   14.25638   0.67888  14.25638   0.000000000005083   0.000008390598324   0.000000000000018
Si   11.54087   3.39437  14.25638  -0.000002760043447  -0.000002760047794   0.000000194083001
Si   14.25638   3.39437  11.54087   0.000000198728654  -0.000002774848738  -0.000002771134734
Si   15.61412   2.03662  12.89863  -0.000002774844678   0.000000198723313   0.000002771134668
Si   15.61412   4.75213  15.61412  -0.000004929163430   0.000004929167341  -0.000004933352564
Si   12.89863   2.03662  15.61412   0.000002774853308   0.000000198723446  -0.000002771134827
Si   12.89863   4.75213  12.89863   0.000004929171844   0.000004929167285   0.000004933352495
Si   11.54087   6.10987   0.67888  -0.000002774844712  -0.000000198723591   0.000002771134659
Si   14.25638   6.10987   3.39437   0.000000000005246   0.000000000000089  -0.000008395804494
Si   11.54087   8.82538   3.39437  -0.000006054887646   0.000006054891958  -0.000006037998732
Si   14.25638   8.82538   0.67888   0.000000198728752   0.000002774848829   0.000002771134955
Si   15.61412   7.46762   2.03662  -0.000002760043516  -0.000002760047790  -0.000000194082881
Si   15.61412  10.18313   4.75213  -0.000002774844467   0.000000198723405   0.000002771134741
Si   12.89863   7.46762   4.75213   0.000006054896347  -0.000006054891958   0.000006037998796
Si   12.89863  10.18313   2.03662   0.000008390602601   0.000000000000087  -0.000000000000121
Si   11.54087   6.10987   6.10987  -0.000008390593737  -0.000000000000176  -0.000000000000163
Si   14.25638   6.10987   8.82538   0.000000000005147  -0.000000000000031   0.000008395804393
Si   11.54087   8.82538   8.82538  -0.000004929163491   0.000004929167594   0.000004933352783
Si   14.25638   8.82538   6.10987   0.000000000005096   0.000008390598303  -0.000000000000055
Si   15.61412   7.46762   7.46762  -0.000006054887897  -0.000006054892181  -0.000006037998724
Si   15.61412  10.18313  10.18313  -0.000008390594079  -0.000000000000144  -0.000000000000185
Si   12.89863   7.46762  10.18313   0.000002760052315  -0.000002760047946   0.000000194082856
Si   12.89863  10.18313   7.46762   0.000002774853548   0.000000198723621  -0.000002771134914
Si   11.54087   6.10987  11.54087  -0.000002774844527   0.000000198723652  -0.000002771134666
Si   14.25638   6.10987  14.25638   0.000000000005371   0.000000000000055  -0.000000000000027
Si   11.54087   8.82538  14.25638  -0.000002760043368   0.000002760047698  -0.000000194082882
Si   14.25638   8.82538  11.54087  -0.000000198718321   0.000002774848974  -0.000002771134542
Si   15.61412   7.46762  12.89863  -0.000004929163235  -0.000004929167609   0.000004933352788
Si   15.61412  10.18313  15.61412  -0.000002774844358  -0.000000198723390  -0.000002771134739
Si   12.89863   7.46762  15.61412   0.000004929171678  -0.000004929167349  -0.000004933352782
Si   12.89863  10.18313  12.89863   0.000002774853270  -0.000000198723383   0.000002771134829
Si   11.54087  11.54087   0.67888  -0.000006054887613  -0.000006054892062   0.000006037998869
Si   14.25638  11.54087   3.39437   0.000000198728483  -0.000002774848745  -0.000002771134756
Si   11.54087  14.25638   3.39437  -0.000002774844477   0.000000198723582  -0.000002771134640
Si   14.25638  14.25638   0.67888   0.000000000005162  -0.000000000000162   0.000008395804412
Si   15.61412  12.89863   2.03662  -0.000002760043327   0.000002760047755   0.000000194082876
Si   15.61412  15.61412   4.75213  -0.000004929163254  -0.000004929167507   0.000004933352613
Si   12.89863  12.89863   4.75213   0.000004929171857   0.000004929167173   0.000004933352727
Si   12.89863  15.61412   2.03662   0.000002760051957  -0.000002760047678   0.000000194083040
Si   11.54087  11.54087   6.10987  -0.000002760043369  -0.000002760047601   0.000000194082838
Si   14.25638  11.54087   8.82538  -0.000000198718386  -0.000002774848910   0.000002771134868
Si   11.54087  14.25638   8.82538  -0.000002774844756  -0.000000198723312   0.000002771134727
Si   14.25638  14.25638   6.10987   0.000000000005411   0.000000000000072  -0.000000000000116
Si   15.61412  12.89863   7.46762  -0.000004929163188   0.000004929167570  -0.000004933352877
Si   15.61412  15.61412  10.18313  -0.000002760043250  -0.000002760047891  -0.000000194083007
Si   12.89863  12.89863  10.18313   0.000002760052356   0.000002760047829  -0.000000194083035
Si   12.89863  15.61412   7.46762   0.000004929171693  -0.000004929167521  -0.000004933352549
Si   11.54087  11.54087  11.54087  -0.000004929163480  -0.000004929167680  -0.000004933352615
Si   14.25638  11.54087  14.25638   0.000000000004813  -0.000008390598552   0.000000000000035
Si   11.54087  14.25638  14.25638  -0.000008390594046   0.000000000000127  -0.000000000000074
Si   14.25638  14.25638  11.54087   0.000000000004870  -0.000000000000023  -0.000008395804424
Si   15.61412  12.89863  12.89863  -0.000006054887710   0.000006054892204   0.000006037998727
Si   15.61412  15.61412  15.61412  -0.000006054887775  -0.000006054891776  -0.000006037998535
Si   12.89863  12.89863  15.61412   0.000006054896462   0.000006054891957  -0.000006037998738
Si   12.89863  15.61412  12.89863   0.000006054896470  -0.000006054891914   0.000006037998481
