300 

Si    0.00000  -0.00000  -0.00000  -0.000056603215022   0.000090297290851   0.000090300201437
Si    1.35775   1.35775   1.35775   0.000065713987197  -0.000088484932998  -0.000088944363838
Si    2.71550   2.71550   0.00000  -0.000056603215532   0.000090297290291   0.000090300201667
Si    4.07325   4.07325   1.35775   0.000065713987061  -0.000088484933494  -0.000088944362809
Si    5.43100   5.43100   0.00000  -0.000056603215886   0.000090297290064   0.000090300202610
Si    6.78875   6.78875   1.35775   0.000065713986811  -0.000088484933666  -0.000088944362569
Si    8.14650   8.14650   0.00000  -0.000056603215483   0.000090297290192   0.000090300202614
Si    9.50425   9.50425   1.35775   0.000065713987374  -0.000088484933795  -0.000088944362889
Si   10.86200  10.86200   0.00000  -0.000056603215227   0.000090297290648   0.000090300201689
Si   12.21975  12.21975   1.35775   0.000065713987228  -0.000088484933271  -0.000088944363575
Si    2.71550   0.00000   2.71550  -0.000056603214699   0.000090297290485   0.000090300201779
Si    4.07325   1.35775   4.07325   0.000065713987960  -0.000088484933465  -0.000088944363063
Si    5.43100   2.71550   2.71550  -0.000056603214960   0.000090297290407   0.000090300201907
Si    6.78875   4.07325   4.07325   0.000065713987816  -0.000088484933885  -0.000088944362247
Si    8.14650   5.43100   2.71550  -0.000056603215127   0.000090297289843   0.000090300202878
Si    9.50425   6.78875   4.07325   0.000065713987430  -0.000088484934457  -0.000088944362160
Si   10.86200   8.14650   2.71550  -0.000056603215555   0.000090297289694   0.000090300202679
Si   12.21975   9.50425   4.07325   0.000065713987402  -0.000088484934449  -0.000088944362385
Si   13.57750  10.86200   2.71550  -0.000056603215005   0.000090297290231   0.000090300201818
Si   14.93525  12.21975   4.07325   0.000065713987517  -0.000088484933709  -0.000088944362964
Si    5.43100  -0.00000   5.43100  -0.000056603213604   0.000090297289852   0.000090300202371
Si    6.78875   1.35775   6.78875   0.000065713988638  -0.000088484933850  -0.000088944362186
Si    8.14650   2.71550   5.43100  -0.000056603213924   0.000090297289672   0.000090300202903
Si    9.50425   4.07325   6.78875   0.000065713988542  -0.000088484934399  -0.000088944361969
Si   10.86200   5.43100   5.43100  -0.000056603214742   0.000090297288898   0.000090300203427
Si   12.21975   6.78875   6.78875   0.000065713987587  -0.000088484935239  -0.000088944361629
Si   13.57750   8.14650   5.43100  -0.000056603214960   0.000090297288818   0.000090300203173
Si   14.93525   9.50425   6.78875   0.000065713987777  -0.000088484935091  -0.000088944361835
Si   16.29300  10.86200   5.43100  -0.000056603214190   0.000090297289650   0.000090300202664
Si   17.65075  12.21975   6.78875   0.000065713988277  -0.000088484934313  -0.000088944362131
Si    8.14650   0.00000   8.14650  -0.000056603213436   0.000090297289838   0.000090300202449
Si    9.50425   1.35775   9.50425   0.000065713988996  -0.000088484933966  -0.000088944362322
Si   10.86200   2.71550   8.14650  -0.000056603213978   0.000090297289523   0.000090300203100
Si   12.21975   4.07325   9.50425   0.000065713988018  -0.000088484934835  -0.000088944362184
Si   13.57750   5.43100   8.14650  -0.000056603214681   0.000090297288719   0.000090300203292
Si   14.93525   6.78875   9.50425   0.000065713987396  -0.000088484935184  -0.000088944361449
Si   16.29300   8.14650   8.14650  -0.000056603214917   0.000090297288788   0.000090300203299
Si   17.65075   9.50425   9.50425   0.000065713987754  -0.000088484934574  -0.000088944361844
Si   19.00850  10.86200   8.14650  -0.000056603214044   0.000090297289545   0.000090300203078
Si   20.36625  12.21975   9.50425   0.000065713988387  -0.000088484934057  -0.000088944362192
Si   10.86200   0.00000  10.86200  -0.000056603214305   0.000090297290590   0.000090300201931
Si   12.21975   1.35775  12.21975   0.000065713987815  -0.000088484933230  -0.000088944363323
Si   13.57750   2.71550  10.86200  -0.000056603214831   0.000090297289820   0.000090300202266
Si   14.93525   4.07325  12.21975   0.000065713986820  -0.000088484933881  -0.000088944362885
Si   16.29300   5.43100  10.86200  -0.000056603215818   0.000090297289385   0.000090300202763
Si   17.65075   6.78875  12.21975   0.000065713986858  -0.000088484934057  -0.000088944362176
Si   19.00850   8.14650  10.86200  -0.000056603215281   0.000090297289603   0.000090300203021
Si   20.36625   9.50425  12.21975   0.000065713987179  -0.000088484933962  -0.000088944362300
Si   21.72400  10.86200  10.86200  -0.000056603214341   0.000090297290252   0.000090300202508
Si   23.08175  12.21975  12.21975   0.000065713988131  -0.000088484933495  -0.000088944362842
Si    0.00000   2.71550   2.71550  -0.000061135768811   0.000107185697310   0.000106730452518
Si    1.35775   4.07325   4.07325   0.000072448686638  -0.000096098632972  -0.000095647607565
Si    2.71550   5.43100   2.71550  -0.000061135768881   0.000107185697010   0.000106730452994
Si    4.07325   6.78875   4.07325   0.000072448686639  -0.000096098633521  -0.000095647607052
Si    5.43100   8.14650   2.71550  -0.000061135769226   0.000107185696699   0.000106730453819
Si    6.78875   9.50425   4.07325   0.000072448686050  -0.000096098634228  -0.000095647606702
Si    8.14650  10.86200   2.71550  -0.000061135768976   0.000107185696795   0.000106730453802
Si    9.50425  12.21975   4.07325   0.000072448686347  -0.000096098633964  -0.000095647607234
Si   10.86200  13.57750   2.71550  -0.000061135768835   0.000107185697049   0.000106730453032
Si   12.21975  14.93525   4.07325   0.000072448686689  -0.000096098633411  -0.000095647607737
Si    2.71550   2.71550   5.43100  -0.000061135767857   0.000107185697019   0.000106730453335
Si    4.07325   4.07325   6.78875   0.000072448687660  -0.000096098633605  -0.000095647607162
Si    5.43100   5.43100   5.43100  -0.000061135768147   0.000107185696897   0.000106730453847
Si    6.78875   6.78875   6.78875   0.000072448687173  -0.000096098634199  -0.000095647606983
Si    8.14650   8.14650   5.43100  -0.000061135768599   0.000107185696440   0.000106730454183
Si    9.50425   9.50425   6.78875   0.000072448686802  -0.000096098635001  -0.000095647606559
Si   10.86200  10.86200   5.43100  -0.000061135769044   0.000107185696190   0.000106730454142
Si   12.21975  12.21975   6.78875   0.000072448686738  -0.000096098634859  -0.000095647606914
Si   13.57750  13.57750   5.43100  -0.000061135768691   0.000107185696349   0.000106730453323
Si   14.93525  14.93525   6.78875   0.000072448687137  -0.000096098633854  -0.000095647607018
Si    5.43100   2.71550   8.14650  -0.000061135767112   0.000107185696516   0.000106730454041
Si    6.78875   4.07325   9.50425   0.000072448687948  -0.000096098634429  -0.000095647606569
Si    8.14650   5.43100   8.14650  -0.000061135767239   0.000107185695859   0.000106730454384
Si    9.50425   6.78875   9.50425   0.000072448687847  -0.000096098635173  -0.000095647606409
Si   10.86200   8.14650   8.14650  -0.000061135768231   0.000107185695340   0.000106730454710
Si   12.21975   9.50425   9.50425   0.000072448687309  -0.000096098635769  -0.000095647605948
Si   13.57750  10.86200   8.14650  -0.000061135768392   0.000107185695340   0.000106730454569
Si   14.93525  12.21975   9.50425   0.000072448687308  -0.000096098635051  -0.000095647605634
Si   16.29300  13.57750   8.14650  -0.000061135767265   0.000107185695919   0.000106730454065
Si   17.65075  14.93525   9.50425   0.000072448688084  -0.000096098634364  -0.000095647606332
Si    8.14650   2.71550  10.86200  -0.000061135766813   0.000107185696341   0.000106730454340
Si    9.50425   4.07325  12.21975   0.000072448688008  -0.000096098634380  -0.000095647606514
Si   10.86200   5.43100  10.86200  -0.000061135767537   0.000107185695848   0.000106730454335
Si   12.21975   6.78875  12.21975   0.000072448687622  -0.000096098634975  -0.000095647606373
Si   13.57750   8.14650  10.86200  -0.000061135768164   0.000107185695016   0.000106730454645
Si   14.93525   9.50425  12.21975   0.000072448686641  -0.000096098635107  -0.000095647605550
Si   16.29300  10.86200  10.86200  -0.000061135767914   0.000107185695166   0.000106730454764
Si   17.65075  12.21975  12.21975   0.000072448687308  -0.000096098634792  -0.000095647605655
Si   19.00850  13.57750  10.86200  -0.000061135767230   0.000107185695939   0.000106730454807
Si   20.36625  14.93525  12.21975   0.000072448687706  -0.000096098634324  -0.000095647606498
Si   10.86200   2.71550  13.57750  -0.000061135767883   0.000107185696593   0.000106730453186
Si   12.21975   4.07325  14.93525   0.000072448687087  -0.000096098633703  -0.000095647607502
Si   13.57750   5.43100  13.57750  -0.000061135768511   0.000107185696177   0.000106730453442
Si   14.93525   6.78875  14.93525   0.000072448686586  -0.000096098633805  -0.000095647606812
Si   16.29300   8.14650  13.57750  -0.000061135768547   0.000107185695915   0.000106730454238
Si   17.65075   9.50425  14.93525   0.000072448686381  -0.000096098634303  -0.000095647606148
Si   19.00850  10.86200  13.57750  -0.000061135768655   0.000107185696419   0.000106730454334
Si   20.36625  12.21975  14.93525   0.000072448686544  -0.000096098634217  -0.000095647606465
Si   21.72400  13.57750  13.57750  -0.000061135767934   0.000107185696763   0.000106730453797
Si   23.08175  14.93525  14.93525   0.000072448687163  -0.000096098633701  -0.000095647607248
Si    0.00000   5.43100   5.43100  -0.000053050118073   0.000094139742599   0.000094592695284
Si    1.35775   6.78875   6.78875   0.000062814731520  -0.000092235237487  -0.000092227472350
Si    2.71550   8.14650   5.43100  -0.000053050118616   0.000094139742412   0.000094592695735
Si    4.07325   9.50425   6.78875   0.000062814731002  -0.000092235238129  -0.000092227471571
Si    5.43100  10.86200   5.43100  -0.000053050118932   0.000094139741793   0.000094592696168
Si    6.78875  12.21975   6.78875   0.000062814730559  -0.000092235238591  -0.000092227471617
Si    8.14650  13.57750   5.43100  -0.000053050118931   0.000094139741889   0.000094592696368
Si    9.50425  14.93525   6.78875   0.000062814730865  -0.000092235238648  -0.000092227471704
Si   10.86200  16.29300   5.43100  -0.000053050118589   0.000094139742198   0.000094592695241
Si   12.21975  17.65075   6.78875   0.000062814731328  -0.000092235237709  -0.000092227471973
Si    2.71550   5.43100   8.14650  -0.000053050117510   0.000094139742276   0.000094592695819
Si    4.07325   6.78875   9.50425   0.000062814732143  -0.000092235238214  -0.000092227471714
Si    5.43100   8.14650   8.14650  -0.000053050118188   0.000094139742056   0.000094592696053
Si    6.78875   9.50425   9.50425   0.000062814731389  -0.000092235238866  -0.000092227471166
Si    8.14650  10.86200   8.14650  -0.000053050118536   0.000094139741459   0.000094592696784
Si    9.50425  12.21975   9.50425   0.000062814730928  -0.000092235239022  -0.000092227471039
Si   10.86200  13.57750   8.14650  -0.000053050118830   0.000094139741371   0.000094592696340
Si   12.21975  14.93525   9.50425   0.000062814731266  -0.000092235238976  -0.000092227470920
Si   13.57750  16.29300   8.14650  -0.000053050117995   0.000094139742029   0.000094592695651
Si   14.93525  17.65075   9.50425   0.000062814731894  -0.000092235238186  -0.000092227471437
Si    5.43100   5.43100  10.86200  -0.000053050116603   0.000094139741606   0.000094592696648
Si    6.78875   6.78875  12.21975   0.000062814732235  -0.000092235239102  -0.000092227470932
Si    8.14650   8.14650  10.86200  -0.000053050117228   0.000094139741336   0.000094592696977
Si    9.50425   9.50425  12.21975   0.000062814732113  -0.000092235239662  -0.000092227470701
Si   10.86200  10.86200  10.86200  -0.000053050117895   0.000094139740290   0.000094592697287
Si   12.21975  12.21975  12.21975   0.000062814732010  -0.000092235239789  -0.000092227470074
Si   13.57750  13.57750  10.86200  -0.000053050117854   0.000094139740544   0.000094592697173
Si   14.93525  14.93525  12.21975   0.000062814732246  -0.000092235239494  -0.000092227469975
Si   16.29300  16.29300  10.86200  -0.000053050117128   0.000094139741261   0.000094592697041
Si   17.65075  17.65075  12.21975   0.000062814732587  -0.000092235239048  -0.000092227470802
Si    8.14650   5.43100  13.57750  -0.000053050116741   0.000094139741425   0.000094592696561
Si    9.50425   6.78875  14.93525   0.000062814732598  -0.000092235239046  -0.000092227471141
Si   10.86200   8.14650  13.57750  -0.000053050117402   0.000094139740712   0.000094592696888
Si   12.21975   9.50425  14.93525   0.000062814732347  -0.000092235239315  -0.000092227470834
Si   13.57750  10.86200  13.57750  -0.000053050117657   0.000094139740229   0.000094592697444
Si   14.93525  12.21975  14.93525   0.000062814731723  -0.000092235239576  -0.000092227469892
Si   16.29300  13.57750  13.57750  -0.000053050117508   0.000094139740729   0.000094592697516
Si   17.65075  14.93525  14.93525   0.000062814731843  -0.000092235239393  -0.000092227470342
Si   19.00850  16.29300  13.57750  -0.000053050116689   0.000094139741169   0.000094592697272
Si   20.36625  17.65075  14.93525   0.000062814732245  -0.000092235239291  -0.000092227471256
Si   10.86200   5.43100  16.29300  -0.000053050117695   0.000094139741759   0.000094592695441
Si   12.21975   6.78875  17.65075   0.000062814732002  -0.000092235238166  -0.000092227471766
Si   13.57750   8.14650  16.29300  -0.000053050117668   0.000094139741537   0.000094592696275
Si   14.93525   9.50425  17.65075   0.000062814731391  -0.000092235238424  -0.000092227471116
Si   16.29300  10.86200  16.29300  -0.000053050118405   0.000094139741236   0.000094592696743
Si   17.65075  12.21975  17.65075   0.000062814730988  -0.000092235238806  -0.000092227470749
Si   19.00850  13.57750  16.29300  -0.000053050118289   0.000094139741442   0.000094592696865
Si   20.36625  14.93525  17.65075   0.000062814731008  -0.000092235238920  -0.000092227471378
Si   21.72400  16.29300  16.29300  -0.000053050117767   0.000094139741846   0.000094592696184
Si   23.08175  17.65075  17.65075   0.000062814731778  -0.000092235238454  -0.000092227471818
Si    0.00000   8.14650   8.14650  -0.000056603214192   0.000090297290578   0.000090300201163
Si    1.35775   9.50425   9.50425   0.000065713988185  -0.000088484933397  -0.000088944364175
Si    2.71550  10.86200   8.14650  -0.000056603214759   0.000090297290033   0.000090300201325
Si    4.07325  12.21975   9.50425   0.000065713987615  -0.000088484934127  -0.000088944363508
Si    5.43100  13.57750   8.14650  -0.000056603215634   0.000090297289559   0.000090300201909
Si    6.78875  14.93525   9.50425   0.000065713986973  -0.000088484934495  -0.000088944363549
Si    8.14650  16.29300   8.14650  -0.000056603215455   0.000090297289494   0.000090300201727
Si    9.50425  17.65075   9.50425   0.000065713987736  -0.000088484934464  -0.000088944363673
Si   10.86200  19.00850   8.14650  -0.000056603214832   0.000090297290142   0.000090300201078
Si   12.21975  20.36625   9.50425   0.000065713988157  -0.000088484933657  -0.000088944363939
Si    2.71550   8.14650  10.86200  -0.000056603213994   0.000090297290205   0.000090300201579
Si    4.07325   9.50425  12.21975   0.000065713988463  -0.000088484934183  -0.000088944363632
Si    5.43100  10.86200  10.86200  -0.000056603214772   0.000090297289806   0.000090300201324
Si    6.78875  12.21975  12.21975   0.000065713987924  -0.000088484934738  -0.000088944363093
Si    8.14650  13.57750  10.86200  -0.000056603215138   0.000090297289167   0.000090300202111
Si    9.50425  14.93525  12.21975   0.000065713987759  -0.000088484935042  -0.000088944362810
Si   10.86200  16.29300  10.86200  -0.000056603215206   0.000090297289303   0.000090300202203
Si   12.21975  17.65075  12.21975   0.000065713988227  -0.000088484934715  -0.000088944362660
Si   13.57750  19.00850  10.86200  -0.000056603214201   0.000090297290115   0.000090300201664
Si   14.93525  20.36625  12.21975   0.000065713988452  -0.000088484934017  -0.000088944363178
Si    5.43100   8.14650  13.57750  -0.000056603213406   0.000090297289185   0.000090300201921
Si    6.78875   9.50425  14.93525   0.000065713988780  -0.000088484934847  -0.000088944363015
Si    8.14650  10.86200  13.57750  -0.000056603213912   0.000090297288866   0.000090300202244
Si    9.50425  12.21975  14.93525   0.000065713988910  -0.000088484935096  -0.000088944362629
Si   10.86200  13.57750  13.57750  -0.000056603214369   0.000090297288468   0.000090300203050
Si   12.21975  14.93525  14.93525   0.000065713988452  -0.000088484935445  -0.000088944361883
Si   13.57750  16.29300  13.57750  -0.000056603214153   0.000090297288784   0.000090300203140
Si   14.93525  17.65075  14.93525   0.000065713988747  -0.000088484935292  -0.000088944362010
Si   16.29300  19.00850  13.57750  -0.000056603213452   0.000090297289437   0.000090300202576
Si   17.65075  20.36625  14.93525   0.000065713988795  -0.000088484935009  -0.000088944362671
Si    8.14650   8.14650  16.29300  -0.000056603213372   0.000090297288923   0.000090300201736
Si    9.50425   9.50425  17.65075   0.000065713989422  -0.000088484934807  -0.000088944363074
Si   10.86200  10.86200  16.29300  -0.000056603213562   0.000090297288926   0.000090300202646
Si   12.21975  12.21975  17.65075   0.000065713988940  -0.000088484935205  -0.000088944362577
Si   13.57750  13.57750  16.29300  -0.000056603213803   0.000090297288604   0.000090300203206
Si   14.93525  14.93525  17.65075   0.000065713988423  -0.000088484935423  -0.000088944361765
Si   16.29300  16.29300  16.29300  -0.000056603214128   0.000090297288644   0.000090300203160
Si   17.65075  17.65075  17.65075   0.000065713988292  -0.000088484935198  -0.000088944362502
Si   19.00850  19.00850  16.29300  -0.000056603213795   0.000090297288899   0.000090300202541
Si   20.36625  20.36625  17.65075   0.000065713988599  -0.000088484935064  -0.000088944363139
Si   10.86200   8.14650  19.00850  -0.000056603213862   0.000090297289941   0.000090300201353
Si   12.21975   9.50425  20.36625   0.000065713988749  -0.000088484933700  -0.000088944363761
Si   13.57750  10.86200  19.00850  -0.000056603213941   0.000090297289557   0.000090300202030
Si   14.93525  12.21975  20.36625   0.000065713987860  -0.000088484934186  -0.000088944363279
Si   16.29300  13.57750  19.00850  -0.000056603215014   0.000090297289205   0.000090300202458
Si   17.65075  14.93525  20.36625   0.000065713987441  -0.000088484934626  -0.000088944362943
Si   19.00850  16.29300  19.00850  -0.000056603215012   0.000090297289046   0.000090300202370
Si   20.36625  17.65075  20.36625   0.000065713987379  -0.000088484934867  -0.000088944363322
Si   21.72400  19.00850  19.00850  -0.000056603214273   0.000090297289413   0.000090300201629
Si   23.08175  20.36625  20.36625   0.000065713988566  -0.000088484934358  -0.000088944363673
Si    0.00000  10.86200  10.86200  -0.000061135767698   0.000107185696782   0.000106730452102
Si    1.35775  12.21975  12.21975   0.000072448687365  -0.000096098633653  -0.000095647608120
Si    2.71550  13.57750  10.86200  -0.000061135768245   0.000107185696237   0.000106730452188
Si    4.07325  14.93525  12.21975   0.000072448686964  -0.000096098634425  -0.000095647607948
Si    5.43100  16.29300  10.86200  -0.000061135768899   0.000107185695745   0.000106730452775
Si    6.78875  17.65075  12.21975   0.000072448686450  -0.000096098635034  -0.000095647607494
Si    8.14650  19.00850  10.86200  -0.000061135768356   0.000107185695932   0.000106730452972
Si    9.50425  20.36625  12.21975   0.000072448687256  -0.000096098634518  -0.000095647607586
Si   10.86200  21.72400  10.86200  -0.000061135767761   0.000107185696452   0.000106730452580
Si   12.21975  23.08175  12.21975   0.000072448687795  -0.000096098633897  -0.000095647607957
Si    2.71550  10.86200  13.57750  -0.000061135767269   0.000107185696173   0.000106730452643
Si    4.07325  12.21975  14.93525   0.000072448687915  -0.000096098634568  -0.000095647607987
Si    5.43100  13.57750  13.57750  -0.000061135767860   0.000107185695929   0.000106730452882
Si    6.78875  14.93525  14.93525   0.000072448687555  -0.000096098634968  -0.000095647607718
Si    8.14650  16.29300  13.57750  -0.000061135767996   0.000107185695689   0.000106730453443
Si    9.50425  17.65075  14.93525   0.000072448687678  -0.000096098635380  -0.000095647606920
Si   10.86200  19.00850  13.57750  -0.000061135767977   0.000107185695775   0.000106730453812
Si   12.21975  20.36625  14.93525   0.000072448687801  -0.000096098635236  -0.000095647607113
Si   13.57750  21.72400  13.57750  -0.000061135767636   0.000107185695820   0.000106730453052
Si   14.93525  23.08175  14.93525   0.000072448687795  -0.000096098634582  -0.000095647607496
Si    5.43100  10.86200  16.29300  -0.000061135766861   0.000107185695443   0.000106730453088
Si    6.78875  12.21975  17.65075   0.000072448688255  -0.000096098635234  -0.000095647607376
Si    8.14650  13.57750  16.29300  -0.000061135766711   0.000107185695124   0.000106730453612
Si    9.50425  14.93525  17.65075   0.000072448688678  -0.000096098635475  -0.000095647606866
Si   10.86200  16.29300  16.29300  -0.000061135767195   0.000107185695044   0.000106730454303
Si   12.21975  17.65075  17.65075   0.000072448688344  -0.000096098635968  -0.000095647606258
Si   13.57750  19.00850  16.29300  -0.000061135767360   0.000107185694973   0.000106730454226
Si   14.93525  20.36625  17.65075   0.000072448687938  -0.000096098635670  -0.000095647606233
Si   16.29300  21.72400  16.29300  -0.000061135766744   0.000107185695080   0.000106730453354
Si   17.65075  23.08175  17.65075   0.000072448688271  -0.000096098635364  -0.000095647607208
Si    8.14650  10.86200  19.00850  -0.000061135766321   0.000107185695466   0.000106730453460
Si    9.50425  12.21975  20.36625   0.000072448688837  -0.000096098634813  -0.000095647607099
Si   10.86200  13.57750  19.00850  -0.000061135766497   0.000107185695469   0.000106730453806
Si   12.21975  14.93525  20.36625   0.000072448688707  -0.000096098635167  -0.000095647606837
Si   13.57750  16.29300  19.00850  -0.000061135767142   0.000107185694758   0.000106730454171
Si   14.93525  17.65075  20.36625   0.000072448687299  -0.000096098635625  -0.000095647606305
Si   16.29300  19.00850  19.00850  -0.000061135767352   0.000107185694434   0.000106730453919
Si   17.65075  20.36625  20.36625   0.000072448687497  -0.000096098635752  -0.000095647606726
Si   19.00850  21.72400  19.00850  -0.000061135767033   0.000107185694860   0.000106730453735
Si   20.36625  23.08175  20.36625   0.000072448688017  -0.000096098635209  -0.000095647607464
Si   10.86200  10.86200  21.72400  -0.000061135766775   0.000107185696071   0.000106730452660
Si   12.21975  12.21975  23.08175   0.000072448688162  -0.000096098634074  -0.000095647607880
Si   13.57750  13.57750  21.72400  -0.000061135767381   0.000107185695792   0.000106730452892
Si   14.93525  14.93525  23.08175   0.000072448687337  -0.000096098634377  -0.000095647607520
Si   16.29300  16.29300  21.72400  -0.000061135767915   0.000107185695203   0.000106730453333
Si   17.65075  17.65075  23.08175   0.000072448686647  -0.000096098635200  -0.000095647607168
Si   19.00850  19.00850  21.72400  -0.000061135768361   0.000107185695366   0.000106730453200
Si   20.36625  20.36625  23.08175   0.000072448686913  -0.000096098635153  -0.000095647607343
Si   21.72400  21.72400  21.72400  -0.000061135767339   0.000107185695805   0.000106730452870
Si   23.08175  23.08175  23.08175   0.000072448688064  -0.000096098634263  -0.000095647607742
Si    0.00000  13.57750  13.57750  -0.000053050117857   0.000094139742335   0.000094592695174
Si    1.35775  14.93525  14.93525   0.000062814731237  -0.000092235237754  -0.000092227472524
Si    2.71550  16.29300  13.57750  -0.000053050118754   0.000094139741936   0.000094592695267
Si    4.07325  17.65075  14.93525   0.000062814730746  -0.000092235238388  -0.000092227471756
Si    5.43100  19.00850  13.57750  -0.000053050118875   0.000094139741373   0.000094592695846
Si    6.78875  20.36625  14.93525   0.000062814730782  -0.000092235238594  -0.000092227471420
Si    8.14650  21.72400  13.57750  -0.000053050118382   0.000094139741764   0.000094592696440
Si    9.50425  23.08175  14.93525   0.000062814731388  -0.000092235238494  -0.000092227471277
Si   10.86200  24.43950  13.57750  -0.000053050117935   0.000094139742167   0.000094592695472
Si   12.21975  25.79725  14.93525   0.000062814731527  -0.000092235237761  -0.000092227471777
Si    2.71550  13.57750  16.29300  -0.000053050117633   0.000094139741724   0.000094592695358
Si    4.07325  14.93525  17.65075   0.000062814731848  -0.000092235238441  -0.000092227471951
Si    5.43100  16.29300  16.29300  -0.000053050118133   0.000094139741697   0.000094592695718
Si    6.78875  17.65075  17.65075   0.000062814731585  -0.000092235238732  -0.000092227471011
Si    8.14650  19.00850  16.29300  -0.000053050117971   0.000094139741433   0.000094592696836
Si    9.50425  20.36625  17.65075   0.000062814731431  -0.000092235238792  -0.000092227470696
Si   10.86200  21.72400  16.29300  -0.000053050118169   0.000094139741342   0.000094592696520
Si   12.21975  23.08175  17.65075   0.000062814731464  -0.000092235239065  -0.000092227470797
Si   13.57750  24.43950  16.29300  -0.000053050117772   0.000094139741664   0.000094592695524
Si   14.93525  25.79725  17.65075   0.000062814731609  -0.000092235238576  -0.000092227471678
Si    5.43100  13.57750  19.00850  -0.000053050116613   0.000094139741249   0.000094592696189
Si    6.78875  14.93525  20.36625   0.000062814732360  -0.000092235238898  -0.000092227470907
Si    8.14650  16.29300  19.00850  -0.000053050116731   0.000094139741443   0.000094592696903
Si    9.50425  17.65075  20.36625   0.000062814732565  -0.000092235239246  -0.000092227470506
Si   10.86200  19.00850  19.00850  -0.000053050117282   0.000094139740436   0.000094592697319
Si   12.21975  20.36625  20.36625   0.000062814732175  -0.000092235239738  -0.000092227470108
Si   13.57750  21.72400  19.00850  -0.000053050117693   0.000094139740237   0.000094592696897
Si   14.93525  23.08175  20.36625   0.000062814731883  -0.000092235239860  -0.000092227470382
Si   16.29300  24.43950  19.00850  -0.000053050117363   0.000094139740626   0.000094592696449
Si   17.65075  25.79725  20.36625   0.000062814732221  -0.000092235239317  -0.000092227471167
Si    8.14650  13.57750  21.72400  -0.000053050116325   0.000094139741499   0.000094592696430
Si    9.50425  14.93525  23.08175   0.000062814732989  -0.000092235238603  -0.000092227470917
Si   10.86200  16.29300  21.72400  -0.000053050116826   0.000094139740983   0.000094592696834
Si   12.21975  17.65075  23.08175   0.000062814732484  -0.000092235239099  -0.000092227470915
Si   13.57750  19.00850  21.72400  -0.000053050117548   0.000094139740082   0.000094592697094
Si   14.93525  20.36625  23.08175   0.000062814731333  -0.000092235239846  -0.000092227470297
Si   16.29300  21.72400  21.72400  -0.000053050117775   0.000094139740166   0.000094592696842
Si   17.65075  23.08175  23.08175   0.000062814731420  -0.000092235239700  -0.000092227470726
Si   19.00850  24.43950  21.72400  -0.000053050116777   0.000094139740734   0.000094592696743
Si   20.36625  25.79725  23.08175   0.000062814732348  -0.000092235239171  -0.000092227471262
Si   10.86200  13.57750  24.43950  -0.000053050117076   0.000094139741891   0.000094592695511
Si   12.21975  14.93525  25.79725   0.000062814732149  -0.000092235238016  -0.000092227471678
Si   13.57750  16.29300  24.43950  -0.000053050117470   0.000094139741430   0.000094592696007
Si   14.93525  17.65075  25.79725   0.000062814731063  -0.000092235238642  -0.000092227471416
Si   16.29300  19.00850  24.43950  -0.000053050118590   0.000094139740731   0.000094592696150
Si   17.65075  20.36625  25.79725   0.000062814730665  -0.000092235239110  -0.000092227471026
Si   19.00850  21.72400  24.43950  -0.000053050118310   0.000094139740939   0.000094592696432
Si   20.36625  23.08175  25.79725   0.000062814731170  -0.000092235238903  -0.000092227471207
Si   21.72400  24.43950  24.43950  -0.000053050117298   0.000094139741734   0.000094592696171
Si   23.08175  25.79725  25.79725   0.000062814732234  -0.000092235238181  -0.000092227471472
