4185

C -22.98001 -16.11685 -16.51948
C -24.03887 -13.55221 -16.52079
C -25.25036 -12.81736 -16.52175
C -29.10138 -13.95697 -16.52203
C -29.75660 -16.65232 -16.52036
C -29.21503 -17.96645 -16.52016
C -26.83901 -19.40240 -16.52352
C -25.42420 -19.29130 -16.52617
C -23.30973 -17.49437 -16.52346
C -28.01831 -13.03715 -16.52251
C -27.35937 -12.76210 -15.30162
C -23.03098 -15.40584 -15.30559
C -28.74402 -18.50435 -15.30141
C -27.53035 -19.23974 -15.30152
C -23.57102 -14.09153 -15.30396
C -29.47472 -14.56159 -15.30200
C -24.76171 -19.02523 -15.30483
C -23.67984 -18.10415 -15.30670
C -29.80738 -15.94160 -15.30203
C -25.94422 -12.65055 -15.30220
C -22.97462 -16.11905 -14.09450
C -24.03894 -13.55491 -14.08615
C -25.24986 -12.81822 -14.08266
C -29.10157 -13.95646 -14.08223
C -29.75622 -16.65093 -14.08337
C -29.21282 -17.96464 -14.08303
C -26.83458 -19.39927 -14.08126
C -25.41929 -19.29218 -14.08280
C -23.30208 -17.49775 -14.09257
C -28.01794 -13.03661 -14.08100
C -27.35586 -12.77183 -12.85912
C -23.01961 -15.40928 -12.87986
C -28.74344 -18.49978 -12.86277
C -27.52668 -19.22860 -12.86089
C -23.56662 -14.10058 -12.87275
C -29.47789 -14.56312 -12.86383
C -24.75766 -19.01009 -12.86411
C -23.66912 -18.10016 -12.86972
C -29.81097 -15.94141 -12.86494
C -25.94112 -12.66303 -12.85978
C -22.93218 -16.11677 -11.66653
C -24.03354 -13.57972 -11.64932
C -25.24497 -12.84576 -11.64309
C -29.10519 -13.96076 -11.64185
C -29.76775 -16.65096 -11.64658
C -29.21955 -17.96217 -11.64572
C -26.83011 -19.37242 -11.63938
C -25.41632 -19.25640 -11.63883
C -23.26998 -17.50116 -11.65828
C -28.01348 -13.05178 -11.63956
C -27.34532 -12.80296 -10.41864
C -22.94328 -15.40331 -10.45647
C -28.75199 -18.49518 -10.42478
C -27.52711 -19.20858 -10.42291
C -23.54569 -14.12288 -10.43897
C -29.48893 -14.56495 -10.42488
C -24.75176 -18.96638 -10.42326
C -23.63403 -18.09916 -10.43313
C -29.82888 -15.94296 -10.42632
C -25.93092 -12.70487 -10.41916
C -22.71882 -16.12491 -9.23281
C -23.99791 -13.58201 -9.21111
C -25.22821 -12.88883 -9.20408
C -29.10994 -13.96724 -9.20288
C -29.78249 -16.65299 -9.20673
C -29.23234 -17.96232 -9.20696
C -26.83033 -19.34539 -9.20218
C -25.42086 -19.21243 -9.19973
C -23.14751 -17.53494 -9.20825
C -28.00664 -13.07594 -9.20143
C -27.33628 -12.82454 -7.98242
C -22.74695 -15.35343 -7.98981
C -28.76457 -18.49839 -7.98606
C -27.53859 -19.20665 -7.98596
C -23.43549 -14.05496 -7.98271
C -29.49334 -14.56959 -7.98359
C -24.77098 -18.92820 -7.97671
C -23.65739 -18.05351 -7.96475
C -29.83708 -15.94559 -7.98429
C -25.92450 -12.73222 -7.98207
C -22.74251 -16.11744 -6.73944
C -23.99708 -13.57406 -6.74888
C -25.23185 -12.88754 -6.75988
C -29.11019 -13.96912 -6.76362
C -29.78592 -16.65601 -6.76366
C -29.24101 -17.96824 -6.76463
C -26.84876 -19.36106 -6.76602
C -25.44065 -19.21321 -6.76451
C -23.28879 -17.45411 -6.75243
C -28.00793 -13.07561 -6.76377
C -27.34767 -12.80455 -5.54617
C -22.86711 -15.35504 -5.51871
C -28.76946 -18.50623 -5.54516
C -27.54948 -19.22713 -5.54638
C -23.52926 -14.08022 -5.52918
C -29.48995 -14.56970 -5.54320
C -24.79343 -18.94141 -5.54327
C -23.71186 -18.03106 -5.53895
C -29.83278 -15.94679 -5.54288
C -25.93231 -12.70795 -5.54454
C -22.82988 -16.11479 -4.30092
C -24.02623 -13.57816 -4.31857
C -25.24529 -12.85642 -4.32214
C -29.10727 -13.96605 -4.32506
C -29.77591 -16.65599 -4.32210
C -29.23618 -17.96994 -4.32278
C -26.85264 -19.38433 -4.32700
C -25.44187 -19.24685 -4.32612
C -23.30243 -17.46701 -4.31263
C -28.01458 -13.05958 -4.32671
C -27.35499 -12.78405 -3.10674
C -22.95218 -15.39467 -3.07962
C -28.76228 -18.50767 -3.10373
C -27.54600 -19.23708 -3.10545
C -23.54501 -14.10505 -3.09173
C -29.48193 -14.56752 -3.10326
C -24.77843 -18.98511 -3.10859
C -23.68597 -18.07287 -3.10648
C -29.82025 -15.94547 -3.10220
C -25.94116 -12.67875 -3.10530
C -22.93993 -16.11189 -1.87034
C -24.02896 -13.56255 -1.88228
C -25.24682 -12.83141 -1.88525
C -29.10459 -13.96119 -1.88504
C -29.76496 -16.65392 -1.88214
C -29.22465 -17.96858 -1.88255
C -26.84554 -19.39553 -1.88832
C -25.43127 -19.27407 -1.89021
C -23.29455 -17.48842 -1.87931
C -28.01831 -13.04501 -1.88638
C -27.35766 -12.76915 -0.66773
C -23.02017 -15.40309 -0.65575
C -28.75046 -18.50595 -0.66417
C -27.53662 -19.23881 -0.66581
C -23.56463 -14.09268 -0.65973
C -29.47696 -14.56412 -0.66431
C -24.76819 -19.01193 -0.66978
C -23.68139 -18.09531 -0.66938
C -29.81127 -15.94338 -0.66344
C -25.94241 -12.65988 -0.66818
Pt -19.26961 -15.71867 -7.87337
Pt -20.84193 -15.90063 -5.67344
Pt -21.20180 -13.88318 -8.08495
Pt -18.65956 -13.23897 -8.67644
Pt -16.84808 -14.47071 -6.98340
Pt -19.21680 -13.67811 -6.04353
Pt -20.95172 -17.34012 -9.31156
Pt -18.24561 -16.23935 -5.36361
Pt -19.26618 -18.22400 -7.15051
Pt -16.86806 -17.10381 -7.57541
Pt -19.41371 -15.23577 -10.46356
Pt -18.36733 -17.64724 -9.75461
Pt -16.90116 -15.25991 -9.57974
C -18.68829 -11.17806 -9.45938
O -18.67699 -10.10903 -9.83133
C -22.98001 -16.11685  0.55702
C -24.03887 -13.55221  0.55571
C -25.25036 -12.81736  0.55475
C -29.10138 -13.95697  0.55447
C -29.75660 -16.65232  0.55614
C -29.21503 -17.96645  0.55634
C -26.83901 -19.40240  0.55298
C -25.42420 -19.29130  0.55033
C -23.30973 -17.49437  0.55304
C -28.01831 -13.03715  0.55399
C -27.35937 -12.76210  1.77488
C -23.03098 -15.40584  1.77091
C -28.74402 -18.50435  1.77509
C -27.53035 -19.23974  1.77498
C -23.57102 -14.09153  1.77254
C -29.47472 -14.56159  1.77450
C -24.76171 -19.02523  1.77167
C -23.67984 -18.10415  1.76980
C -29.80738 -15.94160  1.77447
C -25.94422 -12.65055  1.77430
C -22.97462 -16.11905  2.98200
C -24.03894 -13.55491  2.99035
C -25.24986 -12.81822  2.99384
C -29.10157 -13.95646  2.99427
C -29.75622 -16.65093  2.99313
C -29.21282 -17.96464  2.99347
C -26.83458 -19.39927  2.99524
C -25.41929 -19.29218  2.99370
C -23.30208 -17.49775  2.98393
C -28.01794 -13.03661  2.99550
C -27.35586 -12.77183  4.21738
C -23.01961 -15.40928  4.19664
C -28.74344 -18.49978  4.21373
C -27.52668 -19.22860  4.21561
C -23.56662 -14.10058  4.20375
C -29.47789 -14.56312  4.21267
C -24.75766 -19.01009  4.21239
C -23.66912 -18.10016  4.20678
C -29.81097 -15.94141  4.21156
C -25.94112 -12.66303  4.21672
C -22.93218 -16.11677  5.40997
C -24.03354 -13.57972  5.42718
C -25.24497 -12.84576  5.43341
C -29.10519 -13.96076  5.43465
C -29.76775 -16.65096  5.42992
C -29.21955 -17.96217  5.43078
C -26.83011 -19.37242  5.43712
C -25.41632 -19.25640  5.43767
C -23.26998 -17.50116  5.41822
C -28.01348 -13.05178  5.43694
C -27.34532 -12.80296  6.65786
C -22.94328 -15.40331  6.62003
C -28.75199 -18.49518  6.65172
C -27.52711 -19.20858  6.65359
C -23.54569 -14.12288  6.63753
C -29.48893 -14.56495  6.65162
C -24.75176 -18.96638  6.65324
C -23.63403 -18.09916  6.64337
C -29.82888 -15.94296  6.65018
C -25.93092 -12.70487  6.65734
C -22.71882 -16.12491  7.84369
C -23.99791 -13.58201  7.86539
C -25.22821 -12.88883  7.87242
C -29.10994 -13.96724  7.87362
C -29.78249 -16.65299  7.86977
C -29.23234 -17.96232  7.86954
C -26.83033 -19.34539  7.87432
C -25.42086 -19.21243  7.87677
C -23.14751 -17.53494  7.86825
C -28.00664 -13.07594  7.87507
C -27.33628 -12.82454  9.09408
C -22.74695 -15.35343  9.08669
C -28.76457 -18.49839  9.09044
C -27.53859 -19.20665  9.09054
C -23.43549 -14.05496  9.09379
C -29.49334 -14.56959  9.09291
C -24.77098 -18.92820  9.09979
C -23.65739 -18.05351  9.11175
C -29.83708 -15.94559  9.09221
C -25.92450 -12.73222  9.09443
C -22.74251 -16.11744 10.33706
C -23.99708 -13.57406 10.32762
C -25.23185 -12.88754 10.31662
C -29.11019 -13.96912 10.31288
C -29.78592 -16.65601 10.31284
C -29.24101 -17.96824 10.31187
C -26.84876 -19.36106 10.31048
C -25.44065 -19.21321 10.31199
C -23.28879 -17.45411 10.32407
C -28.00793 -13.07561 10.31273
C -27.34767 -12.80455 11.53033
C -22.86711 -15.35504 11.55779
C -28.76946 -18.50623 11.53134
C -27.54948 -19.22713 11.53012
C -23.52926 -14.08022 11.54732
C -29.48995 -14.56970 11.53330
C -24.79343 -18.94141 11.53323
C -23.71186 -18.03106 11.53755
C -29.83278 -15.94679 11.53362
C -25.93231 -12.70795 11.53196
C -22.82988 -16.11479 12.77558
C -24.02623 -13.57816 12.75793
C -25.24529 -12.85642 12.75436
C -29.10727 -13.96605 12.75144
C -29.77591 -16.65599 12.75440
C -29.23618 -17.96994 12.75372
C -26.85264 -19.38433 12.74950
C -25.44187 -19.24685 12.75038
C -23.30243 -17.46701 12.76387
C -28.01458 -13.05958 12.74979
C -27.35499 -12.78405 13.96976
C -22.95218 -15.39467 13.99688
C -28.76228 -18.50767 13.97277
C -27.54600 -19.23708 13.97105
C -23.54501 -14.10505 13.98477
C -29.48193 -14.56752 13.97324
C -24.77843 -18.98511 13.96791
C -23.68597 -18.07287 13.97002
C -29.82025 -15.94547 13.97430
C -25.94116 -12.67875 13.97120
C -22.93993 -16.11189 15.20616
C -24.02896 -13.56255 15.19422
C -25.24682 -12.83141 15.19125
C -29.10459 -13.96119 15.19146
C -29.76496 -16.65392 15.19436
C -29.22465 -17.96858 15.19395
C -26.84554 -19.39553 15.18818
C -25.43127 -19.27407 15.18629
C -23.29455 -17.48842 15.19719
C -28.01831 -13.04501 15.19012
C -27.35766 -12.76915 16.40877
C -23.02017 -15.40309 16.42075
C -28.75046 -18.50595 16.41233
C -27.53662 -19.23881 16.41069
C -23.56463 -14.09268 16.41677
C -29.47696 -14.56412 16.41219
C -24.76819 -19.01193 16.40672
C -23.68139 -18.09531 16.40712
C -29.81127 -15.94338 16.41306
C -25.94241 -12.65988 16.40832
Pt -19.26961 -15.71867  9.20313
Pt -20.84193 -15.90063 11.40306
Pt -21.20180 -13.88318  8.99155
Pt -18.65956 -13.23897  8.40006
Pt -16.84808 -14.47071 10.09310
Pt -19.21680 -13.67811 11.03297
Pt -20.95172 -17.34012  7.76494
Pt -18.24561 -16.23935 11.71289
Pt -19.26618 -18.22400  9.92599
Pt -16.86806 -17.10381  9.50109
Pt -19.41371 -15.23577  6.61294
Pt -18.36733 -17.64724  7.32189
Pt -16.90116 -15.25991  7.49676
C -18.68829 -11.17806  7.61712
O -18.67699 -10.10903  7.24517
C -22.98001 -16.11685 17.63352
C -24.03887 -13.55221 17.63221
C -25.25036 -12.81736 17.63125
C -29.10138 -13.95697 17.63097
C -29.75660 -16.65232 17.63264
C -29.21503 -17.96645 17.63284
C -26.83901 -19.40240 17.62948
C -25.42420 -19.29130 17.62683
C -23.30973 -17.49437 17.62954
C -28.01831 -13.03715 17.63049
C -27.35937 -12.76210 18.85138
C -23.03098 -15.40584 18.84741
C -28.74402 -18.50435 18.85159
C -27.53035 -19.23974 18.85148
C -23.57102 -14.09153 18.84904
C -29.47472 -14.56159 18.85100
C -24.76171 -19.02523 18.84817
C -23.67984 -18.10415 18.84630
C -29.80738 -15.94160 18.85097
C -25.94422 -12.65055 18.85080
C -22.97462 -16.11905 20.05850
C -24.03894 -13.55491 20.06685
C -25.24986 -12.81822 20.07034
C -29.10157 -13.95646 20.07077
C -29.75622 -16.65093 20.06963
C -29.21282 -17.96464 20.06997
C -26.83458 -19.39927 20.07174
C -25.41929 -19.29218 20.07020
C -23.30208 -17.49775 20.06043
C -28.01794 -13.03661 20.07200
C -27.35586 -12.77183 21.29388
C -23.01961 -15.40928 21.27314
C -28.74344 -18.49978 21.29023
C -27.52668 -19.22860 21.29211
C -23.56662 -14.10058 21.28025
C -29.47789 -14.56312 21.28917
C -24.75766 -19.01009 21.28889
C -23.66912 -18.10016 21.28328
C -29.81097 -15.94141 21.28806
C -25.94112 -12.66303 21.29322
C -22.93218 -16.11677 22.48647
C -24.03354 -13.57972 22.50368
C -25.24497 -12.84576 22.50991
C -29.10519 -13.96076 22.51115
C -29.76775 -16.65096 22.50642
C -29.21955 -17.96217 22.50728
C -26.83011 -19.37242 22.51362
C -25.41632 -19.25640 22.51417
C -23.26998 -17.50116 22.49472
C -28.01348 -13.05178 22.51344
C -27.34532 -12.80296 23.73436
C -22.94328 -15.40331 23.69653
C -28.75199 -18.49518 23.72822
C -27.52711 -19.20858 23.73009
C -23.54569 -14.12288 23.71403
C -29.48893 -14.56495 23.72812
C -24.75176 -18.96638 23.72974
C -23.63403 -18.09916 23.71987
C -29.82888 -15.94296 23.72668
C -25.93092 -12.70487 23.73384
C -22.71882 -16.12491 24.92019
C -23.99791 -13.58201 24.94189
C -25.22821 -12.88883 24.94892
C -29.10994 -13.96724 24.95012
C -29.78249 -16.65299 24.94627
C -29.23234 -17.96232 24.94604
C -26.83033 -19.34539 24.95082
C -25.42086 -19.21243 24.95327
C -23.14751 -17.53494 24.94475
C -28.00664 -13.07594 24.95157
C -27.33628 -12.82454 26.17058
C -22.74695 -15.35343 26.16319
C -28.76457 -18.49839 26.16694
C -27.53859 -19.20665 26.16704
C -23.43549 -14.05496 26.17029
C -29.49334 -14.56959 26.16941
C -24.77098 -18.92820 26.17629
C -23.65739 -18.05351 26.18825
C -29.83708 -15.94559 26.16871
C -25.92450 -12.73222 26.17093
C -22.74251 -16.11744 27.41356
C -23.99708 -13.57406 27.40412
C -25.23185 -12.88754 27.39312
C -29.11019 -13.96912 27.38938
C -29.78592 -16.65601 27.38934
C -29.24101 -17.96824 27.38837
C -26.84876 -19.36106 27.38698
C -25.44065 -19.21321 27.38849
C -23.28879 -17.45411 27.40057
C -28.00793 -13.07561 27.38923
C -27.34767 -12.80455 28.60683
C -22.86711 -15.35504 28.63429
C -28.76946 -18.50623 28.60784
C -27.54948 -19.22713 28.60662
C -23.52926 -14.08022 28.62382
C -29.48995 -14.56970 28.60980
C -24.79343 -18.94141 28.60973
C -23.71186 -18.03106 28.61405
C -29.83278 -15.94679 28.61012
C -25.93231 -12.70795 28.60846
C -22.82988 -16.11479 29.85208
C -24.02623 -13.57816 29.83443
C -25.24529 -12.85642 29.83086
C -29.10727 -13.96605 29.82794
C -29.77591 -16.65599 29.83090
C -29.23618 -17.96994 29.83022
C -26.85264 -19.38433 29.82600
C -25.44187 -19.24685 29.82688
C -23.30243 -17.46701 29.84037
C -28.01458 -13.05958 29.82629
C -27.35499 -12.78405 31.04626
C -22.95218 -15.39467 31.07338
C -28.76228 -18.50767 31.04927
C -27.54600 -19.23708 31.04755
C -23.54501 -14.10505 31.06127
C -29.48193 -14.56752 31.04974
C -24.77843 -18.98511 31.04441
C -23.68597 -18.07287 31.04652
C -29.82025 -15.94547 31.05080
C -25.94116 -12.67875 31.04770
C -22.93993 -16.11189 32.28266
C -24.02896 -13.56255 32.27072
C -25.24682 -12.83141 32.26775
C -29.10459 -13.96119 32.26796
C -29.76496 -16.65392 32.27086
C -29.22465 -17.96858 32.27045
C -26.84554 -19.39553 32.26468
C -25.43127 -19.27407 32.26279
C -23.29455 -17.48842 32.27369
C -28.01831 -13.04501 32.26662
C -27.35766 -12.76915 33.48527
C -23.02017 -15.40309 33.49725
C -28.75046 -18.50595 33.48883
C -27.53662 -19.23881 33.48719
C -23.56463 -14.09268 33.49327
C -29.47696 -14.56412 33.48869
C -24.76819 -19.01193 33.48322
C -23.68139 -18.09531 33.48362
C -29.81127 -15.94338 33.48956
C -25.94241 -12.65988 33.48482
Pt -19.26961 -15.71867 26.27963
Pt -20.84193 -15.90063 28.47956
Pt -21.20180 -13.88318 26.06805
Pt -18.65956 -13.23897 25.47656
Pt -16.84808 -14.47071 27.16960
Pt -19.21680 -13.67811 28.10947
Pt -20.95172 -17.34012 24.84144
Pt -18.24561 -16.23935 28.78939
Pt -19.26618 -18.22400 27.00249
Pt -16.86806 -17.10381 26.57759
Pt -19.41371 -15.23577 23.68944
Pt -18.36733 -17.64724 24.39839
Pt -16.90116 -15.25991 24.57326
C -18.68829 -11.17806 24.69362
O -18.67699 -10.10903 24.32167
C -22.98001  7.88315 -16.51948
C -24.03887 10.44779 -16.52079
C -25.25036 11.18264 -16.52175
C -29.10138 10.04303 -16.52203
C -29.75660  7.34768 -16.52036
C -29.21503  6.03355 -16.52016
C -26.83901  4.59760 -16.52352
C -25.42420  4.70870 -16.52617
C -23.30973  6.50563 -16.52346
C -28.01831 10.96285 -16.52251
C -27.35937 11.23790 -15.30162
C -23.03098  8.59416 -15.30559
C -28.74402  5.49565 -15.30141
C -27.53035  4.76026 -15.30152
C -23.57102  9.90847 -15.30396
C -29.47472  9.43841 -15.30200
C -24.76171  4.97477 -15.30483
C -23.67984  5.89585 -15.30670
C -29.80738  8.05840 -15.30203
C -25.94422 11.34945 -15.30220
C -22.97462  7.88095 -14.09450
C -24.03894 10.44509 -14.08615
C -25.24986 11.18178 -14.08266
C -29.10157 10.04354 -14.08223
C -29.75622  7.34907 -14.08337
C -29.21282  6.03536 -14.08303
C -26.83458  4.60073 -14.08126
C -25.41929  4.70782 -14.08280
C -23.30208  6.50225 -14.09257
C -28.01794 10.96339 -14.08100
C -27.35586 11.22817 -12.85912
C -23.01961  8.59072 -12.87986
C -28.74344  5.50022 -12.86277
C -27.52668  4.77140 -12.86089
C -23.56662  9.89942 -12.87275
C -29.47789  9.43688 -12.86383
C -24.75766  4.98991 -12.86411
C -23.66912  5.89984 -12.86972
C -29.81097  8.05859 -12.86494
C -25.94112 11.33697 -12.85978
C -22.93218  7.88323 -11.66653
C -24.03354 10.42028 -11.64932
C -25.24497 11.15424 -11.64309
C -29.10519 10.03924 -11.64185
C -29.76775  7.34904 -11.64658
C -29.21955  6.03783 -11.64572
C -26.83011  4.62758 -11.63938
C -25.41632  4.74360 -11.63883
C -23.26998  6.49884 -11.65828
C -28.01348 10.94822 -11.63956
C -27.34532 11.19704 -10.41864
C -22.94328  8.59669 -10.45647
C -28.75199  5.50482 -10.42478
C -27.52711  4.79142 -10.42291
C -23.54569  9.87712 -10.43897
C -29.48893  9.43505 -10.42488
C -24.75176  5.03362 -10.42326
C -23.63403  5.90084 -10.43313
C -29.82888  8.05704 -10.42632
C -25.93092 11.29513 -10.41916
C -22.71882  7.87509 -9.23281
C -23.99791 10.41799 -9.21111
C -25.22821 11.11117 -9.20408
C -29.10994 10.03276 -9.20288
C -29.78249  7.34701 -9.20673
C -29.23234  6.03768 -9.20696
C -26.83033  4.65461 -9.20218
C -25.42086  4.78757 -9.19973
C -23.14751  6.46506 -9.20825
C -28.00664 10.92406 -9.20143
C -27.33628 11.17546 -7.98242
C -22.74695  8.64657 -7.98981
C -28.76457  5.50161 -7.98606
C -27.53859  4.79335 -7.98596
C -23.43549  9.94504 -7.98271
C -29.49334  9.43041 -7.98359
C -24.77098  5.07180 -7.97671
C -23.65739  5.94649 -7.96475
C -29.83708  8.05441 -7.98429
C -25.92450 11.26778 -7.98207
C -22.74251  7.88256 -6.73944
C -23.99708 10.42594 -6.74888
C -25.23185 11.11246 -6.75988
C -29.11019 10.03088 -6.76362
C -29.78592  7.34399 -6.76366
C -29.24101  6.03176 -6.76463
C -26.84876  4.63894 -6.76602
C -25.44065  4.78679 -6.76451
C -23.28879  6.54589 -6.75243
C -28.00793 10.92439 -6.76377
C -27.34767 11.19545 -5.54617
C -22.86711  8.64496 -5.51871
C -28.76946  5.49377 -5.54516
C -27.54948  4.77287 -5.54638
C -23.52926  9.91978 -5.52918
C -29.48995  9.43030 -5.54320
C -24.79343  5.05859 -5.54327
C -23.71186  5.96894 -5.53895
C -29.83278  8.05321 -5.54288
C -25.93231 11.29205 -5.54454
C -22.82988  7.88521 -4.30092
C -24.02623 10.42184 -4.31857
C -25.24529 11.14358 -4.32214
C -29.10727 10.03395 -4.32506
C -29.77591  7.34401 -4.32210
C -29.23618  6.03006 -4.32278
C -26.85264  4.61567 -4.32700
C -25.44187  4.75315 -4.32612
C -23.30243  6.53299 -4.31263
C -28.01458 10.94042 -4.32671
C -27.35499 11.21595 -3.10674
C -22.95218  8.60533 -3.07962
C -28.76228  5.49233 -3.10373
C -27.54600  4.76292 -3.10545
C -23.54501  9.89495 -3.09173
C -29.48193  9.43248 -3.10326
C -24.77843  5.01489 -3.10859
C -23.68597  5.92713 -3.10648
C -29.82025  8.05453 -3.10220
C -25.94116 11.32125 -3.10530
C -22.93993  7.88811 -1.87034
C -24.02896 10.43745 -1.88228
C -25.24682 11.16859 -1.88525
C -29.10459 10.03881 -1.88504
C -29.76496  7.34608 -1.88214
C -29.22465  6.03142 -1.88255
C -26.84554  4.60447 -1.88832
C -25.43127  4.72593 -1.89021
C -23.29455  6.51158 -1.87931
C -28.01831 10.95499 -1.88638
C -27.35766 11.23085 -0.66773
C -23.02017  8.59691 -0.65575
C -28.75046  5.49405 -0.66417
C -27.53662  4.76119 -0.66581
C -23.56463  9.90732 -0.65973
C -29.47696  9.43588 -0.66431
C -24.76819  4.98807 -0.66978
C -23.68139  5.90469 -0.66938
C -29.81127  8.05662 -0.66344
C -25.94241 11.34012 -0.66818
Pt -19.26961  8.28133 -7.87337
Pt -20.84193  8.09937 -5.67344
Pt -21.20180 10.11682 -8.08495
Pt -18.65956 10.76103 -8.67644
Pt -16.84808  9.52929 -6.98340
Pt -19.21680 10.32189 -6.04353
Pt -20.95172  6.65988 -9.31156
Pt -18.24561  7.76065 -5.36361
Pt -19.26618  5.77600 -7.15051
Pt -16.86806  6.89619 -7.57541
Pt -19.41371  8.76423 -10.46356
Pt -18.36733  6.35276 -9.75461
Pt -16.90116  8.74009 -9.57974
C -18.68829 12.82194 -9.45938
O -18.67699 13.89097 -9.83133
C -22.98001  7.88315  0.55702
C -24.03887 10.44779  0.55571
C -25.25036 11.18264  0.55475
C -29.10138 10.04303  0.55447
C -29.75660  7.34768  0.55614
C -29.21503  6.03355  0.55634
C -26.83901  4.59760  0.55298
C -25.42420  4.70870  0.55033
C -23.30973  6.50563  0.55304
C -28.01831 10.96285  0.55399
C -27.35937 11.23790  1.77488
C -23.03098  8.59416  1.77091
C -28.74402  5.49565  1.77509
C -27.53035  4.76026  1.77498
C -23.57102  9.90847  1.77254
C -29.47472  9.43841  1.77450
C -24.76171  4.97477  1.77167
C -23.67984  5.89585  1.76980
C -29.80738  8.05840  1.77447
C -25.94422 11.34945  1.77430
C -22.97462  7.88095  2.98200
C -24.03894 10.44509  2.99035
C -25.24986 11.18178  2.99384
C -29.10157 10.04354  2.99427
C -29.75622  7.34907  2.99313
C -29.21282  6.03536  2.99347
C -26.83458  4.60073  2.99524
C -25.41929  4.70782  2.99370
C -23.30208  6.50225  2.98393
C -28.01794 10.96339  2.99550
C -27.35586 11.22817  4.21738
C -23.01961  8.59072  4.19664
C -28.74344  5.50022  4.21373
C -27.52668  4.77140  4.21561
C -23.56662  9.89942  4.20375
C -29.47789  9.43688  4.21267
C -24.75766  4.98991  4.21239
C -23.66912  5.89984  4.20678
C -29.81097  8.05859  4.21156
C -25.94112 11.33697  4.21672
C -22.93218  7.88323  5.40997
C -24.03354 10.42028  5.42718
C -25.24497 11.15424  5.43341
C -29.10519 10.03924  5.43465
C -29.76775  7.34904  5.42992
C -29.21955  6.03783  5.43078
C -26.83011  4.62758  5.43712
C -25.41632  4.74360  5.43767
C -23.26998  6.49884  5.41822
C -28.01348 10.94822  5.43694
C -27.34532 11.19704  6.65786
C -22.94328  8.59669  6.62003
C -28.75199  5.50482  6.65172
C -27.52711  4.79142  6.65359
C -23.54569  9.87712  6.63753
C -29.48893  9.43505  6.65162
C -24.75176  5.03362  6.65324
C -23.63403  5.90084  6.64337
C -29.82888  8.05704  6.65018
C -25.93092 11.29513  6.65734
C -22.71882  7.87509  7.84369
C -23.99791 10.41799  7.86539
C -25.22821 11.11117  7.87242
C -29.10994 10.03276  7.87362
C -29.78249  7.34701  7.86977
C -29.23234  6.03768  7.86954
C -26.83033  4.65461  7.87432
C -25.42086  4.78757  7.87677
C -23.14751  6.46506  7.86825
C -28.00664 10.92406  7.87507
C -27.33628 11.17546  9.09408
C -22.74695  8.64657  9.08669
C -28.76457  5.50161  9.09044
C -27.53859  4.79335  9.09054
C -23.43549  9.94504  9.09379
C -29.49334  9.43041  9.09291
C -24.77098  5.07180  9.09979
C -23.65739  5.94649  9.11175
C -29.83708  8.05441  9.09221
C -25.92450 11.26778  9.09443
C -22.74251  7.88256 10.33706
C -23.99708 10.42594 10.32762
C -25.23185 11.11246 10.31662
C -29.11019 10.03088 10.31288
C -29.78592  7.34399 10.31284
C -29.24101  6.03176 10.31187
C -26.84876  4.63894 10.31048
C -25.44065  4.78679 10.31199
C -23.28879  6.54589 10.32407
C -28.00793 10.92439 10.31273
C -27.34767 11.19545 11.53033
C -22.86711  8.64496 11.55779
C -28.76946  5.49377 11.53134
C -27.54948  4.77287 11.53012
C -23.52926  9.91978 11.54732
C -29.48995  9.43030 11.53330
C -24.79343  5.05859 11.53323
C -23.71186  5.96894 11.53755
C -29.83278  8.05321 11.53362
C -25.93231 11.29205 11.53196
C -22.82988  7.88521 12.77558
C -24.02623 10.42184 12.75793
C -25.24529 11.14358 12.75436
C -29.10727 10.03395 12.75144
C -29.77591  7.34401 12.75440
C -29.23618  6.03006 12.75372
C -26.85264  4.61567 12.74950
C -25.44187  4.75315 12.75038
C -23.30243  6.53299 12.76387
C -28.01458 10.94042 12.74979
C -27.35499 11.21595 13.96976
C -22.95218  8.60533 13.99688
C -28.76228  5.49233 13.97277
C -27.54600  4.76292 13.97105
C -23.54501  9.89495 13.98477
C -29.48193  9.43248 13.97324
C -24.77843  5.01489 13.96791
C -23.68597  5.92713 13.97002
C -29.82025  8.05453 13.97430
C -25.94116 11.32125 13.97120
C -22.93993  7.88811 15.20616
C -24.02896 10.43745 15.19422
C -25.24682 11.16859 15.19125
C -29.10459 10.03881 15.19146
C -29.76496  7.34608 15.19436
C -29.22465  6.03142 15.19395
C -26.84554  4.60447 15.18818
C -25.43127  4.72593 15.18629
C -23.29455  6.51158 15.19719
C -28.01831 10.95499 15.19012
C -27.35766 11.23085 16.40877
C -23.02017  8.59691 16.42075
C -28.75046  5.49405 16.41233
C -27.53662  4.76119 16.41069
C -23.56463  9.90732 16.41677
C -29.47696  9.43588 16.41219
C -24.76819  4.98807 16.40672
C -23.68139  5.90469 16.40712
C -29.81127  8.05662 16.41306
C -25.94241 11.34012 16.40832
Pt -19.26961  8.28133  9.20313
Pt -20.84193  8.09937 11.40306
Pt -21.20180 10.11682  8.99155
Pt -18.65956 10.76103  8.40006
Pt -16.84808  9.52929 10.09310
Pt -19.21680 10.32189 11.03297
Pt -20.95172  6.65988  7.76494
Pt -18.24561  7.76065 11.71289
Pt -19.26618  5.77600  9.92599
Pt -16.86806  6.89619  9.50109
Pt -19.41371  8.76423  6.61294
Pt -18.36733  6.35276  7.32189
Pt -16.90116  8.74009  7.49676
C -18.68829 12.82194  7.61712
O -18.67699 13.89097  7.24517
C -22.98001  7.88315 17.63352
C -24.03887 10.44779 17.63221
C -25.25036 11.18264 17.63125
C -29.10138 10.04303 17.63097
C -29.75660  7.34768 17.63264
C -29.21503  6.03355 17.63284
C -26.83901  4.59760 17.62948
C -25.42420  4.70870 17.62683
C -23.30973  6.50563 17.62954
C -28.01831 10.96285 17.63049
C -27.35937 11.23790 18.85138
C -23.03098  8.59416 18.84741
C -28.74402  5.49565 18.85159
C -27.53035  4.76026 18.85148
C -23.57102  9.90847 18.84904
C -29.47472  9.43841 18.85100
C -24.76171  4.97477 18.84817
C -23.67984  5.89585 18.84630
C -29.80738  8.05840 18.85097
C -25.94422 11.34945 18.85080
C -22.97462  7.88095 20.05850
C -24.03894 10.44509 20.06685
C -25.24986 11.18178 20.07034
C -29.10157 10.04354 20.07077
C -29.75622  7.34907 20.06963
C -29.21282  6.03536 20.06997
C -26.83458  4.60073 20.07174
C -25.41929  4.70782 20.07020
C -23.30208  6.50225 20.06043
C -28.01794 10.96339 20.07200
C -27.35586 11.22817 21.29388
C -23.01961  8.59072 21.27314
C -28.74344  5.50022 21.29023
C -27.52668  4.77140 21.29211
C -23.56662  9.89942 21.28025
C -29.47789  9.43688 21.28917
C -24.75766  4.98991 21.28889
C -23.66912  5.89984 21.28328
C -29.81097  8.05859 21.28806
C -25.94112 11.33697 21.29322
C -22.93218  7.88323 22.48647
C -24.03354 10.42028 22.50368
C -25.24497 11.15424 22.50991
C -29.10519 10.03924 22.51115
C -29.76775  7.34904 22.50642
C -29.21955  6.03783 22.50728
C -26.83011  4.62758 22.51362
C -25.41632  4.74360 22.51417
C -23.26998  6.49884 22.49472
C -28.01348 10.94822 22.51344
C -27.34532 11.19704 23.73436
C -22.94328  8.59669 23.69653
C -28.75199  5.50482 23.72822
C -27.52711  4.79142 23.73009
C -23.54569  9.87712 23.71403
C -29.48893  9.43505 23.72812
C -24.75176  5.03362 23.72974
C -23.63403  5.90084 23.71987
C -29.82888  8.05704 23.72668
C -25.93092 11.29513 23.73384
C -22.71882  7.87509 24.92019
C -23.99791 10.41799 24.94189
C -25.22821 11.11117 24.94892
C -29.10994 10.03276 24.95012
C -29.78249  7.34701 24.94627
C -29.23234  6.03768 24.94604
C -26.83033  4.65461 24.95082
C -25.42086  4.78757 24.95327
C -23.14751  6.46506 24.94475
C -28.00664 10.92406 24.95157
C -27.33628 11.17546 26.17058
C -22.74695  8.64657 26.16319
C -28.76457  5.50161 26.16694
C -27.53859  4.79335 26.16704
C -23.43549  9.94504 26.17029
C -29.49334  9.43041 26.16941
C -24.77098  5.07180 26.17629
C -23.65739  5.94649 26.18825
C -29.83708  8.05441 26.16871
C -25.92450 11.26778 26.17093
C -22.74251  7.88256 27.41356
C -23.99708 10.42594 27.40412
C -25.23185 11.11246 27.39312
C -29.11019 10.03088 27.38938
C -29.78592  7.34399 27.38934
C -29.24101  6.03176 27.38837
C -26.84876  4.63894 27.38698
C -25.44065  4.78679 27.38849
C -23.28879  6.54589 27.40057
C -28.00793 10.92439 27.38923
C -27.34767 11.19545 28.60683
C -22.86711  8.64496 28.63429
C -28.76946  5.49377 28.60784
C -27.54948  4.77287 28.60662
C -23.52926  9.91978 28.62382
C -29.48995  9.43030 28.60980
C -24.79343  5.05859 28.60973
C -23.71186  5.96894 28.61405
C -29.83278  8.05321 28.61012
C -25.93231 11.29205 28.60846
C -22.82988  7.88521 29.85208
C -24.02623 10.42184 29.83443
C -25.24529 11.14358 29.83086
C -29.10727 10.03395 29.82794
C -29.77591  7.34401 29.83090
C -29.23618  6.03006 29.83022
C -26.85264  4.61567 29.82600
C -25.44187  4.75315 29.82688
C -23.30243  6.53299 29.84037
C -28.01458 10.94042 29.82629
C -27.35499 11.21595 31.04626
C -22.95218  8.60533 31.07338
C -28.76228  5.49233 31.04927
C -27.54600  4.76292 31.04755
C -23.54501  9.89495 31.06127
C -29.48193  9.43248 31.04974
C -24.77843  5.01489 31.04441
C -23.68597  5.92713 31.04652
C -29.82025  8.05453 31.05080
C -25.94116 11.32125 31.04770
C -22.93993  7.88811 32.28266
C -24.02896 10.43745 32.27072
C -25.24682 11.16859 32.26775
C -29.10459 10.03881 32.26796
C -29.76496  7.34608 32.27086
C -29.22465  6.03142 32.27045
C -26.84554  4.60447 32.26468
C -25.43127  4.72593 32.26279
C -23.29455  6.51158 32.27369
C -28.01831 10.95499 32.26662
C -27.35766 11.23085 33.48527
C -23.02017  8.59691 33.49725
C -28.75046  5.49405 33.48883
C -27.53662  4.76119 33.48719
C -23.56463  9.90732 33.49327
C -29.47696  9.43588 33.48869
C -24.76819  4.98807 33.48322
C -23.68139  5.90469 33.48362
C -29.81127  8.05662 33.48956
C -25.94241 11.34012 33.48482
Pt -19.26961  8.28133 26.27963
Pt -20.84193  8.09937 28.47956
Pt -21.20180 10.11682 26.06805
Pt -18.65956 10.76103 25.47656
Pt -16.84808  9.52929 27.16960
Pt -19.21680 10.32189 28.10947
Pt -20.95172  6.65988 24.84144
Pt -18.24561  7.76065 28.78939
Pt -19.26618  5.77600 27.00249
Pt -16.86806  6.89619 26.57759
Pt -19.41371  8.76423 23.68944
Pt -18.36733  6.35276 24.39839
Pt -16.90116  8.74009 24.57326
C -18.68829 12.82194 24.69362
O -18.67699 13.89097 24.32167
C -22.98001 31.88315 -16.51948
C -24.03887 34.44779 -16.52079
C -25.25036 35.18264 -16.52175
C -29.10138 34.04303 -16.52203
C -29.75660 31.34768 -16.52036
C -29.21503 30.03355 -16.52016
C -26.83901 28.59760 -16.52352
C -25.42420 28.70870 -16.52617
C -23.30973 30.50563 -16.52346
C -28.01831 34.96285 -16.52251
C -27.35937 35.23790 -15.30162
C -23.03098 32.59416 -15.30559
C -28.74402 29.49565 -15.30141
C -27.53035 28.76026 -15.30152
C -23.57102 33.90847 -15.30396
C -29.47472 33.43841 -15.30200
C -24.76171 28.97477 -15.30483
C -23.67984 29.89585 -15.30670
C -29.80738 32.05840 -15.30203
C -25.94422 35.34945 -15.30220
C -22.97462 31.88095 -14.09450
C -24.03894 34.44509 -14.08615
C -25.24986 35.18178 -14.08266
C -29.10157 34.04354 -14.08223
C -29.75622 31.34907 -14.08337
C -29.21282 30.03536 -14.08303
C -26.83458 28.60073 -14.08126
C -25.41929 28.70782 -14.08280
C -23.30208 30.50225 -14.09257
C -28.01794 34.96339 -14.08100
C -27.35586 35.22817 -12.85912
C -23.01961 32.59072 -12.87986
C -28.74344 29.50022 -12.86277
C -27.52668 28.77140 -12.86089
C -23.56662 33.89942 -12.87275
C -29.47789 33.43688 -12.86383
C -24.75766 28.98991 -12.86411
C -23.66912 29.89984 -12.86972
C -29.81097 32.05859 -12.86494
C -25.94112 35.33697 -12.85978
C -22.93218 31.88323 -11.66653
C -24.03354 34.42028 -11.64932
C -25.24497 35.15424 -11.64309
C -29.10519 34.03924 -11.64185
C -29.76775 31.34904 -11.64658
C -29.21955 30.03783 -11.64572
C -26.83011 28.62758 -11.63938
C -25.41632 28.74360 -11.63883
C -23.26998 30.49884 -11.65828
C -28.01348 34.94822 -11.63956
C -27.34532 35.19704 -10.41864
C -22.94328 32.59669 -10.45647
C -28.75199 29.50482 -10.42478
C -27.52711 28.79142 -10.42291
C -23.54569 33.87712 -10.43897
C -29.48893 33.43505 -10.42488
C -24.75176 29.03362 -10.42326
C -23.63403 29.90084 -10.43313
C -29.82888 32.05704 -10.42632
C -25.93092 35.29513 -10.41916
C -22.71882 31.87509 -9.23281
C -23.99791 34.41799 -9.21111
C -25.22821 35.11117 -9.20408
C -29.10994 34.03276 -9.20288
C -29.78249 31.34701 -9.20673
C -29.23234 30.03768 -9.20696
C -26.83033 28.65461 -9.20218
C -25.42086 28.78757 -9.19973
C -23.14751 30.46506 -9.20825
C -28.00664 34.92406 -9.20143
C -27.33628 35.17546 -7.98242
C -22.74695 32.64657 -7.98981
C -28.76457 29.50161 -7.98606
C -27.53859 28.79335 -7.98596
C -23.43549 33.94504 -7.98271
C -29.49334 33.43041 -7.98359
C -24.77098 29.07180 -7.97671
C -23.65739 29.94649 -7.96475
C -29.83708 32.05441 -7.98429
C -25.92450 35.26778 -7.98207
C -22.74251 31.88256 -6.73944
C -23.99708 34.42594 -6.74888
C -25.23185 35.11246 -6.75988
C -29.11019 34.03088 -6.76362
C -29.78592 31.34399 -6.76366
C -29.24101 30.03176 -6.76463
C -26.84876 28.63894 -6.76602
C -25.44065 28.78679 -6.76451
C -23.28879 30.54589 -6.75243
C -28.00793 34.92439 -6.76377
C -27.34767 35.19545 -5.54617
C -22.86711 32.64496 -5.51871
C -28.76946 29.49377 -5.54516
C -27.54948 28.77287 -5.54638
C -23.52926 33.91978 -5.52918
C -29.48995 33.43030 -5.54320
C -24.79343 29.05859 -5.54327
C -23.71186 29.96894 -5.53895
C -29.83278 32.05321 -5.54288
C -25.93231 35.29205 -5.54454
C -22.82988 31.88521 -4.30092
C -24.02623 34.42184 -4.31857
C -25.24529 35.14358 -4.32214
C -29.10727 34.03395 -4.32506
C -29.77591 31.34401 -4.32210
C -29.23618 30.03006 -4.32278
C -26.85264 28.61567 -4.32700
C -25.44187 28.75315 -4.32612
C -23.30243 30.53299 -4.31263
C -28.01458 34.94042 -4.32671
C -27.35499 35.21595 -3.10674
C -22.95218 32.60533 -3.07962
C -28.76228 29.49233 -3.10373
C -27.54600 28.76292 -3.10545
C -23.54501 33.89495 -3.09173
C -29.48193 33.43248 -3.10326
C -24.77843 29.01489 -3.10859
C -23.68597 29.92713 -3.10648
C -29.82025 32.05453 -3.10220
C -25.94116 35.32125 -3.10530
C -22.93993 31.88811 -1.87034
C -24.02896 34.43745 -1.88228
C -25.24682 35.16859 -1.88525
C -29.10459 34.03881 -1.88504
C -29.76496 31.34608 -1.88214
C -29.22465 30.03142 -1.88255
C -26.84554 28.60447 -1.88832
C -25.43127 28.72593 -1.89021
C -23.29455 30.51158 -1.87931
C -28.01831 34.95499 -1.88638
C -27.35766 35.23085 -0.66773
C -23.02017 32.59691 -0.65575
C -28.75046 29.49405 -0.66417
C -27.53662 28.76119 -0.66581
C -23.56463 33.90732 -0.65973
C -29.47696 33.43588 -0.66431
C -24.76819 28.98807 -0.66978
C -23.68139 29.90469 -0.66938
C -29.81127 32.05662 -0.66344
C -25.94241 35.34012 -0.66818
Pt -19.26961 32.28133 -7.87337
Pt -20.84193 32.09937 -5.67344
Pt -21.20180 34.11682 -8.08495
Pt -18.65956 34.76103 -8.67644
Pt -16.84808 33.52929 -6.98340
Pt -19.21680 34.32189 -6.04353
Pt -20.95172 30.65988 -9.31156
Pt -18.24561 31.76065 -5.36361
Pt -19.26618 29.77600 -7.15051
Pt -16.86806 30.89619 -7.57541
Pt -19.41371 32.76423 -10.46356
Pt -18.36733 30.35276 -9.75461
Pt -16.90116 32.74009 -9.57974
C -18.68829 36.82194 -9.45938
O -18.67699 37.89097 -9.83133
C -22.98001 31.88315  0.55702
C -24.03887 34.44779  0.55571
C -25.25036 35.18264  0.55475
C -29.10138 34.04303  0.55447
C -29.75660 31.34768  0.55614
C -29.21503 30.03355  0.55634
C -26.83901 28.59760  0.55298
C -25.42420 28.70870  0.55033
C -23.30973 30.50563  0.55304
C -28.01831 34.96285  0.55399
C -27.35937 35.23790  1.77488
C -23.03098 32.59416  1.77091
C -28.74402 29.49565  1.77509
C -27.53035 28.76026  1.77498
C -23.57102 33.90847  1.77254
C -29.47472 33.43841  1.77450
C -24.76171 28.97477  1.77167
C -23.67984 29.89585  1.76980
C -29.80738 32.05840  1.77447
C -25.94422 35.34945  1.77430
C -22.97462 31.88095  2.98200
C -24.03894 34.44509  2.99035
C -25.24986 35.18178  2.99384
C -29.10157 34.04354  2.99427
C -29.75622 31.34907  2.99313
C -29.21282 30.03536  2.99347
C -26.83458 28.60073  2.99524
C -25.41929 28.70782  2.99370
C -23.30208 30.50225  2.98393
C -28.01794 34.96339  2.99550
C -27.35586 35.22817  4.21738
C -23.01961 32.59072  4.19664
C -28.74344 29.50022  4.21373
C -27.52668 28.77140  4.21561
C -23.56662 33.89942  4.20375
C -29.47789 33.43688  4.21267
C -24.75766 28.98991  4.21239
C -23.66912 29.89984  4.20678
C -29.81097 32.05859  4.21156
C -25.94112 35.33697  4.21672
C -22.93218 31.88323  5.40997
C -24.03354 34.42028  5.42718
C -25.24497 35.15424  5.43341
C -29.10519 34.03924  5.43465
C -29.76775 31.34904  5.42992
C -29.21955 30.03783  5.43078
C -26.83011 28.62758  5.43712
C -25.41632 28.74360  5.43767
C -23.26998 30.49884  5.41822
C -28.01348 34.94822  5.43694
C -27.34532 35.19704  6.65786
C -22.94328 32.59669  6.62003
C -28.75199 29.50482  6.65172
C -27.52711 28.79142  6.65359
C -23.54569 33.87712  6.63753
C -29.48893 33.43505  6.65162
C -24.75176 29.03362  6.65324
C -23.63403 29.90084  6.64337
C -29.82888 32.05704  6.65018
C -25.93092 35.29513  6.65734
C -22.71882 31.87509  7.84369
C -23.99791 34.41799  7.86539
C -25.22821 35.11117  7.87242
C -29.10994 34.03276  7.87362
C -29.78249 31.34701  7.86977
C -29.23234 30.03768  7.86954
C -26.83033 28.65461  7.87432
C -25.42086 28.78757  7.87677
C -23.14751 30.46506  7.86825
C -28.00664 34.92406  7.87507
C -27.33628 35.17546  9.09408
C -22.74695 32.64657  9.08669
C -28.76457 29.50161  9.09044
C -27.53859 28.79335  9.09054
C -23.43549 33.94504  9.09379
C -29.49334 33.43041  9.09291
C -24.77098 29.07180  9.09979
C -23.65739 29.94649  9.11175
C -29.83708 32.05441  9.09221
C -25.92450 35.26778  9.09443
C -22.74251 31.88256 10.33706
C -23.99708 34.42594 10.32762
C -25.23185 35.11246 10.31662
C -29.11019 34.03088 10.31288
C -29.78592 31.34399 10.31284
C -29.24101 30.03176 10.31187
C -26.84876 28.63894 10.31048
C -25.44065 28.78679 10.31199
C -23.28879 30.54589 10.32407
C -28.00793 34.92439 10.31273
C -27.34767 35.19545 11.53033
C -22.86711 32.64496 11.55779
C -28.76946 29.49377 11.53134
C -27.54948 28.77287 11.53012
C -23.52926 33.91978 11.54732
C -29.48995 33.43030 11.53330
C -24.79343 29.05859 11.53323
C -23.71186 29.96894 11.53755
C -29.83278 32.05321 11.53362
C -25.93231 35.29205 11.53196
C -22.82988 31.88521 12.77558
C -24.02623 34.42184 12.75793
C -25.24529 35.14358 12.75436
C -29.10727 34.03395 12.75144
C -29.77591 31.34401 12.75440
C -29.23618 30.03006 12.75372
C -26.85264 28.61567 12.74950
C -25.44187 28.75315 12.75038
C -23.30243 30.53299 12.76387
C -28.01458 34.94042 12.74979
C -27.35499 35.21595 13.96976
C -22.95218 32.60533 13.99688
C -28.76228 29.49233 13.97277
C -27.54600 28.76292 13.97105
C -23.54501 33.89495 13.98477
C -29.48193 33.43248 13.97324
C -24.77843 29.01489 13.96791
C -23.68597 29.92713 13.97002
C -29.82025 32.05453 13.97430
C -25.94116 35.32125 13.97120
C -22.93993 31.88811 15.20616
C -24.02896 34.43745 15.19422
C -25.24682 35.16859 15.19125
C -29.10459 34.03881 15.19146
C -29.76496 31.34608 15.19436
C -29.22465 30.03142 15.19395
C -26.84554 28.60447 15.18818
C -25.43127 28.72593 15.18629
C -23.29455 30.51158 15.19719
C -28.01831 34.95499 15.19012
C -27.35766 35.23085 16.40877
C -23.02017 32.59691 16.42075
C -28.75046 29.49405 16.41233
C -27.53662 28.76119 16.41069
C -23.56463 33.90732 16.41677
C -29.47696 33.43588 16.41219
C -24.76819 28.98807 16.40672
C -23.68139 29.90469 16.40712
C -29.81127 32.05662 16.41306
C -25.94241 35.34012 16.40832
Pt -19.26961 32.28133  9.20313
Pt -20.84193 32.09937 11.40306
Pt -21.20180 34.11682  8.99155
Pt -18.65956 34.76103  8.40006
Pt -16.84808 33.52929 10.09310
Pt -19.21680 34.32189 11.03297
Pt -20.95172 30.65988  7.76494
Pt -18.24561 31.76065 11.71289
Pt -19.26618 29.77600  9.92599
Pt -16.86806 30.89619  9.50109
Pt -19.41371 32.76423  6.61294
Pt -18.36733 30.35276  7.32189
Pt -16.90116 32.74009  7.49676
C -18.68829 36.82194  7.61712
O -18.67699 37.89097  7.24517
C -22.98001 31.88315 17.63352
C -24.03887 34.44779 17.63221
C -25.25036 35.18264 17.63125
C -29.10138 34.04303 17.63097
C -29.75660 31.34768 17.63264
C -29.21503 30.03355 17.63284
C -26.83901 28.59760 17.62948
C -25.42420 28.70870 17.62683
C -23.30973 30.50563 17.62954
C -28.01831 34.96285 17.63049
C -27.35937 35.23790 18.85138
C -23.03098 32.59416 18.84741
C -28.74402 29.49565 18.85159
C -27.53035 28.76026 18.85148
C -23.57102 33.90847 18.84904
C -29.47472 33.43841 18.85100
C -24.76171 28.97477 18.84817
C -23.67984 29.89585 18.84630
C -29.80738 32.05840 18.85097
C -25.94422 35.34945 18.85080
C -22.97462 31.88095 20.05850
C -24.03894 34.44509 20.06685
C -25.24986 35.18178 20.07034
C -29.10157 34.04354 20.07077
C -29.75622 31.34907 20.06963
C -29.21282 30.03536 20.06997
C -26.83458 28.60073 20.07174
C -25.41929 28.70782 20.07020
C -23.30208 30.50225 20.06043
C -28.01794 34.96339 20.07200
C -27.35586 35.22817 21.29388
C -23.01961 32.59072 21.27314
C -28.74344 29.50022 21.29023
C -27.52668 28.77140 21.29211
C -23.56662 33.89942 21.28025
C -29.47789 33.43688 21.28917
C -24.75766 28.98991 21.28889
C -23.66912 29.89984 21.28328
C -29.81097 32.05859 21.28806
C -25.94112 35.33697 21.29322
C -22.93218 31.88323 22.48647
C -24.03354 34.42028 22.50368
C -25.24497 35.15424 22.50991
C -29.10519 34.03924 22.51115
C -29.76775 31.34904 22.50642
C -29.21955 30.03783 22.50728
C -26.83011 28.62758 22.51362
C -25.41632 28.74360 22.51417
C -23.26998 30.49884 22.49472
C -28.01348 34.94822 22.51344
C -27.34532 35.19704 23.73436
C -22.94328 32.59669 23.69653
C -28.75199 29.50482 23.72822
C -27.52711 28.79142 23.73009
C -23.54569 33.87712 23.71403
C -29.48893 33.43505 23.72812
C -24.75176 29.03362 23.72974
C -23.63403 29.90084 23.71987
C -29.82888 32.05704 23.72668
C -25.93092 35.29513 23.73384
C -22.71882 31.87509 24.92019
C -23.99791 34.41799 24.94189
C -25.22821 35.11117 24.94892
C -29.10994 34.03276 24.95012
C -29.78249 31.34701 24.94627
C -29.23234 30.03768 24.94604
C -26.83033 28.65461 24.95082
C -25.42086 28.78757 24.95327
C -23.14751 30.46506 24.94475
C -28.00664 34.92406 24.95157
C -27.33628 35.17546 26.17058
C -22.74695 32.64657 26.16319
C -28.76457 29.50161 26.16694
C -27.53859 28.79335 26.16704
C -23.43549 33.94504 26.17029
C -29.49334 33.43041 26.16941
C -24.77098 29.07180 26.17629
C -23.65739 29.94649 26.18825
C -29.83708 32.05441 26.16871
C -25.92450 35.26778 26.17093
C -22.74251 31.88256 27.41356
C -23.99708 34.42594 27.40412
C -25.23185 35.11246 27.39312
C -29.11019 34.03088 27.38938
C -29.78592 31.34399 27.38934
C -29.24101 30.03176 27.38837
C -26.84876 28.63894 27.38698
C -25.44065 28.78679 27.38849
C -23.28879 30.54589 27.40057
C -28.00793 34.92439 27.38923
C -27.34767 35.19545 28.60683
C -22.86711 32.64496 28.63429
C -28.76946 29.49377 28.60784
C -27.54948 28.77287 28.60662
C -23.52926 33.91978 28.62382
C -29.48995 33.43030 28.60980
C -24.79343 29.05859 28.60973
C -23.71186 29.96894 28.61405
C -29.83278 32.05321 28.61012
C -25.93231 35.29205 28.60846
C -22.82988 31.88521 29.85208
C -24.02623 34.42184 29.83443
C -25.24529 35.14358 29.83086
C -29.10727 34.03395 29.82794
C -29.77591 31.34401 29.83090
C -29.23618 30.03006 29.83022
C -26.85264 28.61567 29.82600
C -25.44187 28.75315 29.82688
C -23.30243 30.53299 29.84037
C -28.01458 34.94042 29.82629
C -27.35499 35.21595 31.04626
C -22.95218 32.60533 31.07338
C -28.76228 29.49233 31.04927
C -27.54600 28.76292 31.04755
C -23.54501 33.89495 31.06127
C -29.48193 33.43248 31.04974
C -24.77843 29.01489 31.04441
C -23.68597 29.92713 31.04652
C -29.82025 32.05453 31.05080
C -25.94116 35.32125 31.04770
C -22.93993 31.88811 32.28266
C -24.02896 34.43745 32.27072
C -25.24682 35.16859 32.26775
C -29.10459 34.03881 32.26796
C -29.76496 31.34608 32.27086
C -29.22465 30.03142 32.27045
C -26.84554 28.60447 32.26468
C -25.43127 28.72593 32.26279
C -23.29455 30.51158 32.27369
C -28.01831 34.95499 32.26662
C -27.35766 35.23085 33.48527
C -23.02017 32.59691 33.49725
C -28.75046 29.49405 33.48883
C -27.53662 28.76119 33.48719
C -23.56463 33.90732 33.49327
C -29.47696 33.43588 33.48869
C -24.76819 28.98807 33.48322
C -23.68139 29.90469 33.48362
C -29.81127 32.05662 33.48956
C -25.94241 35.34012 33.48482
Pt -19.26961 32.28133 26.27963
Pt -20.84193 32.09937 28.47956
Pt -21.20180 34.11682 26.06805
Pt -18.65956 34.76103 25.47656
Pt -16.84808 33.52929 27.16960
Pt -19.21680 34.32189 28.10947
Pt -20.95172 30.65988 24.84144
Pt -18.24561 31.76065 28.78939
Pt -19.26618 29.77600 27.00249
Pt -16.86806 30.89619 26.57759
Pt -19.41371 32.76423 23.68944
Pt -18.36733 30.35276 24.39839
Pt -16.90116 32.74009 24.57326
C -18.68829 36.82194 24.69362
O -18.67699 37.89097 24.32167
C  8.01999 -16.11685 -16.51948
C  6.96113 -13.55221 -16.52079
C  5.74964 -12.81736 -16.52175
C  1.89862 -13.95697 -16.52203
C  1.24340 -16.65232 -16.52036
C  1.78497 -17.96645 -16.52016
C  4.16099 -19.40240 -16.52352
C  5.57580 -19.29130 -16.52617
C  7.69027 -17.49437 -16.52346
C  2.98169 -13.03715 -16.52251
C  3.64063 -12.76210 -15.30162
C  7.96902 -15.40584 -15.30559
C  2.25598 -18.50435 -15.30141
C  3.46965 -19.23974 -15.30152
C  7.42898 -14.09153 -15.30396
C  1.52528 -14.56159 -15.30200
C  6.23829 -19.02523 -15.30483
C  7.32016 -18.10415 -15.30670
C  1.19262 -15.94160 -15.30203
C  5.05578 -12.65055 -15.30220
C  8.02538 -16.11905 -14.09450
C  6.96106 -13.55491 -14.08615
C  5.75014 -12.81822 -14.08266
C  1.89843 -13.95646 -14.08223
C  1.24378 -16.65093 -14.08337
C  1.78718 -17.96464 -14.08303
C  4.16542 -19.39927 -14.08126
C  5.58071 -19.29218 -14.08280
C  7.69792 -17.49775 -14.09257
C  2.98206 -13.03661 -14.08100
C  3.64414 -12.77183 -12.85912
C  7.98039 -15.40928 -12.87986
C  2.25656 -18.49978 -12.86277
C  3.47332 -19.22860 -12.86089
C  7.43338 -14.10058 -12.87275
C  1.52211 -14.56312 -12.86383
C  6.24234 -19.01009 -12.86411
C  7.33088 -18.10016 -12.86972
C  1.18903 -15.94141 -12.86494
C  5.05888 -12.66303 -12.85978
C  8.06782 -16.11677 -11.66653
C  6.96646 -13.57972 -11.64932
C  5.75503 -12.84576 -11.64309
C  1.89481 -13.96076 -11.64185
C  1.23225 -16.65096 -11.64658
C  1.78045 -17.96217 -11.64572
C  4.16989 -19.37242 -11.63938
C  5.58368 -19.25640 -11.63883
C  7.73002 -17.50116 -11.65828
C  2.98652 -13.05178 -11.63956
C  3.65468 -12.80296 -10.41864
C  8.05672 -15.40331 -10.45647
C  2.24801 -18.49518 -10.42478
C  3.47289 -19.20858 -10.42291
C  7.45431 -14.12288 -10.43897
C  1.51107 -14.56495 -10.42488
C  6.24824 -18.96638 -10.42326
C  7.36597 -18.09916 -10.43313
C  1.17112 -15.94296 -10.42632
C  5.06908 -12.70487 -10.41916
C  8.28118 -16.12491 -9.23281
C  7.00209 -13.58201 -9.21111
C  5.77179 -12.88883 -9.20408
C  1.89006 -13.96724 -9.20288
C  1.21751 -16.65299 -9.20673
C  1.76766 -17.96232 -9.20696
C  4.16967 -19.34539 -9.20218
C  5.57914 -19.21243 -9.19973
C  7.85249 -17.53494 -9.20825
C  2.99336 -13.07594 -9.20143
C  3.66372 -12.82454 -7.98242
C  8.25305 -15.35343 -7.98981
C  2.23543 -18.49839 -7.98606
C  3.46141 -19.20665 -7.98596
C  7.56451 -14.05496 -7.98271
C  1.50666 -14.56959 -7.98359
C  6.22902 -18.92820 -7.97671
C  7.34261 -18.05351 -7.96475
C  1.16292 -15.94559 -7.98429
C  5.07550 -12.73222 -7.98207
C  8.25749 -16.11744 -6.73944
C  7.00292 -13.57406 -6.74888
C  5.76815 -12.88754 -6.75988
C  1.88981 -13.96912 -6.76362
C  1.21408 -16.65601 -6.76366
C  1.75899 -17.96824 -6.76463
C  4.15124 -19.36106 -6.76602
C  5.55935 -19.21321 -6.76451
C  7.71121 -17.45411 -6.75243
C  2.99207 -13.07561 -6.76377
C  3.65233 -12.80455 -5.54617
C  8.13289 -15.35504 -5.51871
C  2.23054 -18.50623 -5.54516
C  3.45052 -19.22713 -5.54638
C  7.47074 -14.08022 -5.52918
C  1.51005 -14.56970 -5.54320
C  6.20657 -18.94141 -5.54327
C  7.28814 -18.03106 -5.53895
C  1.16722 -15.94679 -5.54288
C  5.06769 -12.70795 -5.54454
C  8.17012 -16.11479 -4.30092
C  6.97377 -13.57816 -4.31857
C  5.75471 -12.85642 -4.32214
C  1.89273 -13.96605 -4.32506
C  1.22409 -16.65599 -4.32210
C  1.76382 -17.96994 -4.32278
C  4.14736 -19.38433 -4.32700
C  5.55813 -19.24685 -4.32612
C  7.69757 -17.46701 -4.31263
C  2.98542 -13.05958 -4.32671
C  3.64501 -12.78405 -3.10674
C  8.04782 -15.39467 -3.07962
C  2.23772 -18.50767 -3.10373
C  3.45400 -19.23708 -3.10545
C  7.45499 -14.10505 -3.09173
C  1.51807 -14.56752 -3.10326
C  6.22157 -18.98511 -3.10859
C  7.31403 -18.07287 -3.10648
C  1.17975 -15.94547 -3.10220
C  5.05884 -12.67875 -3.10530
C  8.06007 -16.11189 -1.87034
C  6.97104 -13.56255 -1.88228
C  5.75318 -12.83141 -1.88525
C  1.89541 -13.96119 -1.88504
C  1.23504 -16.65392 -1.88214
C  1.77535 -17.96858 -1.88255
C  4.15446 -19.39553 -1.88832
C  5.56873 -19.27407 -1.89021
C  7.70545 -17.48842 -1.87931
C  2.98169 -13.04501 -1.88638
C  3.64234 -12.76915 -0.66773
C  7.97983 -15.40309 -0.65575
C  2.24954 -18.50595 -0.66417
C  3.46338 -19.23881 -0.66581
C  7.43537 -14.09268 -0.65973
C  1.52304 -14.56412 -0.66431
C  6.23181 -19.01193 -0.66978
C  7.31861 -18.09531 -0.66938
C  1.18873 -15.94338 -0.66344
C  5.05759 -12.65988 -0.66818
Pt 11.73039 -15.71867 -7.87337
Pt 10.15807 -15.90063 -5.67344
Pt  9.79820 -13.88318 -8.08495
Pt 12.34044 -13.23897 -8.67644
Pt 14.15192 -14.47071 -6.98340
Pt 11.78320 -13.67811 -6.04353
Pt 10.04828 -17.34012 -9.31156
Pt 12.75439 -16.23935 -5.36361
Pt 11.73382 -18.22400 -7.15051
Pt 14.13194 -17.10381 -7.57541
Pt 11.58629 -15.23577 -10.46356
Pt 12.63267 -17.64724 -9.75461
Pt 14.09884 -15.25991 -9.57974
C 12.31171 -11.17806 -9.45938
O 12.32301 -10.10903 -9.83133
C  8.01999 -16.11685  0.55702
C  6.96113 -13.55221  0.55571
C  5.74964 -12.81736  0.55475
C  1.89862 -13.95697  0.55447
C  1.24340 -16.65232  0.55614
C  1.78497 -17.96645  0.55634
C  4.16099 -19.40240  0.55298
C  5.57580 -19.29130  0.55033
C  7.69027 -17.49437  0.55304
C  2.98169 -13.03715  0.55399
C  3.64063 -12.76210  1.77488
C  7.96902 -15.40584  1.77091
C  2.25598 -18.50435  1.77509
C  3.46965 -19.23974  1.77498
C  7.42898 -14.09153  1.77254
C  1.52528 -14.56159  1.77450
C  6.23829 -19.02523  1.77167
C  7.32016 -18.10415  1.76980
C  1.19262 -15.94160  1.77447
C  5.05578 -12.65055  1.77430
C  8.02538 -16.11905  2.98200
C  6.96106 -13.55491  2.99035
C  5.75014 -12.81822  2.99384
C  1.89843 -13.95646  2.99427
C  1.24378 -16.65093  2.99313
C  1.78718 -17.96464  2.99347
C  4.16542 -19.39927  2.99524
C  5.58071 -19.29218  2.99370
C  7.69792 -17.49775  2.98393
C  2.98206 -13.03661  2.99550
C  3.64414 -12.77183  4.21738
C  7.98039 -15.40928  4.19664
C  2.25656 -18.49978  4.21373
C  3.47332 -19.22860  4.21561
C  7.43338 -14.10058  4.20375
C  1.52211 -14.56312  4.21267
C  6.24234 -19.01009  4.21239
C  7.33088 -18.10016  4.20678
C  1.18903 -15.94141  4.21156
C  5.05888 -12.66303  4.21672
C  8.06782 -16.11677  5.40997
C  6.96646 -13.57972  5.42718
C  5.75503 -12.84576  5.43341
C  1.89481 -13.96076  5.43465
C  1.23225 -16.65096  5.42992
C  1.78045 -17.96217  5.43078
C  4.16989 -19.37242  5.43712
C  5.58368 -19.25640  5.43767
C  7.73002 -17.50116  5.41822
C  2.98652 -13.05178  5.43694
C  3.65468 -12.80296  6.65786
C  8.05672 -15.40331  6.62003
C  2.24801 -18.49518  6.65172
C  3.47289 -19.20858  6.65359
C  7.45431 -14.12288  6.63753
C  1.51107 -14.56495  6.65162
C  6.24824 -18.96638  6.65324
C  7.36597 -18.09916  6.64337
C  1.17112 -15.94296  6.65018
C  5.06908 -12.70487  6.65734
C  8.28118 -16.12491  7.84369
C  7.00209 -13.58201  7.86539
C  5.77179 -12.88883  7.87242
C  1.89006 -13.96724  7.87362
C  1.21751 -16.65299  7.86977
C  1.76766 -17.96232  7.86954
C  4.16967 -19.34539  7.87432
C  5.57914 -19.21243  7.87677
C  7.85249 -17.53494  7.86825
C  2.99336 -13.07594  7.87507
C  3.66372 -12.82454  9.09408
C  8.25305 -15.35343  9.08669
C  2.23543 -18.49839  9.09044
C  3.46141 -19.20665  9.09054
C  7.56451 -14.05496  9.09379
C  1.50666 -14.56959  9.09291
C  6.22902 -18.92820  9.09979
C  7.34261 -18.05351  9.11175
C  1.16292 -15.94559  9.09221
C  5.07550 -12.73222  9.09443
C  8.25749 -16.11744 10.33706
C  7.00292 -13.57406 10.32762
C  5.76815 -12.88754 10.31662
C  1.88981 -13.96912 10.31288
C  1.21408 -16.65601 10.31284
C  1.75899 -17.96824 10.31187
C  4.15124 -19.36106 10.31048
C  5.55935 -19.21321 10.31199
C  7.71121 -17.45411 10.32407
C  2.99207 -13.07561 10.31273
C  3.65233 -12.80455 11.53033
C  8.13289 -15.35504 11.55779
C  2.23054 -18.50623 11.53134
C  3.45052 -19.22713 11.53012
C  7.47074 -14.08022 11.54732
C  1.51005 -14.56970 11.53330
C  6.20657 -18.94141 11.53323
C  7.28814 -18.03106 11.53755
C  1.16722 -15.94679 11.53362
C  5.06769 -12.70795 11.53196
C  8.17012 -16.11479 12.77558
C  6.97377 -13.57816 12.75793
C  5.75471 -12.85642 12.75436
C  1.89273 -13.96605 12.75144
C  1.22409 -16.65599 12.75440
C  1.76382 -17.96994 12.75372
C  4.14736 -19.38433 12.74950
C  5.55813 -19.24685 12.75038
C  7.69757 -17.46701 12.76387
C  2.98542 -13.05958 12.74979
C  3.64501 -12.78405 13.96976
C  8.04782 -15.39467 13.99688
C  2.23772 -18.50767 13.97277
C  3.45400 -19.23708 13.97105
C  7.45499 -14.10505 13.98477
C  1.51807 -14.56752 13.97324
C  6.22157 -18.98511 13.96791
C  7.31403 -18.07287 13.97002
C  1.17975 -15.94547 13.97430
C  5.05884 -12.67875 13.97120
C  8.06007 -16.11189 15.20616
C  6.97104 -13.56255 15.19422
C  5.75318 -12.83141 15.19125
C  1.89541 -13.96119 15.19146
C  1.23504 -16.65392 15.19436
C  1.77535 -17.96858 15.19395
C  4.15446 -19.39553 15.18818
C  5.56873 -19.27407 15.18629
C  7.70545 -17.48842 15.19719
C  2.98169 -13.04501 15.19012
C  3.64234 -12.76915 16.40877
C  7.97983 -15.40309 16.42075
C  2.24954 -18.50595 16.41233
C  3.46338 -19.23881 16.41069
C  7.43537 -14.09268 16.41677
C  1.52304 -14.56412 16.41219
C  6.23181 -19.01193 16.40672
C  7.31861 -18.09531 16.40712
C  1.18873 -15.94338 16.41306
C  5.05759 -12.65988 16.40832
Pt 11.73039 -15.71867  9.20313
Pt 10.15807 -15.90063 11.40306
Pt  9.79820 -13.88318  8.99155
Pt 12.34044 -13.23897  8.40006
Pt 14.15192 -14.47071 10.09310
Pt 11.78320 -13.67811 11.03297
Pt 10.04828 -17.34012  7.76494
Pt 12.75439 -16.23935 11.71289
Pt 11.73382 -18.22400  9.92599
Pt 14.13194 -17.10381  9.50109
Pt 11.58629 -15.23577  6.61294
Pt 12.63267 -17.64724  7.32189
Pt 14.09884 -15.25991  7.49676
C 12.31171 -11.17806  7.61712
O 12.32301 -10.10903  7.24517
C  8.01999 -16.11685 17.63352
C  6.96113 -13.55221 17.63221
C  5.74964 -12.81736 17.63125
C  1.89862 -13.95697 17.63097
C  1.24340 -16.65232 17.63264
C  1.78497 -17.96645 17.63284
C  4.16099 -19.40240 17.62948
C  5.57580 -19.29130 17.62683
C  7.69027 -17.49437 17.62954
C  2.98169 -13.03715 17.63049
C  3.64063 -12.76210 18.85138
C  7.96902 -15.40584 18.84741
C  2.25598 -18.50435 18.85159
C  3.46965 -19.23974 18.85148
C  7.42898 -14.09153 18.84904
C  1.52528 -14.56159 18.85100
C  6.23829 -19.02523 18.84817
C  7.32016 -18.10415 18.84630
C  1.19262 -15.94160 18.85097
C  5.05578 -12.65055 18.85080
C  8.02538 -16.11905 20.05850
C  6.96106 -13.55491 20.06685
C  5.75014 -12.81822 20.07034
C  1.89843 -13.95646 20.07077
C  1.24378 -16.65093 20.06963
C  1.78718 -17.96464 20.06997
C  4.16542 -19.39927 20.07174
C  5.58071 -19.29218 20.07020
C  7.69792 -17.49775 20.06043
C  2.98206 -13.03661 20.07200
C  3.64414 -12.77183 21.29388
C  7.98039 -15.40928 21.27314
C  2.25656 -18.49978 21.29023
C  3.47332 -19.22860 21.29211
C  7.43338 -14.10058 21.28025
C  1.52211 -14.56312 21.28917
C  6.24234 -19.01009 21.28889
C  7.33088 -18.10016 21.28328
C  1.18903 -15.94141 21.28806
C  5.05888 -12.66303 21.29322
C  8.06782 -16.11677 22.48647
C  6.96646 -13.57972 22.50368
C  5.75503 -12.84576 22.50991
C  1.89481 -13.96076 22.51115
C  1.23225 -16.65096 22.50642
C  1.78045 -17.96217 22.50728
C  4.16989 -19.37242 22.51362
C  5.58368 -19.25640 22.51417
C  7.73002 -17.50116 22.49472
C  2.98652 -13.05178 22.51344
C  3.65468 -12.80296 23.73436
C  8.05672 -15.40331 23.69653
C  2.24801 -18.49518 23.72822
C  3.47289 -19.20858 23.73009
C  7.45431 -14.12288 23.71403
C  1.51107 -14.56495 23.72812
C  6.24824 -18.96638 23.72974
C  7.36597 -18.09916 23.71987
C  1.17112 -15.94296 23.72668
C  5.06908 -12.70487 23.73384
C  8.28118 -16.12491 24.92019
C  7.00209 -13.58201 24.94189
C  5.77179 -12.88883 24.94892
C  1.89006 -13.96724 24.95012
C  1.21751 -16.65299 24.94627
C  1.76766 -17.96232 24.94604
C  4.16967 -19.34539 24.95082
C  5.57914 -19.21243 24.95327
C  7.85249 -17.53494 24.94475
C  2.99336 -13.07594 24.95157
C  3.66372 -12.82454 26.17058
C  8.25305 -15.35343 26.16319
C  2.23543 -18.49839 26.16694
C  3.46141 -19.20665 26.16704
C  7.56451 -14.05496 26.17029
C  1.50666 -14.56959 26.16941
C  6.22902 -18.92820 26.17629
C  7.34261 -18.05351 26.18825
C  1.16292 -15.94559 26.16871
C  5.07550 -12.73222 26.17093
C  8.25749 -16.11744 27.41356
C  7.00292 -13.57406 27.40412
C  5.76815 -12.88754 27.39312
C  1.88981 -13.96912 27.38938
C  1.21408 -16.65601 27.38934
C  1.75899 -17.96824 27.38837
C  4.15124 -19.36106 27.38698
C  5.55935 -19.21321 27.38849
C  7.71121 -17.45411 27.40057
C  2.99207 -13.07561 27.38923
C  3.65233 -12.80455 28.60683
C  8.13289 -15.35504 28.63429
C  2.23054 -18.50623 28.60784
C  3.45052 -19.22713 28.60662
C  7.47074 -14.08022 28.62382
C  1.51005 -14.56970 28.60980
C  6.20657 -18.94141 28.60973
C  7.28814 -18.03106 28.61405
C  1.16722 -15.94679 28.61012
C  5.06769 -12.70795 28.60846
C  8.17012 -16.11479 29.85208
C  6.97377 -13.57816 29.83443
C  5.75471 -12.85642 29.83086
C  1.89273 -13.96605 29.82794
C  1.22409 -16.65599 29.83090
C  1.76382 -17.96994 29.83022
C  4.14736 -19.38433 29.82600
C  5.55813 -19.24685 29.82688
C  7.69757 -17.46701 29.84037
C  2.98542 -13.05958 29.82629
C  3.64501 -12.78405 31.04626
C  8.04782 -15.39467 31.07338
C  2.23772 -18.50767 31.04927
C  3.45400 -19.23708 31.04755
C  7.45499 -14.10505 31.06127
C  1.51807 -14.56752 31.04974
C  6.22157 -18.98511 31.04441
C  7.31403 -18.07287 31.04652
C  1.17975 -15.94547 31.05080
C  5.05884 -12.67875 31.04770
C  8.06007 -16.11189 32.28266
C  6.97104 -13.56255 32.27072
C  5.75318 -12.83141 32.26775
C  1.89541 -13.96119 32.26796
C  1.23504 -16.65392 32.27086
C  1.77535 -17.96858 32.27045
C  4.15446 -19.39553 32.26468
C  5.56873 -19.27407 32.26279
C  7.70545 -17.48842 32.27369
C  2.98169 -13.04501 32.26662
C  3.64234 -12.76915 33.48527
C  7.97983 -15.40309 33.49725
C  2.24954 -18.50595 33.48883
C  3.46338 -19.23881 33.48719
C  7.43537 -14.09268 33.49327
C  1.52304 -14.56412 33.48869
C  6.23181 -19.01193 33.48322
C  7.31861 -18.09531 33.48362
C  1.18873 -15.94338 33.48956
C  5.05759 -12.65988 33.48482
Pt 11.73039 -15.71867 26.27963
Pt 10.15807 -15.90063 28.47956
Pt  9.79820 -13.88318 26.06805
Pt 12.34044 -13.23897 25.47656
Pt 14.15192 -14.47071 27.16960
Pt 11.78320 -13.67811 28.10947
Pt 10.04828 -17.34012 24.84144
Pt 12.75439 -16.23935 28.78939
Pt 11.73382 -18.22400 27.00249
Pt 14.13194 -17.10381 26.57759
Pt 11.58629 -15.23577 23.68944
Pt 12.63267 -17.64724 24.39839
Pt 14.09884 -15.25991 24.57326
C 12.31171 -11.17806 24.69362
O 12.32301 -10.10903 24.32167
C  8.01999  7.88315 -16.51948
C  6.96113 10.44779 -16.52079
C  5.74964 11.18264 -16.52175
C  1.89862 10.04303 -16.52203
C  1.24340  7.34768 -16.52036
C  1.78497  6.03355 -16.52016
C  4.16099  4.59760 -16.52352
C  5.57580  4.70870 -16.52617
C  7.69027  6.50563 -16.52346
C  2.98169 10.96285 -16.52251
C  3.64063 11.23790 -15.30162
C  7.96902  8.59416 -15.30559
C  2.25598  5.49565 -15.30141
C  3.46965  4.76026 -15.30152
C  7.42898  9.90847 -15.30396
C  1.52528  9.43841 -15.30200
C  6.23829  4.97477 -15.30483
C  7.32016  5.89585 -15.30670
C  1.19262  8.05840 -15.30203
C  5.05578 11.34945 -15.30220
C  8.02538  7.88095 -14.09450
C  6.96106 10.44509 -14.08615
C  5.75014 11.18178 -14.08266
C  1.89843 10.04354 -14.08223
C  1.24378  7.34907 -14.08337
C  1.78718  6.03536 -14.08303
C  4.16542  4.60073 -14.08126
C  5.58071  4.70782 -14.08280
C  7.69792  6.50225 -14.09257
C  2.98206 10.96339 -14.08100
C  3.64414 11.22817 -12.85912
C  7.98039  8.59072 -12.87986
C  2.25656  5.50022 -12.86277
C  3.47332  4.77140 -12.86089
C  7.43338  9.89942 -12.87275
C  1.52211  9.43688 -12.86383
C  6.24234  4.98991 -12.86411
C  7.33088  5.89984 -12.86972
C  1.18903  8.05859 -12.86494
C  5.05888 11.33697 -12.85978
C  8.06782  7.88323 -11.66653
C  6.96646 10.42028 -11.64932
C  5.75503 11.15424 -11.64309
C  1.89481 10.03924 -11.64185
C  1.23225  7.34904 -11.64658
C  1.78045  6.03783 -11.64572
C  4.16989  4.62758 -11.63938
C  5.58368  4.74360 -11.63883
C  7.73002  6.49884 -11.65828
C  2.98652 10.94822 -11.63956
C  3.65468 11.19704 -10.41864
C  8.05672  8.59669 -10.45647
C  2.24801  5.50482 -10.42478
C  3.47289  4.79142 -10.42291
C  7.45431  9.87712 -10.43897
C  1.51107  9.43505 -10.42488
C  6.24824  5.03362 -10.42326
C  7.36597  5.90084 -10.43313
C  1.17112  8.05704 -10.42632
C  5.06908 11.29513 -10.41916
C  8.28118  7.87509 -9.23281
C  7.00209 10.41799 -9.21111
C  5.77179 11.11117 -9.20408
C  1.89006 10.03276 -9.20288
C  1.21751  7.34701 -9.20673
C  1.76766  6.03768 -9.20696
C  4.16967  4.65461 -9.20218
C  5.57914  4.78757 -9.19973
C  7.85249  6.46506 -9.20825
C  2.99336 10.92406 -9.20143
C  3.66372 11.17546 -7.98242
C  8.25305  8.64657 -7.98981
C  2.23543  5.50161 -7.98606
C  3.46141  4.79335 -7.98596
C  7.56451  9.94504 -7.98271
C  1.50666  9.43041 -7.98359
C  6.22902  5.07180 -7.97671
C  7.34261  5.94649 -7.96475
C  1.16292  8.05441 -7.98429
C  5.07550 11.26778 -7.98207
C  8.25749  7.88256 -6.73944
C  7.00292 10.42594 -6.74888
C  5.76815 11.11246 -6.75988
C  1.88981 10.03088 -6.76362
C  1.21408  7.34399 -6.76366
C  1.75899  6.03176 -6.76463
C  4.15124  4.63894 -6.76602
C  5.55935  4.78679 -6.76451
C  7.71121  6.54589 -6.75243
C  2.99207 10.92439 -6.76377
C  3.65233 11.19545 -5.54617
C  8.13289  8.64496 -5.51871
C  2.23054  5.49377 -5.54516
C  3.45052  4.77287 -5.54638
C  7.47074  9.91978 -5.52918
C  1.51005  9.43030 -5.54320
C  6.20657  5.05859 -5.54327
C  7.28814  5.96894 -5.53895
C  1.16722  8.05321 -5.54288
C  5.06769 11.29205 -5.54454
C  8.17012  7.88521 -4.30092
C  6.97377 10.42184 -4.31857
C  5.75471 11.14358 -4.32214
C  1.89273 10.03395 -4.32506
C  1.22409  7.34401 -4.32210
C  1.76382  6.03006 -4.32278
C  4.14736  4.61567 -4.32700
C  5.55813  4.75315 -4.32612
C  7.69757  6.53299 -4.31263
C  2.98542 10.94042 -4.32671
C  3.64501 11.21595 -3.10674
C  8.04782  8.60533 -3.07962
C  2.23772  5.49233 -3.10373
C  3.45400  4.76292 -3.10545
C  7.45499  9.89495 -3.09173
C  1.51807  9.43248 -3.10326
C  6.22157  5.01489 -3.10859
C  7.31403  5.92713 -3.10648
C  1.17975  8.05453 -3.10220
C  5.05884 11.32125 -3.10530
C  8.06007  7.88811 -1.87034
C  6.97104 10.43745 -1.88228
C  5.75318 11.16859 -1.88525
C  1.89541 10.03881 -1.88504
C  1.23504  7.34608 -1.88214
C  1.77535  6.03142 -1.88255
C  4.15446  4.60447 -1.88832
C  5.56873  4.72593 -1.89021
C  7.70545  6.51158 -1.87931
C  2.98169 10.95499 -1.88638
C  3.64234 11.23085 -0.66773
C  7.97983  8.59691 -0.65575
C  2.24954  5.49405 -0.66417
C  3.46338  4.76119 -0.66581
C  7.43537  9.90732 -0.65973
C  1.52304  9.43588 -0.66431
C  6.23181  4.98807 -0.66978
C  7.31861  5.90469 -0.66938
C  1.18873  8.05662 -0.66344
C  5.05759 11.34012 -0.66818
Pt 11.73039  8.28133 -7.87337
Pt 10.15807  8.09937 -5.67344
Pt  9.79820 10.11682 -8.08495
Pt 12.34044 10.76103 -8.67644
Pt 14.15192  9.52929 -6.98340
Pt 11.78320 10.32189 -6.04353
Pt 10.04828  6.65988 -9.31156
Pt 12.75439  7.76065 -5.36361
Pt 11.73382  5.77600 -7.15051
Pt 14.13194  6.89619 -7.57541
Pt 11.58629  8.76423 -10.46356
Pt 12.63267  6.35276 -9.75461
Pt 14.09884  8.74009 -9.57974
C 12.31171 12.82194 -9.45938
O 12.32301 13.89097 -9.83133
C  8.01999  7.88315  0.55702
C  6.96113 10.44779  0.55571
C  5.74964 11.18264  0.55475
C  1.89862 10.04303  0.55447
C  1.24340  7.34768  0.55614
C  1.78497  6.03355  0.55634
C  4.16099  4.59760  0.55298
C  5.57580  4.70870  0.55033
C  7.69027  6.50563  0.55304
C  2.98169 10.96285  0.55399
C  3.64063 11.23790  1.77488
C  7.96902  8.59416  1.77091
C  2.25598  5.49565  1.77509
C  3.46965  4.76026  1.77498
C  7.42898  9.90847  1.77254
C  1.52528  9.43841  1.77450
C  6.23829  4.97477  1.77167
C  7.32016  5.89585  1.76980
C  1.19262  8.05840  1.77447
C  5.05578 11.34945  1.77430
C  8.02538  7.88095  2.98200
C  6.96106 10.44509  2.99035
C  5.75014 11.18178  2.99384
C  1.89843 10.04354  2.99427
C  1.24378  7.34907  2.99313
C  1.78718  6.03536  2.99347
C  4.16542  4.60073  2.99524
C  5.58071  4.70782  2.99370
C  7.69792  6.50225  2.98393
C  2.98206 10.96339  2.99550
C  3.64414 11.22817  4.21738
C  7.98039  8.59072  4.19664
C  2.25656  5.50022  4.21373
C  3.47332  4.77140  4.21561
C  7.43338  9.89942  4.20375
C  1.52211  9.43688  4.21267
C  6.24234  4.98991  4.21239
C  7.33088  5.89984  4.20678
C  1.18903  8.05859  4.21156
C  5.05888 11.33697  4.21672
C  8.06782  7.88323  5.40997
C  6.96646 10.42028  5.42718
C  5.75503 11.15424  5.43341
C  1.89481 10.03924  5.43465
C  1.23225  7.34904  5.42992
C  1.78045  6.03783  5.43078
C  4.16989  4.62758  5.43712
C  5.58368  4.74360  5.43767
C  7.73002  6.49884  5.41822
C  2.98652 10.94822  5.43694
C  3.65468 11.19704  6.65786
C  8.05672  8.59669  6.62003
C  2.24801  5.50482  6.65172
C  3.47289  4.79142  6.65359
C  7.45431  9.87712  6.63753
C  1.51107  9.43505  6.65162
C  6.24824  5.03362  6.65324
C  7.36597  5.90084  6.64337
C  1.17112  8.05704  6.65018
C  5.06908 11.29513  6.65734
C  8.28118  7.87509  7.84369
C  7.00209 10.41799  7.86539
C  5.77179 11.11117  7.87242
C  1.89006 10.03276  7.87362
C  1.21751  7.34701  7.86977
C  1.76766  6.03768  7.86954
C  4.16967  4.65461  7.87432
C  5.57914  4.78757  7.87677
C  7.85249  6.46506  7.86825
C  2.99336 10.92406  7.87507
C  3.66372 11.17546  9.09408
C  8.25305  8.64657  9.08669
C  2.23543  5.50161  9.09044
C  3.46141  4.79335  9.09054
C  7.56451  9.94504  9.09379
C  1.50666  9.43041  9.09291
C  6.22902  5.07180  9.09979
C  7.34261  5.94649  9.11175
C  1.16292  8.05441  9.09221
C  5.07550 11.26778  9.09443
C  8.25749  7.88256 10.33706
C  7.00292 10.42594 10.32762
C  5.76815 11.11246 10.31662
C  1.88981 10.03088 10.31288
C  1.21408  7.34399 10.31284
C  1.75899  6.03176 10.31187
C  4.15124  4.63894 10.31048
C  5.55935  4.78679 10.31199
C  7.71121  6.54589 10.32407
C  2.99207 10.92439 10.31273
C  3.65233 11.19545 11.53033
C  8.13289  8.64496 11.55779
C  2.23054  5.49377 11.53134
C  3.45052  4.77287 11.53012
C  7.47074  9.91978 11.54732
C  1.51005  9.43030 11.53330
C  6.20657  5.05859 11.53323
C  7.28814  5.96894 11.53755
C  1.16722  8.05321 11.53362
C  5.06769 11.29205 11.53196
C  8.17012  7.88521 12.77558
C  6.97377 10.42184 12.75793
C  5.75471 11.14358 12.75436
C  1.89273 10.03395 12.75144
C  1.22409  7.34401 12.75440
C  1.76382  6.03006 12.75372
C  4.14736  4.61567 12.74950
C  5.55813  4.75315 12.75038
C  7.69757  6.53299 12.76387
C  2.98542 10.94042 12.74979
C  3.64501 11.21595 13.96976
C  8.04782  8.60533 13.99688
C  2.23772  5.49233 13.97277
C  3.45400  4.76292 13.97105
C  7.45499  9.89495 13.98477
C  1.51807  9.43248 13.97324
C  6.22157  5.01489 13.96791
C  7.31403  5.92713 13.97002
C  1.17975  8.05453 13.97430
C  5.05884 11.32125 13.97120
C  8.06007  7.88811 15.20616
C  6.97104 10.43745 15.19422
C  5.75318 11.16859 15.19125
C  1.89541 10.03881 15.19146
C  1.23504  7.34608 15.19436
C  1.77535  6.03142 15.19395
C  4.15446  4.60447 15.18818
C  5.56873  4.72593 15.18629
C  7.70545  6.51158 15.19719
C  2.98169 10.95499 15.19012
C  3.64234 11.23085 16.40877
C  7.97983  8.59691 16.42075
C  2.24954  5.49405 16.41233
C  3.46338  4.76119 16.41069
C  7.43537  9.90732 16.41677
C  1.52304  9.43588 16.41219
C  6.23181  4.98807 16.40672
C  7.31861  5.90469 16.40712
C  1.18873  8.05662 16.41306
C  5.05759 11.34012 16.40832
Pt 11.73039  8.28133  9.20313
Pt 10.15807  8.09937 11.40306
Pt  9.79820 10.11682  8.99155
Pt 12.34044 10.76103  8.40006
Pt 14.15192  9.52929 10.09310
Pt 11.78320 10.32189 11.03297
Pt 10.04828  6.65988  7.76494
Pt 12.75439  7.76065 11.71289
Pt 11.73382  5.77600  9.92599
Pt 14.13194  6.89619  9.50109
Pt 11.58629  8.76423  6.61294
Pt 12.63267  6.35276  7.32189
Pt 14.09884  8.74009  7.49676
C 12.31171 12.82194  7.61712
O 12.32301 13.89097  7.24517
C  8.01999  7.88315 17.63352
C  6.96113 10.44779 17.63221
C  5.74964 11.18264 17.63125
C  1.89862 10.04303 17.63097
C  1.24340  7.34768 17.63264
C  1.78497  6.03355 17.63284
C  4.16099  4.59760 17.62948
C  5.57580  4.70870 17.62683
C  7.69027  6.50563 17.62954
C  2.98169 10.96285 17.63049
C  3.64063 11.23790 18.85138
C  7.96902  8.59416 18.84741
C  2.25598  5.49565 18.85159
C  3.46965  4.76026 18.85148
C  7.42898  9.90847 18.84904
C  1.52528  9.43841 18.85100
C  6.23829  4.97477 18.84817
C  7.32016  5.89585 18.84630
C  1.19262  8.05840 18.85097
C  5.05578 11.34945 18.85080
C  8.02538  7.88095 20.05850
C  6.96106 10.44509 20.06685
C  5.75014 11.18178 20.07034
C  1.89843 10.04354 20.07077
C  1.24378  7.34907 20.06963
C  1.78718  6.03536 20.06997
C  4.16542  4.60073 20.07174
C  5.58071  4.70782 20.07020
C  7.69792  6.50225 20.06043
C  2.98206 10.96339 20.07200
C  3.64414 11.22817 21.29388
C  7.98039  8.59072 21.27314
C  2.25656  5.50022 21.29023
C  3.47332  4.77140 21.29211
C  7.43338  9.89942 21.28025
C  1.52211  9.43688 21.28917
C  6.24234  4.98991 21.28889
C  7.33088  5.89984 21.28328
C  1.18903  8.05859 21.28806
C  5.05888 11.33697 21.29322
C  8.06782  7.88323 22.48647
C  6.96646 10.42028 22.50368
C  5.75503 11.15424 22.50991
C  1.89481 10.03924 22.51115
C  1.23225  7.34904 22.50642
C  1.78045  6.03783 22.50728
C  4.16989  4.62758 22.51362
C  5.58368  4.74360 22.51417
C  7.73002  6.49884 22.49472
C  2.98652 10.94822 22.51344
C  3.65468 11.19704 23.73436
C  8.05672  8.59669 23.69653
C  2.24801  5.50482 23.72822
C  3.47289  4.79142 23.73009
C  7.45431  9.87712 23.71403
C  1.51107  9.43505 23.72812
C  6.24824  5.03362 23.72974
C  7.36597  5.90084 23.71987
C  1.17112  8.05704 23.72668
C  5.06908 11.29513 23.73384
C  8.28118  7.87509 24.92019
C  7.00209 10.41799 24.94189
C  5.77179 11.11117 24.94892
C  1.89006 10.03276 24.95012
C  1.21751  7.34701 24.94627
C  1.76766  6.03768 24.94604
C  4.16967  4.65461 24.95082
C  5.57914  4.78757 24.95327
C  7.85249  6.46506 24.94475
C  2.99336 10.92406 24.95157
C  3.66372 11.17546 26.17058
C  8.25305  8.64657 26.16319
C  2.23543  5.50161 26.16694
C  3.46141  4.79335 26.16704
C  7.56451  9.94504 26.17029
C  1.50666  9.43041 26.16941
C  6.22902  5.07180 26.17629
C  7.34261  5.94649 26.18825
C  1.16292  8.05441 26.16871
C  5.07550 11.26778 26.17093
C  8.25749  7.88256 27.41356
C  7.00292 10.42594 27.40412
C  5.76815 11.11246 27.39312
C  1.88981 10.03088 27.38938
C  1.21408  7.34399 27.38934
C  1.75899  6.03176 27.38837
C  4.15124  4.63894 27.38698
C  5.55935  4.78679 27.38849
C  7.71121  6.54589 27.40057
C  2.99207 10.92439 27.38923
C  3.65233 11.19545 28.60683
C  8.13289  8.64496 28.63429
C  2.23054  5.49377 28.60784
C  3.45052  4.77287 28.60662
C  7.47074  9.91978 28.62382
C  1.51005  9.43030 28.60980
C  6.20657  5.05859 28.60973
C  7.28814  5.96894 28.61405
C  1.16722  8.05321 28.61012
C  5.06769 11.29205 28.60846
C  8.17012  7.88521 29.85208
C  6.97377 10.42184 29.83443
C  5.75471 11.14358 29.83086
C  1.89273 10.03395 29.82794
C  1.22409  7.34401 29.83090
C  1.76382  6.03006 29.83022
C  4.14736  4.61567 29.82600
C  5.55813  4.75315 29.82688
C  7.69757  6.53299 29.84037
C  2.98542 10.94042 29.82629
C  3.64501 11.21595 31.04626
C  8.04782  8.60533 31.07338
C  2.23772  5.49233 31.04927
C  3.45400  4.76292 31.04755
C  7.45499  9.89495 31.06127
C  1.51807  9.43248 31.04974
C  6.22157  5.01489 31.04441
C  7.31403  5.92713 31.04652
C  1.17975  8.05453 31.05080
C  5.05884 11.32125 31.04770
C  8.06007  7.88811 32.28266
C  6.97104 10.43745 32.27072
C  5.75318 11.16859 32.26775
C  1.89541 10.03881 32.26796
C  1.23504  7.34608 32.27086
C  1.77535  6.03142 32.27045
C  4.15446  4.60447 32.26468
C  5.56873  4.72593 32.26279
C  7.70545  6.51158 32.27369
C  2.98169 10.95499 32.26662
C  3.64234 11.23085 33.48527
C  7.97983  8.59691 33.49725
C  2.24954  5.49405 33.48883
C  3.46338  4.76119 33.48719
C  7.43537  9.90732 33.49327
C  1.52304  9.43588 33.48869
C  6.23181  4.98807 33.48322
C  7.31861  5.90469 33.48362
C  1.18873  8.05662 33.48956
C  5.05759 11.34012 33.48482
Pt 11.73039  8.28133 26.27963
Pt 10.15807  8.09937 28.47956
Pt  9.79820 10.11682 26.06805
Pt 12.34044 10.76103 25.47656
Pt 14.15192  9.52929 27.16960
Pt 11.78320 10.32189 28.10947
Pt 10.04828  6.65988 24.84144
Pt 12.75439  7.76065 28.78939
Pt 11.73382  5.77600 27.00249
Pt 14.13194  6.89619 26.57759
Pt 11.58629  8.76423 23.68944
Pt 12.63267  6.35276 24.39839
Pt 14.09884  8.74009 24.57326
C 12.31171 12.82194 24.69362
O 12.32301 13.89097 24.32167
C  8.01999 31.88315 -16.51948
C  6.96113 34.44779 -16.52079
C  5.74964 35.18264 -16.52175
C  1.89862 34.04303 -16.52203
C  1.24340 31.34768 -16.52036
C  1.78497 30.03355 -16.52016
C  4.16099 28.59760 -16.52352
C  5.57580 28.70870 -16.52617
C  7.69027 30.50563 -16.52346
C  2.98169 34.96285 -16.52251
C  3.64063 35.23790 -15.30162
C  7.96902 32.59416 -15.30559
C  2.25598 29.49565 -15.30141
C  3.46965 28.76026 -15.30152
C  7.42898 33.90847 -15.30396
C  1.52528 33.43841 -15.30200
C  6.23829 28.97477 -15.30483
C  7.32016 29.89585 -15.30670
C  1.19262 32.05840 -15.30203
C  5.05578 35.34945 -15.30220
C  8.02538 31.88095 -14.09450
C  6.96106 34.44509 -14.08615
C  5.75014 35.18178 -14.08266
C  1.89843 34.04354 -14.08223
C  1.24378 31.34907 -14.08337
C  1.78718 30.03536 -14.08303
C  4.16542 28.60073 -14.08126
C  5.58071 28.70782 -14.08280
C  7.69792 30.50225 -14.09257
C  2.98206 34.96339 -14.08100
C  3.64414 35.22817 -12.85912
C  7.98039 32.59072 -12.87986
C  2.25656 29.50022 -12.86277
C  3.47332 28.77140 -12.86089
C  7.43338 33.89942 -12.87275
C  1.52211 33.43688 -12.86383
C  6.24234 28.98991 -12.86411
C  7.33088 29.89984 -12.86972
C  1.18903 32.05859 -12.86494
C  5.05888 35.33697 -12.85978
C  8.06782 31.88323 -11.66653
C  6.96646 34.42028 -11.64932
C  5.75503 35.15424 -11.64309
C  1.89481 34.03924 -11.64185
C  1.23225 31.34904 -11.64658
C  1.78045 30.03783 -11.64572
C  4.16989 28.62758 -11.63938
C  5.58368 28.74360 -11.63883
C  7.73002 30.49884 -11.65828
C  2.98652 34.94822 -11.63956
C  3.65468 35.19704 -10.41864
C  8.05672 32.59669 -10.45647
C  2.24801 29.50482 -10.42478
C  3.47289 28.79142 -10.42291
C  7.45431 33.87712 -10.43897
C  1.51107 33.43505 -10.42488
C  6.24824 29.03362 -10.42326
C  7.36597 29.90084 -10.43313
C  1.17112 32.05704 -10.42632
C  5.06908 35.29513 -10.41916
C  8.28118 31.87509 -9.23281
C  7.00209 34.41799 -9.21111
C  5.77179 35.11117 -9.20408
C  1.89006 34.03276 -9.20288
C  1.21751 31.34701 -9.20673
C  1.76766 30.03768 -9.20696
C  4.16967 28.65461 -9.20218
C  5.57914 28.78757 -9.19973
C  7.85249 30.46506 -9.20825
C  2.99336 34.92406 -9.20143
C  3.66372 35.17546 -7.98242
C  8.25305 32.64657 -7.98981
C  2.23543 29.50161 -7.98606
C  3.46141 28.79335 -7.98596
C  7.56451 33.94504 -7.98271
C  1.50666 33.43041 -7.98359
C  6.22902 29.07180 -7.97671
C  7.34261 29.94649 -7.96475
C  1.16292 32.05441 -7.98429
C  5.07550 35.26778 -7.98207
C  8.25749 31.88256 -6.73944
C  7.00292 34.42594 -6.74888
C  5.76815 35.11246 -6.75988
C  1.88981 34.03088 -6.76362
C  1.21408 31.34399 -6.76366
C  1.75899 30.03176 -6.76463
C  4.15124 28.63894 -6.76602
C  5.55935 28.78679 -6.76451
C  7.71121 30.54589 -6.75243
C  2.99207 34.92439 -6.76377
C  3.65233 35.19545 -5.54617
C  8.13289 32.64496 -5.51871
C  2.23054 29.49377 -5.54516
C  3.45052 28.77287 -5.54638
C  7.47074 33.91978 -5.52918
C  1.51005 33.43030 -5.54320
C  6.20657 29.05859 -5.54327
C  7.28814 29.96894 -5.53895
C  1.16722 32.05321 -5.54288
C  5.06769 35.29205 -5.54454
C  8.17012 31.88521 -4.30092
C  6.97377 34.42184 -4.31857
C  5.75471 35.14358 -4.32214
C  1.89273 34.03395 -4.32506
C  1.22409 31.34401 -4.32210
C  1.76382 30.03006 -4.32278
C  4.14736 28.61567 -4.32700
C  5.55813 28.75315 -4.32612
C  7.69757 30.53299 -4.31263
C  2.98542 34.94042 -4.32671
C  3.64501 35.21595 -3.10674
C  8.04782 32.60533 -3.07962
C  2.23772 29.49233 -3.10373
C  3.45400 28.76292 -3.10545
C  7.45499 33.89495 -3.09173
C  1.51807 33.43248 -3.10326
C  6.22157 29.01489 -3.10859
C  7.31403 29.92713 -3.10648
C  1.17975 32.05453 -3.10220
C  5.05884 35.32125 -3.10530
C  8.06007 31.88811 -1.87034
C  6.97104 34.43745 -1.88228
C  5.75318 35.16859 -1.88525
C  1.89541 34.03881 -1.88504
C  1.23504 31.34608 -1.88214
C  1.77535 30.03142 -1.88255
C  4.15446 28.60447 -1.88832
C  5.56873 28.72593 -1.89021
C  7.70545 30.51158 -1.87931
C  2.98169 34.95499 -1.88638
C  3.64234 35.23085 -0.66773
C  7.97983 32.59691 -0.65575
C  2.24954 29.49405 -0.66417
C  3.46338 28.76119 -0.66581
C  7.43537 33.90732 -0.65973
C  1.52304 33.43588 -0.66431
C  6.23181 28.98807 -0.66978
C  7.31861 29.90469 -0.66938
C  1.18873 32.05662 -0.66344
C  5.05759 35.34012 -0.66818
Pt 11.73039 32.28133 -7.87337
Pt 10.15807 32.09937 -5.67344
Pt  9.79820 34.11682 -8.08495
Pt 12.34044 34.76103 -8.67644
Pt 14.15192 33.52929 -6.98340
Pt 11.78320 34.32189 -6.04353
Pt 10.04828 30.65988 -9.31156
Pt 12.75439 31.76065 -5.36361
Pt 11.73382 29.77600 -7.15051
Pt 14.13194 30.89619 -7.57541
Pt 11.58629 32.76423 -10.46356
Pt 12.63267 30.35276 -9.75461
Pt 14.09884 32.74009 -9.57974
C 12.31171 36.82194 -9.45938
O 12.32301 37.89097 -9.83133
C  8.01999 31.88315  0.55702
C  6.96113 34.44779  0.55571
C  5.74964 35.18264  0.55475
C  1.89862 34.04303  0.55447
C  1.24340 31.34768  0.55614
C  1.78497 30.03355  0.55634
C  4.16099 28.59760  0.55298
C  5.57580 28.70870  0.55033
C  7.69027 30.50563  0.55304
C  2.98169 34.96285  0.55399
C  3.64063 35.23790  1.77488
C  7.96902 32.59416  1.77091
C  2.25598 29.49565  1.77509
C  3.46965 28.76026  1.77498
C  7.42898 33.90847  1.77254
C  1.52528 33.43841  1.77450
C  6.23829 28.97477  1.77167
C  7.32016 29.89585  1.76980
C  1.19262 32.05840  1.77447
C  5.05578 35.34945  1.77430
C  8.02538 31.88095  2.98200
C  6.96106 34.44509  2.99035
C  5.75014 35.18178  2.99384
C  1.89843 34.04354  2.99427
C  1.24378 31.34907  2.99313
C  1.78718 30.03536  2.99347
C  4.16542 28.60073  2.99524
C  5.58071 28.70782  2.99370
C  7.69792 30.50225  2.98393
C  2.98206 34.96339  2.99550
C  3.64414 35.22817  4.21738
C  7.98039 32.59072  4.19664
C  2.25656 29.50022  4.21373
C  3.47332 28.77140  4.21561
C  7.43338 33.89942  4.20375
C  1.52211 33.43688  4.21267
C  6.24234 28.98991  4.21239
C  7.33088 29.89984  4.20678
C  1.18903 32.05859  4.21156
C  5.05888 35.33697  4.21672
C  8.06782 31.88323  5.40997
C  6.96646 34.42028  5.42718
C  5.75503 35.15424  5.43341
C  1.89481 34.03924  5.43465
C  1.23225 31.34904  5.42992
C  1.78045 30.03783  5.43078
C  4.16989 28.62758  5.43712
C  5.58368 28.74360  5.43767
C  7.73002 30.49884  5.41822
C  2.98652 34.94822  5.43694
C  3.65468 35.19704  6.65786
C  8.05672 32.59669  6.62003
C  2.24801 29.50482  6.65172
C  3.47289 28.79142  6.65359
C  7.45431 33.87712  6.63753
C  1.51107 33.43505  6.65162
C  6.24824 29.03362  6.65324
C  7.36597 29.90084  6.64337
C  1.17112 32.05704  6.65018
C  5.06908 35.29513  6.65734
C  8.28118 31.87509  7.84369
C  7.00209 34.41799  7.86539
C  5.77179 35.11117  7.87242
C  1.89006 34.03276  7.87362
C  1.21751 31.34701  7.86977
C  1.76766 30.03768  7.86954
C  4.16967 28.65461  7.87432
C  5.57914 28.78757  7.87677
C  7.85249 30.46506  7.86825
C  2.99336 34.92406  7.87507
C  3.66372 35.17546  9.09408
C  8.25305 32.64657  9.08669
C  2.23543 29.50161  9.09044
C  3.46141 28.79335  9.09054
C  7.56451 33.94504  9.09379
C  1.50666 33.43041  9.09291
C  6.22902 29.07180  9.09979
C  7.34261 29.94649  9.11175
C  1.16292 32.05441  9.09221
C  5.07550 35.26778  9.09443
C  8.25749 31.88256 10.33706
C  7.00292 34.42594 10.32762
C  5.76815 35.11246 10.31662
C  1.88981 34.03088 10.31288
C  1.21408 31.34399 10.31284
C  1.75899 30.03176 10.31187
C  4.15124 28.63894 10.31048
C  5.55935 28.78679 10.31199
C  7.71121 30.54589 10.32407
C  2.99207 34.92439 10.31273
C  3.65233 35.19545 11.53033
C  8.13289 32.64496 11.55779
C  2.23054 29.49377 11.53134
C  3.45052 28.77287 11.53012
C  7.47074 33.91978 11.54732
C  1.51005 33.43030 11.53330
C  6.20657 29.05859 11.53323
C  7.28814 29.96894 11.53755
C  1.16722 32.05321 11.53362
C  5.06769 35.29205 11.53196
C  8.17012 31.88521 12.77558
C  6.97377 34.42184 12.75793
C  5.75471 35.14358 12.75436
C  1.89273 34.03395 12.75144
C  1.22409 31.34401 12.75440
C  1.76382 30.03006 12.75372
C  4.14736 28.61567 12.74950
C  5.55813 28.75315 12.75038
C  7.69757 30.53299 12.76387
C  2.98542 34.94042 12.74979
C  3.64501 35.21595 13.96976
C  8.04782 32.60533 13.99688
C  2.23772 29.49233 13.97277
C  3.45400 28.76292 13.97105
C  7.45499 33.89495 13.98477
C  1.51807 33.43248 13.97324
C  6.22157 29.01489 13.96791
C  7.31403 29.92713 13.97002
C  1.17975 32.05453 13.97430
C  5.05884 35.32125 13.97120
C  8.06007 31.88811 15.20616
C  6.97104 34.43745 15.19422
C  5.75318 35.16859 15.19125
C  1.89541 34.03881 15.19146
C  1.23504 31.34608 15.19436
C  1.77535 30.03142 15.19395
C  4.15446 28.60447 15.18818
C  5.56873 28.72593 15.18629
C  7.70545 30.51158 15.19719
C  2.98169 34.95499 15.19012
C  3.64234 35.23085 16.40877
C  7.97983 32.59691 16.42075
C  2.24954 29.49405 16.41233
C  3.46338 28.76119 16.41069
C  7.43537 33.90732 16.41677
C  1.52304 33.43588 16.41219
C  6.23181 28.98807 16.40672
C  7.31861 29.90469 16.40712
C  1.18873 32.05662 16.41306
C  5.05759 35.34012 16.40832
Pt 11.73039 32.28133  9.20313
Pt 10.15807 32.09937 11.40306
Pt  9.79820 34.11682  8.99155
Pt 12.34044 34.76103  8.40006
Pt 14.15192 33.52929 10.09310
Pt 11.78320 34.32189 11.03297
Pt 10.04828 30.65988  7.76494
Pt 12.75439 31.76065 11.71289
Pt 11.73382 29.77600  9.92599
Pt 14.13194 30.89619  9.50109
Pt 11.58629 32.76423  6.61294
Pt 12.63267 30.35276  7.32189
Pt 14.09884 32.74009  7.49676
C 12.31171 36.82194  7.61712
O 12.32301 37.89097  7.24517
C  8.01999 31.88315 17.63352
C  6.96113 34.44779 17.63221
C  5.74964 35.18264 17.63125
C  1.89862 34.04303 17.63097
C  1.24340 31.34768 17.63264
C  1.78497 30.03355 17.63284
C  4.16099 28.59760 17.62948
C  5.57580 28.70870 17.62683
C  7.69027 30.50563 17.62954
C  2.98169 34.96285 17.63049
C  3.64063 35.23790 18.85138
C  7.96902 32.59416 18.84741
C  2.25598 29.49565 18.85159
C  3.46965 28.76026 18.85148
C  7.42898 33.90847 18.84904
C  1.52528 33.43841 18.85100
C  6.23829 28.97477 18.84817
C  7.32016 29.89585 18.84630
C  1.19262 32.05840 18.85097
C  5.05578 35.34945 18.85080
C  8.02538 31.88095 20.05850
C  6.96106 34.44509 20.06685
C  5.75014 35.18178 20.07034
C  1.89843 34.04354 20.07077
C  1.24378 31.34907 20.06963
C  1.78718 30.03536 20.06997
C  4.16542 28.60073 20.07174
C  5.58071 28.70782 20.07020
C  7.69792 30.50225 20.06043
C  2.98206 34.96339 20.07200
C  3.64414 35.22817 21.29388
C  7.98039 32.59072 21.27314
C  2.25656 29.50022 21.29023
C  3.47332 28.77140 21.29211
C  7.43338 33.89942 21.28025
C  1.52211 33.43688 21.28917
C  6.24234 28.98991 21.28889
C  7.33088 29.89984 21.28328
C  1.18903 32.05859 21.28806
C  5.05888 35.33697 21.29322
C  8.06782 31.88323 22.48647
C  6.96646 34.42028 22.50368
C  5.75503 35.15424 22.50991
C  1.89481 34.03924 22.51115
C  1.23225 31.34904 22.50642
C  1.78045 30.03783 22.50728
C  4.16989 28.62758 22.51362
C  5.58368 28.74360 22.51417
C  7.73002 30.49884 22.49472
C  2.98652 34.94822 22.51344
C  3.65468 35.19704 23.73436
C  8.05672 32.59669 23.69653
C  2.24801 29.50482 23.72822
C  3.47289 28.79142 23.73009
C  7.45431 33.87712 23.71403
C  1.51107 33.43505 23.72812
C  6.24824 29.03362 23.72974
C  7.36597 29.90084 23.71987
C  1.17112 32.05704 23.72668
C  5.06908 35.29513 23.73384
C  8.28118 31.87509 24.92019
C  7.00209 34.41799 24.94189
C  5.77179 35.11117 24.94892
C  1.89006 34.03276 24.95012
C  1.21751 31.34701 24.94627
C  1.76766 30.03768 24.94604
C  4.16967 28.65461 24.95082
C  5.57914 28.78757 24.95327
C  7.85249 30.46506 24.94475
C  2.99336 34.92406 24.95157
C  3.66372 35.17546 26.17058
C  8.25305 32.64657 26.16319
C  2.23543 29.50161 26.16694
C  3.46141 28.79335 26.16704
C  7.56451 33.94504 26.17029
C  1.50666 33.43041 26.16941
C  6.22902 29.07180 26.17629
C  7.34261 29.94649 26.18825
C  1.16292 32.05441 26.16871
C  5.07550 35.26778 26.17093
C  8.25749 31.88256 27.41356
C  7.00292 34.42594 27.40412
C  5.76815 35.11246 27.39312
C  1.88981 34.03088 27.38938
C  1.21408 31.34399 27.38934
C  1.75899 30.03176 27.38837
C  4.15124 28.63894 27.38698
C  5.55935 28.78679 27.38849
C  7.71121 30.54589 27.40057
C  2.99207 34.92439 27.38923
C  3.65233 35.19545 28.60683
C  8.13289 32.64496 28.63429
C  2.23054 29.49377 28.60784
C  3.45052 28.77287 28.60662
C  7.47074 33.91978 28.62382
C  1.51005 33.43030 28.60980
C  6.20657 29.05859 28.60973
C  7.28814 29.96894 28.61405
C  1.16722 32.05321 28.61012
C  5.06769 35.29205 28.60846
C  8.17012 31.88521 29.85208
C  6.97377 34.42184 29.83443
C  5.75471 35.14358 29.83086
C  1.89273 34.03395 29.82794
C  1.22409 31.34401 29.83090
C  1.76382 30.03006 29.83022
C  4.14736 28.61567 29.82600
C  5.55813 28.75315 29.82688
C  7.69757 30.53299 29.84037
C  2.98542 34.94042 29.82629
C  3.64501 35.21595 31.04626
C  8.04782 32.60533 31.07338
C  2.23772 29.49233 31.04927
C  3.45400 28.76292 31.04755
C  7.45499 33.89495 31.06127
C  1.51807 33.43248 31.04974
C  6.22157 29.01489 31.04441
C  7.31403 29.92713 31.04652
C  1.17975 32.05453 31.05080
C  5.05884 35.32125 31.04770
C  8.06007 31.88811 32.28266
C  6.97104 34.43745 32.27072
C  5.75318 35.16859 32.26775
C  1.89541 34.03881 32.26796
C  1.23504 31.34608 32.27086
C  1.77535 30.03142 32.27045
C  4.15446 28.60447 32.26468
C  5.56873 28.72593 32.26279
C  7.70545 30.51158 32.27369
C  2.98169 34.95499 32.26662
C  3.64234 35.23085 33.48527
C  7.97983 32.59691 33.49725
C  2.24954 29.49405 33.48883
C  3.46338 28.76119 33.48719
C  7.43537 33.90732 33.49327
C  1.52304 33.43588 33.48869
C  6.23181 28.98807 33.48322
C  7.31861 29.90469 33.48362
C  1.18873 32.05662 33.48956
C  5.05759 35.34012 33.48482
Pt 11.73039 32.28133 26.27963
Pt 10.15807 32.09937 28.47956
Pt  9.79820 34.11682 26.06805
Pt 12.34044 34.76103 25.47656
Pt 14.15192 33.52929 27.16960
Pt 11.78320 34.32189 28.10947
Pt 10.04828 30.65988 24.84144
Pt 12.75439 31.76065 28.78939
Pt 11.73382 29.77600 27.00249
Pt 14.13194 30.89619 26.57759
Pt 11.58629 32.76423 23.68944
Pt 12.63267 30.35276 24.39839
Pt 14.09884 32.74009 24.57326
C 12.31171 36.82194 24.69362
O 12.32301 37.89097 24.32167
C 39.01999 -16.11685 -16.51948
C 37.96113 -13.55221 -16.52079
C 36.74964 -12.81736 -16.52175
C 32.89862 -13.95697 -16.52203
C 32.24340 -16.65232 -16.52036
C 32.78497 -17.96645 -16.52016
C 35.16099 -19.40240 -16.52352
C 36.57580 -19.29130 -16.52617
C 38.69027 -17.49437 -16.52346
C 33.98169 -13.03715 -16.52251
C 34.64063 -12.76210 -15.30162
C 38.96902 -15.40584 -15.30559
C 33.25598 -18.50435 -15.30141
C 34.46965 -19.23974 -15.30152
C 38.42898 -14.09153 -15.30396
C 32.52528 -14.56159 -15.30200
C 37.23829 -19.02523 -15.30483
C 38.32016 -18.10415 -15.30670
C 32.19262 -15.94160 -15.30203
C 36.05578 -12.65055 -15.30220
C 39.02538 -16.11905 -14.09450
C 37.96106 -13.55491 -14.08615
C 36.75014 -12.81822 -14.08266
C 32.89843 -13.95646 -14.08223
C 32.24378 -16.65093 -14.08337
C 32.78718 -17.96464 -14.08303
C 35.16542 -19.39927 -14.08126
C 36.58071 -19.29218 -14.08280
C 38.69792 -17.49775 -14.09257
C 33.98206 -13.03661 -14.08100
C 34.64414 -12.77183 -12.85912
C 38.98039 -15.40928 -12.87986
C 33.25656 -18.49978 -12.86277
C 34.47332 -19.22860 -12.86089
C 38.43338 -14.10058 -12.87275
C 32.52211 -14.56312 -12.86383
C 37.24234 -19.01009 -12.86411
C 38.33088 -18.10016 -12.86972
C 32.18903 -15.94141 -12.86494
C 36.05888 -12.66303 -12.85978
C 39.06782 -16.11677 -11.66653
C 37.96646 -13.57972 -11.64932
C 36.75503 -12.84576 -11.64309
C 32.89481 -13.96076 -11.64185
C 32.23225 -16.65096 -11.64658
C 32.78045 -17.96217 -11.64572
C 35.16989 -19.37242 -11.63938
C 36.58368 -19.25640 -11.63883
C 38.73002 -17.50116 -11.65828
C 33.98652 -13.05178 -11.63956
C 34.65468 -12.80296 -10.41864
C 39.05672 -15.40331 -10.45647
C 33.24801 -18.49518 -10.42478
C 34.47289 -19.20858 -10.42291
C 38.45431 -14.12288 -10.43897
C 32.51107 -14.56495 -10.42488
C 37.24824 -18.96638 -10.42326
C 38.36597 -18.09916 -10.43313
C 32.17112 -15.94296 -10.42632
C 36.06908 -12.70487 -10.41916
C 39.28118 -16.12491 -9.23281
C 38.00209 -13.58201 -9.21111
C 36.77179 -12.88883 -9.20408
C 32.89006 -13.96724 -9.20288
C 32.21751 -16.65299 -9.20673
C 32.76766 -17.96232 -9.20696
C 35.16967 -19.34539 -9.20218
C 36.57914 -19.21243 -9.19973
C 38.85249 -17.53494 -9.20825
C 33.99336 -13.07594 -9.20143
C 34.66372 -12.82454 -7.98242
C 39.25305 -15.35343 -7.98981
C 33.23543 -18.49839 -7.98606
C 34.46141 -19.20665 -7.98596
C 38.56451 -14.05496 -7.98271
C 32.50666 -14.56959 -7.98359
C 37.22902 -18.92820 -7.97671
C 38.34261 -18.05351 -7.96475
C 32.16292 -15.94559 -7.98429
C 36.07550 -12.73222 -7.98207
C 39.25749 -16.11744 -6.73944
C 38.00292 -13.57406 -6.74888
C 36.76815 -12.88754 -6.75988
C 32.88981 -13.96912 -6.76362
C 32.21408 -16.65601 -6.76366
C 32.75899 -17.96824 -6.76463
C 35.15124 -19.36106 -6.76602
C 36.55935 -19.21321 -6.76451
C 38.71121 -17.45411 -6.75243
C 33.99207 -13.07561 -6.76377
C 34.65233 -12.80455 -5.54617
C 39.13289 -15.35504 -5.51871
C 33.23054 -18.50623 -5.54516
C 34.45052 -19.22713 -5.54638
C 38.47074 -14.08022 -5.52918
C 32.51005 -14.56970 -5.54320
C 37.20657 -18.94141 -5.54327
C 38.28814 -18.03106 -5.53895
C 32.16722 -15.94679 -5.54288
C 36.06769 -12.70795 -5.54454
C 39.17012 -16.11479 -4.30092
C 37.97377 -13.57816 -4.31857
C 36.75471 -12.85642 -4.32214
C 32.89273 -13.96605 -4.32506
C 32.22409 -16.65599 -4.32210
C 32.76382 -17.96994 -4.32278
C 35.14736 -19.38433 -4.32700
C 36.55813 -19.24685 -4.32612
C 38.69757 -17.46701 -4.31263
C 33.98542 -13.05958 -4.32671
C 34.64501 -12.78405 -3.10674
C 39.04782 -15.39467 -3.07962
C 33.23772 -18.50767 -3.10373
C 34.45400 -19.23708 -3.10545
C 38.45499 -14.10505 -3.09173
C 32.51807 -14.56752 -3.10326
C 37.22157 -18.98511 -3.10859
C 38.31403 -18.07287 -3.10648
C 32.17975 -15.94547 -3.10220
C 36.05884 -12.67875 -3.10530
C 39.06007 -16.11189 -1.87034
C 37.97104 -13.56255 -1.88228
C 36.75318 -12.83141 -1.88525
C 32.89541 -13.96119 -1.88504
C 32.23504 -16.65392 -1.88214
C 32.77535 -17.96858 -1.88255
C 35.15446 -19.39553 -1.88832
C 36.56873 -19.27407 -1.89021
C 38.70545 -17.48842 -1.87931
C 33.98169 -13.04501 -1.88638
C 34.64234 -12.76915 -0.66773
C 38.97983 -15.40309 -0.65575
C 33.24954 -18.50595 -0.66417
C 34.46338 -19.23881 -0.66581
C 38.43537 -14.09268 -0.65973
C 32.52304 -14.56412 -0.66431
C 37.23181 -19.01193 -0.66978
C 38.31861 -18.09531 -0.66938
C 32.18873 -15.94338 -0.66344
C 36.05759 -12.65988 -0.66818
Pt 42.73039 -15.71867 -7.87337
Pt 41.15807 -15.90063 -5.67344
Pt 40.79820 -13.88318 -8.08495
Pt 43.34044 -13.23897 -8.67644
Pt 45.15192 -14.47071 -6.98340
Pt 42.78320 -13.67811 -6.04353
Pt 41.04828 -17.34012 -9.31156
Pt 43.75439 -16.23935 -5.36361
Pt 42.73382 -18.22400 -7.15051
Pt 45.13194 -17.10381 -7.57541
Pt 42.58629 -15.23577 -10.46356
Pt 43.63267 -17.64724 -9.75461
Pt 45.09884 -15.25991 -9.57974
C 43.31171 -11.17806 -9.45938
O 43.32301 -10.10903 -9.83133
C 39.01999 -16.11685  0.55702
C 37.96113 -13.55221  0.55571
C 36.74964 -12.81736  0.55475
C 32.89862 -13.95697  0.55447
C 32.24340 -16.65232  0.55614
C 32.78497 -17.96645  0.55634
C 35.16099 -19.40240  0.55298
C 36.57580 -19.29130  0.55033
C 38.69027 -17.49437  0.55304
C 33.98169 -13.03715  0.55399
C 34.64063 -12.76210  1.77488
C 38.96902 -15.40584  1.77091
C 33.25598 -18.50435  1.77509
C 34.46965 -19.23974  1.77498
C 38.42898 -14.09153  1.77254
C 32.52528 -14.56159  1.77450
C 37.23829 -19.02523  1.77167
C 38.32016 -18.10415  1.76980
C 32.19262 -15.94160  1.77447
C 36.05578 -12.65055  1.77430
C 39.02538 -16.11905  2.98200
C 37.96106 -13.55491  2.99035
C 36.75014 -12.81822  2.99384
C 32.89843 -13.95646  2.99427
C 32.24378 -16.65093  2.99313
C 32.78718 -17.96464  2.99347
C 35.16542 -19.39927  2.99524
C 36.58071 -19.29218  2.99370
C 38.69792 -17.49775  2.98393
C 33.98206 -13.03661  2.99550
C 34.64414 -12.77183  4.21738
C 38.98039 -15.40928  4.19664
C 33.25656 -18.49978  4.21373
C 34.47332 -19.22860  4.21561
C 38.43338 -14.10058  4.20375
C 32.52211 -14.56312  4.21267
C 37.24234 -19.01009  4.21239
C 38.33088 -18.10016  4.20678
C 32.18903 -15.94141  4.21156
C 36.05888 -12.66303  4.21672
C 39.06782 -16.11677  5.40997
C 37.96646 -13.57972  5.42718
C 36.75503 -12.84576  5.43341
C 32.89481 -13.96076  5.43465
C 32.23225 -16.65096  5.42992
C 32.78045 -17.96217  5.43078
C 35.16989 -19.37242  5.43712
C 36.58368 -19.25640  5.43767
C 38.73002 -17.50116  5.41822
C 33.98652 -13.05178  5.43694
C 34.65468 -12.80296  6.65786
C 39.05672 -15.40331  6.62003
C 33.24801 -18.49518  6.65172
C 34.47289 -19.20858  6.65359
C 38.45431 -14.12288  6.63753
C 32.51107 -14.56495  6.65162
C 37.24824 -18.96638  6.65324
C 38.36597 -18.09916  6.64337
C 32.17112 -15.94296  6.65018
C 36.06908 -12.70487  6.65734
C 39.28118 -16.12491  7.84369
C 38.00209 -13.58201  7.86539
C 36.77179 -12.88883  7.87242
C 32.89006 -13.96724  7.87362
C 32.21751 -16.65299  7.86977
C 32.76766 -17.96232  7.86954
C 35.16967 -19.34539  7.87432
C 36.57914 -19.21243  7.87677
C 38.85249 -17.53494  7.86825
C 33.99336 -13.07594  7.87507
C 34.66372 -12.82454  9.09408
C 39.25305 -15.35343  9.08669
C 33.23543 -18.49839  9.09044
C 34.46141 -19.20665  9.09054
C 38.56451 -14.05496  9.09379
C 32.50666 -14.56959  9.09291
C 37.22902 -18.92820  9.09979
C 38.34261 -18.05351  9.11175
C 32.16292 -15.94559  9.09221
C 36.07550 -12.73222  9.09443
C 39.25749 -16.11744 10.33706
C 38.00292 -13.57406 10.32762
C 36.76815 -12.88754 10.31662
C 32.88981 -13.96912 10.31288
C 32.21408 -16.65601 10.31284
C 32.75899 -17.96824 10.31187
C 35.15124 -19.36106 10.31048
C 36.55935 -19.21321 10.31199
C 38.71121 -17.45411 10.32407
C 33.99207 -13.07561 10.31273
C 34.65233 -12.80455 11.53033
C 39.13289 -15.35504 11.55779
C 33.23054 -18.50623 11.53134
C 34.45052 -19.22713 11.53012
C 38.47074 -14.08022 11.54732
C 32.51005 -14.56970 11.53330
C 37.20657 -18.94141 11.53323
C 38.28814 -18.03106 11.53755
C 32.16722 -15.94679 11.53362
C 36.06769 -12.70795 11.53196
C 39.17012 -16.11479 12.77558
C 37.97377 -13.57816 12.75793
C 36.75471 -12.85642 12.75436
C 32.89273 -13.96605 12.75144
C 32.22409 -16.65599 12.75440
C 32.76382 -17.96994 12.75372
C 35.14736 -19.38433 12.74950
C 36.55813 -19.24685 12.75038
C 38.69757 -17.46701 12.76387
C 33.98542 -13.05958 12.74979
C 34.64501 -12.78405 13.96976
C 39.04782 -15.39467 13.99688
C 33.23772 -18.50767 13.97277
C 34.45400 -19.23708 13.97105
C 38.45499 -14.10505 13.98477
C 32.51807 -14.56752 13.97324
C 37.22157 -18.98511 13.96791
C 38.31403 -18.07287 13.97002
C 32.17975 -15.94547 13.97430
C 36.05884 -12.67875 13.97120
C 39.06007 -16.11189 15.20616
C 37.97104 -13.56255 15.19422
C 36.75318 -12.83141 15.19125
C 32.89541 -13.96119 15.19146
C 32.23504 -16.65392 15.19436
C 32.77535 -17.96858 15.19395
C 35.15446 -19.39553 15.18818
C 36.56873 -19.27407 15.18629
C 38.70545 -17.48842 15.19719
C 33.98169 -13.04501 15.19012
C 34.64234 -12.76915 16.40877
C 38.97983 -15.40309 16.42075
C 33.24954 -18.50595 16.41233
C 34.46338 -19.23881 16.41069
C 38.43537 -14.09268 16.41677
C 32.52304 -14.56412 16.41219
C 37.23181 -19.01193 16.40672
C 38.31861 -18.09531 16.40712
C 32.18873 -15.94338 16.41306
C 36.05759 -12.65988 16.40832
Pt 42.73039 -15.71867  9.20313
Pt 41.15807 -15.90063 11.40306
Pt 40.79820 -13.88318  8.99155
Pt 43.34044 -13.23897  8.40006
Pt 45.15192 -14.47071 10.09310
Pt 42.78320 -13.67811 11.03297
Pt 41.04828 -17.34012  7.76494
Pt 43.75439 -16.23935 11.71289
Pt 42.73382 -18.22400  9.92599
Pt 45.13194 -17.10381  9.50109
Pt 42.58629 -15.23577  6.61294
Pt 43.63267 -17.64724  7.32189
Pt 45.09884 -15.25991  7.49676
C 43.31171 -11.17806  7.61712
O 43.32301 -10.10903  7.24517
C 39.01999 -16.11685 17.63352
C 37.96113 -13.55221 17.63221
C 36.74964 -12.81736 17.63125
C 32.89862 -13.95697 17.63097
C 32.24340 -16.65232 17.63264
C 32.78497 -17.96645 17.63284
C 35.16099 -19.40240 17.62948
C 36.57580 -19.29130 17.62683
C 38.69027 -17.49437 17.62954
C 33.98169 -13.03715 17.63049
C 34.64063 -12.76210 18.85138
C 38.96902 -15.40584 18.84741
C 33.25598 -18.50435 18.85159
C 34.46965 -19.23974 18.85148
C 38.42898 -14.09153 18.84904
C 32.52528 -14.56159 18.85100
C 37.23829 -19.02523 18.84817
C 38.32016 -18.10415 18.84630
C 32.19262 -15.94160 18.85097
C 36.05578 -12.65055 18.85080
C 39.02538 -16.11905 20.05850
C 37.96106 -13.55491 20.06685
C 36.75014 -12.81822 20.07034
C 32.89843 -13.95646 20.07077
C 32.24378 -16.65093 20.06963
C 32.78718 -17.96464 20.06997
C 35.16542 -19.39927 20.07174
C 36.58071 -19.29218 20.07020
C 38.69792 -17.49775 20.06043
C 33.98206 -13.03661 20.07200
C 34.64414 -12.77183 21.29388
C 38.98039 -15.40928 21.27314
C 33.25656 -18.49978 21.29023
C 34.47332 -19.22860 21.29211
C 38.43338 -14.10058 21.28025
C 32.52211 -14.56312 21.28917
C 37.24234 -19.01009 21.28889
C 38.33088 -18.10016 21.28328
C 32.18903 -15.94141 21.28806
C 36.05888 -12.66303 21.29322
C 39.06782 -16.11677 22.48647
C 37.96646 -13.57972 22.50368
C 36.75503 -12.84576 22.50991
C 32.89481 -13.96076 22.51115
C 32.23225 -16.65096 22.50642
C 32.78045 -17.96217 22.50728
C 35.16989 -19.37242 22.51362
C 36.58368 -19.25640 22.51417
C 38.73002 -17.50116 22.49472
C 33.98652 -13.05178 22.51344
C 34.65468 -12.80296 23.73436
C 39.05672 -15.40331 23.69653
C 33.24801 -18.49518 23.72822
C 34.47289 -19.20858 23.73009
C 38.45431 -14.12288 23.71403
C 32.51107 -14.56495 23.72812
C 37.24824 -18.96638 23.72974
C 38.36597 -18.09916 23.71987
C 32.17112 -15.94296 23.72668
C 36.06908 -12.70487 23.73384
C 39.28118 -16.12491 24.92019
C 38.00209 -13.58201 24.94189
C 36.77179 -12.88883 24.94892
C 32.89006 -13.96724 24.95012
C 32.21751 -16.65299 24.94627
C 32.76766 -17.96232 24.94604
C 35.16967 -19.34539 24.95082
C 36.57914 -19.21243 24.95327
C 38.85249 -17.53494 24.94475
C 33.99336 -13.07594 24.95157
C 34.66372 -12.82454 26.17058
C 39.25305 -15.35343 26.16319
C 33.23543 -18.49839 26.16694
C 34.46141 -19.20665 26.16704
C 38.56451 -14.05496 26.17029
C 32.50666 -14.56959 26.16941
C 37.22902 -18.92820 26.17629
C 38.34261 -18.05351 26.18825
C 32.16292 -15.94559 26.16871
C 36.07550 -12.73222 26.17093
C 39.25749 -16.11744 27.41356
C 38.00292 -13.57406 27.40412
C 36.76815 -12.88754 27.39312
C 32.88981 -13.96912 27.38938
C 32.21408 -16.65601 27.38934
C 32.75899 -17.96824 27.38837
C 35.15124 -19.36106 27.38698
C 36.55935 -19.21321 27.38849
C 38.71121 -17.45411 27.40057
C 33.99207 -13.07561 27.38923
C 34.65233 -12.80455 28.60683
C 39.13289 -15.35504 28.63429
C 33.23054 -18.50623 28.60784
C 34.45052 -19.22713 28.60662
C 38.47074 -14.08022 28.62382
C 32.51005 -14.56970 28.60980
C 37.20657 -18.94141 28.60973
C 38.28814 -18.03106 28.61405
C 32.16722 -15.94679 28.61012
C 36.06769 -12.70795 28.60846
C 39.17012 -16.11479 29.85208
C 37.97377 -13.57816 29.83443
C 36.75471 -12.85642 29.83086
C 32.89273 -13.96605 29.82794
C 32.22409 -16.65599 29.83090
C 32.76382 -17.96994 29.83022
C 35.14736 -19.38433 29.82600
C 36.55813 -19.24685 29.82688
C 38.69757 -17.46701 29.84037
C 33.98542 -13.05958 29.82629
C 34.64501 -12.78405 31.04626
C 39.04782 -15.39467 31.07338
C 33.23772 -18.50767 31.04927
C 34.45400 -19.23708 31.04755
C 38.45499 -14.10505 31.06127
C 32.51807 -14.56752 31.04974
C 37.22157 -18.98511 31.04441
C 38.31403 -18.07287 31.04652
C 32.17975 -15.94547 31.05080
C 36.05884 -12.67875 31.04770
C 39.06007 -16.11189 32.28266
C 37.97104 -13.56255 32.27072
C 36.75318 -12.83141 32.26775
C 32.89541 -13.96119 32.26796
C 32.23504 -16.65392 32.27086
C 32.77535 -17.96858 32.27045
C 35.15446 -19.39553 32.26468
C 36.56873 -19.27407 32.26279
C 38.70545 -17.48842 32.27369
C 33.98169 -13.04501 32.26662
C 34.64234 -12.76915 33.48527
C 38.97983 -15.40309 33.49725
C 33.24954 -18.50595 33.48883
C 34.46338 -19.23881 33.48719
C 38.43537 -14.09268 33.49327
C 32.52304 -14.56412 33.48869
C 37.23181 -19.01193 33.48322
C 38.31861 -18.09531 33.48362
C 32.18873 -15.94338 33.48956
C 36.05759 -12.65988 33.48482
Pt 42.73039 -15.71867 26.27963
Pt 41.15807 -15.90063 28.47956
Pt 40.79820 -13.88318 26.06805
Pt 43.34044 -13.23897 25.47656
Pt 45.15192 -14.47071 27.16960
Pt 42.78320 -13.67811 28.10947
Pt 41.04828 -17.34012 24.84144
Pt 43.75439 -16.23935 28.78939
Pt 42.73382 -18.22400 27.00249
Pt 45.13194 -17.10381 26.57759
Pt 42.58629 -15.23577 23.68944
Pt 43.63267 -17.64724 24.39839
Pt 45.09884 -15.25991 24.57326
C 43.31171 -11.17806 24.69362
O 43.32301 -10.10903 24.32167
C 39.01999  7.88315 -16.51948
C 37.96113 10.44779 -16.52079
C 36.74964 11.18264 -16.52175
C 32.89862 10.04303 -16.52203
C 32.24340  7.34768 -16.52036
C 32.78497  6.03355 -16.52016
C 35.16099  4.59760 -16.52352
C 36.57580  4.70870 -16.52617
C 38.69027  6.50563 -16.52346
C 33.98169 10.96285 -16.52251
C 34.64063 11.23790 -15.30162
C 38.96902  8.59416 -15.30559
C 33.25598  5.49565 -15.30141
C 34.46965  4.76026 -15.30152
C 38.42898  9.90847 -15.30396
C 32.52528  9.43841 -15.30200
C 37.23829  4.97477 -15.30483
C 38.32016  5.89585 -15.30670
C 32.19262  8.05840 -15.30203
C 36.05578 11.34945 -15.30220
C 39.02538  7.88095 -14.09450
C 37.96106 10.44509 -14.08615
C 36.75014 11.18178 -14.08266
C 32.89843 10.04354 -14.08223
C 32.24378  7.34907 -14.08337
C 32.78718  6.03536 -14.08303
C 35.16542  4.60073 -14.08126
C 36.58071  4.70782 -14.08280
C 38.69792  6.50225 -14.09257
C 33.98206 10.96339 -14.08100
C 34.64414 11.22817 -12.85912
C 38.98039  8.59072 -12.87986
C 33.25656  5.50022 -12.86277
C 34.47332  4.77140 -12.86089
C 38.43338  9.89942 -12.87275
C 32.52211  9.43688 -12.86383
C 37.24234  4.98991 -12.86411
C 38.33088  5.89984 -12.86972
C 32.18903  8.05859 -12.86494
C 36.05888 11.33697 -12.85978
C 39.06782  7.88323 -11.66653
C 37.96646 10.42028 -11.64932
C 36.75503 11.15424 -11.64309
C 32.89481 10.03924 -11.64185
C 32.23225  7.34904 -11.64658
C 32.78045  6.03783 -11.64572
C 35.16989  4.62758 -11.63938
C 36.58368  4.74360 -11.63883
C 38.73002  6.49884 -11.65828
C 33.98652 10.94822 -11.63956
C 34.65468 11.19704 -10.41864
C 39.05672  8.59669 -10.45647
C 33.24801  5.50482 -10.42478
C 34.47289  4.79142 -10.42291
C 38.45431  9.87712 -10.43897
C 32.51107  9.43505 -10.42488
C 37.24824  5.03362 -10.42326
C 38.36597  5.90084 -10.43313
C 32.17112  8.05704 -10.42632
C 36.06908 11.29513 -10.41916
C 39.28118  7.87509 -9.23281
C 38.00209 10.41799 -9.21111
C 36.77179 11.11117 -9.20408
C 32.89006 10.03276 -9.20288
C 32.21751  7.34701 -9.20673
C 32.76766  6.03768 -9.20696
C 35.16967  4.65461 -9.20218
C 36.57914  4.78757 -9.19973
C 38.85249  6.46506 -9.20825
C 33.99336 10.92406 -9.20143
C 34.66372 11.17546 -7.98242
C 39.25305  8.64657 -7.98981
C 33.23543  5.50161 -7.98606
C 34.46141  4.79335 -7.98596
C 38.56451  9.94504 -7.98271
C 32.50666  9.43041 -7.98359
C 37.22902  5.07180 -7.97671
C 38.34261  5.94649 -7.96475
C 32.16292  8.05441 -7.98429
C 36.07550 11.26778 -7.98207
C 39.25749  7.88256 -6.73944
C 38.00292 10.42594 -6.74888
C 36.76815 11.11246 -6.75988
C 32.88981 10.03088 -6.76362
C 32.21408  7.34399 -6.76366
C 32.75899  6.03176 -6.76463
C 35.15124  4.63894 -6.76602
C 36.55935  4.78679 -6.76451
C 38.71121  6.54589 -6.75243
C 33.99207 10.92439 -6.76377
C 34.65233 11.19545 -5.54617
C 39.13289  8.64496 -5.51871
C 33.23054  5.49377 -5.54516
C 34.45052  4.77287 -5.54638
C 38.47074  9.91978 -5.52918
C 32.51005  9.43030 -5.54320
C 37.20657  5.05859 -5.54327
C 38.28814  5.96894 -5.53895
C 32.16722  8.05321 -5.54288
C 36.06769 11.29205 -5.54454
C 39.17012  7.88521 -4.30092
C 37.97377 10.42184 -4.31857
C 36.75471 11.14358 -4.32214
C 32.89273 10.03395 -4.32506
C 32.22409  7.34401 -4.32210
C 32.76382  6.03006 -4.32278
C 35.14736  4.61567 -4.32700
C 36.55813  4.75315 -4.32612
C 38.69757  6.53299 -4.31263
C 33.98542 10.94042 -4.32671
C 34.64501 11.21595 -3.10674
C 39.04782  8.60533 -3.07962
C 33.23772  5.49233 -3.10373
C 34.45400  4.76292 -3.10545
C 38.45499  9.89495 -3.09173
C 32.51807  9.43248 -3.10326
C 37.22157  5.01489 -3.10859
C 38.31403  5.92713 -3.10648
C 32.17975  8.05453 -3.10220
C 36.05884 11.32125 -3.10530
C 39.06007  7.88811 -1.87034
C 37.97104 10.43745 -1.88228
C 36.75318 11.16859 -1.88525
C 32.89541 10.03881 -1.88504
C 32.23504  7.34608 -1.88214
C 32.77535  6.03142 -1.88255
C 35.15446  4.60447 -1.88832
C 36.56873  4.72593 -1.89021
C 38.70545  6.51158 -1.87931
C 33.98169 10.95499 -1.88638
C 34.64234 11.23085 -0.66773
C 38.97983  8.59691 -0.65575
C 33.24954  5.49405 -0.66417
C 34.46338  4.76119 -0.66581
C 38.43537  9.90732 -0.65973
C 32.52304  9.43588 -0.66431
C 37.23181  4.98807 -0.66978
C 38.31861  5.90469 -0.66938
C 32.18873  8.05662 -0.66344
C 36.05759 11.34012 -0.66818
Pt 42.73039  8.28133 -7.87337
Pt 41.15807  8.09937 -5.67344
Pt 40.79820 10.11682 -8.08495
Pt 43.34044 10.76103 -8.67644
Pt 45.15192  9.52929 -6.98340
Pt 42.78320 10.32189 -6.04353
Pt 41.04828  6.65988 -9.31156
Pt 43.75439  7.76065 -5.36361
Pt 42.73382  5.77600 -7.15051
Pt 45.13194  6.89619 -7.57541
Pt 42.58629  8.76423 -10.46356
Pt 43.63267  6.35276 -9.75461
Pt 45.09884  8.74009 -9.57974
C 43.31171 12.82194 -9.45938
O 43.32301 13.89097 -9.83133
C 39.01999  7.88315  0.55702
C 37.96113 10.44779  0.55571
C 36.74964 11.18264  0.55475
C 32.89862 10.04303  0.55447
C 32.24340  7.34768  0.55614
C 32.78497  6.03355  0.55634
C 35.16099  4.59760  0.55298
C 36.57580  4.70870  0.55033
C 38.69027  6.50563  0.55304
C 33.98169 10.96285  0.55399
C 34.64063 11.23790  1.77488
C 38.96902  8.59416  1.77091
C 33.25598  5.49565  1.77509
C 34.46965  4.76026  1.77498
C 38.42898  9.90847  1.77254
C 32.52528  9.43841  1.77450
C 37.23829  4.97477  1.77167
C 38.32016  5.89585  1.76980
C 32.19262  8.05840  1.77447
C 36.05578 11.34945  1.77430
C 39.02538  7.88095  2.98200
C 37.96106 10.44509  2.99035
C 36.75014 11.18178  2.99384
C 32.89843 10.04354  2.99427
C 32.24378  7.34907  2.99313
C 32.78718  6.03536  2.99347
C 35.16542  4.60073  2.99524
C 36.58071  4.70782  2.99370
C 38.69792  6.50225  2.98393
C 33.98206 10.96339  2.99550
C 34.64414 11.22817  4.21738
C 38.98039  8.59072  4.19664
C 33.25656  5.50022  4.21373
C 34.47332  4.77140  4.21561
C 38.43338  9.89942  4.20375
C 32.52211  9.43688  4.21267
C 37.24234  4.98991  4.21239
C 38.33088  5.89984  4.20678
C 32.18903  8.05859  4.21156
C 36.05888 11.33697  4.21672
C 39.06782  7.88323  5.40997
C 37.96646 10.42028  5.42718
C 36.75503 11.15424  5.43341
C 32.89481 10.03924  5.43465
C 32.23225  7.34904  5.42992
C 32.78045  6.03783  5.43078
C 35.16989  4.62758  5.43712
C 36.58368  4.74360  5.43767
C 38.73002  6.49884  5.41822
C 33.98652 10.94822  5.43694
C 34.65468 11.19704  6.65786
C 39.05672  8.59669  6.62003
C 33.24801  5.50482  6.65172
C 34.47289  4.79142  6.65359
C 38.45431  9.87712  6.63753
C 32.51107  9.43505  6.65162
C 37.24824  5.03362  6.65324
C 38.36597  5.90084  6.64337
C 32.17112  8.05704  6.65018
C 36.06908 11.29513  6.65734
C 39.28118  7.87509  7.84369
C 38.00209 10.41799  7.86539
C 36.77179 11.11117  7.87242
C 32.89006 10.03276  7.87362
C 32.21751  7.34701  7.86977
C 32.76766  6.03768  7.86954
C 35.16967  4.65461  7.87432
C 36.57914  4.78757  7.87677
C 38.85249  6.46506  7.86825
C 33.99336 10.92406  7.87507
C 34.66372 11.17546  9.09408
C 39.25305  8.64657  9.08669
C 33.23543  5.50161  9.09044
C 34.46141  4.79335  9.09054
C 38.56451  9.94504  9.09379
C 32.50666  9.43041  9.09291
C 37.22902  5.07180  9.09979
C 38.34261  5.94649  9.11175
C 32.16292  8.05441  9.09221
C 36.07550 11.26778  9.09443
C 39.25749  7.88256 10.33706
C 38.00292 10.42594 10.32762
C 36.76815 11.11246 10.31662
C 32.88981 10.03088 10.31288
C 32.21408  7.34399 10.31284
C 32.75899  6.03176 10.31187
C 35.15124  4.63894 10.31048
C 36.55935  4.78679 10.31199
C 38.71121  6.54589 10.32407
C 33.99207 10.92439 10.31273
C 34.65233 11.19545 11.53033
C 39.13289  8.64496 11.55779
C 33.23054  5.49377 11.53134
C 34.45052  4.77287 11.53012
C 38.47074  9.91978 11.54732
C 32.51005  9.43030 11.53330
C 37.20657  5.05859 11.53323
C 38.28814  5.96894 11.53755
C 32.16722  8.05321 11.53362
C 36.06769 11.29205 11.53196
C 39.17012  7.88521 12.77558
C 37.97377 10.42184 12.75793
C 36.75471 11.14358 12.75436
C 32.89273 10.03395 12.75144
C 32.22409  7.34401 12.75440
C 32.76382  6.03006 12.75372
C 35.14736  4.61567 12.74950
C 36.55813  4.75315 12.75038
C 38.69757  6.53299 12.76387
C 33.98542 10.94042 12.74979
C 34.64501 11.21595 13.96976
C 39.04782  8.60533 13.99688
C 33.23772  5.49233 13.97277
C 34.45400  4.76292 13.97105
C 38.45499  9.89495 13.98477
C 32.51807  9.43248 13.97324
C 37.22157  5.01489 13.96791
C 38.31403  5.92713 13.97002
C 32.17975  8.05453 13.97430
C 36.05884 11.32125 13.97120
C 39.06007  7.88811 15.20616
C 37.97104 10.43745 15.19422
C 36.75318 11.16859 15.19125
C 32.89541 10.03881 15.19146
C 32.23504  7.34608 15.19436
C 32.77535  6.03142 15.19395
C 35.15446  4.60447 15.18818
C 36.56873  4.72593 15.18629
C 38.70545  6.51158 15.19719
C 33.98169 10.95499 15.19012
C 34.64234 11.23085 16.40877
C 38.97983  8.59691 16.42075
C 33.24954  5.49405 16.41233
C 34.46338  4.76119 16.41069
C 38.43537  9.90732 16.41677
C 32.52304  9.43588 16.41219
C 37.23181  4.98807 16.40672
C 38.31861  5.90469 16.40712
C 32.18873  8.05662 16.41306
C 36.05759 11.34012 16.40832
Pt 42.73039  8.28133  9.20313
Pt 41.15807  8.09937 11.40306
Pt 40.79820 10.11682  8.99155
Pt 43.34044 10.76103  8.40006
Pt 45.15192  9.52929 10.09310
Pt 42.78320 10.32189 11.03297
Pt 41.04828  6.65988  7.76494
Pt 43.75439  7.76065 11.71289
Pt 42.73382  5.77600  9.92599
Pt 45.13194  6.89619  9.50109
Pt 42.58629  8.76423  6.61294
Pt 43.63267  6.35276  7.32189
Pt 45.09884  8.74009  7.49676
C 43.31171 12.82194  7.61712
O 43.32301 13.89097  7.24517
C 39.01999  7.88315 17.63352
C 37.96113 10.44779 17.63221
C 36.74964 11.18264 17.63125
C 32.89862 10.04303 17.63097
C 32.24340  7.34768 17.63264
C 32.78497  6.03355 17.63284
C 35.16099  4.59760 17.62948
C 36.57580  4.70870 17.62683
C 38.69027  6.50563 17.62954
C 33.98169 10.96285 17.63049
C 34.64063 11.23790 18.85138
C 38.96902  8.59416 18.84741
C 33.25598  5.49565 18.85159
C 34.46965  4.76026 18.85148
C 38.42898  9.90847 18.84904
C 32.52528  9.43841 18.85100
C 37.23829  4.97477 18.84817
C 38.32016  5.89585 18.84630
C 32.19262  8.05840 18.85097
C 36.05578 11.34945 18.85080
C 39.02538  7.88095 20.05850
C 37.96106 10.44509 20.06685
C 36.75014 11.18178 20.07034
C 32.89843 10.04354 20.07077
C 32.24378  7.34907 20.06963
C 32.78718  6.03536 20.06997
C 35.16542  4.60073 20.07174
C 36.58071  4.70782 20.07020
C 38.69792  6.50225 20.06043
C 33.98206 10.96339 20.07200
C 34.64414 11.22817 21.29388
C 38.98039  8.59072 21.27314
C 33.25656  5.50022 21.29023
C 34.47332  4.77140 21.29211
C 38.43338  9.89942 21.28025
C 32.52211  9.43688 21.28917
C 37.24234  4.98991 21.28889
C 38.33088  5.89984 21.28328
C 32.18903  8.05859 21.28806
C 36.05888 11.33697 21.29322
C 39.06782  7.88323 22.48647
C 37.96646 10.42028 22.50368
C 36.75503 11.15424 22.50991
C 32.89481 10.03924 22.51115
C 32.23225  7.34904 22.50642
C 32.78045  6.03783 22.50728
C 35.16989  4.62758 22.51362
C 36.58368  4.74360 22.51417
C 38.73002  6.49884 22.49472
C 33.98652 10.94822 22.51344
C 34.65468 11.19704 23.73436
C 39.05672  8.59669 23.69653
C 33.24801  5.50482 23.72822
C 34.47289  4.79142 23.73009
C 38.45431  9.87712 23.71403
C 32.51107  9.43505 23.72812
C 37.24824  5.03362 23.72974
C 38.36597  5.90084 23.71987
C 32.17112  8.05704 23.72668
C 36.06908 11.29513 23.73384
C 39.28118  7.87509 24.92019
C 38.00209 10.41799 24.94189
C 36.77179 11.11117 24.94892
C 32.89006 10.03276 24.95012
C 32.21751  7.34701 24.94627
C 32.76766  6.03768 24.94604
C 35.16967  4.65461 24.95082
C 36.57914  4.78757 24.95327
C 38.85249  6.46506 24.94475
C 33.99336 10.92406 24.95157
C 34.66372 11.17546 26.17058
C 39.25305  8.64657 26.16319
C 33.23543  5.50161 26.16694
C 34.46141  4.79335 26.16704
C 38.56451  9.94504 26.17029
C 32.50666  9.43041 26.16941
C 37.22902  5.07180 26.17629
C 38.34261  5.94649 26.18825
C 32.16292  8.05441 26.16871
C 36.07550 11.26778 26.17093
C 39.25749  7.88256 27.41356
C 38.00292 10.42594 27.40412
C 36.76815 11.11246 27.39312
C 32.88981 10.03088 27.38938
C 32.21408  7.34399 27.38934
C 32.75899  6.03176 27.38837
C 35.15124  4.63894 27.38698
C 36.55935  4.78679 27.38849
C 38.71121  6.54589 27.40057
C 33.99207 10.92439 27.38923
C 34.65233 11.19545 28.60683
C 39.13289  8.64496 28.63429
C 33.23054  5.49377 28.60784
C 34.45052  4.77287 28.60662
C 38.47074  9.91978 28.62382
C 32.51005  9.43030 28.60980
C 37.20657  5.05859 28.60973
C 38.28814  5.96894 28.61405
C 32.16722  8.05321 28.61012
C 36.06769 11.29205 28.60846
C 39.17012  7.88521 29.85208
C 37.97377 10.42184 29.83443
C 36.75471 11.14358 29.83086
C 32.89273 10.03395 29.82794
C 32.22409  7.34401 29.83090
C 32.76382  6.03006 29.83022
C 35.14736  4.61567 29.82600
C 36.55813  4.75315 29.82688
C 38.69757  6.53299 29.84037
C 33.98542 10.94042 29.82629
C 34.64501 11.21595 31.04626
C 39.04782  8.60533 31.07338
C 33.23772  5.49233 31.04927
C 34.45400  4.76292 31.04755
C 38.45499  9.89495 31.06127
C 32.51807  9.43248 31.04974
C 37.22157  5.01489 31.04441
C 38.31403  5.92713 31.04652
C 32.17975  8.05453 31.05080
C 36.05884 11.32125 31.04770
C 39.06007  7.88811 32.28266
C 37.97104 10.43745 32.27072
C 36.75318 11.16859 32.26775
C 32.89541 10.03881 32.26796
C 32.23504  7.34608 32.27086
C 32.77535  6.03142 32.27045
C 35.15446  4.60447 32.26468
C 36.56873  4.72593 32.26279
C 38.70545  6.51158 32.27369
C 33.98169 10.95499 32.26662
C 34.64234 11.23085 33.48527
C 38.97983  8.59691 33.49725
C 33.24954  5.49405 33.48883
C 34.46338  4.76119 33.48719
C 38.43537  9.90732 33.49327
C 32.52304  9.43588 33.48869
C 37.23181  4.98807 33.48322
C 38.31861  5.90469 33.48362
C 32.18873  8.05662 33.48956
C 36.05759 11.34012 33.48482
Pt 42.73039  8.28133 26.27963
Pt 41.15807  8.09937 28.47956
Pt 40.79820 10.11682 26.06805
Pt 43.34044 10.76103 25.47656
Pt 45.15192  9.52929 27.16960
Pt 42.78320 10.32189 28.10947
Pt 41.04828  6.65988 24.84144
Pt 43.75439  7.76065 28.78939
Pt 42.73382  5.77600 27.00249
Pt 45.13194  6.89619 26.57759
Pt 42.58629  8.76423 23.68944
Pt 43.63267  6.35276 24.39839
Pt 45.09884  8.74009 24.57326
C 43.31171 12.82194 24.69362
O 43.32301 13.89097 24.32167
C 39.01999 31.88315 -16.51948
C 37.96113 34.44779 -16.52079
C 36.74964 35.18264 -16.52175
C 32.89862 34.04303 -16.52203
C 32.24340 31.34768 -16.52036
C 32.78497 30.03355 -16.52016
C 35.16099 28.59760 -16.52352
C 36.57580 28.70870 -16.52617
C 38.69027 30.50563 -16.52346
C 33.98169 34.96285 -16.52251
C 34.64063 35.23790 -15.30162
C 38.96902 32.59416 -15.30559
C 33.25598 29.49565 -15.30141
C 34.46965 28.76026 -15.30152
C 38.42898 33.90847 -15.30396
C 32.52528 33.43841 -15.30200
C 37.23829 28.97477 -15.30483
C 38.32016 29.89585 -15.30670
C 32.19262 32.05840 -15.30203
C 36.05578 35.34945 -15.30220
C 39.02538 31.88095 -14.09450
C 37.96106 34.44509 -14.08615
C 36.75014 35.18178 -14.08266
C 32.89843 34.04354 -14.08223
C 32.24378 31.34907 -14.08337
C 32.78718 30.03536 -14.08303
C 35.16542 28.60073 -14.08126
C 36.58071 28.70782 -14.08280
C 38.69792 30.50225 -14.09257
C 33.98206 34.96339 -14.08100
C 34.64414 35.22817 -12.85912
C 38.98039 32.59072 -12.87986
C 33.25656 29.50022 -12.86277
C 34.47332 28.77140 -12.86089
C 38.43338 33.89942 -12.87275
C 32.52211 33.43688 -12.86383
C 37.24234 28.98991 -12.86411
C 38.33088 29.89984 -12.86972
C 32.18903 32.05859 -12.86494
C 36.05888 35.33697 -12.85978
C 39.06782 31.88323 -11.66653
C 37.96646 34.42028 -11.64932
C 36.75503 35.15424 -11.64309
C 32.89481 34.03924 -11.64185
C 32.23225 31.34904 -11.64658
C 32.78045 30.03783 -11.64572
C 35.16989 28.62758 -11.63938
C 36.58368 28.74360 -11.63883
C 38.73002 30.49884 -11.65828
C 33.98652 34.94822 -11.63956
C 34.65468 35.19704 -10.41864
C 39.05672 32.59669 -10.45647
C 33.24801 29.50482 -10.42478
C 34.47289 28.79142 -10.42291
C 38.45431 33.87712 -10.43897
C 32.51107 33.43505 -10.42488
C 37.24824 29.03362 -10.42326
C 38.36597 29.90084 -10.43313
C 32.17112 32.05704 -10.42632
C 36.06908 35.29513 -10.41916
C 39.28118 31.87509 -9.23281
C 38.00209 34.41799 -9.21111
C 36.77179 35.11117 -9.20408
C 32.89006 34.03276 -9.20288
C 32.21751 31.34701 -9.20673
C 32.76766 30.03768 -9.20696
C 35.16967 28.65461 -9.20218
C 36.57914 28.78757 -9.19973
C 38.85249 30.46506 -9.20825
C 33.99336 34.92406 -9.20143
C 34.66372 35.17546 -7.98242
C 39.25305 32.64657 -7.98981
C 33.23543 29.50161 -7.98606
C 34.46141 28.79335 -7.98596
C 38.56451 33.94504 -7.98271
C 32.50666 33.43041 -7.98359
C 37.22902 29.07180 -7.97671
C 38.34261 29.94649 -7.96475
C 32.16292 32.05441 -7.98429
C 36.07550 35.26778 -7.98207
C 39.25749 31.88256 -6.73944
C 38.00292 34.42594 -6.74888
C 36.76815 35.11246 -6.75988
C 32.88981 34.03088 -6.76362
C 32.21408 31.34399 -6.76366
C 32.75899 30.03176 -6.76463
C 35.15124 28.63894 -6.76602
C 36.55935 28.78679 -6.76451
C 38.71121 30.54589 -6.75243
C 33.99207 34.92439 -6.76377
C 34.65233 35.19545 -5.54617
C 39.13289 32.64496 -5.51871
C 33.23054 29.49377 -5.54516
C 34.45052 28.77287 -5.54638
C 38.47074 33.91978 -5.52918
C 32.51005 33.43030 -5.54320
C 37.20657 29.05859 -5.54327
C 38.28814 29.96894 -5.53895
C 32.16722 32.05321 -5.54288
C 36.06769 35.29205 -5.54454
C 39.17012 31.88521 -4.30092
C 37.97377 34.42184 -4.31857
C 36.75471 35.14358 -4.32214
C 32.89273 34.03395 -4.32506
C 32.22409 31.34401 -4.32210
C 32.76382 30.03006 -4.32278
C 35.14736 28.61567 -4.32700
C 36.55813 28.75315 -4.32612
C 38.69757 30.53299 -4.31263
C 33.98542 34.94042 -4.32671
C 34.64501 35.21595 -3.10674
C 39.04782 32.60533 -3.07962
C 33.23772 29.49233 -3.10373
C 34.45400 28.76292 -3.10545
C 38.45499 33.89495 -3.09173
C 32.51807 33.43248 -3.10326
C 37.22157 29.01489 -3.10859
C 38.31403 29.92713 -3.10648
C 32.17975 32.05453 -3.10220
C 36.05884 35.32125 -3.10530
C 39.06007 31.88811 -1.87034
C 37.97104 34.43745 -1.88228
C 36.75318 35.16859 -1.88525
C 32.89541 34.03881 -1.88504
C 32.23504 31.34608 -1.88214
C 32.77535 30.03142 -1.88255
C 35.15446 28.60447 -1.88832
C 36.56873 28.72593 -1.89021
C 38.70545 30.51158 -1.87931
C 33.98169 34.95499 -1.88638
C 34.64234 35.23085 -0.66773
C 38.97983 32.59691 -0.65575
C 33.24954 29.49405 -0.66417
C 34.46338 28.76119 -0.66581
C 38.43537 33.90732 -0.65973
C 32.52304 33.43588 -0.66431
C 37.23181 28.98807 -0.66978
C 38.31861 29.90469 -0.66938
C 32.18873 32.05662 -0.66344
C 36.05759 35.34012 -0.66818
Pt 42.73039 32.28133 -7.87337
Pt 41.15807 32.09937 -5.67344
Pt 40.79820 34.11682 -8.08495
Pt 43.34044 34.76103 -8.67644
Pt 45.15192 33.52929 -6.98340
Pt 42.78320 34.32189 -6.04353
Pt 41.04828 30.65988 -9.31156
Pt 43.75439 31.76065 -5.36361
Pt 42.73382 29.77600 -7.15051
Pt 45.13194 30.89619 -7.57541
Pt 42.58629 32.76423 -10.46356
Pt 43.63267 30.35276 -9.75461
Pt 45.09884 32.74009 -9.57974
C 43.31171 36.82194 -9.45938
O 43.32301 37.89097 -9.83133
C 39.01999 31.88315  0.55702
C 37.96113 34.44779  0.55571
C 36.74964 35.18264  0.55475
C 32.89862 34.04303  0.55447
C 32.24340 31.34768  0.55614
C 32.78497 30.03355  0.55634
C 35.16099 28.59760  0.55298
C 36.57580 28.70870  0.55033
C 38.69027 30.50563  0.55304
C 33.98169 34.96285  0.55399
C 34.64063 35.23790  1.77488
C 38.96902 32.59416  1.77091
C 33.25598 29.49565  1.77509
C 34.46965 28.76026  1.77498
C 38.42898 33.90847  1.77254
C 32.52528 33.43841  1.77450
C 37.23829 28.97477  1.77167
C 38.32016 29.89585  1.76980
C 32.19262 32.05840  1.77447
C 36.05578 35.34945  1.77430
C 39.02538 31.88095  2.98200
C 37.96106 34.44509  2.99035
C 36.75014 35.18178  2.99384
C 32.89843 34.04354  2.99427
C 32.24378 31.34907  2.99313
C 32.78718 30.03536  2.99347
C 35.16542 28.60073  2.99524
C 36.58071 28.70782  2.99370
C 38.69792 30.50225  2.98393
C 33.98206 34.96339  2.99550
C 34.64414 35.22817  4.21738
C 38.98039 32.59072  4.19664
C 33.25656 29.50022  4.21373
C 34.47332 28.77140  4.21561
C 38.43338 33.89942  4.20375
C 32.52211 33.43688  4.21267
C 37.24234 28.98991  4.21239
C 38.33088 29.89984  4.20678
C 32.18903 32.05859  4.21156
C 36.05888 35.33697  4.21672
C 39.06782 31.88323  5.40997
C 37.96646 34.42028  5.42718
C 36.75503 35.15424  5.43341
C 32.89481 34.03924  5.43465
C 32.23225 31.34904  5.42992
C 32.78045 30.03783  5.43078
C 35.16989 28.62758  5.43712
C 36.58368 28.74360  5.43767
C 38.73002 30.49884  5.41822
C 33.98652 34.94822  5.43694
C 34.65468 35.19704  6.65786
C 39.05672 32.59669  6.62003
C 33.24801 29.50482  6.65172
C 34.47289 28.79142  6.65359
C 38.45431 33.87712  6.63753
C 32.51107 33.43505  6.65162
C 37.24824 29.03362  6.65324
C 38.36597 29.90084  6.64337
C 32.17112 32.05704  6.65018
C 36.06908 35.29513  6.65734
C 39.28118 31.87509  7.84369
C 38.00209 34.41799  7.86539
C 36.77179 35.11117  7.87242
C 32.89006 34.03276  7.87362
C 32.21751 31.34701  7.86977
C 32.76766 30.03768  7.86954
C 35.16967 28.65461  7.87432
C 36.57914 28.78757  7.87677
C 38.85249 30.46506  7.86825
C 33.99336 34.92406  7.87507
C 34.66372 35.17546  9.09408
C 39.25305 32.64657  9.08669
C 33.23543 29.50161  9.09044
C 34.46141 28.79335  9.09054
C 38.56451 33.94504  9.09379
C 32.50666 33.43041  9.09291
C 37.22902 29.07180  9.09979
C 38.34261 29.94649  9.11175
C 32.16292 32.05441  9.09221
C 36.07550 35.26778  9.09443
C 39.25749 31.88256 10.33706
C 38.00292 34.42594 10.32762
C 36.76815 35.11246 10.31662
C 32.88981 34.03088 10.31288
C 32.21408 31.34399 10.31284
C 32.75899 30.03176 10.31187
C 35.15124 28.63894 10.31048
C 36.55935 28.78679 10.31199
C 38.71121 30.54589 10.32407
C 33.99207 34.92439 10.31273
C 34.65233 35.19545 11.53033
C 39.13289 32.64496 11.55779
C 33.23054 29.49377 11.53134
C 34.45052 28.77287 11.53012
C 38.47074 33.91978 11.54732
C 32.51005 33.43030 11.53330
C 37.20657 29.05859 11.53323
C 38.28814 29.96894 11.53755
C 32.16722 32.05321 11.53362
C 36.06769 35.29205 11.53196
C 39.17012 31.88521 12.77558
C 37.97377 34.42184 12.75793
C 36.75471 35.14358 12.75436
C 32.89273 34.03395 12.75144
C 32.22409 31.34401 12.75440
C 32.76382 30.03006 12.75372
C 35.14736 28.61567 12.74950
C 36.55813 28.75315 12.75038
C 38.69757 30.53299 12.76387
C 33.98542 34.94042 12.74979
C 34.64501 35.21595 13.96976
C 39.04782 32.60533 13.99688
C 33.23772 29.49233 13.97277
C 34.45400 28.76292 13.97105
C 38.45499 33.89495 13.98477
C 32.51807 33.43248 13.97324
C 37.22157 29.01489 13.96791
C 38.31403 29.92713 13.97002
C 32.17975 32.05453 13.97430
C 36.05884 35.32125 13.97120
C 39.06007 31.88811 15.20616
C 37.97104 34.43745 15.19422
C 36.75318 35.16859 15.19125
C 32.89541 34.03881 15.19146
C 32.23504 31.34608 15.19436
C 32.77535 30.03142 15.19395
C 35.15446 28.60447 15.18818
C 36.56873 28.72593 15.18629
C 38.70545 30.51158 15.19719
C 33.98169 34.95499 15.19012
C 34.64234 35.23085 16.40877
C 38.97983 32.59691 16.42075
C 33.24954 29.49405 16.41233
C 34.46338 28.76119 16.41069
C 38.43537 33.90732 16.41677
C 32.52304 33.43588 16.41219
C 37.23181 28.98807 16.40672
C 38.31861 29.90469 16.40712
C 32.18873 32.05662 16.41306
C 36.05759 35.34012 16.40832
Pt 42.73039 32.28133  9.20313
Pt 41.15807 32.09937 11.40306
Pt 40.79820 34.11682  8.99155
Pt 43.34044 34.76103  8.40006
Pt 45.15192 33.52929 10.09310
Pt 42.78320 34.32189 11.03297
Pt 41.04828 30.65988  7.76494
Pt 43.75439 31.76065 11.71289
Pt 42.73382 29.77600  9.92599
Pt 45.13194 30.89619  9.50109
Pt 42.58629 32.76423  6.61294
Pt 43.63267 30.35276  7.32189
Pt 45.09884 32.74009  7.49676
C 43.31171 36.82194  7.61712
O 43.32301 37.89097  7.24517
C 39.01999 31.88315 17.63352
C 37.96113 34.44779 17.63221
C 36.74964 35.18264 17.63125
C 32.89862 34.04303 17.63097
C 32.24340 31.34768 17.63264
C 32.78497 30.03355 17.63284
C 35.16099 28.59760 17.62948
C 36.57580 28.70870 17.62683
C 38.69027 30.50563 17.62954
C 33.98169 34.96285 17.63049
C 34.64063 35.23790 18.85138
C 38.96902 32.59416 18.84741
C 33.25598 29.49565 18.85159
C 34.46965 28.76026 18.85148
C 38.42898 33.90847 18.84904
C 32.52528 33.43841 18.85100
C 37.23829 28.97477 18.84817
C 38.32016 29.89585 18.84630
C 32.19262 32.05840 18.85097
C 36.05578 35.34945 18.85080
C 39.02538 31.88095 20.05850
C 37.96106 34.44509 20.06685
C 36.75014 35.18178 20.07034
C 32.89843 34.04354 20.07077
C 32.24378 31.34907 20.06963
C 32.78718 30.03536 20.06997
C 35.16542 28.60073 20.07174
C 36.58071 28.70782 20.07020
C 38.69792 30.50225 20.06043
C 33.98206 34.96339 20.07200
C 34.64414 35.22817 21.29388
C 38.98039 32.59072 21.27314
C 33.25656 29.50022 21.29023
C 34.47332 28.77140 21.29211
C 38.43338 33.89942 21.28025
C 32.52211 33.43688 21.28917
C 37.24234 28.98991 21.28889
C 38.33088 29.89984 21.28328
C 32.18903 32.05859 21.28806
C 36.05888 35.33697 21.29322
C 39.06782 31.88323 22.48647
C 37.96646 34.42028 22.50368
C 36.75503 35.15424 22.50991
C 32.89481 34.03924 22.51115
C 32.23225 31.34904 22.50642
C 32.78045 30.03783 22.50728
C 35.16989 28.62758 22.51362
C 36.58368 28.74360 22.51417
C 38.73002 30.49884 22.49472
C 33.98652 34.94822 22.51344
C 34.65468 35.19704 23.73436
C 39.05672 32.59669 23.69653
C 33.24801 29.50482 23.72822
C 34.47289 28.79142 23.73009
C 38.45431 33.87712 23.71403
C 32.51107 33.43505 23.72812
C 37.24824 29.03362 23.72974
C 38.36597 29.90084 23.71987
C 32.17112 32.05704 23.72668
C 36.06908 35.29513 23.73384
C 39.28118 31.87509 24.92019
C 38.00209 34.41799 24.94189
C 36.77179 35.11117 24.94892
C 32.89006 34.03276 24.95012
C 32.21751 31.34701 24.94627
C 32.76766 30.03768 24.94604
C 35.16967 28.65461 24.95082
C 36.57914 28.78757 24.95327
C 38.85249 30.46506 24.94475
C 33.99336 34.92406 24.95157
C 34.66372 35.17546 26.17058
C 39.25305 32.64657 26.16319
C 33.23543 29.50161 26.16694
C 34.46141 28.79335 26.16704
C 38.56451 33.94504 26.17029
C 32.50666 33.43041 26.16941
C 37.22902 29.07180 26.17629
C 38.34261 29.94649 26.18825
C 32.16292 32.05441 26.16871
C 36.07550 35.26778 26.17093
C 39.25749 31.88256 27.41356
C 38.00292 34.42594 27.40412
C 36.76815 35.11246 27.39312
C 32.88981 34.03088 27.38938
C 32.21408 31.34399 27.38934
C 32.75899 30.03176 27.38837
C 35.15124 28.63894 27.38698
C 36.55935 28.78679 27.38849
C 38.71121 30.54589 27.40057
C 33.99207 34.92439 27.38923
C 34.65233 35.19545 28.60683
C 39.13289 32.64496 28.63429
C 33.23054 29.49377 28.60784
C 34.45052 28.77287 28.60662
C 38.47074 33.91978 28.62382
C 32.51005 33.43030 28.60980
C 37.20657 29.05859 28.60973
C 38.28814 29.96894 28.61405
C 32.16722 32.05321 28.61012
C 36.06769 35.29205 28.60846
C 39.17012 31.88521 29.85208
C 37.97377 34.42184 29.83443
C 36.75471 35.14358 29.83086
C 32.89273 34.03395 29.82794
C 32.22409 31.34401 29.83090
C 32.76382 30.03006 29.83022
C 35.14736 28.61567 29.82600
C 36.55813 28.75315 29.82688
C 38.69757 30.53299 29.84037
C 33.98542 34.94042 29.82629
C 34.64501 35.21595 31.04626
C 39.04782 32.60533 31.07338
C 33.23772 29.49233 31.04927
C 34.45400 28.76292 31.04755
C 38.45499 33.89495 31.06127
C 32.51807 33.43248 31.04974
C 37.22157 29.01489 31.04441
C 38.31403 29.92713 31.04652
C 32.17975 32.05453 31.05080
C 36.05884 35.32125 31.04770
C 39.06007 31.88811 32.28266
C 37.97104 34.43745 32.27072
C 36.75318 35.16859 32.26775
C 32.89541 34.03881 32.26796
C 32.23504 31.34608 32.27086
C 32.77535 30.03142 32.27045
C 35.15446 28.60447 32.26468
C 36.56873 28.72593 32.26279
C 38.70545 30.51158 32.27369
C 33.98169 34.95499 32.26662
C 34.64234 35.23085 33.48527
C 38.97983 32.59691 33.49725
C 33.24954 29.49405 33.48883
C 34.46338 28.76119 33.48719
C 38.43537 33.90732 33.49327
C 32.52304 33.43588 33.48869
C 37.23181 28.98807 33.48322
C 38.31861 29.90469 33.48362
C 32.18873 32.05662 33.48956
C 36.05759 35.34012 33.48482
Pt 42.73039 32.28133 26.27963
Pt 41.15807 32.09937 28.47956
Pt 40.79820 34.11682 26.06805
Pt 43.34044 34.76103 25.47656
Pt 45.15192 33.52929 27.16960
Pt 42.78320 34.32189 28.10947
Pt 41.04828 30.65988 24.84144
Pt 43.75439 31.76065 28.78939
Pt 42.73382 29.77600 27.00249
Pt 45.13194 30.89619 26.57759
Pt 42.58629 32.76423 23.68944
Pt 43.63267 30.35276 24.39839
Pt 45.09884 32.74009 24.57326
C 43.31171 36.82194 24.69362
O 43.32301 37.89097 24.32167
