64 

B   -0.11787  -0.11787  -0.11787   0.000026498343614   0.000026495939014   0.000026529864953
C   -0.05194   1.79543   1.79543   0.000012122800884  -0.000003920875532  -0.000003910985407
C    1.79543  -0.05194   1.79543  -0.000003922813401   0.000012130456562  -0.000003913520661
C    1.79543   1.79543  -0.05194  -0.000003936750535  -0.000003927879555   0.000012165482895
B    1.00962   1.00962   1.00962  -0.000026496225932  -0.000026498597256  -0.000026531986348
C    0.89202   2.68372   2.68372  -0.000011931439520  -0.000000200824594  -0.000000198052280
C    2.68372   0.89202   2.68372  -0.000000204596608  -0.000011917913328  -0.000000201895672
C    2.68372   2.68372   0.89202  -0.000000202451164  -0.000000198615532  -0.000011925913580
C    0.00142   0.00142   3.56662   0.000004623518753   0.000004616170190  -0.000001693432152
C   -0.00420   1.79577   5.33953  -0.000003160988098  -0.000004989169772   0.000017104331351
C    1.79577  -0.00420   5.33953  -0.000004967211740  -0.000003147320045   0.000017104366235
C    1.78139   1.78139   3.56508   0.000017571374894   0.000017556276331  -0.000019557405632
C    0.89033   0.89033   4.45913  -0.000004626444371  -0.000004609854254   0.000001696512967
C    0.89595   2.68622   6.22998   0.000003168643789  -0.000017101575494   0.000004948910645
C    2.68622   0.89595   6.22998  -0.000017095041742   0.000003145736232   0.000004960639344
C    2.67549   2.67549   4.45736  -0.000018391652486  -0.000018408606158   0.000002769847420
C    0.00142   3.56662   0.00142   0.000004632233001  -0.000001710777366   0.000004619618982
C   -0.00420   5.33953   1.79577  -0.000003164691095   0.000017087602807  -0.000004953367220
C    1.78139   3.56508   1.78139   0.000017579331500  -0.000019578068316   0.000017564956840
C    1.79577   5.33953  -0.00420  -0.000004969484950   0.000017070594136  -0.000003138283028
C    0.89033   4.45913   0.89033  -0.000004625082022   0.000001723911062  -0.000004623769796
C    0.89595   6.22998   2.68622   0.000003152553203   0.000004974329729  -0.000017103102186
C    2.67549   4.45736   2.67549  -0.000018434107982   0.000002786897388  -0.000018400857650
C    2.68622   6.22998   0.89595  -0.000017065328331   0.000004957706653   0.000003132453323
C   -0.00491   3.56882   3.56882   0.000022232696721   0.000009651126761   0.000009663322862
C   -0.00027   5.34203   5.34203   0.000011938184064   0.000000210907340   0.000000200685232
C    1.78298   3.57121   5.34437   0.000004243808650   0.000016065641204   0.000015848520048
C    1.78298   5.34437   3.57121   0.000004264353227   0.000015843373422   0.000016101219445
C    0.89666   4.45693   4.45693  -0.000022226206317  -0.000009658293993  -0.000009670879419
C    0.94369   6.23032   6.23032  -0.000012135368657   0.000003916309430   0.000003918106727
C    2.68138   4.45454   6.24277  -0.000015805615212  -0.000016082450229  -0.000004307083618
C    2.68138   6.24277   4.45454  -0.000015851742068  -0.000004263263300  -0.000016107010533
C    3.56662   0.00142   0.00142  -0.000001730224013   0.000004632180263   0.000004623753535
C    3.56508   1.78139   1.78139  -0.000019579485983   0.000017585348259   0.000017573144392
C    5.33953  -0.00420   1.79577   0.000017087871773  -0.000003156353362  -0.000004948251828
C    5.33953   1.79577  -0.00420   0.000017073041184  -0.000004968931922  -0.000003145500715
C    4.45913   0.89033   0.89033   0.000001732405073  -0.000004632566689  -0.000004626820323
C    4.45736   2.67549   2.67549   0.000002785078264  -0.000018438178679  -0.000018411712882
C    6.22998   0.89595   2.68622   0.000004968513824   0.000003154497361  -0.000017098053648
C    6.22998   2.68622   0.89595   0.000004959701010  -0.000017075306078   0.000003137175359
C    3.56882  -0.00491   3.56882   0.000009654964336   0.000022229718614   0.000009671979327
C    3.57121   1.78298   5.34437   0.000016074716161   0.000004248921837   0.000015834660723
C    5.34203  -0.00027   5.34203   0.000000189995749   0.000011923156286   0.000000214537316
C    5.34437   1.78298   3.57121   0.000015850395836   0.000004270094793   0.000016102990946
C    4.45693   0.89666   4.45693  -0.000009649512616  -0.000022232061621  -0.000009672239144
C    4.45454   2.68138   6.24277  -0.000016083216455  -0.000015807597639  -0.000004310327850
C    6.23032   0.94369   6.23032   0.000003927614022  -0.000012110192175   0.000003914832306
C    6.24277   2.68138   4.45454  -0.000004262097502  -0.000015840512529  -0.000016097667196
C    3.56882   3.56882  -0.00491   0.000009648287120   0.000009641341422   0.000022292186099
C    3.57121   5.34437   1.78298   0.000016084601698   0.000015809634050   0.000004306705465
C    5.34437   3.57121   1.78298   0.000015813591652   0.000016073288834   0.000004311863471
C    5.34203   5.34203  -0.00027   0.000000193389746   0.000000207310982   0.000011927417176
C    4.45693   4.45693   0.89666  -0.000009644889365  -0.000009636513289  -0.000022286871557
C    4.45454   6.24277   2.68138  -0.000016058729082  -0.000004238815143  -0.000015847702533
C    6.24277   4.45454   2.68138  -0.000004253753213  -0.000016062308332  -0.000015842599969
C    6.23032   6.23032   0.94369   0.000003932836087   0.000003925677297  -0.000012174012333
C    3.56559   3.56559   3.56559   0.000003766297892   0.000003786336203   0.000003741282454
C    3.56839   5.35026   5.35026  -0.000002784886103   0.000018430763748   0.000018396853571
C    5.35026   3.56839   5.35026   0.000018436305590  -0.000002790708850   0.000018406351643
C    5.35026   5.35026   3.56839   0.000018405936754   0.000018405387617  -0.000002755077094
C    4.46016   4.46016   4.46016  -0.000003776895789  -0.000003777242770  -0.000003740782245
C    4.46067   6.24436   6.24436   0.000019591086224  -0.000017590363355  -0.000017573153393
C    6.24436   4.46067   6.24436  -0.000017584170946   0.000019569674301  -0.000017563299571
C    6.24436   6.24436   4.46067  -0.000017569977552  -0.000017560140672   0.000019552835530
