1080

V -1.13809 -3.57223 -9.89213
V -11.13726 -3.57122 -1.66652
V -6.98404 -1.76888 -9.86955
V -5.29357 -1.77820 -1.69614
V -9.45090 -3.56862 -9.85204
V -2.83986 -3.57799 -1.75775
V -3.60080 -1.77149 -9.86130
V -8.68196 -1.77090 -1.68255
O -7.45155 -3.57073 -10.21402
O -4.82488 -3.57933 -1.34743
O -1.60661 -1.77019 -10.23913
O -10.67454 -1.76978 -1.31103
O -11.14641 -3.57179 -10.49087
O -1.14686 -3.57609 -1.12126
O -5.28853 -1.76859 -10.51748
O -6.98381 -1.77303 -1.04613
O -3.17540 -3.57348 -10.28217
O -9.09880 -3.57333 -1.24822
O -9.02559 -1.76710 -10.27469
O -3.25387 -1.77556 -1.32019
O -0.94735 -3.56990 -8.32005
O -11.26742 -3.56763 -3.24485
O -6.80952 -1.77194 -8.29504
O -5.45458 -1.78385 -3.27265
O -9.60523 -3.56905 -8.27407
O -2.74048 -3.57648 -3.34168
O -3.75979 -1.76865 -8.28365
O -8.56100 -1.77158 -3.26358
O -4.52893 -3.76776 -5.87593
O -7.34399 -3.63525 -5.58641
O -10.18038 -1.56003 -5.83425
O -1.26967 -1.74659 -5.54268
H -4.27096 -4.56134 -6.38191
H -3.94023 -3.77807 -5.09993
H -7.54573 -2.71390 -5.83111
H -6.35765 -3.68797 -5.63322
H -9.94611 -0.78603 -6.38050
H -9.58133 -1.48828 -5.06866
H -1.46053 -2.68932 -5.69937
H -0.28481 -1.68132 -5.62928
V -0.94512 -3.57566  1.64766
V -10.94430 -3.57466  9.87328
V -6.79107 -1.77232  1.67024
V -5.10060 -1.78164  9.84365
V -9.25793 -3.57206  1.68775
V -2.64690 -3.58143  9.78204
V -3.40784 -1.77492  1.67849
V -8.48900 -1.77433  9.85725
O -7.25859 -3.57417  1.32577
O -4.63191 -3.58276 10.19236
O -1.41364 -1.77362  1.30066
O -10.48157 -1.77321 10.22877
O -10.95345 -3.57522  1.04892
O -0.95389 -3.57953 10.41853
O -5.09556 -1.77202  1.02232
O -6.79084 -1.77646 10.49367
O -2.98244 -3.57691  1.25763
O -8.90584 -3.57676 10.29157
O -8.83263 -1.77053  1.26510
O -3.06091 -1.77900 10.21961
O -0.75438 -3.57334  3.21975
O -11.07445 -3.57107  8.29494
O -6.61656 -1.77537  3.24475
O -5.26162 -1.78728  8.26714
O -9.41226 -3.57249  3.26573
O -2.54752 -3.57991  8.19812
O -3.56682 -1.77209  3.25614
O -8.36803 -1.77501  8.27622
O -4.33596 -3.77120  5.66386
O -7.15103 -3.63869  5.95339
O -9.98742 -1.56346  5.70554
O -1.07671 -1.75002  5.99711
H -4.07799 -4.56477  5.15788
H -3.74727 -3.78151  6.43987
H -7.35277 -2.71733  5.70869
H -6.16469 -3.69140  5.90657
H -9.75314 -0.78946  5.15930
H -9.38836 -1.49172  6.47113
H -1.26756 -2.69276  5.84042
H -0.09184 -1.68475  5.91052
V -0.75216 -3.57910 13.18746
V -10.75133 -3.57809 21.41307
V -6.59811 -1.77575 13.21004
V -4.90764 -1.78507 21.38345
V -9.06497 -3.57549 13.22755
V -2.45393 -3.58486 21.32184
V -3.21487 -1.77836 13.21829
V -8.29603 -1.77777 21.39704
O -7.06562 -3.57760 12.86557
O -4.43895 -3.58620 21.73216
O -1.22068 -1.77706 12.84046
O -10.28861 -1.77665 21.76856
O -10.76049 -3.57865 12.58872
O -0.76093 -3.58296 21.95833
O -4.90260 -1.77545 12.56211
O -6.59788 -1.77990 22.03346
O -2.78947 -3.58035 12.79742
O -8.71287 -3.58020 21.83136
O -8.63966 -1.77397 12.80489
O -2.86794 -1.78243 21.75940
O -0.56142 -3.57677 14.75954
O -10.88149 -3.57450 19.83474
O -6.42359 -1.77881 14.78454
O -5.06865 -1.79072 19.80693
O -9.21930 -3.57592 14.80552
O -2.35455 -3.58335 19.73791
O -3.37386 -1.77552 14.79594
O -8.17507 -1.77845 19.81601
O -4.14300 -3.77463 17.20366
O -6.95806 -3.64212 17.49318
O -9.79445 -1.56690 17.24534
O -0.88374 -1.75345 17.53691
H -3.88503 -4.56821 16.69768
H -3.55431 -3.78494 17.97966
H -7.15980 -2.72077 17.24848
H -5.97172 -3.69483 17.44637
H -9.56018 -0.79289 16.69909
H -9.19540 -1.49515 18.01093
H -1.07460 -2.69619 17.38021
H  0.10112 -1.68819 17.45031
V -1.13825  0.03306 -9.89321
V -11.13742  0.03407 -1.66760
V -6.98420  1.83641 -9.87063
V -5.29373  1.82709 -1.69723
V -9.45106  0.03667 -9.85312
V -2.84003  0.02730 -1.75883
V -3.60097  1.83380 -9.86238
V -8.68212  1.83439 -1.68363
O -7.45172  0.03456 -10.21510
O -4.82504  0.02596 -1.34851
O -1.60677  1.83510 -10.24021
O -10.67470  1.83551 -1.31211
O -11.14658  0.03350 -10.49196
O -1.14702  0.02920 -1.12234
O -5.28869  1.83671 -10.51856
O -6.98397  1.83226 -1.04721
O -3.17556  0.03181 -10.28325
O -9.09897  0.03196 -1.24931
O -9.02575  1.83819 -10.27578
O -3.25404  1.82973 -1.32127
O -0.94751  0.03539 -8.32113
O -11.26758  0.03766 -3.24593
O -6.80969  1.83335 -8.29613
O -5.45474  1.82144 -3.27374
O -9.60539  0.03624 -8.27515
O -2.74065  0.02881 -3.34276
O -3.75995  1.83664 -8.28473
O -8.56116  1.83371 -3.26466
O -4.52909 -0.16247 -5.87701
O -7.34415 -0.02996 -5.58749
O -10.18055  2.04526 -5.83533
O -1.26983  1.85870 -5.54377
H -4.27112 -0.95605 -6.38299
H -3.94040 -0.17278 -5.10101
H -7.54589  0.89139 -5.83219
H -6.35781 -0.08267 -5.63430
H -9.94627  2.81927 -6.38158
H -9.58149  2.11701 -5.06974
H -1.46069  0.91597 -5.70046
H -0.28497  1.92397 -5.63036
V -0.94528  0.02963  1.64658
V -10.94446  0.03063  9.87219
V -6.79124  1.83297  1.66916
V -5.10077  1.82366  9.84257
V -9.25810  0.03323  1.68667
V -2.64706  0.02387  9.78096
V -3.40800  1.83037  1.67741
V -8.48916  1.83096  9.85617
O -7.25875  0.03112  1.32469
O -4.63208  0.02253 10.19128
O -1.41380  1.83167  1.29958
O -10.48173  1.83208 10.22769
O -10.95361  0.03007  1.04784
O -0.95405  0.02576 10.41745
O -5.09573  1.83327  1.02123
O -6.79101  1.82883 10.49259
O -2.98260  0.02838  1.25654
O -8.90600  0.02853 10.29049
O -8.83279  1.83476  1.26402
O -3.06107  1.82630 10.21853
O -0.75455  0.03196  3.21867
O -11.07462  0.03422  8.29386
O -6.61672  1.82992  3.24367
O -5.26178  1.81801  8.26606
O -9.41242  0.03280  3.26464
O -2.54768  0.02538  8.19704
O -3.56699  1.83320  3.25506
O -8.36820  1.83028  8.27513
O -4.33613 -0.16591  5.66278
O -7.15119 -0.03340  5.95231
O -9.98758  2.04183  5.70446
O -1.07687  1.85527  5.99603
H -4.07816 -0.95948  5.15680
H -3.74743 -0.17621  6.43879
H -7.35293  0.88796  5.70760
H -6.16485 -0.08611  5.90549
H -9.75331  2.81583  5.15821
H -9.38852  2.11357  6.47005
H -1.26773  0.91253  5.83934
H -0.09200  1.92054  5.90943
V -0.75232  0.02619 13.18637
V -10.75149  0.02720 21.41199
V -6.59827  1.82954 13.20896
V -4.90780  1.82022 21.38236
V -9.06513  0.02980 13.22646
V -2.45410  0.02043 21.32075
V -3.21504  1.82693 13.21720
V -8.29619  1.82752 21.39596
O -7.06579  0.02769 12.86448
O -4.43911  0.01910 21.73107
O -1.22084  1.82824 12.83938
O -10.28877  1.82864 21.76748
O -10.76065  0.02664 12.58763
O -0.76109  0.02233 21.95725
O -4.90276  1.82984 12.56103
O -6.59804  1.82539 22.03238
O -2.78963  0.02494 12.79634
O -8.71304  0.02509 21.83028
O -8.63982  1.83133 12.80381
O -2.86811  1.82286 21.75832
O -0.56158  0.02852 14.75846
O -10.88165  0.03079 19.83366
O -6.42376  1.82648 14.78346
O -5.06882  1.81457 19.80585
O -9.21946  0.02937 14.80444
O -2.35472  0.02194 19.73683
O -3.37402  1.82977 14.79486
O -8.17523  1.82684 19.81493
O -4.14316 -0.16934 17.20257
O -6.95822 -0.03683 17.49210
O -9.79462  2.03839 17.24426
O -0.88391  1.85184 17.53582
H -3.88519 -0.96292 16.69659
H -3.55447 -0.17965 17.97858
H -7.15997  0.88453 17.24740
H -5.97188 -0.08954 17.44529
H -9.56034  2.81240 16.69801
H -9.19556  2.11014 18.00985
H -1.07476  0.90910 17.37913
H  0.10096  1.91710 17.44923
V -1.13841  3.63835 -9.89430
V -11.13759  3.63936 -1.66868
V -6.98437  5.44170 -9.87171
V -5.29389  5.43238 -1.69831
V -9.45122  3.64196 -9.85421
V -2.84019  3.63259 -1.75992
V -3.60113  5.43909 -9.86347
V -8.68229  5.43968 -1.68471
O -7.45188  3.63985 -10.21619
O -4.82521  3.63125 -1.34960
O -1.60693  5.44039 -10.24129
O -10.67486  5.44080 -1.31319
O -11.14674  3.63880 -10.49304
O -1.14718  3.63449 -1.12343
O -5.28885  5.44200 -10.51964
O -6.98413  5.43755 -1.04829
O -3.17573  3.63710 -10.28433
O -9.09913  3.63725 -1.25039
O -9.02592  5.44348 -10.27686
O -3.25420  5.43502 -1.32235
O -0.94767  3.64068 -8.32221
O -11.26774  3.64295 -3.24701
O -6.80985  5.43864 -8.29721
O -5.45491  5.42673 -3.27482
O -9.60555  3.64153 -8.27623
O -2.74081  3.63410 -3.34384
O -3.76011  5.44193 -8.28581
O -8.56132  5.43900 -3.26574
O -4.52925  3.44282 -5.87810
O -7.34432  3.57533 -5.58857
O -10.18071  5.65055 -5.83641
O -1.27000  5.46399 -5.54485
H -4.27128  2.64924 -6.38408
H -3.94056  3.43251 -5.10209
H -7.54606  4.49668 -5.83327
H -6.35798  3.52262 -5.63538
H -9.94643  6.42456 -6.38266
H -9.58165  5.72230 -5.07082
H -1.46086  4.52126 -5.70154
H -0.28513  5.52926 -5.63144
V -0.94545  3.63492  1.64550
V -10.94462  3.63593  9.87111
V -6.79140  5.43827  1.66808
V -5.10093  5.42895  9.84149
V -9.25826  3.63853  1.68559
V -2.64722  3.62916  9.77988
V -3.40816  5.43566  1.67633
V -8.48932  5.43625  9.85508
O -7.25892  3.63642  1.32361
O -4.63224  3.62782 10.19020
O -1.41397  5.43696  1.29850
O -10.48190  5.43737 10.22660
O -10.95378  3.63536  1.04676
O -0.95422  3.63106 10.41637
O -5.09589  5.43856  1.02015
O -6.79117  5.43412 10.49150
O -2.98276  3.63367  1.25546
O -8.90616  3.63382 10.28941
O -8.83295  5.44005  1.26294
O -3.06123  5.43159 10.21744
O -0.75471  3.63725  3.21758
O -11.07478  3.63952  8.29278
O -6.61689  5.43521  3.24259
O -5.26194  5.42330  8.26498
O -9.41259  3.63809  3.26356
O -2.54785  3.63067  8.19595
O -3.56715  5.43850  3.25398
O -8.36836  5.43557  8.27405
O -4.33629  3.43938  5.66170
O -7.15135  3.57189  5.95122
O -9.98774  5.64712  5.70338
O -1.07703  5.46056  5.99495
H -4.07832  2.64581  5.15572
H -3.74760  3.42908  6.43770
H -7.35309  4.49325  5.70652
H -6.16501  3.51918  5.90441
H -9.75347  6.42112  5.15713
H -9.38869  5.71886  6.46897
H -1.26789  4.51782  5.83826
H -0.09217  5.52583  5.90835
V -0.75248  3.63149 13.18529
V -10.75166  3.63249 21.41091
V -6.59844  5.43483 13.20788
V -4.90797  5.42551 21.38128
V -9.06529  3.63509 13.22538
V -2.45426  3.62572 21.31967
V -3.21520  5.43222 13.21612
V -8.29636  5.43282 21.39488
O -7.06595  3.63298 12.86340
O -4.43928  3.62439 21.72999
O -1.22100  5.43353 12.83830
O -10.28893  5.43394 21.76640
O -10.76081  3.63193 12.58655
O -0.76125  3.62762 21.95616
O -4.90292  5.43513 12.55995
O -6.59820  5.43069 22.03130
O -2.78980  3.63024 12.79526
O -8.71320  3.63038 21.82920
O -8.63999  5.43662 12.80273
O -2.86827  5.42815 21.75724
O -0.56174  3.63381 14.75738
O -10.88181  3.63608 19.83257
O -6.42392  5.43178 14.78238
O -5.06898  5.41986 19.80477
O -9.21962  3.63466 14.80336
O -2.35488  3.62724 19.73575
O -3.37419  5.43506 14.79378
O -8.17539  5.43214 19.81385
O -4.14332  3.43595 17.20149
O -6.95839  3.56846 17.49102
O -9.79478  5.64369 17.24317
O -0.88407  5.45713 17.53474
H -3.88535  2.64237 16.69551
H -3.55463  3.42564 17.97750
H -7.16013  4.48982 17.24631
H -5.97205  3.51575 17.44420
H -9.56050  6.41769 16.69693
H -9.19572  5.71543 18.00876
H -1.07493  4.51439 17.37805
H  0.10080  5.52239 17.44815
V 10.55511 -3.57277 -9.96705
V  0.55594 -3.57176 -1.74144
V  4.70916 -1.76942 -9.94447
V  6.39963 -1.77874 -1.77107
V  2.24230 -3.56916 -9.92696
V  8.85333 -3.57853 -1.83267
V  8.09240 -1.77203 -9.93622
V  3.01124 -1.77144 -1.75747
O  4.24164 -3.57127 -10.28894
O  6.86832 -3.57986 -1.42235
O 10.08659 -1.77072 -10.31405
O  1.01866 -1.77032 -1.38595
O  0.54678 -3.57232 -10.56580
O 10.54634 -3.57663 -1.19618
O  6.40467 -1.76912 -10.59240
O  4.70939 -1.77357 -1.12105
O  8.51780 -3.57401 -10.35709
O  2.59439 -3.57387 -1.32315
O  2.66761 -1.76763 -10.34962
O  8.43933 -1.77610 -1.39511
O 10.74585 -3.57044 -8.39497
O  0.42578 -3.56817 -3.31977
O  4.88367 -1.77248 -8.36997
O  6.23862 -1.78439 -3.34758
O  2.08797 -3.56959 -8.34899
O  8.95271 -3.57702 -3.41660
O  7.93341 -1.76919 -8.35857
O  3.13220 -1.77212 -3.33850
O  7.16427 -3.76830 -5.95085
O  4.34921 -3.63579 -5.66133
O  1.51281 -1.56057 -5.90917
O 10.42353 -1.74712 -5.61761
H  7.42224 -4.56188 -6.45683
H  7.75296 -3.77861 -5.17485
H  4.14747 -2.71443 -5.90603
H  5.33555 -3.68850 -5.70814
H  1.74709 -0.78656 -6.45542
H  2.11187 -1.48882 -5.14358
H 10.23267 -2.68986 -5.77430
H 11.40839 -1.68186 -5.70420
V 10.74808 -3.57620  1.57274
V  0.74890 -3.57519  9.79836
V  4.90212 -1.77285  1.59532
V  6.59259 -1.78217  9.76873
V  2.43526 -3.57259  1.61283
V  9.04630 -3.58196  9.70712
V  8.28536 -1.77546  1.60357
V  3.20420 -1.77487  9.78233
O  4.43461 -3.57470  1.25085
O  7.06128 -3.58330 10.11744
O 10.27956 -1.77416  1.22574
O  1.21163 -1.77375 10.15385
O  0.73975 -3.57576  0.97400
O 10.73931 -3.58006 10.34361
O  6.59764 -1.77256  0.94739
O  4.90236 -1.77700 10.41875
O  8.71076 -3.57745  1.18270
O  2.78736 -3.57730 10.21665
O  2.86057 -1.77107  1.19018
O  8.63229 -1.77953 10.14469
O 10.93881 -3.57387  3.14483
O  0.61875 -3.57160  8.22002
O  5.07664 -1.77591  3.16983
O  6.43158 -1.78782  8.19222
O  2.28094 -3.57302  3.19080
O  9.14568 -3.58045  8.12320
O  8.12637 -1.77262  3.18122
O  3.32516 -1.77555  8.20129
O  7.35724 -3.77173  5.58894
O  4.54217 -3.63923  5.87847
O  1.70578 -1.56400  5.63062
O 10.61649 -1.75056  5.92219
H  7.61521 -4.56531  5.08296
H  7.94593 -3.78204  6.36494
H  4.34043 -2.71787  5.63376
H  5.52851 -3.69194  5.83165
H  1.94006 -0.79000  5.08437
H  2.30484 -1.49225  6.39621
H 10.42563 -2.69329  5.76550
H 11.60136 -1.68529  5.83559
V 10.94104 -3.57963 13.11253
V  0.94187 -3.57863 21.33815
V  5.09509 -1.77629 13.13512
V  6.78556 -1.78561 21.30852
V  2.62823 -3.57603 13.15262
V  9.23926 -3.58540 21.24691
V  8.47832 -1.77889 13.14336
V  3.39717 -1.77830 21.32212
O  4.62757 -3.57814 12.79064
O  7.25425 -3.58673 21.65724
O 10.47252 -1.77759 12.76554
O  1.40459 -1.77718 21.69364
O  0.93271 -3.57919 12.51379
O 10.93227 -3.58350 21.88341
O  6.79060 -1.77599 12.48719
O  5.09532 -1.78043 21.95854
O  8.90373 -3.58088 12.72250
O  2.98032 -3.58074 21.75644
O  3.05354 -1.77450 12.72997
O  8.82525 -1.78297 21.68448
O 11.13178 -3.57731 14.68462
O  0.81171 -3.57504 19.75982
O  5.26960 -1.77934 14.70962
O  6.62455 -1.79126 19.73201
O  2.47390 -3.57646 14.73060
O  9.33864 -3.58388 19.66299
O  8.31934 -1.77606 14.72102
O  3.51813 -1.77898 19.74109
O  7.55020 -3.77517 17.12873
O  4.73514 -3.64266 17.41826
O  1.89874 -1.56743 17.17042
O 10.80946 -1.75399 17.46198
H  7.80817 -4.56874 16.62275
H  8.13889 -3.78548 17.90474
H  4.53340 -2.72130 17.17356
H  5.72148 -3.69537 17.37145
H  2.13302 -0.79343 16.62417
H  2.49780 -1.49569 17.93601
H 10.61860 -2.69673 17.30529
H 11.79432 -1.68873 17.37539
V 10.55495  0.03253 -9.96814
V  0.55577  0.03353 -1.74252
V  4.70899  1.83587 -9.94555
V  6.39947  1.82655 -1.77215
V  2.24214  0.03613 -9.92805
V  8.85317  0.02676 -1.83376
V  8.09223  1.83326 -9.93731
V  3.01108  1.83386 -1.75855
O  4.24148  0.03402 -10.29003
O  6.86815  0.02543 -1.42344
O 10.08643  1.83457 -10.31513
O  1.01850  1.83498 -1.38703
O  0.54662  0.03297 -10.56688
O 10.54618  0.02866 -1.19727
O  6.40451  1.83617 -10.59348
O  4.70923  1.83173 -1.12213
O  8.51763  0.03128 -10.35817
O  2.59423  0.03142 -1.32423
O  2.66744  1.83766 -10.35070
O  8.43916  1.82919 -1.39619
O 10.74569  0.03485 -8.39605
O  0.42562  0.03712 -3.32085
O  4.88351  1.83282 -8.37105
O  6.23845  1.82090 -3.34866
O  2.08781  0.03570 -8.35007
O  8.95255  0.02828 -3.41768
O  7.93325  1.83610 -8.35965
O  3.13204  1.83318 -3.33958
O  7.16411 -0.16301 -5.95194
O  4.34904 -0.03050 -5.66241
O  1.51265  2.04473 -5.91025
O 10.42336  1.85817 -5.61869
H  7.42208 -0.95659 -6.45792
H  7.75280 -0.17332 -5.17593
H  4.14730  0.89086 -5.90711
H  5.33538 -0.08321 -5.70922
H  1.74693  2.81873 -6.45650
H  2.11171  2.11647 -5.14466
H 10.23251  0.91543 -5.77538
H 11.40823  1.92343 -5.70528
V 10.74791  0.02909  1.57166
V  0.74874  0.03010  9.79727
V  4.90196  1.83244  1.59424
V  6.59243  1.82312  9.76765
V  2.43510  0.03270  1.61175
V  9.04614  0.02333  9.70604
V  8.28520  1.82983  1.60249
V  3.20404  1.83042  9.78124
O  4.43445  0.03059  1.24977
O  7.06112  0.02199 10.11636
O 10.27939  1.83113  1.22466
O  1.21146  1.83154 10.15277
O  0.73959  0.02953  0.97292
O 10.73914  0.02523 10.34253
O  6.59747  1.83273  0.94631
O  4.90219  1.82829 10.41766
O  8.71060  0.02784  1.18162
O  2.78720  0.02799 10.21557
O  2.86041  1.83422  1.18910
O  8.63213  1.82576 10.14360
O 10.93865  0.03142  3.14374
O  0.61858  0.03369  8.21894
O  5.07648  1.82938  3.16875
O  6.43142  1.81747  8.19114
O  2.28077  0.03227  3.18972
O  9.14552  0.02484  8.12211
O  8.12621  1.83267  3.18014
O  3.32500  1.82974  8.20021
O  7.35707 -0.16644  5.58786
O  4.54201 -0.03394  5.87738
O  1.70562  2.04129  5.62954
O 10.61633  1.85473  5.92111
H  7.61504 -0.96002  5.08188
H  7.94576 -0.17675  6.36386
H  4.34027  0.88742  5.63268
H  5.52835 -0.08665  5.83057
H  1.93989  2.81529  5.08329
H  2.30467  2.11304  6.39513
H 10.42547  0.91200  5.76442
H 11.60119  1.92000  5.83451
V 10.94088  0.02566 13.11145
V  0.94170  0.02666 21.33707
V  5.09492  1.82900 13.13404
V  6.78540  1.81968 21.30744
V  2.62807  0.02926 13.15154
V  9.23910  0.01989 21.24583
V  8.47816  1.82640 13.14228
V  3.39701  1.82699 21.32104
O  4.62741  0.02715 12.78956
O  7.25408  0.01856 21.65615
O 10.47236  1.82770 12.76446
O  1.40443  1.82811 21.69256
O  0.93255  0.02610 12.51271
O 10.93211  0.02179 21.88232
O  6.79044  1.82930 12.48611
O  5.09516  1.82486 21.95746
O  8.90356  0.02441 12.72142
O  2.98016  0.02455 21.75536
O  3.05337  1.83079 12.72889
O  8.82509  1.82232 21.68340
O 11.13162  0.02798 14.68354
O  0.81155  0.03025 19.75873
O  5.26944  1.82595 14.70854
O  6.62438  1.81404 19.73093
O  2.47374  0.02883 14.72952
O  9.33848  0.02141 19.66191
O  8.31918  1.82923 14.71994
O  3.51797  1.82631 19.74001
O  7.55004 -0.16988 17.12765
O  4.73497 -0.03737 17.41718
O  1.89858  2.03786 17.16934
O 10.80929  1.85130 17.46090
H  7.80801 -0.96345 16.62167
H  8.13873 -0.18019 17.90366
H  4.53323  0.88399 17.17248
H  5.72131 -0.09008 17.37036
H  2.13286  2.81186 16.62309
H  2.49764  2.10960 17.93492
H 10.61844  0.90856 17.30421
H 11.79416  1.91657 17.37431
V 10.55479  3.63782 -9.96922
V  0.55561  3.63882 -1.74360
V  4.70883  5.44116 -9.94664
V  6.39930  5.43184 -1.77323
V  2.24197  3.64142 -9.92913
V  8.85301  3.63205 -1.83484
V  8.09207  5.43856 -9.93839
V  3.01091  5.43915 -1.75963
O  4.24132  3.63931 -10.29111
O  6.86799  3.63072 -1.42452
O 10.08627  5.43986 -10.31622
O  1.01834  5.44027 -1.38811
O  0.54646  3.63826 -10.56796
O 10.54602  3.63395 -1.19835
O  6.40434  5.44146 -10.59456
O  4.70906  5.43702 -1.12321
O  8.51747  3.63657 -10.35926
O  2.59407  3.63671 -1.32531
O  2.66728  5.44295 -10.35178
O  8.43900  5.43448 -1.39727
O 10.74552  3.64014 -8.39713
O  0.42545  3.64241 -3.32194
O  4.88335  5.43811 -8.37213
O  6.23829  5.42620 -3.34974
O  2.08765  3.64099 -8.35115
O  8.95239  3.63357 -3.41876
O  7.93308  5.44139 -8.36074
O  3.13187  5.43847 -3.34066
O  7.16394  3.44228 -5.95302
O  4.34888  3.57479 -5.66349
O  1.51249  5.65002 -5.91134
O 10.42320  5.46346 -5.61977
H  7.42191  2.64871 -6.45900
H  7.75264  3.43197 -5.17701
H  4.14714  4.49615 -5.90820
H  5.33522  3.52208 -5.71031
H  1.74676  6.42402 -6.45758
H  2.11155  5.72176 -5.14575
H 10.23234  4.52072 -5.77646
H 11.40807  5.52872 -5.70636
V 10.74775  3.63438  1.57058
V  0.74858  3.63539  9.79619
V  4.90180  5.43773  1.59316
V  6.59227  5.42841  9.76656
V  2.43494  3.63799  1.61067
V  9.04597  3.62862  9.70496
V  8.28503  5.43512  1.60141
V  3.20388  5.43571  9.78016
O  4.43428  3.63588  1.24869
O  7.06096  3.62728 10.11528
O 10.27923  5.43642  1.22358
O  1.21130  5.43683 10.15168
O  0.73942  3.63482  0.97183
O 10.73898  3.63052 10.34145
O  6.59731  5.43803  0.94523
O  4.90203  5.43358 10.41658
O  8.71044  3.63313  1.18054
O  2.78703  3.63328 10.21448
O  2.86025  5.43951  1.18801
O  8.63196  5.43105 10.14252
O 10.93849  3.63671  3.14266
O  0.61842  3.63898  8.21786
O  5.07631  5.43467  3.16766
O  6.43125  5.42276  8.19005
O  2.28061  3.63756  3.18864
O  9.14535  3.63013  8.12103
O  8.12605  5.43796  3.17906
O  3.32484  5.43503  8.19913
O  7.35691  3.43885  5.58678
O  4.54185  3.57136  5.87630
O  1.70545  5.64658  5.62846
O 10.61617  5.46002  5.92003
H  7.61488  2.64527  5.08080
H  7.94560  3.42854  6.36278
H  4.34011  4.49271  5.63160
H  5.52819  3.51865  5.82949
H  1.93973  6.42059  5.08221
H  2.30451  5.71833  6.39405
H 10.42531  4.51729  5.76334
H 11.60103  5.52529  5.83343
V 10.94072  3.63095 13.11037
V  0.94154  3.63195 21.33599
V  5.09476  5.43429 13.13295
V  6.78523  5.42498 21.30636
V  2.62790  3.63455 13.15046
V  9.23894  3.62519 21.24475
V  8.47800  5.43169 13.14120
V  3.39684  5.43228 21.31996
O  4.62725  3.63244 12.78848
O  7.25392  3.62385 21.65507
O 10.47220  5.43299 12.76337
O  1.40427  5.43340 21.69148
O  0.93239  3.63139 12.51163
O 10.93195  3.62708 21.88124
O  6.79027  5.43459 12.48502
O  5.09499  5.43015 21.95638
O  8.90340  3.62970 12.72033
O  2.98000  3.62985 21.75428
O  3.05321  5.43608 12.72781
O  8.82493  5.42762 21.68232
O 11.13145  3.63328 14.68246
O  0.81138  3.63554 19.75765
O  5.26928  5.43124 14.70746
O  6.62422  5.41933 19.72985
O  2.47358  3.63412 14.72843
O  9.33832  3.62670 19.66083
O  8.31901  5.43452 14.71885
O  3.51780  5.43160 19.73892
O  7.54987  3.43541 17.12657
O  4.73481  3.56792 17.41610
O  1.89842  5.64315 17.16825
O 10.80913  5.45659 17.45982
H  7.80784  2.64184 16.62059
H  8.13857  3.42511 17.90258
H  4.53307  4.48928 17.17139
H  5.72115  3.51521 17.36928
H  2.13269  6.41715 16.62200
H  2.49748  5.71489 17.93384
H 10.61827  4.51385 17.30313
H 11.79400  5.52186 17.37322
V 22.24831 -3.57330 -10.04198
V 12.24914 -3.57230 -1.81636
V 16.40236 -1.76996 -10.01939
V 18.09283 -1.77928 -1.84599
V 13.93550 -3.56970 -10.00189
V 20.54653 -3.57906 -1.90760
V 19.78559 -1.77256 -10.01115
V 14.70444 -1.77197 -1.83239
O 15.93484 -3.57181 -10.36387
O 18.56152 -3.58040 -1.49728
O 21.77979 -1.77126 -10.38897
O 12.71186 -1.77085 -1.46087
O 12.23998 -3.57286 -10.64072
O 22.23954 -3.57717 -1.27110
O 18.09787 -1.76966 -10.66732
O 16.40259 -1.77410 -1.19597
O 20.21100 -3.57455 -10.43201
O 14.28759 -3.57441 -1.39807
O 14.36081 -1.76817 -10.42454
O 20.13252 -1.77664 -1.47003
O 22.43905 -3.57098 -8.46989
O 12.11898 -3.56871 -3.39469
O 16.57687 -1.77301 -8.44489
O 17.93181 -1.78492 -3.42250
O 13.78117 -3.57013 -8.42391
O 20.64591 -3.57755 -3.49152
O 19.62661 -1.76973 -8.43349
O 14.82540 -1.77265 -3.41342
O 18.85747 -3.76884 -6.02578
O 16.04241 -3.63633 -5.73625
O 13.20601 -1.56110 -5.98409
O 22.11672 -1.74766 -5.69253
H 19.11544 -4.56241 -6.53176
H 19.44616 -3.77915 -5.24977
H 15.84066 -2.71497 -5.98095
H 17.02875 -3.68904 -5.78306
H 13.44029 -0.78710 -6.53034
H 13.80507 -1.48936 -5.21850
H 21.92587 -2.69040 -5.84922
H 23.10159 -1.68239 -5.77912
V 22.44128 -3.57674  1.49782
V 12.44210 -3.57573  9.72343
V 16.59532 -1.77339  1.52040
V 18.28579 -1.78271  9.69381
V 14.12846 -3.57313  1.53791
V 20.73950 -3.58250  9.63220
V 19.97856 -1.77600  1.52865
V 14.89740 -1.77541  9.70740
O 16.12781 -3.57524  1.17593
O 18.75448 -3.58384 10.04252
O 21.97275 -1.77470  1.15082
O 12.90483 -1.77429 10.07892
O 12.43295 -3.57629  0.89908
O 22.43250 -3.58060 10.26869
O 18.29083 -1.77309  0.87247
O 16.59555 -1.77754 10.34382
O 20.40396 -3.57799  1.10778
O 14.48056 -3.57784 10.14173
O 14.55377 -1.77161  1.11526
O 20.32549 -1.78007 10.06976
O 22.63201 -3.57441  3.06990
O 12.31194 -3.57214  8.14510
O 16.76984 -1.77645  3.09491
O 18.12478 -1.78836  8.11730
O 13.97413 -3.57356  3.11588
O 20.83888 -3.58099  8.04827
O 19.81957 -1.77316  3.10630
O 15.01836 -1.77609  8.12637
O 19.05043 -3.77227  5.51402
O 16.23537 -3.63976  5.80354
O 13.39898 -1.56454  5.55570
O 22.30969 -1.75109  5.84727
H 19.30840 -4.56585  5.00804
H 19.63913 -3.78258  6.29002
H 16.03363 -2.71841  5.55884
H 17.22171 -3.69247  5.75673
H 13.63325 -0.79053  5.00945
H 13.99803 -1.49279  6.32129
H 22.11883 -2.69383  5.69058
H 23.29455 -1.68583  5.76067
V 22.63424 -3.58017 13.03761
V 12.63506 -3.57916 21.26323
V 16.78829 -1.77682 13.06020
V 18.47876 -1.78614 21.23360
V 14.32143 -3.57656 13.07770
V 20.93246 -3.58593 21.17199
V 20.17152 -1.77943 13.06844
V 15.09037 -1.77884 21.24720
O 16.32077 -3.57867 12.71572
O 18.94745 -3.58727 21.58231
O 22.16572 -1.77813 12.69062
O 13.09779 -1.77772 21.61872
O 12.62591 -3.57973 12.43887
O 22.62547 -3.58404 21.80848
O 18.48380 -1.77653 12.41227
O 16.78852 -1.78097 21.88362
O 20.59692 -3.58142 12.64758
O 14.67352 -3.58127 21.68152
O 14.74674 -1.77504 12.65505
O 20.51845 -1.78350 21.60956
O 22.82498 -3.57784 14.60970
O 12.50491 -3.57557 19.68489
O 16.96280 -1.77988 14.63470
O 18.31774 -1.79179 19.65709
O 14.16710 -3.57700 14.65568
O 21.03184 -3.58442 19.58807
O 20.01254 -1.77659 14.64610
O 15.21133 -1.77952 19.66617
O 19.24340 -3.77571 17.05381
O 16.42834 -3.64320 17.34334
O 13.59194 -1.56797 17.09549
O 22.50265 -1.75453 17.38706
H 19.50137 -4.56928 16.54783
H 19.83209 -3.78601 17.82982
H 16.22659 -2.72184 17.09864
H 17.41468 -3.69591 17.29652
H 13.82622 -0.79397 16.54925
H 14.19100 -1.49623 17.86108
H 22.31180 -2.69727 17.23037
H 23.48752 -1.68926 17.30047
V 22.24815  0.03199 -10.04306
V 12.24897  0.03299 -1.81744
V 16.40219  1.83533 -10.02048
V 18.09266  1.82602 -1.84707
V 13.93534  0.03559 -10.00297
V 20.54637  0.02623 -1.90868
V 19.78543  1.83273 -10.01223
V 14.70427  1.83332 -1.83347
O 15.93468  0.03348 -10.36495
O 18.56135  0.02489 -1.49836
O 21.77963  1.83403 -10.39006
O 12.71170  1.83444 -1.46195
O 12.23982  0.03243 -10.64180
O 22.23938  0.02812 -1.27219
O 18.09771  1.83563 -10.66840
O 16.40243  1.83119 -1.19705
O 20.21083  0.03074 -10.43309
O 14.28743  0.03089 -1.39915
O 14.36064  1.83712 -10.42562
O 20.13236  1.82866 -1.47111
O 22.43888  0.03432 -8.47097
O 12.11882  0.03658 -3.39578
O 16.57671  1.83228 -8.44597
O 17.93165  1.82037 -3.42358
O 13.78101  0.03516 -8.42499
O 20.64575  0.02774 -3.49260
O 19.62644  1.83556 -8.43458
O 14.82523  1.83264 -3.41450
O 18.85731 -0.16355 -6.02686
O 16.04224 -0.03104 -5.73733
O 13.20585  2.04419 -5.98518
O 22.11656  1.85763 -5.69361
H 19.11528 -0.95712 -6.53284
H 19.44600 -0.17385 -5.25085
H 15.84050  0.89032 -5.98204
H 17.02858 -0.08375 -5.78415
H 13.44013  2.81819 -6.53142
H 13.80491  2.11593 -5.21959
H 21.92570  0.91489 -5.85030
H 23.10143  1.92290 -5.78020
V 22.44111  0.02855  1.49674
V 12.44194  0.02956  9.72235
V 16.59516  1.83190  1.51932
V 18.28563  1.82258  9.69272
V 14.12830  0.03216  1.53683
V 20.73934  0.02279  9.63112
V 19.97839  1.82929  1.52757
V 14.89724  1.82988  9.70632
O 16.12764  0.03005  1.17485
O 18.75432  0.02146 10.04144
O 21.97259  1.83060  1.14974
O 12.90466  1.83100 10.07784
O 12.43278  0.02900  0.89799
O 22.43234  0.02469 10.26761
O 18.29067  1.83220  0.87139
O 16.59539  1.82775 10.34274
O 20.40380  0.02730  1.10670
O 14.48039  0.02745 10.14064
O 14.55361  1.83369  1.11417
O 20.32532  1.82522 10.06868
O 22.63185  0.03088  3.06882
O 12.31178  0.03315  8.14402
O 16.76967  1.82884  3.09382
O 18.12462  1.81693  8.11621
O 13.97397  0.03173  3.11480
O 20.83871  0.02430  8.04719
O 19.81941  1.83213  3.10522
O 15.01820  1.82920  8.12529
O 19.05027 -0.16698  5.51294
O 16.23521 -0.03447  5.80246
O 13.39881  2.04075  5.55462
O 22.30953  1.85420  5.84619
H 19.30824 -0.96056  5.00696
H 19.63896 -0.17729  6.28894
H 16.03347  0.88689  5.55776
H 17.22155 -0.08718  5.75565
H 13.63309  2.81476  5.00837
H 13.99787  2.11250  6.32021
H 22.11867  0.91146  5.68949
H 23.29439  1.91946  5.75959
V 22.63408  0.02512 13.03653
V 12.63490  0.02613 21.26215
V 16.78812  1.82847 13.05911
V 18.47859  1.81915 21.23252
V 14.32126  0.02873 13.07662
V 20.93230  0.01936 21.17091
V 20.17136  1.82586 13.06736
V 15.09020  1.82645 21.24612
O 16.32061  0.02662 12.71464
O 18.94728  0.01802 21.58123
O 22.16556  1.82716 12.68953
O 13.09763  1.82757 21.61764
O 12.62575  0.02556 12.43779
O 22.62531  0.02126 21.80740
O 18.48363  1.82876 12.41118
O 16.78836  1.82432 21.88254
O 20.59676  0.02387 12.64649
O 14.67336  0.02402 21.68044
O 14.74657  1.83025 12.65397
O 20.51829  1.82179 21.60848
O 22.82481  0.02745 14.60862
O 12.50475  0.02972 19.68381
O 16.96264  1.82541 14.63362
O 18.31758  1.81350 19.65601
O 14.16694  0.02829 14.65459
O 21.03168  0.02087 19.58699
O 20.01237  1.82870 14.64501
O 15.21116  1.82577 19.66508
O 19.24324 -0.17041 17.05273
O 16.42817 -0.03791 17.34226
O 13.59178  2.03732 17.09441
O 22.50249  1.85076 17.38598
H 19.50120 -0.96399 16.54675
H 19.83193 -0.18072 17.82874
H 16.22643  0.88345 17.09755
H 17.41451 -0.09062 17.29544
H 13.82605  2.81132 16.54816
H 14.19084  2.10907 17.86000
H 22.31163  0.90802 17.22929
H 23.48736  1.91603 17.29938
V 22.24798  3.63728 -10.04414
V 12.24881  3.63829 -1.81853
V 16.40203  5.44063 -10.02156
V 18.09250  5.43131 -1.84815
V 13.93517  3.64089 -10.00405
V 20.54621  3.63152 -1.90976
V 19.78527  5.43802 -10.01331
V 14.70411  5.43861 -1.83455
O 15.93452  3.63878 -10.36603
O 18.56119  3.63018 -1.49944
O 21.77946  5.43932 -10.39114
O 12.71153  5.43973 -1.46303
O 12.23965  3.63772 -10.64288
O 22.23921  3.63342 -1.27327
O 18.09754  5.44092 -10.66949
O 16.40226  5.43648 -1.19813
O 20.21067  3.63603 -10.43418
O 14.28727  3.63618 -1.40023
O 14.36048  5.44241 -10.42670
O 20.13220  5.43395 -1.47219
O 22.43872  3.63961 -8.47205
O 12.11865  3.64188 -3.39686
O 16.57654  5.43757 -8.44705
O 17.93149  5.42566 -3.42466
O 13.78084  3.64045 -8.42608
O 20.64559  3.63303 -3.49368
O 19.62628  5.44085 -8.43566
O 14.82507  5.43793 -3.41559
O 18.85714  3.44174 -6.02794
O 16.04208  3.57425 -5.73841
O 13.20569  5.64948 -5.98626
O 22.11640  5.46292 -5.69469
H 19.11511  2.64817 -6.53392
H 19.44584  3.43144 -5.25194
H 15.84034  4.49561 -5.98312
H 17.02842  3.52154 -5.78523
H 13.43996  6.42348 -6.53251
H 13.80474  5.72123 -5.22067
H 21.92554  4.52018 -5.85138
H 23.10126  5.52819 -5.78129
V 22.44095  3.63385  1.49565
V 12.44177  3.63485  9.72127
V 16.59499  5.43719  1.51824
V 18.28547  5.42787  9.69164
V 14.12814  3.63745  1.53574
V 20.73917  3.62808  9.63003
V 19.97823  5.43459  1.52648
V 14.89707  5.43518  9.70524
O 16.12748  3.63534  1.17376
O 18.75416  3.62675 10.04035
O 21.97243  5.43589  1.14866
O 12.90450  5.43630 10.07676
O 12.43262  3.63429  0.89691
O 22.43218  3.62998 10.26653
O 18.29051  5.43749  0.87031
O 16.59523  5.43304 10.34166
O 20.40363  3.63260  1.10562
O 14.48023  3.63274 10.13956
O 14.55344  5.43898  1.11309
O 20.32516  5.43051 10.06760
O 22.63169  3.63617  3.06774
O 12.31162  3.63844  8.14294
O 16.76951  5.43414  3.09274
O 18.12445  5.42222  8.11513
O 13.97381  3.63702  3.11372
O 20.83855  3.62960  8.04611
O 19.81925  5.43742  3.10414
O 15.01804  5.43450  8.12421
O 19.05011  3.43831  5.51185
O 16.23504  3.57082  5.80138
O 13.39865  5.64605  5.55354
O 22.30936  5.45949  5.84510
H 19.30808  2.64473  5.00587
H 19.63880  3.42800  6.28786
H 16.03330  4.49218  5.55668
H 17.22138  3.51811  5.75457
H 13.63293  6.42005  5.00729
H 13.99771  5.71779  6.31913
H 22.11851  4.51675  5.68841
H 23.29423  5.52475  5.75851
V 22.63391  3.63041 13.03545
V 12.63474  3.63142 21.26106
V 16.78796  5.43376 13.05803
V 18.47843  5.42444 21.23144
V 14.32110  3.63402 13.07554
V 20.93214  3.62465 21.16983
V 20.17120  5.43115 13.06628
V 15.09004  5.43174 21.24503
O 16.32045  3.63191 12.71356
O 18.94712  3.62331 21.58015
O 22.16539  5.43245 12.68845
O 13.09746  5.43286 21.61656
O 12.62558  3.63085 12.43671
O 22.62514  3.62655 21.80632
O 18.48347  5.43405 12.41010
O 16.78819  5.42961 21.88145
O 20.59660  3.62916 12.64541
O 14.67320  3.62931 21.67936
O 14.74641  5.43554 12.65289
O 20.51813  5.42708 21.60739
O 22.82465  3.63274 14.60753
O 12.50458  3.63501 19.68273
O 16.96247  5.43070 14.63254
O 18.31742  5.41879 19.65493
O 14.16677  3.63359 14.65351
O 21.03152  3.62616 19.58590
O 20.01221  5.43399 14.64393
O 15.21100  5.43106 19.66400
O 19.24307  3.43488 17.05165
O 16.42801  3.56738 17.34117
O 13.59162  5.64261 17.09333
O 22.50233  5.45605 17.38490
H 19.50104  2.64130 16.54567
H 19.83176  3.42457 17.82765
H 16.22627  4.48874 17.09647
H 17.41435  3.51467 17.29436
H 13.82589  6.41661 16.54708
H 14.19067  5.71436 17.85892
H 22.31147  4.51332 17.22821
H 23.48719  5.52132 17.29830
