54 

C   -5.07145  -4.92128   0.00001  -0.045055103311590  -0.079587427748677  -0.000000404917450
C   -3.66524  -4.93664   0.00001   0.071316455327731  -0.006658407416139   0.000000539409576
C   -0.69393  -4.93462   0.00001  -0.112396229512672  -0.017768269025726  -0.000000242173946
C    0.69354  -4.93464   0.00001   0.112402089536941  -0.017773901254933   0.000001888877843
C    3.66478  -4.93665  -0.00000  -0.071330674470572  -0.006681398093549  -0.000000273687689
C    5.07106  -4.92134  -0.00000   0.045075874278499  -0.079591262251168  -0.000000246410100
C   -5.76361  -3.71451   0.00001  -0.055695799263707   0.083663910914520  -0.000000135151943
C   -2.90988  -3.73855   0.00000  -0.010796206871709   0.002385567936549   0.000000454284778
C   -1.44527  -3.73396  -0.00000   0.018026498347710   0.015987887210103  -0.000002472736659
C    1.44484  -3.73396   0.00000  -0.018004732027013   0.015983092318283  -0.000001470183534
C    2.90942  -3.73851   0.00000   0.010761132773691   0.002406439223096  -0.000000066963705
C    5.76317  -3.71453  -0.00000   0.055715275945951   0.083690852767130   0.000000374531102
C   -5.05718  -2.47310   0.00000   0.038227763380931  -0.022987531021987   0.000000668477456
C   -3.60776  -2.48603  -0.00000  -0.002741002483428   0.006527631281741  -0.000001457827683
C   -0.72275  -2.49285   0.00002  -0.009401181937843  -0.001205009283858   0.000001377201030
C    0.72227  -2.49288   0.00001   0.009360914950901  -0.001234459450198   0.000000196716891
C    3.60734  -2.48600   0.00001   0.002764295108854   0.006550642064939   0.000002772063100
C    5.05671  -2.47318  -0.00001  -0.038287855643532  -0.023074042517712  -0.000000477163027
C   -5.73913  -1.23398  -0.00000  -0.029960955470299   0.005795531046074   0.000000089496483
C   -2.88348  -1.24133   0.00000  -0.000097296954942  -0.002766084554156   0.000003427689913
C   -1.44233  -1.24114   0.00001   0.001210363548345   0.001320452167334   0.000001423159093
C    1.44190  -1.24115  -0.00000  -0.001190983641275   0.001310532121138  -0.000002173044474
C    2.88308  -1.24130  -0.00000   0.000133956439798  -0.002742088138150  -0.000000122417401
C    5.73878  -1.23399  -0.00003   0.030016940145660   0.005793305130088  -0.000001646544883
C   -5.04801  -0.00001  -0.00001   0.030330445170763  -0.000009060863834   0.000000132770021
C   -3.59453  -0.00000  -0.00003  -0.013007102173038   0.000000756107512  -0.000006072700698
C   -0.72477  -0.00000   0.00000  -0.000460737306204   0.000001240055383  -0.000001765501125
C    0.72430  -0.00000   0.00000   0.000414866076315   0.000001041674572   0.000002574882422
C    3.59412   0.00001  -0.00001   0.013030368783284   0.000003621932681  -0.000001571308931
C    5.04752   0.00001  -0.00002  -0.030419932459771   0.000002698861504   0.000002997484954
C   -5.73913   1.23398   0.00000  -0.029967045880370  -0.005793201844818   0.000001354342576
C   -2.88346   1.24132  -0.00000  -0.000087677324780   0.002762605192216   0.000001490633853
C   -1.44232   1.24114  -0.00000   0.001217140357025  -0.001320282888786   0.000000182382066
C    1.44191   1.24114  -0.00001  -0.001191314821339  -0.001318378091675  -0.000001943901507
C    2.88308   1.24131  -0.00001   0.000137894365332   0.002745567748545   0.000000093341952
C    5.73877   1.23400  -0.00004   0.030015138205922  -0.005796963116804  -0.000002535296863
C   -5.05716   2.47311  -0.00000   0.038236197883711   0.023000639632544  -0.000000855568439
C   -3.60775   2.48602   0.00001  -0.002744013116367  -0.006527173800971   0.000001567735850
C   -0.72275   2.49285  -0.00001  -0.009400849890920   0.001202360506641  -0.000000882120193
C    0.72227   2.49287   0.00000   0.009363685084543   0.001232595238940   0.000000866483601
C    3.60735   2.48601  -0.00001   0.002766574246512  -0.006545499753738   0.000000642720474
C    5.05671   2.47319  -0.00002  -0.038288957301129   0.023076103551395   0.000000041915084
C   -5.76361   3.71451  -0.00001  -0.055695824088070  -0.083665936501576  -0.000000940439691
C   -2.90989   3.73854   0.00000  -0.010812540731267  -0.002385362794998   0.000001064424836
C   -1.44528   3.73397  -0.00001   0.018018496575632  -0.015984917263795  -0.000001179272020
C    1.44484   3.73396   0.00000  -0.018008618066676  -0.015971631413420   0.000003383208977
C    2.90941   3.73850  -0.00002   0.010754757326368  -0.002414076390269  -0.000002450658939
C    5.76317   3.71454   0.00001   0.055716230871672  -0.083686939704785   0.000002121439027
C   -5.07146   4.92128  -0.00000  -0.045054739780359   0.079586046781772   0.000000568794009
C   -3.66525   4.93662  -0.00001   0.071322416376675   0.006653021630783   0.000000005170504
C   -0.69392   4.93462  -0.00001  -0.112389388049760   0.017774539051530   0.000000269637085
C    0.69355   4.93464  -0.00002   0.112407583011101   0.017765709531570  -0.000001582791289
C    3.66478   4.93663  -0.00001  -0.071333932407843   0.006678642759193  -0.000000826779902
C    5.07107   4.92135  -0.00001   0.045079913054913   0.079586159014525  -0.000000404722802
