564 

C    4.02841  -0.56616  -22.17392  -0.011448160698738   0.003913174505222   0.024032719258583
C    2.50451   3.20563  -22.17392  -0.010424426359506  -0.017243565918300   0.027743879025061
C   -1.52390   3.77178  -22.17392   0.004222100340100  -0.008776224471183   0.004071990071418
C   -4.02841   0.56616  -22.17392   0.011435453882731  -0.003922421001091   0.024037575014576
C   -2.50451  -3.20563  -22.17392   0.010426950825841   0.017233497293436   0.027692237811751
C    1.52390  -3.77178  -22.17392  -0.004246918189348   0.008747911691455   0.004085943139167
C    3.97910   0.84578  -22.17392  -0.018414523727299   0.003776745336045   0.031887806270094
C    1.25708   3.86890  -22.17392   0.003815835118387  -0.013481096166914   0.012572950249412
C   -2.72202   3.02311  -22.17392   0.004746241467831  -0.011913113202910   0.011272972398102
C   -3.97910  -0.84579  -22.17392   0.018426858887231  -0.003776597499745   0.031899090877423
C   -1.25708  -3.86890  -22.17392  -0.003800998153746   0.013464487954860   0.012578821432747
C    2.72202  -3.02311  -22.17392  -0.004779039013073   0.011898532175579   0.011284767553386
C    3.87834   1.58785  -21.01044  -0.004217401343207   0.011372895753768  -0.038155624186068
C    0.54990   4.07414  -20.97555  -0.010569287598580   0.003351099122186  -0.034399858306882
C   -3.19878   2.54692  -20.94554   0.029948347319381   0.016606146944165   0.006221363528381
C   -3.87844  -1.58796  -21.01050   0.004214618431936  -0.011457978080878  -0.038192533719406
C   -0.54992  -4.07404  -20.97556   0.010506719323538  -0.003339763142576  -0.034469723048512
C    3.19890  -2.54687  -20.94558  -0.029925250901839  -0.016600870826954   0.006325020471694
C    3.12016   2.79184  -20.99952   0.007750546951272  -0.006866525626914  -0.035341138254844
C   -0.88064   3.96937  -20.93167  -0.019334754450269  -0.019501851497303   0.006815171083486
C   -3.92799   1.31173  -21.00289  -0.002457317113112   0.008031011291776  -0.039049697832332
C   -3.12007  -2.79178  -20.99945  -0.007735361546922   0.006911150600504  -0.035311682295048
C    0.88068  -3.96924  -20.93167   0.019416334696328   0.019534877999312   0.006809463370571
C    3.92802  -1.31166  -21.00286   0.002441224776668  -0.008029737904370  -0.039074798204966
C    4.12131  -0.56421  -19.79600  -0.000712925357506   0.012061851413072  -0.001357441902224
C    2.56421   3.27470  -19.76752  -0.017329704660338   0.007012793395039  -0.005056842517458
C   -1.52515   3.76778  -19.69319  -0.007000028998922  -0.010073418551213  -0.003866883260430
C   -4.12132   0.56422  -19.79612   0.000699950911402  -0.012152692339654  -0.001453431920522
C   -2.56427  -3.27459  -19.76735   0.017140792352691  -0.006892914714544  -0.004926517998826
C    1.52519  -3.76772  -19.69320   0.006998496497675   0.010064300395945  -0.003867572234011
C    4.09238   0.86269  -19.79927  -0.000762090727624  -0.012069929239175  -0.001618596784377
C    1.28705   3.90840  -19.74613   0.015737247736527  -0.008337447370341  -0.003258240170412
C   -2.73475   3.03700  -19.71072   0.011178912585803   0.001542438566724  -0.004202032872082
C   -4.09248  -0.86264  -19.79937   0.000741586023225   0.012153127286663  -0.001638446043829
C   -1.28696  -3.90839  -19.74603  -0.015566464021728   0.008273214274640  -0.003190608440266
C    2.73484  -3.03694  -19.71092  -0.011150857940855  -0.001510875480679  -0.004452115674733
C    3.86768   1.56117  -18.57632  -0.011436007583586   0.005739073221824   0.001397399829647
C    0.59423   4.00498  -18.48836  -0.015576741910212  -0.007190059066414   0.003664261363772
C   -3.24206   2.48811  -18.50788   0.000276842903659  -0.010501463952183   0.002576532519506
C   -3.86773  -1.56112  -18.57640   0.011395747420787  -0.005665800303622   0.001424467154569
C   -0.59429  -4.00500  -18.48826   0.015510972503637   0.007193527367585   0.003668999219567
C    3.24219  -2.48811  -18.50794  -0.000234333636082   0.010471171385695   0.002565230606902
C    3.09659   2.75537  -18.54607   0.001315111931398  -0.013442043594623   0.003563333337912
C   -0.82190   3.93952  -18.46442   0.013742217120210  -0.004845785382727   0.003387392866110
C   -3.94136   1.25550  -18.56221   0.011244345646219   0.007731912962554   0.003031253967078
C   -3.09653  -2.75538  -18.54598  -0.001187562162530   0.013293092342130   0.003537739588635
C    0.82187  -3.93960  -18.46444  -0.013751568865236   0.004824797436777   0.003456094726370
C    3.94144  -1.25534  -18.56211  -0.011184578882578  -0.007534250006156   0.003039005546567
C    4.14494  -0.54681  -17.35783  -0.005616436340654   0.003910696757277  -0.001467705561601
C    2.56947   3.20368  -17.29736  -0.011530862515212  -0.000652432660279  -0.001575895832095
C   -1.50129   3.68836  -17.23755  -0.003963488842859  -0.008990836342947   0.000549713426865
C   -4.14491   0.54678  -17.35796   0.005640404475035  -0.004053182722858  -0.001454157091210
C   -2.56946  -3.20357  -17.29725   0.011430554642710   0.000714274549891  -0.001517309090572
C    1.50124  -3.68843  -17.23768   0.003898903660360   0.008967663683556   0.000395104219578
C    4.10931   0.87194  -17.36446  -0.005278643362441  -0.004333107143665  -0.001464563900634
C    1.28951   3.81821  -17.25546   0.005943779397869  -0.009317125873515  -0.001930075125019
C   -2.73117   2.97416  -17.27273   0.010230674729204  -0.000481975335684   0.000179635419075
C   -4.10936  -0.87189  -17.36459   0.005276960124491   0.004385671225203  -0.001475235954875
C   -1.28950  -3.81815  -17.25534  -0.005920478015340   0.009317552739401  -0.001931755905408
C    2.73113  -2.97411  -17.27275  -0.010223608197896   0.000509698521522   0.000260166980232
C    3.93612   1.55885  -16.13890  -0.007647668742480   0.002065390696817  -0.001153550004260
C    0.59875   3.89096  -16.00199  -0.011029994727430  -0.005552227558373  -0.000671171213709
C   -3.26055   2.45198  -16.06967   0.000946484117455  -0.007201221562904  -0.002112634721264
C   -3.93623  -1.55889  -16.13909   0.007572868152373  -0.002033794023976  -0.001262591151258
C   -0.59879  -3.89096  -16.00184   0.010975783630102   0.005569806692066  -0.000627149044649
C    3.26050  -2.45197  -16.06966  -0.000907713913185   0.007224510590961  -0.002120714275202
C    3.13130   2.72320  -16.08494   0.001030348284828  -0.008843522365051  -0.002855138182090
C   -0.81838   3.82437  -15.99288   0.010562866037873  -0.004526844755216  -0.001837709024258
C   -3.99974   1.24392  -16.13368   0.007613419620523   0.001795449375206  -0.001018483560029
C   -3.13113  -2.72312  -16.08490  -0.000904592043886   0.008784832320106  -0.002888346325800
C    0.81840  -3.82457  -15.99288  -0.010547830407963   0.004487735767002  -0.001822863637731
C    3.99956  -1.24388  -16.13357  -0.007664037047476  -0.001768685329867  -0.000999875895228
C    4.26404  -0.54370  -14.93871  -0.005864676349438   0.008147376503429  -0.000282483292467
C   -4.26405   0.54361  -14.93882   0.005869611219419  -0.008149539709657  -0.000237093979249
C    4.23332   0.87054  -14.94173  -0.005441550693358  -0.008317151784304   0.000681112359095
C   -4.23325  -0.87064  -14.94183   0.005487413342822   0.008243920916545   0.000747146864186
C    2.59668   3.13129  -14.82419  -0.013872035811670  -0.000593418483001   0.004076385795561
C   -2.59663  -3.13127  -14.82412   0.013943013022025   0.000551760100941   0.004043403271828
C    2.75320  -2.90132  -14.81550  -0.011246140204921   0.000848038115131   0.002071983352025
C   -2.75320   2.90122  -14.81549   0.011229292440548  -0.000858569066047   0.002095240445468
C    1.49946  -3.56292  -14.76383   0.005336086681675   0.008099342249630  -0.001046993118795
C   -1.49942   3.56275  -14.76385  -0.005367621996366  -0.008089714311511  -0.001107283794454
C    1.29452   3.68986  -14.76826   0.008763027926249  -0.009288174965250   0.001110956866077
C   -1.29455  -3.68986  -14.76810  -0.008853821762165   0.009287993715943   0.001124624719772
C    4.14544  -1.23735  -13.71170  -0.008744677900097  -0.001637879596077  -0.000251570348795
C   -4.14544   1.23722  -13.71182   0.008718766717370   0.001569619370808  -0.000242819746109
C    4.08037   1.55195  -13.71235  -0.010103760966775   0.001905882836360  -0.000506993681335
C   -4.08041  -1.55191  -13.71243   0.010033215596492  -0.001762940813586  -0.000485946749921
C    3.33416  -2.39712  -13.62352  -0.001601433066884   0.007974986266112  -0.001612382228424
C   -3.33415   2.39700  -13.62356   0.001562163880122  -0.007984323987775  -0.001687327930914
C    3.20383   2.66286  -13.62766  -0.000486116708164  -0.009862911366413  -0.002804437588686
C   -3.20395  -2.66292  -13.62760   0.000433094598482   0.009863474983859  -0.002743553056245
C   -0.60523  -3.70955  -13.51057   0.008448653928836   0.006511507862823   0.000722854924203
C    0.60539   3.70962  -13.51064  -0.008363008717134  -0.006492213972401   0.000754416088512
C    0.81940  -3.64660  -13.50801  -0.009615823512734   0.005236146828001   0.001687978781859
C   -0.81925   3.64646  -13.50805   0.009668221980783  -0.005242049658183   0.001706925246347
C    4.50760  -0.54338  -12.53940  -0.006350857185868   0.006177562283250  -0.000043632379888
C   -4.50760   0.54333  -12.53956   0.006374546482749  -0.006166363977210  -0.000150561231767
C    4.47328   0.87158  -12.54036  -0.006220339823376  -0.006603334080102   0.000444748110788
C   -4.47320  -0.87164  -12.54051   0.006280438026288   0.006527559830039   0.000296711958500
C    2.82566  -2.78418  -12.34900  -0.007877869835280   0.003258212431188   0.004147344672164
C   -2.82553   2.78401  -12.34896   0.007885421160198  -0.003282898626549   0.004310895793640
C    2.66488   3.00353  -12.34987  -0.007515781076786  -0.004032458501284   0.006033717438318
C   -2.66485  -3.00354  -12.34987   0.007526935657479   0.004013022459880   0.006009379037399
C    1.32168   3.48789  -12.29002   0.003380666784342  -0.006607145994112   0.002963989417384
C   -1.32158  -3.48777  -12.28994  -0.003387955301486   0.006606807347253   0.003036503376584
C    1.52276  -3.37065  -12.29072   0.001774025697060   0.006580896535526   0.003573552243782
C   -1.52263   3.37056  -12.29073  -0.001750556815783  -0.006583590300750   0.003642231645901
C   -4.43035   1.22995  -11.30448   0.012306131019938   0.003151657229650  -0.000498812460315
C    4.43025  -1.22987  -11.30434  -0.012226687923534  -0.002994467508283  -0.000495765471617
C   -4.35717  -1.54698  -11.30329   0.012490240690848  -0.002069147904343  -0.000593751802377
C    4.35719   1.54703  -11.30328  -0.012510502385649   0.002092489562582  -0.000711236955725
C    3.51208  -2.31178  -11.18449   0.000770591820700   0.006867306295481   0.000815272037136
C   -3.51219   2.31172  -11.18466  -0.000846192055654  -0.006926720464066   0.000713138571445
C    3.37429   2.56951  -11.18338   0.002100436549663  -0.006405704166636   0.000030994949283
C   -3.37426  -2.56944  -11.18339  -0.002116658799105   0.006413782069628   0.000046953750082
C   -0.62479  -3.39294  -11.04166   0.002863228552256   0.007043485646634  -0.001621591526185
C    0.62492   3.39321  -11.04166  -0.002862742053458  -0.007053070133214  -0.001591261056663
C   -0.82752   3.33833  -11.04081   0.003926965635260  -0.006512578814857  -0.001607136473554
C    0.82768  -3.33809  -11.04072  -0.003840995897837   0.006578348090891  -0.001488612540967
C    4.87134   0.88005  -10.16138  -0.008996546288407  -0.007096606013088   0.003505986337860
C   -4.87136  -0.88000  -10.16150   0.009004302732702   0.007141847159883   0.003417084628831
C    4.90994  -0.53977  -10.16135  -0.008722098017268   0.006183814036619   0.003439300514925
C   -4.91006   0.53975  -10.16142   0.008687783448964  -0.006284000471958   0.003534672510167
C    2.99619  -2.56868  -9.87882  -0.008327869691891   0.005236111861180  -0.010571075735241
C   -2.99627   2.56871  -9.87899   0.008319952905873  -0.005221377109822  -0.010592694129236
C   -2.83501  -2.77753  -9.87801   0.007297686229938   0.006972131762474  -0.011407923417514
C    2.83514   2.77766  -9.87795  -0.007227735927148  -0.006983779829995  -0.011416352964355
C    1.57624  -2.91689  -9.88032  -0.005783338325709   0.007348278335918  -0.000092404797459
C   -1.57629   2.91693  -9.88044   0.005748130620210  -0.007390150977245  -0.000023492540135
C    1.39449   3.02066  -9.87971  -0.004718158738267  -0.006644770632682  -0.000025808358615
C   -1.39446  -3.02037  -9.87978   0.004658531304308   0.006708649020776   0.000004171885595
C    4.88231  -1.21248  -8.91071  -0.009984526373638   0.000842193928631   0.000814442270733
C   -4.88236   1.21242  -8.91079   0.009978287415449  -0.000885005995633   0.000754239492706
C    4.80315   1.54800  -8.90997  -0.010222186699889  -0.002256727263628   0.000807642590012
C   -4.80309  -1.54795  -8.91004   0.010231749461751   0.002279408911302   0.000779791373929
C    3.83998  -2.18401  -8.75837   0.010904570174384   0.015439498058479   0.000586683927299
C   -3.83998   2.18399  -8.75848  -0.010893091089535  -0.015415753666187   0.000613556638472
C   -0.63331  -2.32098  -8.92488  -0.001408463746896  -0.001307170625243  -0.010846824048382
C    0.63329   2.32099  -8.92497   0.001378006475151   0.001308535202879  -0.010888880788280
C   -0.77234   2.27518  -8.92232  -0.002505375132787   0.003225316879594  -0.014129247653606
C    0.77228  -2.27524  -8.92214   0.002438656106557  -0.003269219318047  -0.014121533105473
C    3.69809   2.44613  -8.75656   0.012283703134923  -0.014737141192496  -0.000130607880329
C   -3.69803  -2.44615  -8.75666  -0.012257661207083   0.014691832868536  -0.000148958194749
C   -5.41028  -0.89634  -7.76466   0.011276255023616   0.003301863125603   0.005080659778479
C   -5.45195   0.52644  -7.76498   0.011069623613079  -0.002624235579975   0.005953997074030
C    5.41021   0.89626  -7.76468  -0.011296486015059  -0.003366159926207   0.005028664191305
C    5.45184  -0.52644  -7.76497  -0.011099661882620   0.002640706750955   0.005971660613149
C    1.25568   1.31655  -8.10569  -0.004011716934416   0.012473308761908  -0.000822111080299
C   -1.25565  -1.31664  -8.10569   0.004020500638075  -0.012603451307582  -0.000857505196835
C    1.33207  -1.23483  -8.10164  -0.002910142059434  -0.011231893399123  -0.000617093852531
C   -1.33202   1.23486  -8.10177   0.002892527078951   0.011371716133604  -0.000606082530285
C    0.68529   0.02223  -8.18257  -0.032344420128844  -0.001266378352095   0.000983275116516
C   -0.68518  -0.02230  -8.18261   0.032519530540337   0.001143335752931   0.001174133410046
C   -3.46413   2.19630  -7.34814   0.009856817035199  -0.023070664070680  -0.006506908105238
C    3.46423  -2.19631  -7.34799  -0.009839586403441   0.023109750809908  -0.006434811820304
C   -3.31537  -2.42415  -7.34879   0.007837515170045   0.023715676997372  -0.005742262517344
C    3.31544   2.42404  -7.34871  -0.007770643320164  -0.023735080400301  -0.005759416021946
C   -2.29846   1.45214  -7.12744  -0.001461598441946   0.004328004035107   0.003510927607582
C    2.29855  -1.45222  -7.12735   0.001465245193750  -0.004313240905499   0.003553826190410
C   -2.20515  -1.59805  -7.13142  -0.000342790313735  -0.004188728652396   0.002578517212972
C    2.20511   1.59806  -7.13130   0.000370732511215   0.004214360707125   0.002630169099487
C   -5.51531   1.17357  -6.47449   0.017709783799523   0.001257869510841  -0.001254284050025
C    5.51533  -1.17354  -6.47457  -0.017739145363303  -0.001236584606969  -0.001321343255379
C   -5.42969  -1.54576  -6.47398   0.017510205564212   0.001873589940548  -0.002081015157690
C    5.42962   1.54574  -6.47404  -0.017569033806876  -0.001830328051531  -0.002176649006307
C   -4.42307   2.06169  -6.27603  -0.009173117248323  -0.025215292160733   0.008171395648245
C    4.42323  -2.06175  -6.27599   0.009187909676198   0.025234204992999   0.008195604560579
C   -4.27892  -2.35621  -6.27526  -0.010189771126784   0.023152935336530   0.008115163158754
C    4.27891   2.35621  -6.27512   0.010150757898948  -0.023147167083832   0.008203842412038
C   -2.21690   0.63096  -5.95177  -0.012948547239969   0.003708457786231   0.003463743891500
C    2.21702  -0.63106  -5.95178   0.012947464766096  -0.003731244064399   0.003390863359004
C   -2.17298  -0.77662  -5.95356  -0.012212872690339  -0.005656265694142   0.002932890587611
C    2.17302   0.77651  -5.95348   0.012217663935853   0.005640110303389   0.003012419984161
C    6.04315  -0.51022  -5.29664  -0.012902986932265   0.010862683258264   0.003219486803596
C   -6.04316   0.51021  -5.29659   0.012902902725478  -0.010801739833106   0.003234936856541
C    5.99659   0.91819  -5.29591  -0.011485872337751  -0.012503645328159   0.003854924051977
C   -5.99665  -0.91828  -5.29593   0.011497539055536   0.012433879985982   0.003785790236426
C    3.89480  -2.03501  -4.93405  -0.004933800651164   0.016961348501193  -0.001393494132758
C   -3.89465   2.03487  -4.93402   0.004964439503422  -0.016981204291667  -0.001296544637074
C    3.74973   2.29205  -4.93494  -0.001553746824513  -0.016941976840836   0.001910374312846
C   -3.74966  -2.29210  -4.93502   0.001581764603390   0.016940435460455   0.001939826140583
C    2.69674  -1.27992  -4.78154   0.013476688099260   0.000869134500893  -0.002000090247712
C   -2.69661   1.27978  -4.78150  -0.013461960476765  -0.000882623297776  -0.001966173482125
C    2.60523   1.45771  -4.78329   0.013702263366494   0.000903701909181  -0.002064125041473
C   -2.60508  -1.45788  -4.78326  -0.013712007205112  -0.000931207399159  -0.001974444980023
C    5.95370  -1.14415  -3.99163  -0.020723605956988   0.003222812829502   0.000764640921483
C   -5.95369   1.14408  -3.99159   0.020698267548471  -0.003264562558119   0.000806579544347
C    5.86209   1.54613  -3.99114  -0.019142746173961  -0.004756827334506   0.000431915665944
C   -5.86211  -1.54625  -3.99115   0.019122998620032   0.004734634067595   0.000428791345959
C    4.79402  -1.95967  -3.81975   0.009686173187028   0.019842321212196  -0.002505841377509
C   -4.79395   1.95960  -3.81983  -0.009629500278951  -0.019830086265067  -0.002495899209398
C    4.64904   2.27904  -3.81888   0.007348853548680  -0.016834593849478  -0.004115230027042
C   -4.64894  -2.27908  -3.81893  -0.007280849763413   0.016819059007467  -0.004066600654386
C    2.45923  -0.62972  -3.55167   0.012032653979460   0.004801281267031  -0.001293928608242
C   -2.45935   0.62957  -3.55165  -0.012086755289833  -0.004770341908682  -0.001321884254162
C    2.40939   0.79413  -3.55254   0.011549451690990  -0.003843114500879  -0.001160003744136
C   -2.40924  -0.79429  -3.55252  -0.011535198484921   0.003799651024709  -0.001143702517227
C   -6.42765   0.49204  -2.78143   0.013001727434539  -0.008240283898036   0.003601867910128
C    6.42760  -0.49204  -2.78142  -0.012994523555337   0.008284199757931   0.003593346841549
C   -6.37811  -0.93038  -2.78061   0.012343709560880   0.009377837720433   0.003501266367807
C    6.37805   0.93036  -2.78057  -0.012372424236239  -0.009339647514830   0.003511378842010
C   -4.20847   1.94746  -2.51017   0.007518086361895  -0.017312550545855   0.000755194650355
C    4.20843  -1.94754  -2.51005  -0.007486808857419   0.017293061543039   0.000857547547874
C   -4.06257  -2.22826  -2.51008   0.006008422199796   0.018174427769631  -0.000559827949472
C    4.06263   2.22822  -2.50998  -0.006001571009861  -0.018170863780962  -0.000507623928868
C   -2.96738   1.26650  -2.38962  -0.014331598959135  -0.002346708439179  -0.002760949259228
C    2.96724  -1.26660  -2.38961   0.014274013227105   0.002366875221720  -0.002763884024245
C   -2.87098  -1.46393  -2.38991  -0.014545742721605   0.000515593060747  -0.002824700319906
C    2.87098   1.46389  -2.38990   0.014504561522541  -0.000512983336488  -0.002796834022439
C    6.24748  -1.11978  -1.47688  -0.011371583843508   0.007565259592713   0.003140118506653
C   -6.24755   1.11973  -1.47692   0.011348104725934  -0.007578659413474   0.003074394635808
C    6.15259   1.54607  -1.47666  -0.010333630071962  -0.008469189122584   0.003028403055570
C   -6.15257  -1.54610  -1.47668   0.010297969062055   0.008490266357605   0.003045978835468
C   -5.06284   1.89813  -1.35627  -0.004374339099804  -0.015814142598631   0.003089230435686
C    5.06277  -1.89814  -1.35620   0.004358632310591   0.015819079423641   0.003094919897726
C   -4.91563  -2.23922  -1.35493  -0.004773890660129   0.015331913578659   0.003235536891832
C    4.91572   2.23918  -1.35483   0.004815473908089  -0.015357610981252   0.003295448335365
C   -2.68806   0.62149  -1.15634  -0.010254269304327  -0.007964565034093  -0.001905088452968
C    2.68809  -0.62142  -1.15638   0.010268126069052   0.008017851399013  -0.001919725989918
C   -2.63745  -0.79994  -1.15651  -0.010323473583187   0.007059187132426  -0.002044754516881
C    2.63750   0.79994  -1.15646   0.010334922544635  -0.007104739157827  -0.001962922132875
C    6.68845  -0.48311  -0.24672  -0.012210699663084   0.002697952530253   0.001028391872728
C   -6.68845   0.48301  -0.24669   0.012194299604942  -0.002734273879663   0.001027179448761
C    6.63710   0.94505  -0.24570  -0.012623999259653  -0.003743691454604   0.000798958349927
C   -6.63709  -0.94513  -0.24569   0.012606634901215   0.003762110609877   0.000766246356673
C    4.43312  -1.92355  -0.06960  -0.001813509639998   0.012682108930113   0.001748558116586
C   -4.43313   1.92357  -0.06965   0.001876628439165  -0.012682754134887   0.001735575645539
C    4.28491   2.22119  -0.06803  -0.000646888074302  -0.012702985284059   0.001627685977076
C   -4.28479  -2.22118  -0.06808   0.000716859263280   0.012709395789619   0.001586834654093
C    3.17258  -1.25872   0.01436   0.013302011467568   0.004476930961576  -0.000789038929236
C   -3.17261   1.25879   0.01441  -0.013350703386382  -0.004417816518805  -0.000787066496873
C    3.07409   1.46882   0.01545   0.013581727187124  -0.002425474598476  -0.000950323507240
C   -3.07403  -1.46873   0.01552  -0.013558630844923   0.002459214015338  -0.000850567351626
C    6.44041  -1.11065   1.03954  -0.011994670308078   0.007969569526559  -0.000630807387625
C   -6.44043   1.11061   1.03961   0.011967437092555  -0.007961148445752  -0.000547544620651
C   -6.34394  -1.55474   1.04096   0.011719431354197   0.008530082588141  -0.000353841402229
C    6.34394   1.55456   1.04092  -0.011715622200047  -0.008563532417914  -0.000403871768250
C    5.24436  -1.88231   1.10992   0.001878987186155   0.014499835671356  -0.003087422038403
C   -5.24435   1.88230   1.10994  -0.001863640087280  -0.014500437333526  -0.003034030260511
C    5.09506   2.23780   1.11294   0.002940190177798  -0.014525652380521  -0.002809225908112
C   -5.09503  -2.23791   1.11296  -0.002970795236556   0.014532083935591  -0.002719100213350
C    2.80105   0.80487   1.23640   0.010088252653686  -0.008599478315065  -0.002585092519508
C   -2.80110  -0.80488   1.23649  -0.010098419044261   0.008567366895652  -0.002599261919853
C    2.85350  -0.61789   1.23575   0.010106088768862   0.009298938921836  -0.002764940754362
C   -2.85352   0.61789   1.23583  -0.010098710758391  -0.009315368086209  -0.002732409743611
C   -6.77329  -0.94722   2.29312   0.012549847031926   0.007503696335226   0.000303579540798
C    6.77334   0.94707   2.29310  -0.012522762890403  -0.007558142093412   0.000300730334904
C   -6.82522   0.47374   2.29190   0.012588796615188  -0.006812816337130   0.000677176492895
C    6.82523  -0.47385   2.29194  -0.012585078253304   0.006832891092495   0.000730235282524
C   -4.42039  -2.21206   2.38095   0.004440998862472   0.014544771225447   0.000753081612653
C    4.42031   2.21191   2.38091  -0.004509298398240  -0.014558438573123   0.000719243929314
C   -4.57064   1.90716   2.37745   0.005344926543447  -0.014103178067811   0.000662156246128
C    4.57066  -1.90713   2.37748  -0.005333909341708   0.014112267866749   0.000721254335791
C   -3.21280  -1.46562   2.42404  -0.016237150375158   0.000177460287039  -0.000018041976369
C    3.21275   1.46548   2.42401   0.016229282489800  -0.000202883921914   0.000032425943066
C   -3.31188   1.25075   2.42148  -0.016045151867617  -0.002592356215751   0.000307677552884
C    3.31190  -1.25074   2.42140   0.016032213122626   0.002619733477813   0.000301441196520
C    6.53472  -1.10814   3.56959  -0.010880017730991   0.008315354030180   0.001650652734076
C   -6.53472   1.10812   3.56953   0.010925550782059  -0.008267592311702   0.001593530616282
C    6.43636   1.55585   3.57282  -0.010966785551689  -0.009290883384232   0.002002843223681
C   -6.43633  -1.55587   3.57288   0.010969125354681   0.009306622466574   0.002011791484121
C   -5.33653   1.88015   3.59182  -0.001866257774878  -0.014168528389786   0.001551980946186
C    5.33647  -1.88016   3.59185   0.001790224645455   0.014165257613084   0.001546085354881
C    5.18498   2.23831   3.59647   0.003062333534383  -0.014213840616889   0.001491838940994
C   -5.18503  -2.23845   3.59647  -0.003123283344323   0.014214139203767   0.001386832286087
C   -2.88999  -0.80409   3.63752  -0.010239289213085   0.008086400707918   0.000114577615097
C    2.89004   0.80393   3.63745   0.010242395559674  -0.008115153490497   0.000095404199179
C   -2.94202   0.61889   3.63645  -0.009394751011738  -0.008745013345508  -0.000031020310335
C    2.94214  -0.61900   3.63643   0.009432823672836   0.008748591350697  -0.000051426369390
C    6.87896  -0.47797   4.83260  -0.013022422859092   0.003608033860129  -0.000496446378442
C   -6.87905   0.47798   4.83263   0.012978173157400  -0.003608707831900  -0.000466970521623
C    4.61669  -1.91839   4.83096  -0.002236857554831   0.012823585930606  -0.000004890832668
C   -4.61663   1.91832   4.83091   0.002270520015908  -0.012828774587199   0.000001528927937
C    3.25133   1.46739   4.83560   0.014548348147107  -0.001593530150290  -0.000759501177999
C   -3.25120  -1.46747   4.83578  -0.014508959714057   0.001612271155993  -0.000647388057566
C    6.82674   0.94927   4.83443  -0.011993658822853  -0.004371363217374  -0.000186122698079
C   -6.82669  -0.94927   4.83445   0.011979303161620   0.004401268056962  -0.000259032986210
C    3.35149  -1.25987   4.83204   0.014514486644553   0.003885464961986  -0.000278860344967
C   -3.35144   1.25980   4.83201  -0.014519349660404  -0.003863125841922  -0.000329146486728
C    4.46415   2.21864   4.83591  -0.001474348721742  -0.012779232102046  -0.000276301469374
C   -4.46404  -2.21876   4.83591   0.001501816507212   0.012765387811352  -0.000293019108177
C   -2.89328  -0.79757   6.03290  -0.010115664643905   0.009067272567524   0.000349079747867
C    2.89337   0.79750   6.03275   0.010113681972898  -0.009108208243982   0.000320354395520
C   -2.94475   0.62420   6.03170  -0.009420307925755  -0.009298047094500   0.000377411996781
C    2.94483  -0.62421   6.03165   0.009408560561128   0.009360053744934   0.000324549824396
C   -5.33764   1.88538   6.07024  -0.002526024385990  -0.014466653916595  -0.001395039764480
C    5.33771  -1.88534   6.07027   0.002520931553512   0.014491161911234  -0.001371026319070
C    5.18624   2.23429   6.07519   0.003786576100596  -0.014574618304150  -0.001291924472713
C   -5.18604  -2.23439   6.07527  -0.003674521835709   0.014557991919201  -0.001231666818404
C    6.43653   1.55218   6.09811  -0.011627558613166  -0.008663848948951  -0.001478079294794
C   -6.43643  -1.55228   6.09816   0.011606836053270   0.008638840861603  -0.001484934718004
C    6.53404  -1.11244   6.09436  -0.011691867822208   0.007679329385734  -0.001487865306637
C   -6.53397   1.11236   6.09440   0.011673587265712  -0.007699422411579  -0.001495396798373
C   -3.21503  -1.45661   7.24730  -0.015687103771636   0.000490528757984   0.000183648572521
C    3.21505   1.45647   7.24722   0.015663328844722  -0.000535219851516   0.000169097605779
C   -3.31367   1.26205   7.24435  -0.015637763020302  -0.002890602026481   0.000369485507804
C    3.31381  -1.26205   7.24435   0.015662235916953   0.002868203717958   0.000392101097449
C   -4.57304   1.91944   7.28570   0.004737243002020  -0.014002672487871  -0.000716353070271
C    4.57318  -1.91940   7.28575  -0.004686788642011   0.014021117831430  -0.000675266478526
C   -4.42191  -2.20570   7.29061   0.003458412721078   0.014327249584768  -0.000651785840345
C    4.42195   2.20563   7.29050  -0.003411897616324  -0.014305116406234  -0.000619359079570
C   -6.82523   0.48248   7.37464   0.012665575952237  -0.005752555032947  -0.000206933094286
C    6.82545  -0.48261   7.37457  -0.012637841124010   0.005687761984209  -0.000210134620461
C   -6.77378  -0.93970   7.37598   0.012760899648622   0.006379413577175   0.000100262008456
C    6.77389   0.93961   7.37582  -0.012735839702674  -0.006377232313817  -0.000052693763353
C    2.85707  -0.63170   8.43118   0.010115366201108   0.009028159977119   0.002000270484705
C   -2.85701   0.63168   8.43118  -0.010114097410188  -0.008988808191193   0.001977952864889
C    2.80577   0.79085   8.43214   0.010316066856244  -0.008637571057197   0.002081279697108
C   -2.80581  -0.79092   8.43214  -0.010341139739340   0.008580123639360   0.002046909411930
C   -5.24633   1.89640   8.55378  -0.001889181630579  -0.014394021380781   0.002051480974287
C    5.24645  -1.89651   8.55380   0.001821042183825   0.014313418427298   0.002072210080126
C    5.09618   2.22820   8.55755   0.002795624297360  -0.014556435365320   0.001881235992349
C   -5.09628  -2.22829   8.55762  -0.002868299086594   0.014597275387369   0.001902475039401
C   -6.44115   1.12229   8.62552   0.011861117152271  -0.007686199117798  -0.000390762794122
C    6.44128  -1.12228   8.62544  -0.011814340822108   0.007751412563299  -0.000457678647593
C    6.34461   1.54411   8.62816  -0.011640325421262  -0.008715101559570  -0.000911113533182
C   -6.34468  -1.54418   8.62825   0.011630054964739   0.008734164247385  -0.000947921993535
C    3.17566  -1.27424   9.65307   0.013775670209951   0.003875728191942   0.001394417601763
C   -3.17572   1.27416   9.65310  -0.013798101591611  -0.003879061197857   0.001384424194603
C    3.07660   1.45414   9.65417   0.013806682942372  -0.002207002052183   0.001512310948981
C   -3.07675  -1.45419   9.65409  -0.013884215241852   0.002158967158923   0.001424933951763
C    4.43584  -1.93858   9.73590  -0.002384779497457   0.013026646514378  -0.001149087411249
C   -4.43581   1.93858   9.73598   0.002405167354505  -0.013011590694663  -0.001052782914747
C    4.28505   2.20829   9.73859  -0.001578079756400  -0.013155157035005  -0.001006804722044
C   -4.28509  -2.20836   9.73858   0.001633789477834   0.013162101293535  -0.000992008605197
C    6.68757  -0.49561   9.91438  -0.012352700926467   0.003060054616502   0.000050792786729
C   -6.68758   0.49554   9.91442   0.012318591243291  -0.003182227226180   0.000047126451153
C    6.63680   0.93191   9.91472  -0.012554605915488  -0.004085886113668   0.000075803249951
C   -6.63686  -0.93184   9.91472   0.012546286516431   0.004218205763821   0.000029892828965
C   -2.69015   0.63776  10.82400  -0.010701475493218  -0.006602809273912   0.002146244675711
C    2.69007  -0.63782  10.82396   0.010677212323677   0.006611611515289   0.002145981989325
C   -2.63893  -0.78493  10.82432  -0.010509996396774   0.005682762413907   0.001849980473127
C    2.63886   0.78489  10.82438   0.010532586610734  -0.005621117029686   0.001868146038508
C   -5.06421   1.91351  11.02359  -0.003355104842828  -0.015615539255494  -0.003013732300991
C    5.06420  -1.91350  11.02355   0.003367019191600   0.015637468617288  -0.003013109931251
C   -4.91660  -2.22715  11.02435  -0.004305567579297   0.015271922036184  -0.003159421592369
C    4.91652   2.22720  11.02437   0.004236682241517  -0.015195980030027  -0.002933776544825
C    6.24888  -1.13318  11.14490  -0.010643192429946   0.008171924742249  -0.002892737548185
C   -6.24889   1.13314  11.14491   0.010632216870003  -0.008190156817161  -0.002908839176602
C   -6.15404  -1.53346  11.14552   0.009827774372355   0.008978414090092  -0.003023692093054
C    6.15405   1.53350  11.14549  -0.009789176419028  -0.008988020691569  -0.003046609503849
C   -2.96938   1.28097  12.05779  -0.014515797409289  -0.002137498274473   0.001983895265689
C    2.96939  -1.28103  12.05772   0.014532273023808   0.002157868418977   0.001955082071250
C   -2.87298  -1.44826  12.05745  -0.014918183211107   0.000016802336849   0.001855571574545
C    2.87304   1.44815  12.05746   0.014823974063063  -0.000035965266108   0.001780805024896
C   -4.21055   1.96097  12.17823   0.007853280927944  -0.017718646239275  -0.002034095341448
C    4.21055  -1.96113  12.17823  -0.007824409315005   0.017665703150680  -0.001992697331210
C   -4.06334  -2.21390  12.17833   0.006906817150220   0.018474719861207  -0.001844647968342
C    4.06331   2.21389  12.17835  -0.007091619501297  -0.018756267289557  -0.002253319005350
C   -6.42749   0.50499  12.44928   0.012820529659625  -0.008206519283220  -0.004159552820751
C    6.42756  -0.50496  12.44925  -0.012785072859733   0.008260520660710  -0.004111579480156
C   -6.37821  -0.91724  12.44866   0.012744050048001   0.009207907230988  -0.004096999791224
C    6.37825   0.91725  12.44861  -0.012529778060733  -0.009309620628767  -0.004199030787687
C    2.46008  -0.64369  13.22053   0.011523247749788   0.005228548410853   0.002145622963619
C   -2.46013   0.64361  13.22060  -0.011567303649929  -0.005229684619108   0.002209440509619
C    2.41135   0.77947  13.22147   0.011490108388672  -0.004550387069760   0.002378140548117
C   -2.41123  -0.77953  13.22146  -0.011517085186025   0.004555631267599   0.002338214110451
C    4.79519  -1.97150  13.48987   0.008579239684025   0.019830733184711   0.003981435911632
C   -4.79525   1.97136  13.48987  -0.008648879350562  -0.019870868083735   0.004031337935362
C    4.65008   2.26685  13.48785   0.009872847345341  -0.018897799949284   0.004092930641128
C   -4.65011  -2.26688  13.48790  -0.011556311284592   0.019051688093460   0.003324099771407
C    5.95403  -1.15595  13.66124  -0.020069569585688   0.003439487464908  -0.000111087757647
C   -5.95397   1.15590  13.66133   0.020129012804166  -0.003398807589489  -0.000067578638969
C    5.86255   1.53375  13.66028  -0.019501882084245  -0.004852309417996   0.000229798644943
C   -5.86253  -1.53374  13.66037   0.020582535193702   0.004230638670228   0.000029327821135
C    2.69648  -1.29257  14.45073   0.013369868960581   0.001125980936977   0.001016963128032
C   -2.69649   1.29245  14.45072  -0.013389226290697  -0.001117656141540   0.000952745117490
C    2.60601   1.44640  14.45018   0.013332398639454   0.000211269000711   0.001648388147444
C   -2.60593  -1.44647  14.45016  -0.012863564080881  -0.000095937044166   0.001789725779739
C    3.89591  -2.04798  14.60426  -0.003876634278964   0.016542943516627   0.000801212814310
C   -3.89594   2.04787  14.60420   0.003815162501278  -0.016554374305351   0.000797533952417
C    3.75081   2.28200  14.60272  -0.002546351052752  -0.016460144594087   0.000285978646858
C   -3.75080  -2.28211  14.60275   0.002872291678055   0.016535391910246   0.001025062178956
C    6.04470  -0.52265  14.96636  -0.013225934256835   0.009784636752880  -0.003667853396106
C   -6.04470   0.52265  14.96643   0.013256363593339  -0.009673894381006  -0.003575659148192
C    5.99830   0.90746  14.96527  -0.012270959476827  -0.010486493904306  -0.003563472059963
C   -5.99836  -0.90754  14.96535   0.012091811484499   0.010596916466421  -0.003411666064699
C   -2.21897   0.63957  15.62004  -0.012740438721057   0.003763496420890  -0.004348517379442
C    2.21898  -0.63976  15.62007   0.012742090960841  -0.003812950948502  -0.004286468251451
C   -2.17400  -0.76746  15.62095  -0.012945936166074  -0.004048167674621  -0.004614875998199
C    2.17407   0.76727  15.62085   0.012992191336404   0.003947718347628  -0.004788824125502
C   -4.42397   2.07166  15.94653  -0.009943445210236  -0.025302037578003  -0.008624045202136
C    4.42406  -2.07180  15.94668   0.009926275608598   0.025274696092175  -0.008479011950127
C   -4.28057  -2.34615  15.94299  -0.011884731629541   0.024294937756208  -0.008653875351418
C    4.28060   2.34608  15.94302   0.011878050602997  -0.024305588169641  -0.008511116766520
C   -5.51652   1.18467  16.14444   0.017577436903939   0.001810298708614   0.000456663767813
C    5.51657  -1.18473  16.14456  -0.017589748196930  -0.001812097791674   0.000582479213103
C   -5.43022  -1.53469  16.14279   0.016959167546223   0.000525287391654   0.000585656138509
C    5.43020   1.53455  16.14273  -0.016941060822391  -0.000595503647253   0.000578850200735
C   -2.30041   1.45833  16.79916  -0.001383434560335   0.005025487375297  -0.002051258976505
C    2.30054  -1.45839  16.79916   0.001431499285370  -0.005006098512766  -0.002068688341040
C   -2.20511  -1.59299  16.79848  -0.001731118500503  -0.004844702513024  -0.002683156654652
C    2.20516   1.59291  16.79847   0.001768859892575   0.004894421600235  -0.002665223038482
C   -3.46462   2.20377  17.01986   0.011241094499776  -0.023421433387268   0.006250698233231
C    3.46467  -2.20389  17.01992  -0.011203846076755   0.023430282290223   0.006234462938387
C   -3.31644  -2.41521  17.01715   0.008729120489134   0.023249130771691   0.006191357357345
C    3.31649   2.41517  17.01727  -0.008741707558375  -0.023204785966054   0.006242875966678
C    0.68432   0.02077  17.84531  -0.031354322648799  -0.001166776768130  -0.001826939266958
C   -0.68428  -0.02078  17.84535   0.031434515168074   0.001323719139303  -0.001748517086351
C    1.25462   1.31596  17.77204  -0.004234223055135   0.010368994390683   0.000113880164102
C   -1.25467  -1.31599  17.77210   0.004084220731860  -0.010562683390612   0.000070065835091
C    1.33364  -1.23669  17.77140  -0.000339384092445  -0.011526463958196  -0.000316842451725
C   -1.33355   1.23674  17.77152   0.000335748721611   0.011577024654374  -0.000215702516754
C   -5.45392   0.53673  17.43641   0.011265551350132  -0.002576557594252  -0.004499761688567
C    5.45395  -0.53682  17.43648  -0.011262430070639   0.002545571595273  -0.004503731437156
C   -5.40974  -0.88546  17.43560   0.011613810907660   0.003657596913462  -0.004596797044436
C    5.40976   0.88539  17.43555  -0.011643522797641  -0.003605982923318  -0.004641849688987
C    3.84186  -2.19455  18.43011   0.008708496595156   0.014238873283265   0.000351538778402
C   -3.84191   2.19457  18.43009  -0.008683222830522  -0.014190394173158   0.000409501190455
C   -0.77481   2.27100  18.59920  -0.001073623208673   0.004195176628345   0.013554056433803
C    0.77484  -2.27090  18.59911   0.001125507478647  -0.004202069738433   0.013584465213647
C   -0.63367  -2.31529  18.59866  -0.000419976837859  -0.005045021837466   0.014104341156293
C    0.63369   2.31532  18.59866   0.000353456272638   0.005029010333698   0.014055259584293
C    3.69559   2.43759  18.42685   0.010107282308180  -0.013627911725973   0.000424694298539
C   -3.69546  -2.43776  18.42674  -0.010036653262915   0.013537333566266   0.000355880144028
C    4.88694  -1.22196  18.58275  -0.008253183064482   0.003323750834326   0.000016559720285
C   -4.88702   1.22185  18.58273   0.008209759400571  -0.003384745244934   0.000009337452385
C    4.80234   1.53642  18.58068  -0.008475644313915  -0.004547819082790  -0.000353589837694
C   -4.80224  -1.53651  18.58069   0.008489223962948   0.004534256632125  -0.000481652735635
C   -1.57787   2.91749  19.55305   0.005800932807936  -0.007733696803883  -0.001328303015068
C    1.57785  -2.91746  19.55300  -0.005827989558855   0.007741591907070  -0.001342875490901
C    1.39295   3.01420  19.55180  -0.005597404566953  -0.008637216844974  -0.001747519554272
C   -1.39286  -3.01428  19.55173   0.005624575386288   0.008647571394579  -0.001737951311629
C   -3.00092   2.57703  19.54985   0.007936817310416  -0.005904116383733   0.008959639348221
C    3.00086  -2.57697  19.54986  -0.007954545776208   0.005891924697862   0.008984623886756
C   -2.83480  -2.76910  19.54744   0.006930157618028   0.007014905784556   0.009423380004507
C    2.83493   2.76898  19.54749  -0.006882438765969  -0.007016976920295   0.009377735972102
C   -4.87037  -0.87050  19.83231   0.008524810437639   0.006662057524936  -0.004990157158837
C    4.87040   0.87036  19.83228  -0.008610863591072  -0.006449702771269  -0.005118608278628
C   -4.91262   0.54966  19.83250   0.008516856314985  -0.005433526118810  -0.005201466523839
C    4.91263  -0.54977  19.83249  -0.008543312316663   0.005361145012196  -0.005194088037711
C   -0.83184   3.34272  20.71454   0.003806943818103  -0.005847352523761   0.003364483017968
C    0.83191  -3.34276  20.71450  -0.003776965600418   0.005841938602261   0.003352639294843
C   -0.62094  -3.39198  20.71329   0.003302921096290   0.006207038977288   0.003078730566582
C    0.62099   3.39195  20.71344  -0.003354628336227  -0.006174645922251   0.003174995231816
C    3.51908  -2.32352  20.85806   0.001704480489560   0.006322034133439   0.001966116516640
C   -3.51910   2.32361  20.85810  -0.001691595182268  -0.006284709720002   0.001999359209785
C    3.37066   2.55814  20.85599   0.001947557826008  -0.005928354835346   0.001899653197004
C   -3.37059  -2.55820  20.85590  -0.001971353860428   0.005933095230994   0.001886381808719
C   -4.35356  -1.53577  20.97633   0.012149148063043  -0.002109041553330   0.002220882992317
C    4.35367   1.53566  20.97632  -0.012112458421901   0.002008602181789   0.002152236796280
C   -4.43520   1.24089  20.97758   0.012519590484538   0.002763247559350   0.001909051979195
C    4.43529  -1.24091  20.97757  -0.012495250752804  -0.002761230806457   0.001922969839262
C    1.31458   3.48347  21.96146   0.000418267067782  -0.006094146399064  -0.003449890844853
C   -1.31449  -3.48346  21.96134  -0.000400173971043   0.006098117189376  -0.003512324372124
C    1.52862  -3.38245  21.96299  -0.001163133507155   0.005923255881305  -0.003764215403090
C   -1.52860   3.38242  21.96297   0.001175086929682  -0.005928943040794  -0.003795281234461
C    2.83628  -2.79919  22.02241  -0.004520281971457   0.004792962979021  -0.005600390589095
C   -2.83627   2.79921  22.02244   0.004533433252642  -0.004784098333642  -0.005605434683672
C    2.65938   2.99215  22.02039  -0.004630949299689  -0.005112502892149  -0.005589727910745
C   -2.65928  -2.99207  22.02030   0.004606909994444   0.005132825397110  -0.005652132565497
C    4.46980   0.86067  22.21296  -0.006597923599612  -0.003597145136717  -0.000318342382239
C   -4.46968  -0.86073  22.21299   0.006601223708319   0.003587749825457  -0.000297478440393
C    4.51090  -0.55716  22.21284  -0.006800904109474   0.003393058495425  -0.000231255633293
C   -4.51075   0.55711  22.21288   0.006816912251388  -0.003385072862961  -0.000204508241921
C   -0.59663  -3.70998  23.17968   0.008709307055926   0.006690917471986  -0.001999416773593
C    0.59663   3.70994  23.17968  -0.008699824790542  -0.006698247335391  -0.002060581398261
C   -0.82848   3.65806  23.18060   0.009197871319513  -0.005711074856954  -0.002250862062624
C    0.82846  -3.65809  23.18062  -0.009202127426684   0.005716304665319  -0.002189605798501
C    3.34449  -2.41615  23.29820  -0.000554979591307   0.009714342457427   0.000735325911758
C   -3.34448   2.41608  23.29822   0.000558307904187  -0.009734661251803   0.000733094113467
C    3.19163   2.64695  23.29747  -0.000045826051921  -0.010162852112887   0.000836243116342
C   -3.19148  -2.64686  23.29745   0.000056382384530   0.010204029248997   0.000837352519060
C    4.06959   1.53692  23.38341  -0.009900493441923   0.002388168027371  -0.001365895203328
C   -4.06958  -1.53694  23.38349   0.009854621263207  -0.002363308658516  -0.001336128233939
C    4.15159  -1.25390  23.38398  -0.009997584545782  -0.003261739188276  -0.001549966694795
C   -4.15156   1.25383  23.38407   0.009997640806909   0.003286468952798  -0.001526168258357
C    1.51132  -3.58463  24.44015   0.006489008783099   0.008850223007848   0.001353591037306
C   -1.51138   3.58455  24.44017  -0.006527894782808  -0.008871138283611   0.001372230066895
C    1.28185   3.68739  24.43972   0.006612533482505  -0.008456879827605   0.001107687861854
C   -1.28183  -3.68746  24.43972  -0.006598961404859   0.008463964756092   0.001137641103853
C    2.76656  -2.92476  24.49406  -0.013226625748349   0.000154845816796  -0.001680854064342
C   -2.76664   2.92473  24.49409   0.013199878713879  -0.000137363069785  -0.001693859086189
C    2.58077   3.11746  24.49322  -0.012422099565423  -0.000770327452900  -0.001703429780214
C   -2.58074  -3.11756  24.49322   0.012451279567568   0.000742998343552  -0.001699500616919
C    4.26516  -0.56139  24.61372  -0.006019099652202   0.007370642232871   0.002364275108213
C   -4.26514   0.56127  24.61380   0.006005635912738  -0.007391518355157   0.002378590162977
C    4.22315   0.85397  24.61395  -0.005249813057736  -0.007662229719353   0.002139713894872
C   -4.22307  -0.85406  24.61406   0.005273672345912   0.007668366932531   0.002170718239373
C    4.00347  -1.26447  25.80623  -0.006712313208533   0.000374099215323  -0.000763563054515
C    0.83426  -3.84587  25.66986  -0.008453659494966   0.005643859379508  -0.000438197423363
C   -3.11107  -2.70741  25.75074   0.001580793579417   0.006316863720150   0.001241070732899
C   -4.00340   1.26434  25.80628   0.006725595218610  -0.000380269361828  -0.000754191801876
C   -0.83430   3.84578  25.66990   0.008471342640372  -0.005646358460314  -0.000411531660522
C    3.11105   2.70719  25.75068  -0.001567996894163  -0.006338464478659   0.001187471878146
C    3.27081  -2.48007  25.75036  -0.002156662604755   0.006155317590101   0.001259621677595
C   -0.58639  -3.89813  25.66968   0.008011449725086   0.005709816021443  -0.000199646575779
C   -3.91915  -1.54089  25.80663   0.006610036176193   0.000544251529460  -0.000191775083431
C   -3.27079   2.47994  25.75041   0.002161896044257  -0.006169703830616   0.001294556977970
C    0.58634   3.89803  25.66968  -0.008027320194358  -0.005703171126458  -0.000168941189463
C    3.91919   1.54070  25.80659  -0.006598574937678  -0.000568664636776  -0.000180114389861
C    4.13311  -0.56511  27.02970  -0.006070655301468   0.005784585758111  -0.000051506328375
C    2.54717   3.19236  26.95964  -0.013720923219462  -0.000011898345150  -0.000919817151033
C   -1.51629   3.71464  26.92148  -0.007713116231402  -0.011264335722882  -0.001010539165975
C   -4.13309   0.56499  27.02972   0.006062857522697  -0.005767628770730  -0.000042383288646
C   -2.54722  -3.19247  26.95972   0.013726633716438   0.000030286689909  -0.000888251402880
C    1.51622  -3.71466  26.92144   0.007710264813969   0.011266709492891  -0.001015127735647
C    4.09115   0.85172  27.03059  -0.005244012803148  -0.005980488575201   0.000129280495086
C    1.27383   3.81676  26.92219   0.008024882134936  -0.010552903103867  -0.000892922466031
C   -2.74245   3.00212  26.95920   0.013445106919368   0.000958590269093  -0.000889902287124
C   -4.09116  -0.85185  27.03059   0.005245095234440   0.005967945810079   0.000124767321827
C   -1.27391  -3.81685  26.92220  -0.008067378932012   0.010556824202251  -0.000903635609831
C    2.74242  -3.00222  26.95918  -0.013457663959107  -0.000988174701992  -0.000888809013182
C    3.83877   1.54237  28.23810  -0.008639102424521   0.001752307566483   0.000665633196588
C    0.58001   4.00663  28.15673  -0.011025628911136  -0.006773214742199   0.000645143697292
C   -3.23468   2.51116  28.20438   0.002770975915694  -0.006813322707321   0.000561167931009
C   -3.83882  -1.54245  28.23811   0.008635383797487  -0.001765930542225   0.000626559924047
C   -0.58009  -4.00657  28.15677   0.011019471953544   0.006797399897381   0.000646666083673
C    3.23456  -2.51118  28.20439  -0.002801737957423   0.006786897760506   0.000580590706634
C    3.06973   2.73649  28.20597  -0.002170943831357  -0.007061682446908   0.001007748430692
C   -0.83980   3.95435  28.15674   0.011933480526561  -0.006004328850065   0.000621944162078
C   -3.92367   1.26947  28.23732   0.008348003037870   0.002115162858732   0.000571734283019
C   -3.06975  -2.73655  28.20600   0.002185494777336   0.007048242950227   0.000974095773976
C    0.83971  -3.95426  28.15670  -0.011925936952619   0.006010227361814   0.000598651062550
C    3.92366  -1.26952  28.23736  -0.008335159162126  -0.002115257024930   0.000575394720895
C    4.07151  -0.56695  29.45720  -0.004775484567326   0.004850972188306  -0.001048978622169
C    2.52747   3.22545  29.42241  -0.013901446512480   0.000967918900320  -0.004229749885865
C   -1.52181   3.77775  29.39936  -0.006996306017059  -0.010829276170884  -0.002469745078840
C   -4.07157   0.56697  29.45715   0.004790508960942  -0.004847654589351  -0.001096832091645
C   -2.52749  -3.22540  29.42247   0.013891196415847  -0.000956841522982  -0.004239593502172
C    1.52167  -3.77762  29.39934   0.006999907472332   0.010837038432252  -0.002490170576584
C    4.02840   0.84985  29.45800  -0.004965665258210  -0.006469562246627  -0.002522234813697
C    1.26995   3.87951  29.40066   0.008077613556386  -0.010441092053785  -0.002226858546811
C   -2.73015   3.03662  29.42108   0.012785908235677   0.001161605369710  -0.003820929082696
C   -4.02844  -0.84983  29.45799   0.004957348239481   0.006484321313026  -0.002537844850134
C   -1.26998  -3.87950  29.40076  -0.008055681347964   0.010442637011691  -0.002177203678125
C    2.72998  -3.03648  29.42111  -0.012782771841843  -0.001137222459556  -0.003806569513425
C    3.78975   1.53635  30.67462  -0.006461853867958   0.002117177240749   0.001277311677280
C    0.57236   4.03690  30.63732  -0.013585658378043  -0.004732478550351   0.001336539891559
C   -3.20790   2.51253  30.65837  -0.000043529300803  -0.011280084799195   0.002141290206481
C   -3.78976  -1.53624  30.67468   0.006453946466528  -0.002088320396622   0.001308063044857
C   -0.57241  -4.03701  30.63739   0.013605697215955   0.004699540714521   0.001343745743272
C    3.20773  -2.51239  30.65838   0.000076795306609   0.011322441656996   0.002138584270315
C    3.03617   2.73368  30.66029  -0.000584437858105  -0.007410071207465   0.002137909511019
C   -0.84159   3.98567  30.63724   0.013755940668145  -0.004490879040976   0.002022487810593
C   -3.88023   1.26765  30.67371   0.009048594828882   0.006443545060045  -0.000594760804293
C   -3.03618  -2.73357  30.66034   0.000580023764682   0.007440822247623   0.002142150188083
C    0.84150  -3.98563  30.63724  -0.013784765169162   0.004509959431315   0.002012649412907
C    3.87998  -1.26754  30.67375  -0.009085396263437  -0.006416964704264  -0.000556324467004
C    4.00054  -0.58167  31.90207  -0.013592265549076  -0.024237303813442  -0.004473907501208
C    2.50030   3.17496  31.89343   0.007449862362049  -0.021043336963594  -0.003659893006839
C   -1.48693   3.75612  31.88259   0.023032604971052  -0.003601662849981  -0.006839415319195
C   -4.00067   0.58168  31.90207   0.013572580783970   0.024183592601481  -0.004445350092174
C   -2.50037  -3.17502  31.89346  -0.007473483684259   0.021020548402661  -0.003635828905530
C    1.48686  -3.75622  31.88262  -0.023087153426354   0.003541089730943  -0.006775571798053
C    3.95258   0.85881  31.90267  -0.013913157244026   0.023275401510211  -0.004010221618410
C    1.22663   3.85178  31.88475  -0.022908895817738  -0.005107997669922  -0.004537925649484
C   -2.71012   2.99114  31.89310  -0.005739301515299  -0.021517764586020  -0.006422652340901
C   -3.95256  -0.85879  31.90277   0.013939868495083  -0.023318608454735  -0.003922131420885
C   -1.22667  -3.85182  31.88481   0.022930879452464   0.005117878129631  -0.004512055180323
C    2.71001  -2.99110  31.89308   0.005736318512851   0.021525658423254  -0.006461788055000
C    3.77178   1.52390  33.13925  -0.005185791884636   0.005291356431767   0.010193080925861
C    0.56616   4.02841  33.13925  -0.013150132128520  -0.002893466292037   0.015554265647490
C   -3.20563   2.50451  33.13925  -0.002382210343402  -0.012837826581158   0.009017971431079
C   -3.77178  -1.52390  33.13925   0.005168596329808  -0.005280089079228   0.010142722322671
C   -0.56616  -4.02841  33.13925   0.013149134773966   0.002900622936133   0.015518909155723
C    3.20563  -2.50451  33.13925   0.002412172441111   0.012854416262732   0.009049914840861
C    3.02311   2.72202  33.13925   0.004914646864795  -0.009186152963443   0.012596549791595
C   -0.84579   3.97910  33.13925   0.009612910164217  -0.005840725751274   0.010424967986680
C   -3.86890   1.25708  33.13925   0.007069223953473   0.008818456124580   0.010955663787356
C   -3.02311  -2.72202  33.13925  -0.004894406396557   0.009189712190228   0.012561097664902
C    0.84579  -3.97910  33.13925  -0.009582494385116   0.005865746290376   0.010385457979752
C    3.86890  -1.25708  33.13925  -0.007055550002816  -0.008822305839461   0.010949798792720
