148 

Mn    7.22202  -0.31174   2.14560   0.003555074773102   0.001774265226538   0.030604946876755
Mn    8.97124  -1.43748   4.04840  -0.001774325942221   0.003555085329420  -0.030604915970849
Mn    8.34776   1.43748   4.04840   0.001774312761048  -0.003555103624714  -0.030604937838050
Mn   10.09698   0.31174   2.14560  -0.003555133706334  -0.001774290148002   0.030604980796294
Mn    4.49774  -0.80187   2.14312   0.018212390138119  -0.009060929170785   0.003567000247114
Mn    9.46137  -4.16176   4.05088   0.009060918168614   0.018212510960675  -0.003566992975813
Mn    7.85763   4.16176   4.05088  -0.009060945168540  -0.018212441205453  -0.003566946566888
Mn   12.82126   0.80187   2.14312  -0.018212500466106   0.009060965424829   0.003566967624737
Mn    6.21232  -3.38586   3.35591   0.011596287332842  -0.005639277741250  -0.037044983545268
Mn   12.04536  -2.44718   2.83809   0.005639341966996   0.011596237674571   0.037045016331802
Mn    5.27363   2.44718   2.83809  -0.005639513464628  -0.011596397573376   0.037044959327988
Mn   11.10667   3.38586   3.35591  -0.011596224916817   0.005639325460235  -0.037044947868246
O    7.46795  -0.26325   4.02982   0.019110586470959   0.001855945037079  -0.010754587343185
O    8.92275  -1.19155   2.16418  -0.001855931180633   0.019110574298713   0.010754588588269
O    8.39625   1.19155   2.16418   0.001855925810246  -0.019110556243748   0.010754588491941
O    9.85105   0.26325   4.02982  -0.019110582422514  -0.001855931246855  -0.010754576721654
O    6.09282  -1.80810   2.31656  -0.000742340134304   0.015946739756467   0.001750807085884
O   10.46760  -2.56668   3.87744  -0.015946729798823  -0.000742356467230  -0.001750811555026
O    6.85140   2.56668   3.87744   0.015946821653449   0.000742348571380  -0.001750771136839
O   11.22618   1.80810   2.31656   0.000742358715955  -0.015946728378220   0.001750805705791
O    5.65465   0.67198   2.27444   0.006030770644471  -0.011642761079675  -0.003978244861896
O    7.98752  -3.00485   3.91956   0.011642731162600   0.006030700233720   0.003978252291773
O    9.33148   3.00485   3.91956  -0.011642730403035  -0.006030706627211   0.003978241858186
O   11.66435  -0.67198   2.27444  -0.006030709820217   0.011642737415722  -0.003978259837250
O    7.18219  -0.37409   0.23537  -0.064921423106781  -0.010768202196278  -0.030294891657475
O    9.03359  -1.47731   5.95863   0.010768189378018  -0.064921432213122   0.030294893608539
O    8.28541   1.47731   5.95863  -0.010768187367097   0.064921407910416   0.030294871317878
O   10.13681   0.37409   0.23537   0.064921419132794   0.010768212846201  -0.030294888556980
O    4.97229  -0.79494  -0.05451   0.071494349573681   0.011262188660885  -0.033074111140146
O    9.45444  -3.68722   6.24851  -0.011262188574339   0.071494345569029   0.033074111889204
O    7.86456   3.68722   6.24851   0.011262207938849  -0.071494359195410   0.033074111086395
O   12.34671   0.79494  -0.05451  -0.071494342138368  -0.011262188167728  -0.033074113851600
O    4.08728  -0.90405   4.28873   0.044898438901237  -0.065574043510743   0.083923747960625
O    9.56355  -4.57222   1.90527   0.065574053696082   0.044898438593618  -0.083923738903451
O    7.75545   4.57222   1.90527  -0.065573775667958  -0.044898207820031  -0.083923354998916
O   13.23172   0.90405   4.28873  -0.044898437668865   0.065574065360703   0.083923736810694
O    5.36543  -2.51645   5.11005  -0.074568245087013   0.109783094140518   0.022196296008350
O   11.17595  -3.29407   1.08395  -0.109783103696904  -0.074568243231234  -0.022196306428531
O    6.14305   3.29407   1.08395   0.109784127111681   0.074568859832483  -0.022196461841235
O   11.95357   2.51645   5.11005   0.074568255670475  -0.109783106016506   0.022196296182868
O    2.92345   0.27710   1.87430  -0.006851906117959   0.067213062064320  -0.010801274280477
O    8.38240  -5.73605   4.31970  -0.067213114481993  -0.006851914139126   0.010801277608853
O    8.93660   5.73605   4.31970   0.067213115302986   0.006851914135924   0.010801262257938
O   14.39555  -0.27710   1.87430   0.006851909379479  -0.067213115053112  -0.010801268795173
O    6.25389  -5.07966   4.37668   0.116687843118474  -0.102707763841476   0.026174104532274
O   13.73916  -2.40561   1.81732   0.102707780069472   0.116687845624216  -0.026174119265850
O    3.57984   2.40561   1.81732  -0.102707667832470  -0.116687851692941  -0.026174065958382
O   11.06511   5.07966   4.37668  -0.116687855672528   0.102707771900762   0.026174112979781
O    3.34603  -2.32248   1.80245   0.014881516851551  -0.080474862170833   0.027400293053256
O   10.98198  -5.31347   4.39155   0.080474858519776   0.014881516939398  -0.027400310692424
O    6.33702   5.31347   4.39155  -0.080474847875389  -0.014881524927528  -0.027400301491641
O   13.97297   2.32248   1.80245  -0.014881520038931   0.080474866217286   0.027400304464437
O    4.36785  -3.98857   2.82942  -0.140454586441190   0.067376323312616  -0.079993867175490
O   12.64807  -4.29165   3.36458  -0.067376327051434  -0.140454599045231   0.079993872890773
O    4.67093   4.29165   3.36458   0.067376348470515   0.140454562699642   0.079993876967677
O   12.95115   3.98857   2.82942   0.140454581128702  -0.067376331422058  -0.079993870168502
O    6.82195  -4.56529   1.62902  -0.008005457138126   0.026871413028864  -0.057143359555375
O   13.22479  -1.83755   4.56498  -0.026871411709814  -0.008005451394154   0.057143357161971
O    4.09421   1.83755   4.56498   0.026871438399044   0.008005473647586   0.057143308251156
O   10.49705   4.56529   1.62902   0.008005449862824  -0.026871409721399  -0.057143356202164
C    6.14651  -0.63561  -0.49180   0.009417171447698   0.008110818733899   0.056715771502123
C    9.29511  -2.51299   6.68580  -0.008110824718505   0.009417179483950  -0.056715769495513
C    8.02389   2.51299   6.68580   0.008110817431753  -0.009417156276031  -0.056715762282191
C   11.17249   0.63561  -0.49180  -0.009417172889224  -0.008110820823345   0.056715769962759
C    6.42015  -0.77936  -1.95854  -0.162975368421937   0.051917495664585  -0.088632378848070
C    9.43886  -2.23935   8.15254  -0.051917499295961  -0.162975371889026   0.088632379514719
C    7.88014   2.23935   8.15254   0.051917493899519   0.162975367088800   0.088632378806528
C   10.89885   0.77936  -1.95854   0.162975370225017  -0.051917494188640  -0.088632375907725
C    4.67786  -1.49809   5.21783   0.040065449958219   0.011834061997543  -0.063771858606269
C   10.15759  -3.98164   0.97617  -0.011834059730818   0.040065445043545   0.063771856437640
C    7.16141   3.98164   0.97617   0.011832477881763  -0.040066236756486   0.063771773908078
C   12.64114   1.49809   5.21783  -0.040065441537515  -0.011834052971145  -0.063771853286305
C    4.60512  -0.95601   6.62386   0.042186143339892  -0.046508650961822   0.148745916665642
C    9.61551  -4.05438  -0.42986   0.046508653414695   0.042186143469802  -0.148745918127288
C    7.70349   4.05438  -0.42986  -0.046508510925911  -0.042186125650049  -0.148745978867305
C   12.71388   0.95601   6.62386  -0.042186137984858   0.046508653040957   0.148745916763351
C    2.73294   1.53793   1.68105   0.089681494082203   0.055808959512435   0.027669685635653
C    7.12157  -5.92656   4.51295  -0.055808895120513   0.089681423175484  -0.027669664351456
C   10.19743   5.92656   4.51295   0.055808904395219  -0.089681423183194  -0.027669664657417
C   14.58606  -1.53793   1.68105  -0.089681424685205  -0.055808894365513   0.027669668068934
C    1.38379   1.88257   1.20783   0.011671371475292   0.065398564680203   0.030830372724611
C    6.77693  -7.27571   4.98617  -0.065398562602101   0.011671386274217  -0.030830377276634
C   10.54208   7.27571   4.98617   0.065398566335733  -0.011671385726608  -0.030830375108993
C   15.93521  -1.88257   1.20783  -0.011671384245618  -0.065398563770250   0.030830379646415
C    3.43436  -3.51749   2.21250   0.103017934458949   0.030953261719875   0.040589817274465
C   12.17699  -5.22514   3.98150  -0.030953254612228   0.103017937979941  -0.040589822053448
C    5.14201   5.22514   3.98150   0.030953230616400  -0.103017949313760  -0.040589831348587
C   13.88464   3.51749   2.21250  -0.103017938920628  -0.030953257455093   0.040589819784701
C    2.27052  -4.41634   1.84333  -0.160806232841023  -0.119257634969491   0.190261783465804
C   13.07584  -6.38898   4.35067   0.119257634409287  -0.160806232779115  -0.190261780663243
C    4.24315   6.38898   4.35067  -0.119257631805922   0.160806235882930  -0.190261780285513
C   15.04848   4.41634   1.84333   0.160806235563327   0.119257628596567   0.190261780407259
H    7.56840  -4.15656   1.23880  -0.088685223501546  -0.011432667060598  -0.003989258730934
H   12.81606  -1.09110   4.95520   0.011432666816169  -0.088685222389286   0.003989258745734
H    4.50294   1.09110   4.95520  -0.011432665273135   0.088685220952231   0.003989261777046
H    9.75060   4.15656   1.23880   0.088685238474090   0.011432665761531  -0.003989259690722
H    6.28680  -4.32975   0.92910   0.091732965780125  -0.008381078950948   0.065837798012872
H   12.98925  -2.37270   5.26490   0.008381078986862   0.091732964197111  -0.065837796439937
H    4.32975   2.37270   5.26490  -0.008381077968205  -0.091732957003938  -0.065837792502897
H   11.03220   4.32975   0.92910  -0.091732961037791   0.008381078628567   0.065837794237769
H    5.78455  -0.58885  -2.60148   0.175520312472178   0.008302567145819   0.115860311884553
H    9.24835  -2.87495   8.79548  -0.008302567797296   0.175520312367208  -0.115860311306108
H    8.07065   2.87495   8.79548   0.008302567546797  -0.175520312098821  -0.115860312476755
H   11.53445   0.58885  -2.60148  -0.175520312259464  -0.008302567687587   0.115860311803234
H    7.20470  -1.61067  -2.16790   0.026039911903298  -0.022644300824239  -0.009879170196365
H   10.27017  -1.45480   8.36190   0.022644301697296   0.026039912343362   0.009879170441635
H    7.04883   1.45480   8.36190  -0.022644301608244  -0.026039912969516   0.009879169286219
H   10.11430   1.61067  -2.16790  -0.026039910782082   0.022644301536966  -0.009879170239118
H    6.82369   0.13855  -2.27939  -0.057185513917404  -0.042870943191591  -0.011736138167055
H    8.52095  -1.83581   8.47339   0.042870943976229  -0.057185514152376   0.011736137941711
H    8.79805   1.83581   8.47339  -0.042870943160106   0.057185512114460   0.011736139359626
H   10.49531  -0.13855  -2.27939   0.057185513204401   0.042870943724495  -0.011736138935537
H    3.93141  -0.25978   6.56564   0.117385091594779  -0.063462749369353  -0.008026757711843
H    8.91929  -4.72809  -0.37164   0.063462749774291   0.117385091316947   0.008026757060823
H    8.39972   4.72809  -0.37164  -0.063462707730535  -0.117385101507393   0.008026708538674
H   13.38759   0.25978   6.56564  -0.117385091218212   0.063462749909923  -0.008026756772308
H    5.19570  -0.34638   6.19400  -0.157990411815834  -0.105341633866284   0.003690832143456
H    9.00588  -3.46380   0.00000   0.105341633691886  -0.157990409253191  -0.003690831370796
H    8.31312   3.46380   0.00000  -0.105341555481622   0.157990353878142  -0.003690939334995
H   12.12330   0.34638   6.19400   0.157990409012940   0.105341634370309   0.003690831457143
H    4.60685  -1.55871   7.28414  -0.024997996402097   0.159309736275141  -0.176694811483922
H   10.21821  -4.05265  -1.09014  -0.159309736606439  -0.024997995902301   0.176694811031150
H    7.10079   4.05265  -1.09014   0.159309717491461   0.024997997150686   0.176694853493057
H   12.71215   1.55871   7.28414   0.024997996472869  -0.159309737203080  -0.176694811138962
H    0.86595   2.59785   1.59805   0.035071494236547  -0.122368725163977  -0.084674042676942
H    6.06165  -7.79355   4.59595   0.122368723141264   0.035071493141906   0.084674043562761
H   11.25735   7.79355   4.59595  -0.122368725415759  -0.035071493632279   0.084674044160591
H   16.45305  -2.59785   1.59805  -0.035071493578060   0.122368723287005  -0.084674042932729
H    1.14305   2.19951   0.24776  -0.023942388392076  -0.004781212458145   0.065547174078600
H    6.45999  -7.51645   5.94624   0.004781210581452  -0.023942388143649  -0.065547174297340
H   10.85901   7.51645   5.94624  -0.004781211067765   0.023942388139193  -0.065547174123212
H   16.17595  -2.19951   0.24776   0.023942388019500   0.004781211386462   0.065547174904571
H    0.57153   1.21233   1.36268  -0.006530156314698   0.053463187249055  -0.007902735846715
H    7.44717  -8.08797   4.83132  -0.053463186600132  -0.006530152739186   0.007902735469885
H    9.87183   8.08797   4.83132   0.053463187465526   0.006530152784654   0.007902735100502
H   16.74747  -1.21233   1.36268   0.006530154122915  -0.053463186805807  -0.007902735423058
H    2.64981  -5.35157   1.31313   0.013934627226038  -0.038393433469809   0.044403254171735
H   14.01107  -6.00969   4.88087   0.038393433417913   0.013934627015186  -0.044403253337526
H    3.30793   6.00969   4.88087  -0.038393434112674  -0.013934627166094  -0.044403254132915
H   14.66919   5.35157   1.31313  -0.013934626937181   0.038393433839697   0.044403252531831
H    1.52407  -3.82750   2.13074   0.093327838819031  -0.076956479099452   0.050169789705976
H   12.48700  -7.13543   4.06326   0.076956480760800   0.093327838382392  -0.050169789929570
H    4.83200   7.13543   4.06326  -0.076956480435741  -0.093327838628690  -0.050169790930543
H   15.79493   3.82750   2.13074  -0.093327838243986   0.076956480341513   0.050169790457124
H    1.97437  -4.98787   2.41566   0.070454992048823   0.220031553840251  -0.272329246533013
H   13.64737  -6.68513   3.77834  -0.220031553585894   0.070454991329112   0.272329246959285
H    3.67163   6.68513   3.77834   0.220031554201360  -0.070454992517773   0.272329245261016
H   15.34463   4.98787   2.41566  -0.070454990277873  -0.220031554580235  -0.272329246603295
