3996

Mn -12.77798 -20.31174 -12.85440
Mn -11.02876 -21.43748 -10.95160
Mn -11.65224 -18.56252 -10.95160
Mn -9.90302 -19.68826 -12.85440
Mn -15.50226 -20.80187 -12.85688
Mn -10.53863 -24.16176 -10.94912
Mn -12.14237 -15.83824 -10.94912
Mn -7.17874 -19.19813 -12.85688
Mn -13.78767 -23.38586 -11.64409
Mn -7.95464 -22.44717 -12.16191
Mn -14.72636 -17.55283 -12.16191
Mn -8.89333 -16.61414 -11.64409
O -12.53205 -20.26325 -10.97018
O -11.07725 -21.19155 -12.83582
O -11.60375 -18.80845 -12.83582
O -10.14895 -19.73675 -10.97018
O -13.90718 -21.80810 -12.68344
O -9.53240 -22.56668 -11.12256
O -13.14860 -17.43332 -11.12256
O -8.77382 -18.19190 -12.68344
O -14.34535 -19.32802 -12.72556
O -12.01248 -23.00485 -11.08044
O -10.66852 -16.99515 -11.08044
O -8.33565 -20.67198 -12.72556
O -12.81781 -20.37409 -14.76463
O -10.96641 -21.47731 -9.04137
O -11.71459 -18.52269 -9.04137
O -9.86319 -19.62591 -14.76463
O -15.02771 -20.79494 -15.05451
O -10.54556 -23.68721 -8.75149
O -12.13544 -16.31278 -8.75149
O -7.65328 -19.20506 -15.05451
O -15.91272 -20.90405 -10.71127
O -10.43645 -24.57222 -13.09473
O -12.24455 -15.42778 -13.09473
O -6.76828 -19.09595 -10.71127
O -14.63457 -22.51645 -9.88995
O -8.82405 -23.29407 -13.91605
O -13.85695 -16.70593 -13.91605
O -8.04643 -17.48355 -9.88995
O -17.07655 -19.72290 -13.12570
O -11.61760 -25.73605 -10.68030
O -11.06340 -14.26395 -10.68030
O -5.60445 -20.27710 -13.12570
O -13.74611 -25.07966 -10.62332
O -6.26084 -22.40561 -13.18268
O -16.42016 -17.59439 -13.18268
O -8.93489 -14.92034 -10.62332
O -16.65397 -22.32248 -13.19755
O -9.01802 -25.31347 -10.60845
O -13.66298 -14.68653 -10.60845
O -6.02703 -17.67752 -13.19755
O -15.63215 -23.98857 -12.17058
O -7.35193 -24.29165 -11.63542
O -15.32907 -15.70835 -11.63542
O -7.04885 -16.01143 -12.17058
O -13.17805 -24.56529 -13.37098
O -6.77521 -21.83755 -10.43502
O -15.90579 -18.16245 -10.43502
O -9.50295 -15.43471 -13.37098
C -13.85349 -20.63561 -15.49180
C -10.70489 -22.51299 -8.31420
C -11.97611 -17.48701 -8.31420
C -8.82751 -19.36439 -15.49180
C -13.57985 -20.77935 -16.95854
C -10.56114 -22.23935 -6.84746
C -12.11985 -17.76065 -6.84746
C -9.10115 -19.22065 -16.95854
C -15.32214 -21.49809 -9.78217
C -9.84241 -23.98164 -14.02383
C -12.83859 -16.01836 -14.02383
C -7.35886 -18.50191 -9.78217
C -15.39488 -20.95601 -8.37614
C -10.38449 -24.05438 -15.42986
C -12.29651 -15.94562 -15.42986
C -7.28612 -19.04399 -8.37614
C -17.26706 -18.46207 -13.31895
C -12.87843 -25.92656 -10.48705
C -9.80257 -14.07344 -10.48705
C -5.41394 -21.53793 -13.31895
C -18.61621 -18.11742 -13.79217
C -13.22307 -27.27571 -10.01383
C -9.45792 -12.72429 -10.01383
C -4.06479 -21.88257 -13.79217
C -16.56564 -23.51749 -12.78750
C -7.82301 -25.22514 -11.01850
C -14.85799 -14.77486 -11.01850
C -6.11536 -16.48251 -12.78750
C -17.72948 -24.41634 -13.15667
C -6.92415 -26.38898 -10.64933
C -15.75684 -13.61102 -10.64933
C -4.95152 -15.58366 -13.15667
H -12.43160 -24.15656 -13.76120
H -7.18394 -21.09110 -10.04480
H -15.49706 -18.90890 -10.04480
H -10.24940 -15.84344 -13.76120
H -13.71320 -24.32975 -14.07090
H -7.01075 -22.37270 -9.73510
H -15.67025 -17.62730 -9.73510
H -8.96780 -15.67025 -14.07090
H -14.21545 -20.58885 -17.60148
H -10.75165 -22.87495 -6.20452
H -11.92935 -17.12505 -6.20452
H -8.46555 -19.41115 -17.60148
H -12.79530 -21.61067 -17.16790
H -9.72983 -21.45480 -6.63810
H -12.95117 -18.54520 -6.63810
H -9.88570 -18.38933 -17.16790
H -13.17631 -19.86145 -17.27939
H -11.47905 -21.83581 -6.52661
H -11.20195 -18.16419 -6.52661
H -9.50469 -20.13855 -17.27939
H -16.06859 -20.25978 -8.43436
H -11.08071 -24.72809 -15.37164
H -11.60028 -15.27191 -15.37164
H -6.61241 -19.74021 -8.43436
H -14.80430 -20.34638 -8.80600
H -10.99412 -23.46380 -15.00000
H -11.68688 -16.53620 -15.00000
H -7.87670 -19.65362 -8.80600
H -15.39315 -21.55871 -7.71586
H -9.78179 -24.05265 -16.09014
H -12.89921 -15.94735 -16.09014
H -7.28785 -18.44129 -7.71586
H -19.13405 -17.40215 -13.40195
H -13.93835 -27.79355 -10.40405
H -8.74265 -12.20645 -10.40405
H -3.54695 -22.59785 -13.40195
H -18.85695 -17.80049 -14.75224
H -13.54001 -27.51645 -9.05376
H -9.14099 -12.48355 -9.05376
H -3.82405 -22.19951 -14.75224
H -19.42847 -18.78767 -13.63732
H -12.55283 -28.08797 -10.16868
H -10.12817 -11.91203 -10.16868
H -3.25253 -21.21233 -13.63732
H -17.35019 -25.35157 -13.68687
H -5.98893 -26.00969 -10.11913
H -16.69207 -13.99031 -10.11913
H -5.33081 -14.64843 -13.68687
H -18.47593 -23.82750 -12.86926
H -7.51300 -27.13543 -10.93674
H -15.16800 -12.86457 -10.93674
H -4.20507 -16.17250 -12.86926
H -18.02563 -24.98787 -12.58434
H -6.35263 -26.68513 -11.22166
H -16.32837 -13.31487 -11.22166
H -4.65537 -15.01213 -12.58434
Mn -12.77798 -20.31174  2.14560
Mn -11.02876 -21.43748  4.04840
Mn -11.65224 -18.56252  4.04840
Mn -9.90302 -19.68826  2.14560
Mn -15.50226 -20.80187  2.14312
Mn -10.53863 -24.16176  4.05088
Mn -12.14237 -15.83824  4.05088
Mn -7.17874 -19.19813  2.14312
Mn -13.78767 -23.38586  3.35591
Mn -7.95464 -22.44717  2.83809
Mn -14.72636 -17.55283  2.83809
Mn -8.89333 -16.61414  3.35591
O -12.53205 -20.26325  4.02982
O -11.07725 -21.19155  2.16418
O -11.60375 -18.80845  2.16418
O -10.14895 -19.73675  4.02982
O -13.90718 -21.80810  2.31656
O -9.53240 -22.56668  3.87744
O -13.14860 -17.43332  3.87744
O -8.77382 -18.19190  2.31656
O -14.34535 -19.32802  2.27444
O -12.01248 -23.00485  3.91956
O -10.66852 -16.99515  3.91956
O -8.33565 -20.67198  2.27444
O -12.81781 -20.37409  0.23537
O -10.96641 -21.47731  5.95863
O -11.71459 -18.52269  5.95863
O -9.86319 -19.62591  0.23537
O -15.02771 -20.79494 -0.05451
O -10.54556 -23.68721  6.24851
O -12.13544 -16.31278  6.24851
O -7.65328 -19.20506 -0.05451
O -15.91272 -20.90405  4.28873
O -10.43645 -24.57222  1.90527
O -12.24455 -15.42778  1.90527
O -6.76828 -19.09595  4.28873
O -14.63457 -22.51645  5.11005
O -8.82405 -23.29407  1.08395
O -13.85695 -16.70593  1.08395
O -8.04643 -17.48355  5.11005
O -17.07655 -19.72290  1.87430
O -11.61760 -25.73605  4.31970
O -11.06340 -14.26395  4.31970
O -5.60445 -20.27710  1.87430
O -13.74611 -25.07966  4.37668
O -6.26084 -22.40561  1.81732
O -16.42016 -17.59439  1.81732
O -8.93489 -14.92034  4.37668
O -16.65397 -22.32248  1.80245
O -9.01802 -25.31347  4.39155
O -13.66298 -14.68653  4.39155
O -6.02703 -17.67752  1.80245
O -15.63215 -23.98857  2.82942
O -7.35193 -24.29165  3.36458
O -15.32907 -15.70835  3.36458
O -7.04885 -16.01143  2.82942
O -13.17805 -24.56529  1.62902
O -6.77521 -21.83755  4.56498
O -15.90579 -18.16245  4.56498
O -9.50295 -15.43471  1.62902
C -13.85349 -20.63561 -0.49180
C -10.70489 -22.51299  6.68580
C -11.97611 -17.48701  6.68580
C -8.82751 -19.36439 -0.49180
C -13.57985 -20.77935 -1.95854
C -10.56114 -22.23935  8.15254
C -12.11985 -17.76065  8.15254
C -9.10115 -19.22065 -1.95854
C -15.32214 -21.49809  5.21783
C -9.84241 -23.98164  0.97617
C -12.83859 -16.01836  0.97617
C -7.35886 -18.50191  5.21783
C -15.39488 -20.95601  6.62386
C -10.38449 -24.05438 -0.42986
C -12.29651 -15.94562 -0.42986
C -7.28612 -19.04399  6.62386
C -17.26706 -18.46207  1.68105
C -12.87843 -25.92656  4.51295
C -9.80257 -14.07344  4.51295
C -5.41394 -21.53793  1.68105
C -18.61621 -18.11742  1.20783
C -13.22307 -27.27571  4.98617
C -9.45792 -12.72429  4.98617
C -4.06479 -21.88257  1.20783
C -16.56564 -23.51749  2.21250
C -7.82301 -25.22514  3.98150
C -14.85799 -14.77486  3.98150
C -6.11536 -16.48251  2.21250
C -17.72948 -24.41634  1.84333
C -6.92415 -26.38898  4.35067
C -15.75684 -13.61102  4.35067
C -4.95152 -15.58366  1.84333
H -12.43160 -24.15656  1.23880
H -7.18394 -21.09110  4.95520
H -15.49706 -18.90890  4.95520
H -10.24940 -15.84344  1.23880
H -13.71320 -24.32975  0.92910
H -7.01075 -22.37270  5.26490
H -15.67025 -17.62730  5.26490
H -8.96780 -15.67025  0.92910
H -14.21545 -20.58885 -2.60148
H -10.75165 -22.87495  8.79548
H -11.92935 -17.12505  8.79548
H -8.46555 -19.41115 -2.60148
H -12.79530 -21.61067 -2.16790
H -9.72983 -21.45480  8.36190
H -12.95117 -18.54520  8.36190
H -9.88570 -18.38933 -2.16790
H -13.17631 -19.86145 -2.27939
H -11.47905 -21.83581  8.47339
H -11.20195 -18.16419  8.47339
H -9.50469 -20.13855 -2.27939
H -16.06859 -20.25978  6.56564
H -11.08071 -24.72809 -0.37164
H -11.60028 -15.27191 -0.37164
H -6.61241 -19.74021  6.56564
H -14.80430 -20.34638  6.19400
H -10.99412 -23.46380  0.00000
H -11.68688 -16.53620  0.00000
H -7.87670 -19.65362  6.19400
H -15.39315 -21.55871  7.28414
H -9.78179 -24.05265 -1.09014
H -12.89921 -15.94735 -1.09014
H -7.28785 -18.44129  7.28414
H -19.13405 -17.40215  1.59805
H -13.93835 -27.79355  4.59595
H -8.74265 -12.20645  4.59595
H -3.54695 -22.59785  1.59805
H -18.85695 -17.80049  0.24776
H -13.54001 -27.51645  5.94624
H -9.14099 -12.48355  5.94624
H -3.82405 -22.19951  0.24776
H -19.42847 -18.78767  1.36268
H -12.55283 -28.08797  4.83132
H -10.12817 -11.91203  4.83132
H -3.25253 -21.21233  1.36268
H -17.35019 -25.35157  1.31313
H -5.98893 -26.00969  4.88087
H -16.69207 -13.99031  4.88087
H -5.33081 -14.64843  1.31313
H -18.47593 -23.82750  2.13074
H -7.51300 -27.13543  4.06326
H -15.16800 -12.86457  4.06326
H -4.20507 -16.17250  2.13074
H -18.02563 -24.98787  2.41566
H -6.35263 -26.68513  3.77834
H -16.32837 -13.31487  3.77834
H -4.65537 -15.01213  2.41566
Mn -12.77798 -20.31174 17.14560
Mn -11.02876 -21.43748 19.04840
Mn -11.65224 -18.56252 19.04840
Mn -9.90302 -19.68826 17.14560
Mn -15.50226 -20.80187 17.14312
Mn -10.53863 -24.16176 19.05088
Mn -12.14237 -15.83824 19.05088
Mn -7.17874 -19.19813 17.14312
Mn -13.78767 -23.38586 18.35591
Mn -7.95464 -22.44717 17.83809
Mn -14.72636 -17.55283 17.83809
Mn -8.89333 -16.61414 18.35591
O -12.53205 -20.26325 19.02982
O -11.07725 -21.19155 17.16418
O -11.60375 -18.80845 17.16418
O -10.14895 -19.73675 19.02982
O -13.90718 -21.80810 17.31656
O -9.53240 -22.56668 18.87744
O -13.14860 -17.43332 18.87744
O -8.77382 -18.19190 17.31656
O -14.34535 -19.32802 17.27444
O -12.01248 -23.00485 18.91956
O -10.66852 -16.99515 18.91956
O -8.33565 -20.67198 17.27444
O -12.81781 -20.37409 15.23537
O -10.96641 -21.47731 20.95863
O -11.71459 -18.52269 20.95863
O -9.86319 -19.62591 15.23537
O -15.02771 -20.79494 14.94549
O -10.54556 -23.68721 21.24851
O -12.13544 -16.31278 21.24851
O -7.65328 -19.20506 14.94549
O -15.91272 -20.90405 19.28873
O -10.43645 -24.57222 16.90527
O -12.24455 -15.42778 16.90527
O -6.76828 -19.09595 19.28873
O -14.63457 -22.51645 20.11005
O -8.82405 -23.29407 16.08395
O -13.85695 -16.70593 16.08395
O -8.04643 -17.48355 20.11005
O -17.07655 -19.72290 16.87430
O -11.61760 -25.73605 19.31970
O -11.06340 -14.26395 19.31970
O -5.60445 -20.27710 16.87430
O -13.74611 -25.07966 19.37668
O -6.26084 -22.40561 16.81732
O -16.42016 -17.59439 16.81732
O -8.93489 -14.92034 19.37668
O -16.65397 -22.32248 16.80245
O -9.01802 -25.31347 19.39155
O -13.66298 -14.68653 19.39155
O -6.02703 -17.67752 16.80245
O -15.63215 -23.98857 17.82942
O -7.35193 -24.29165 18.36458
O -15.32907 -15.70835 18.36458
O -7.04885 -16.01143 17.82942
O -13.17805 -24.56529 16.62902
O -6.77521 -21.83755 19.56498
O -15.90579 -18.16245 19.56498
O -9.50295 -15.43471 16.62902
C -13.85349 -20.63561 14.50820
C -10.70489 -22.51299 21.68580
C -11.97611 -17.48701 21.68580
C -8.82751 -19.36439 14.50820
C -13.57985 -20.77935 13.04146
C -10.56114 -22.23935 23.15254
C -12.11985 -17.76065 23.15254
C -9.10115 -19.22065 13.04146
C -15.32214 -21.49809 20.21783
C -9.84241 -23.98164 15.97617
C -12.83859 -16.01836 15.97617
C -7.35886 -18.50191 20.21783
C -15.39488 -20.95601 21.62386
C -10.38449 -24.05438 14.57014
C -12.29651 -15.94562 14.57014
C -7.28612 -19.04399 21.62386
C -17.26706 -18.46207 16.68105
C -12.87843 -25.92656 19.51295
C -9.80257 -14.07344 19.51295
C -5.41394 -21.53793 16.68105
C -18.61621 -18.11742 16.20783
C -13.22307 -27.27571 19.98617
C -9.45792 -12.72429 19.98617
C -4.06479 -21.88257 16.20783
C -16.56564 -23.51749 17.21250
C -7.82301 -25.22514 18.98150
C -14.85799 -14.77486 18.98150
C -6.11536 -16.48251 17.21250
C -17.72948 -24.41634 16.84333
C -6.92415 -26.38898 19.35067
C -15.75684 -13.61102 19.35067
C -4.95152 -15.58366 16.84333
H -12.43160 -24.15656 16.23880
H -7.18394 -21.09110 19.95520
H -15.49706 -18.90890 19.95520
H -10.24940 -15.84344 16.23880
H -13.71320 -24.32975 15.92910
H -7.01075 -22.37270 20.26490
H -15.67025 -17.62730 20.26490
H -8.96780 -15.67025 15.92910
H -14.21545 -20.58885 12.39852
H -10.75165 -22.87495 23.79548
H -11.92935 -17.12505 23.79548
H -8.46555 -19.41115 12.39852
H -12.79530 -21.61067 12.83210
H -9.72983 -21.45480 23.36190
H -12.95117 -18.54520 23.36190
H -9.88570 -18.38933 12.83210
H -13.17631 -19.86145 12.72061
H -11.47905 -21.83581 23.47339
H -11.20195 -18.16419 23.47339
H -9.50469 -20.13855 12.72061
H -16.06859 -20.25978 21.56564
H -11.08071 -24.72809 14.62836
H -11.60028 -15.27191 14.62836
H -6.61241 -19.74021 21.56564
H -14.80430 -20.34638 21.19400
H -10.99412 -23.46380 15.00000
H -11.68688 -16.53620 15.00000
H -7.87670 -19.65362 21.19400
H -15.39315 -21.55871 22.28414
H -9.78179 -24.05265 13.90986
H -12.89921 -15.94735 13.90986
H -7.28785 -18.44129 22.28414
H -19.13405 -17.40215 16.59805
H -13.93835 -27.79355 19.59595
H -8.74265 -12.20645 19.59595
H -3.54695 -22.59785 16.59805
H -18.85695 -17.80049 15.24776
H -13.54001 -27.51645 20.94624
H -9.14099 -12.48355 20.94624
H -3.82405 -22.19951 15.24776
H -19.42847 -18.78767 16.36268
H -12.55283 -28.08797 19.83132
H -10.12817 -11.91203 19.83132
H -3.25253 -21.21233 16.36268
H -17.35019 -25.35157 16.31313
H -5.98893 -26.00969 19.88087
H -16.69207 -13.99031 19.88087
H -5.33081 -14.64843 16.31313
H -18.47593 -23.82750 17.13074
H -7.51300 -27.13543 19.06326
H -15.16800 -12.86457 19.06326
H -4.20507 -16.17250 17.13074
H -18.02563 -24.98787 17.41566
H -6.35263 -26.68513 18.77834
H -16.32837 -13.31487 18.77834
H -4.65537 -15.01213 17.41566
Mn -12.77798 -0.31174 -12.85440
Mn -11.02876 -1.43748 -10.95160
Mn -11.65224  1.43748 -10.95160
Mn -9.90302  0.31174 -12.85440
Mn -15.50226 -0.80187 -12.85688
Mn -10.53863 -4.16176 -10.94912
Mn -12.14237  4.16176 -10.94912
Mn -7.17874  0.80187 -12.85688
Mn -13.78767 -3.38586 -11.64409
Mn -7.95464 -2.44718 -12.16191
Mn -14.72636  2.44718 -12.16191
Mn -8.89333  3.38586 -11.64409
O -12.53205 -0.26325 -10.97018
O -11.07725 -1.19155 -12.83582
O -11.60375  1.19155 -12.83582
O -10.14895  0.26325 -10.97018
O -13.90718 -1.80810 -12.68344
O -9.53240 -2.56668 -11.12256
O -13.14860  2.56668 -11.12256
O -8.77382  1.80810 -12.68344
O -14.34535  0.67198 -12.72556
O -12.01248 -3.00485 -11.08044
O -10.66852  3.00485 -11.08044
O -8.33565 -0.67198 -12.72556
O -12.81781 -0.37409 -14.76463
O -10.96641 -1.47731 -9.04137
O -11.71459  1.47731 -9.04137
O -9.86319  0.37409 -14.76463
O -15.02771 -0.79494 -15.05451
O -10.54556 -3.68722 -8.75149
O -12.13544  3.68722 -8.75149
O -7.65328  0.79494 -15.05451
O -15.91272 -0.90405 -10.71127
O -10.43645 -4.57222 -13.09473
O -12.24455  4.57222 -13.09473
O -6.76828  0.90405 -10.71127
O -14.63457 -2.51645 -9.88995
O -8.82405 -3.29407 -13.91605
O -13.85695  3.29407 -13.91605
O -8.04643  2.51645 -9.88995
O -17.07655  0.27710 -13.12570
O -11.61760 -5.73605 -10.68030
O -11.06340  5.73605 -10.68030
O -5.60445 -0.27710 -13.12570
O -13.74611 -5.07966 -10.62332
O -6.26084 -2.40561 -13.18268
O -16.42016  2.40561 -13.18268
O -8.93489  5.07966 -10.62332
O -16.65397 -2.32248 -13.19755
O -9.01802 -5.31347 -10.60845
O -13.66298  5.31347 -10.60845
O -6.02703  2.32248 -13.19755
O -15.63215 -3.98857 -12.17058
O -7.35193 -4.29165 -11.63542
O -15.32907  4.29165 -11.63542
O -7.04885  3.98857 -12.17058
O -13.17805 -4.56529 -13.37098
O -6.77521 -1.83755 -10.43502
O -15.90579  1.83755 -10.43502
O -9.50295  4.56529 -13.37098
C -13.85349 -0.63561 -15.49180
C -10.70489 -2.51299 -8.31420
C -11.97611  2.51299 -8.31420
C -8.82751  0.63561 -15.49180
C -13.57985 -0.77936 -16.95854
C -10.56114 -2.23935 -6.84746
C -12.11985  2.23935 -6.84746
C -9.10115  0.77936 -16.95854
C -15.32214 -1.49809 -9.78217
C -9.84241 -3.98164 -14.02383
C -12.83859  3.98164 -14.02383
C -7.35886  1.49809 -9.78217
C -15.39488 -0.95601 -8.37614
C -10.38449 -4.05438 -15.42986
C -12.29651  4.05438 -15.42986
C -7.28612  0.95601 -8.37614
C -17.26706  1.53793 -13.31895
C -12.87843 -5.92656 -10.48705
C -9.80257  5.92656 -10.48705
C -5.41394 -1.53793 -13.31895
C -18.61621  1.88257 -13.79217
C -13.22307 -7.27571 -10.01383
C -9.45792  7.27571 -10.01383
C -4.06479 -1.88257 -13.79217
C -16.56564 -3.51749 -12.78750
C -7.82301 -5.22514 -11.01850
C -14.85799  5.22514 -11.01850
C -6.11536  3.51749 -12.78750
C -17.72948 -4.41634 -13.15667
C -6.92415 -6.38898 -10.64933
C -15.75684  6.38898 -10.64933
C -4.95152  4.41634 -13.15667
H -12.43160 -4.15656 -13.76120
H -7.18394 -1.09110 -10.04480
H -15.49706  1.09110 -10.04480
H -10.24940  4.15656 -13.76120
H -13.71320 -4.32975 -14.07090
H -7.01075 -2.37270 -9.73510
H -15.67025  2.37270 -9.73510
H -8.96780  4.32975 -14.07090
H -14.21545 -0.58885 -17.60148
H -10.75165 -2.87495 -6.20452
H -11.92935  2.87495 -6.20452
H -8.46555  0.58885 -17.60148
H -12.79530 -1.61067 -17.16790
H -9.72983 -1.45480 -6.63810
H -12.95117  1.45480 -6.63810
H -9.88570  1.61067 -17.16790
H -13.17631  0.13855 -17.27939
H -11.47905 -1.83581 -6.52661
H -11.20195  1.83581 -6.52661
H -9.50469 -0.13855 -17.27939
H -16.06859 -0.25978 -8.43436
H -11.08071 -4.72809 -15.37164
H -11.60028  4.72809 -15.37164
H -6.61241  0.25978 -8.43436
H -14.80430 -0.34638 -8.80600
H -10.99412 -3.46380 -15.00000
H -11.68688  3.46380 -15.00000
H -7.87670  0.34638 -8.80600
H -15.39315 -1.55871 -7.71586
H -9.78179 -4.05265 -16.09014
H -12.89921  4.05265 -16.09014
H -7.28785  1.55871 -7.71586
H -19.13405  2.59785 -13.40195
H -13.93835 -7.79355 -10.40405
H -8.74265  7.79355 -10.40405
H -3.54695 -2.59785 -13.40195
H -18.85695  2.19951 -14.75224
H -13.54001 -7.51645 -9.05376
H -9.14099  7.51645 -9.05376
H -3.82405 -2.19951 -14.75224
H -19.42847  1.21233 -13.63732
H -12.55283 -8.08797 -10.16868
H -10.12817  8.08797 -10.16868
H -3.25253 -1.21233 -13.63732
H -17.35019 -5.35157 -13.68687
H -5.98893 -6.00969 -10.11913
H -16.69207  6.00969 -10.11913
H -5.33081  5.35157 -13.68687
H -18.47593 -3.82750 -12.86926
H -7.51300 -7.13543 -10.93674
H -15.16800  7.13543 -10.93674
H -4.20507  3.82750 -12.86926
H -18.02563 -4.98787 -12.58434
H -6.35263 -6.68513 -11.22166
H -16.32837  6.68513 -11.22166
H -4.65537  4.98787 -12.58434
Mn -12.77798 -0.31174  2.14560
Mn -11.02876 -1.43748  4.04840
Mn -11.65224  1.43748  4.04840
Mn -9.90302  0.31174  2.14560
Mn -15.50226 -0.80187  2.14312
Mn -10.53863 -4.16176  4.05088
Mn -12.14237  4.16176  4.05088
Mn -7.17874  0.80187  2.14312
Mn -13.78767 -3.38586  3.35591
Mn -7.95464 -2.44718  2.83809
Mn -14.72636  2.44718  2.83809
Mn -8.89333  3.38586  3.35591
O -12.53205 -0.26325  4.02982
O -11.07725 -1.19155  2.16418
O -11.60375  1.19155  2.16418
O -10.14895  0.26325  4.02982
O -13.90718 -1.80810  2.31656
O -9.53240 -2.56668  3.87744
O -13.14860  2.56668  3.87744
O -8.77382  1.80810  2.31656
O -14.34535  0.67198  2.27444
O -12.01248 -3.00485  3.91956
O -10.66852  3.00485  3.91956
O -8.33565 -0.67198  2.27444
O -12.81781 -0.37409  0.23537
O -10.96641 -1.47731  5.95863
O -11.71459  1.47731  5.95863
O -9.86319  0.37409  0.23537
O -15.02771 -0.79494 -0.05451
O -10.54556 -3.68722  6.24851
O -12.13544  3.68722  6.24851
O -7.65328  0.79494 -0.05451
O -15.91272 -0.90405  4.28873
O -10.43645 -4.57222  1.90527
O -12.24455  4.57222  1.90527
O -6.76828  0.90405  4.28873
O -14.63457 -2.51645  5.11005
O -8.82405 -3.29407  1.08395
O -13.85695  3.29407  1.08395
O -8.04643  2.51645  5.11005
O -17.07655  0.27710  1.87430
O -11.61760 -5.73605  4.31970
O -11.06340  5.73605  4.31970
O -5.60445 -0.27710  1.87430
O -13.74611 -5.07966  4.37668
O -6.26084 -2.40561  1.81732
O -16.42016  2.40561  1.81732
O -8.93489  5.07966  4.37668
O -16.65397 -2.32248  1.80245
O -9.01802 -5.31347  4.39155
O -13.66298  5.31347  4.39155
O -6.02703  2.32248  1.80245
O -15.63215 -3.98857  2.82942
O -7.35193 -4.29165  3.36458
O -15.32907  4.29165  3.36458
O -7.04885  3.98857  2.82942
O -13.17805 -4.56529  1.62902
O -6.77521 -1.83755  4.56498
O -15.90579  1.83755  4.56498
O -9.50295  4.56529  1.62902
C -13.85349 -0.63561 -0.49180
C -10.70489 -2.51299  6.68580
C -11.97611  2.51299  6.68580
C -8.82751  0.63561 -0.49180
C -13.57985 -0.77936 -1.95854
C -10.56114 -2.23935  8.15254
C -12.11985  2.23935  8.15254
C -9.10115  0.77936 -1.95854
C -15.32214 -1.49809  5.21783
C -9.84241 -3.98164  0.97617
C -12.83859  3.98164  0.97617
C -7.35886  1.49809  5.21783
C -15.39488 -0.95601  6.62386
C -10.38449 -4.05438 -0.42986
C -12.29651  4.05438 -0.42986
C -7.28612  0.95601  6.62386
C -17.26706  1.53793  1.68105
C -12.87843 -5.92656  4.51295
C -9.80257  5.92656  4.51295
C -5.41394 -1.53793  1.68105
C -18.61621  1.88257  1.20783
C -13.22307 -7.27571  4.98617
C -9.45792  7.27571  4.98617
C -4.06479 -1.88257  1.20783
C -16.56564 -3.51749  2.21250
C -7.82301 -5.22514  3.98150
C -14.85799  5.22514  3.98150
C -6.11536  3.51749  2.21250
C -17.72948 -4.41634  1.84333
C -6.92415 -6.38898  4.35067
C -15.75684  6.38898  4.35067
C -4.95152  4.41634  1.84333
H -12.43160 -4.15656  1.23880
H -7.18394 -1.09110  4.95520
H -15.49706  1.09110  4.95520
H -10.24940  4.15656  1.23880
H -13.71320 -4.32975  0.92910
H -7.01075 -2.37270  5.26490
H -15.67025  2.37270  5.26490
H -8.96780  4.32975  0.92910
H -14.21545 -0.58885 -2.60148
H -10.75165 -2.87495  8.79548
H -11.92935  2.87495  8.79548
H -8.46555  0.58885 -2.60148
H -12.79530 -1.61067 -2.16790
H -9.72983 -1.45480  8.36190
H -12.95117  1.45480  8.36190
H -9.88570  1.61067 -2.16790
H -13.17631  0.13855 -2.27939
H -11.47905 -1.83581  8.47339
H -11.20195  1.83581  8.47339
H -9.50469 -0.13855 -2.27939
H -16.06859 -0.25978  6.56564
H -11.08071 -4.72809 -0.37164
H -11.60028  4.72809 -0.37164
H -6.61241  0.25978  6.56564
H -14.80430 -0.34638  6.19400
H -10.99412 -3.46380  0.00000
H -11.68688  3.46380  0.00000
H -7.87670  0.34638  6.19400
H -15.39315 -1.55871  7.28414
H -9.78179 -4.05265 -1.09014
H -12.89921  4.05265 -1.09014
H -7.28785  1.55871  7.28414
H -19.13405  2.59785  1.59805
H -13.93835 -7.79355  4.59595
H -8.74265  7.79355  4.59595
H -3.54695 -2.59785  1.59805
H -18.85695  2.19951  0.24776
H -13.54001 -7.51645  5.94624
H -9.14099  7.51645  5.94624
H -3.82405 -2.19951  0.24776
H -19.42847  1.21233  1.36268
H -12.55283 -8.08797  4.83132
H -10.12817  8.08797  4.83132
H -3.25253 -1.21233  1.36268
H -17.35019 -5.35157  1.31313
H -5.98893 -6.00969  4.88087
H -16.69207  6.00969  4.88087
H -5.33081  5.35157  1.31313
H -18.47593 -3.82750  2.13074
H -7.51300 -7.13543  4.06326
H -15.16800  7.13543  4.06326
H -4.20507  3.82750  2.13074
H -18.02563 -4.98787  2.41566
H -6.35263 -6.68513  3.77834
H -16.32837  6.68513  3.77834
H -4.65537  4.98787  2.41566
Mn -12.77798 -0.31174 17.14560
Mn -11.02876 -1.43748 19.04840
Mn -11.65224  1.43748 19.04840
Mn -9.90302  0.31174 17.14560
Mn -15.50226 -0.80187 17.14312
Mn -10.53863 -4.16176 19.05088
Mn -12.14237  4.16176 19.05088
Mn -7.17874  0.80187 17.14312
Mn -13.78767 -3.38586 18.35591
Mn -7.95464 -2.44718 17.83809
Mn -14.72636  2.44718 17.83809
Mn -8.89333  3.38586 18.35591
O -12.53205 -0.26325 19.02982
O -11.07725 -1.19155 17.16418
O -11.60375  1.19155 17.16418
O -10.14895  0.26325 19.02982
O -13.90718 -1.80810 17.31656
O -9.53240 -2.56668 18.87744
O -13.14860  2.56668 18.87744
O -8.77382  1.80810 17.31656
O -14.34535  0.67198 17.27444
O -12.01248 -3.00485 18.91956
O -10.66852  3.00485 18.91956
O -8.33565 -0.67198 17.27444
O -12.81781 -0.37409 15.23537
O -10.96641 -1.47731 20.95863
O -11.71459  1.47731 20.95863
O -9.86319  0.37409 15.23537
O -15.02771 -0.79494 14.94549
O -10.54556 -3.68722 21.24851
O -12.13544  3.68722 21.24851
O -7.65328  0.79494 14.94549
O -15.91272 -0.90405 19.28873
O -10.43645 -4.57222 16.90527
O -12.24455  4.57222 16.90527
O -6.76828  0.90405 19.28873
O -14.63457 -2.51645 20.11005
O -8.82405 -3.29407 16.08395
O -13.85695  3.29407 16.08395
O -8.04643  2.51645 20.11005
O -17.07655  0.27710 16.87430
O -11.61760 -5.73605 19.31970
O -11.06340  5.73605 19.31970
O -5.60445 -0.27710 16.87430
O -13.74611 -5.07966 19.37668
O -6.26084 -2.40561 16.81732
O -16.42016  2.40561 16.81732
O -8.93489  5.07966 19.37668
O -16.65397 -2.32248 16.80245
O -9.01802 -5.31347 19.39155
O -13.66298  5.31347 19.39155
O -6.02703  2.32248 16.80245
O -15.63215 -3.98857 17.82942
O -7.35193 -4.29165 18.36458
O -15.32907  4.29165 18.36458
O -7.04885  3.98857 17.82942
O -13.17805 -4.56529 16.62902
O -6.77521 -1.83755 19.56498
O -15.90579  1.83755 19.56498
O -9.50295  4.56529 16.62902
C -13.85349 -0.63561 14.50820
C -10.70489 -2.51299 21.68580
C -11.97611  2.51299 21.68580
C -8.82751  0.63561 14.50820
C -13.57985 -0.77936 13.04146
C -10.56114 -2.23935 23.15254
C -12.11985  2.23935 23.15254
C -9.10115  0.77936 13.04146
C -15.32214 -1.49809 20.21783
C -9.84241 -3.98164 15.97617
C -12.83859  3.98164 15.97617
C -7.35886  1.49809 20.21783
C -15.39488 -0.95601 21.62386
C -10.38449 -4.05438 14.57014
C -12.29651  4.05438 14.57014
C -7.28612  0.95601 21.62386
C -17.26706  1.53793 16.68105
C -12.87843 -5.92656 19.51295
C -9.80257  5.92656 19.51295
C -5.41394 -1.53793 16.68105
C -18.61621  1.88257 16.20783
C -13.22307 -7.27571 19.98617
C -9.45792  7.27571 19.98617
C -4.06479 -1.88257 16.20783
C -16.56564 -3.51749 17.21250
C -7.82301 -5.22514 18.98150
C -14.85799  5.22514 18.98150
C -6.11536  3.51749 17.21250
C -17.72948 -4.41634 16.84333
C -6.92415 -6.38898 19.35067
C -15.75684  6.38898 19.35067
C -4.95152  4.41634 16.84333
H -12.43160 -4.15656 16.23880
H -7.18394 -1.09110 19.95520
H -15.49706  1.09110 19.95520
H -10.24940  4.15656 16.23880
H -13.71320 -4.32975 15.92910
H -7.01075 -2.37270 20.26490
H -15.67025  2.37270 20.26490
H -8.96780  4.32975 15.92910
H -14.21545 -0.58885 12.39852
H -10.75165 -2.87495 23.79548
H -11.92935  2.87495 23.79548
H -8.46555  0.58885 12.39852
H -12.79530 -1.61067 12.83210
H -9.72983 -1.45480 23.36190
H -12.95117  1.45480 23.36190
H -9.88570  1.61067 12.83210
H -13.17631  0.13855 12.72061
H -11.47905 -1.83581 23.47339
H -11.20195  1.83581 23.47339
H -9.50469 -0.13855 12.72061
H -16.06859 -0.25978 21.56564
H -11.08071 -4.72809 14.62836
H -11.60028  4.72809 14.62836
H -6.61241  0.25978 21.56564
H -14.80430 -0.34638 21.19400
H -10.99412 -3.46380 15.00000
H -11.68688  3.46380 15.00000
H -7.87670  0.34638 21.19400
H -15.39315 -1.55871 22.28414
H -9.78179 -4.05265 13.90986
H -12.89921  4.05265 13.90986
H -7.28785  1.55871 22.28414
H -19.13405  2.59785 16.59805
H -13.93835 -7.79355 19.59595
H -8.74265  7.79355 19.59595
H -3.54695 -2.59785 16.59805
H -18.85695  2.19951 15.24776
H -13.54001 -7.51645 20.94624
H -9.14099  7.51645 20.94624
H -3.82405 -2.19951 15.24776
H -19.42847  1.21233 16.36268
H -12.55283 -8.08797 19.83132
H -10.12817  8.08797 19.83132
H -3.25253 -1.21233 16.36268
H -17.35019 -5.35157 16.31313
H -5.98893 -6.00969 19.88087
H -16.69207  6.00969 19.88087
H -5.33081  5.35157 16.31313
H -18.47593 -3.82750 17.13074
H -7.51300 -7.13543 19.06326
H -15.16800  7.13543 19.06326
H -4.20507  3.82750 17.13074
H -18.02563 -4.98787 17.41566
H -6.35263 -6.68513 18.77834
H -16.32837  6.68513 18.77834
H -4.65537  4.98787 17.41566
Mn -12.77798 19.68826 -12.85440
Mn -11.02876 18.56252 -10.95160
Mn -11.65224 21.43748 -10.95160
Mn -9.90302 20.31174 -12.85440
Mn -15.50226 19.19813 -12.85688
Mn -10.53863 15.83824 -10.94912
Mn -12.14237 24.16176 -10.94912
Mn -7.17874 20.80187 -12.85688
Mn -13.78767 16.61414 -11.64409
Mn -7.95464 17.55283 -12.16191
Mn -14.72636 22.44717 -12.16191
Mn -8.89333 23.38586 -11.64409
O -12.53205 19.73675 -10.97018
O -11.07725 18.80845 -12.83582
O -11.60375 21.19155 -12.83582
O -10.14895 20.26325 -10.97018
O -13.90718 18.19190 -12.68344
O -9.53240 17.43332 -11.12256
O -13.14860 22.56668 -11.12256
O -8.77382 21.80810 -12.68344
O -14.34535 20.67198 -12.72556
O -12.01248 16.99515 -11.08044
O -10.66852 23.00485 -11.08044
O -8.33565 19.32802 -12.72556
O -12.81781 19.62591 -14.76463
O -10.96641 18.52269 -9.04137
O -11.71459 21.47731 -9.04137
O -9.86319 20.37409 -14.76463
O -15.02771 19.20506 -15.05451
O -10.54556 16.31278 -8.75149
O -12.13544 23.68721 -8.75149
O -7.65328 20.79494 -15.05451
O -15.91272 19.09595 -10.71127
O -10.43645 15.42778 -13.09473
O -12.24455 24.57222 -13.09473
O -6.76828 20.90405 -10.71127
O -14.63457 17.48355 -9.88995
O -8.82405 16.70593 -13.91605
O -13.85695 23.29407 -13.91605
O -8.04643 22.51645 -9.88995
O -17.07655 20.27710 -13.12570
O -11.61760 14.26395 -10.68030
O -11.06340 25.73605 -10.68030
O -5.60445 19.72290 -13.12570
O -13.74611 14.92034 -10.62332
O -6.26084 17.59439 -13.18268
O -16.42016 22.40561 -13.18268
O -8.93489 25.07966 -10.62332
O -16.65397 17.67752 -13.19755
O -9.01802 14.68653 -10.60845
O -13.66298 25.31347 -10.60845
O -6.02703 22.32248 -13.19755
O -15.63215 16.01143 -12.17058
O -7.35193 15.70835 -11.63542
O -15.32907 24.29165 -11.63542
O -7.04885 23.98857 -12.17058
O -13.17805 15.43471 -13.37098
O -6.77521 18.16245 -10.43502
O -15.90579 21.83755 -10.43502
O -9.50295 24.56529 -13.37098
C -13.85349 19.36439 -15.49180
C -10.70489 17.48701 -8.31420
C -11.97611 22.51299 -8.31420
C -8.82751 20.63561 -15.49180
C -13.57985 19.22065 -16.95854
C -10.56114 17.76065 -6.84746
C -12.11985 22.23935 -6.84746
C -9.10115 20.77935 -16.95854
C -15.32214 18.50191 -9.78217
C -9.84241 16.01836 -14.02383
C -12.83859 23.98164 -14.02383
C -7.35886 21.49809 -9.78217
C -15.39488 19.04399 -8.37614
C -10.38449 15.94562 -15.42986
C -12.29651 24.05438 -15.42986
C -7.28612 20.95601 -8.37614
C -17.26706 21.53793 -13.31895
C -12.87843 14.07344 -10.48705
C -9.80257 25.92656 -10.48705
C -5.41394 18.46207 -13.31895
C -18.61621 21.88257 -13.79217
C -13.22307 12.72429 -10.01383
C -9.45792 27.27571 -10.01383
C -4.06479 18.11742 -13.79217
C -16.56564 16.48251 -12.78750
C -7.82301 14.77486 -11.01850
C -14.85799 25.22514 -11.01850
C -6.11536 23.51749 -12.78750
C -17.72948 15.58366 -13.15667
C -6.92415 13.61102 -10.64933
C -15.75684 26.38898 -10.64933
C -4.95152 24.41634 -13.15667
H -12.43160 15.84344 -13.76120
H -7.18394 18.90890 -10.04480
H -15.49706 21.09110 -10.04480
H -10.24940 24.15656 -13.76120
H -13.71320 15.67025 -14.07090
H -7.01075 17.62730 -9.73510
H -15.67025 22.37270 -9.73510
H -8.96780 24.32975 -14.07090
H -14.21545 19.41115 -17.60148
H -10.75165 17.12505 -6.20452
H -11.92935 22.87495 -6.20452
H -8.46555 20.58885 -17.60148
H -12.79530 18.38933 -17.16790
H -9.72983 18.54520 -6.63810
H -12.95117 21.45480 -6.63810
H -9.88570 21.61067 -17.16790
H -13.17631 20.13855 -17.27939
H -11.47905 18.16419 -6.52661
H -11.20195 21.83581 -6.52661
H -9.50469 19.86145 -17.27939
H -16.06859 19.74021 -8.43436
H -11.08071 15.27191 -15.37164
H -11.60028 24.72809 -15.37164
H -6.61241 20.25978 -8.43436
H -14.80430 19.65362 -8.80600
H -10.99412 16.53620 -15.00000
H -11.68688 23.46380 -15.00000
H -7.87670 20.34638 -8.80600
H -15.39315 18.44129 -7.71586
H -9.78179 15.94735 -16.09014
H -12.89921 24.05265 -16.09014
H -7.28785 21.55871 -7.71586
H -19.13405 22.59785 -13.40195
H -13.93835 12.20645 -10.40405
H -8.74265 27.79355 -10.40405
H -3.54695 17.40215 -13.40195
H -18.85695 22.19951 -14.75224
H -13.54001 12.48355 -9.05376
H -9.14099 27.51645 -9.05376
H -3.82405 17.80049 -14.75224
H -19.42847 21.21233 -13.63732
H -12.55283 11.91203 -10.16868
H -10.12817 28.08797 -10.16868
H -3.25253 18.78767 -13.63732
H -17.35019 14.64843 -13.68687
H -5.98893 13.99031 -10.11913
H -16.69207 26.00969 -10.11913
H -5.33081 25.35157 -13.68687
H -18.47593 16.17250 -12.86926
H -7.51300 12.86457 -10.93674
H -15.16800 27.13543 -10.93674
H -4.20507 23.82750 -12.86926
H -18.02563 15.01213 -12.58434
H -6.35263 13.31487 -11.22166
H -16.32837 26.68513 -11.22166
H -4.65537 24.98787 -12.58434
Mn -12.77798 19.68826  2.14560
Mn -11.02876 18.56252  4.04840
Mn -11.65224 21.43748  4.04840
Mn -9.90302 20.31174  2.14560
Mn -15.50226 19.19813  2.14312
Mn -10.53863 15.83824  4.05088
Mn -12.14237 24.16176  4.05088
Mn -7.17874 20.80187  2.14312
Mn -13.78767 16.61414  3.35591
Mn -7.95464 17.55283  2.83809
Mn -14.72636 22.44717  2.83809
Mn -8.89333 23.38586  3.35591
O -12.53205 19.73675  4.02982
O -11.07725 18.80845  2.16418
O -11.60375 21.19155  2.16418
O -10.14895 20.26325  4.02982
O -13.90718 18.19190  2.31656
O -9.53240 17.43332  3.87744
O -13.14860 22.56668  3.87744
O -8.77382 21.80810  2.31656
O -14.34535 20.67198  2.27444
O -12.01248 16.99515  3.91956
O -10.66852 23.00485  3.91956
O -8.33565 19.32802  2.27444
O -12.81781 19.62591  0.23537
O -10.96641 18.52269  5.95863
O -11.71459 21.47731  5.95863
O -9.86319 20.37409  0.23537
O -15.02771 19.20506 -0.05451
O -10.54556 16.31278  6.24851
O -12.13544 23.68721  6.24851
O -7.65328 20.79494 -0.05451
O -15.91272 19.09595  4.28873
O -10.43645 15.42778  1.90527
O -12.24455 24.57222  1.90527
O -6.76828 20.90405  4.28873
O -14.63457 17.48355  5.11005
O -8.82405 16.70593  1.08395
O -13.85695 23.29407  1.08395
O -8.04643 22.51645  5.11005
O -17.07655 20.27710  1.87430
O -11.61760 14.26395  4.31970
O -11.06340 25.73605  4.31970
O -5.60445 19.72290  1.87430
O -13.74611 14.92034  4.37668
O -6.26084 17.59439  1.81732
O -16.42016 22.40561  1.81732
O -8.93489 25.07966  4.37668
O -16.65397 17.67752  1.80245
O -9.01802 14.68653  4.39155
O -13.66298 25.31347  4.39155
O -6.02703 22.32248  1.80245
O -15.63215 16.01143  2.82942
O -7.35193 15.70835  3.36458
O -15.32907 24.29165  3.36458
O -7.04885 23.98857  2.82942
O -13.17805 15.43471  1.62902
O -6.77521 18.16245  4.56498
O -15.90579 21.83755  4.56498
O -9.50295 24.56529  1.62902
C -13.85349 19.36439 -0.49180
C -10.70489 17.48701  6.68580
C -11.97611 22.51299  6.68580
C -8.82751 20.63561 -0.49180
C -13.57985 19.22065 -1.95854
C -10.56114 17.76065  8.15254
C -12.11985 22.23935  8.15254
C -9.10115 20.77935 -1.95854
C -15.32214 18.50191  5.21783
C -9.84241 16.01836  0.97617
C -12.83859 23.98164  0.97617
C -7.35886 21.49809  5.21783
C -15.39488 19.04399  6.62386
C -10.38449 15.94562 -0.42986
C -12.29651 24.05438 -0.42986
C -7.28612 20.95601  6.62386
C -17.26706 21.53793  1.68105
C -12.87843 14.07344  4.51295
C -9.80257 25.92656  4.51295
C -5.41394 18.46207  1.68105
C -18.61621 21.88257  1.20783
C -13.22307 12.72429  4.98617
C -9.45792 27.27571  4.98617
C -4.06479 18.11742  1.20783
C -16.56564 16.48251  2.21250
C -7.82301 14.77486  3.98150
C -14.85799 25.22514  3.98150
C -6.11536 23.51749  2.21250
C -17.72948 15.58366  1.84333
C -6.92415 13.61102  4.35067
C -15.75684 26.38898  4.35067
C -4.95152 24.41634  1.84333
H -12.43160 15.84344  1.23880
H -7.18394 18.90890  4.95520
H -15.49706 21.09110  4.95520
H -10.24940 24.15656  1.23880
H -13.71320 15.67025  0.92910
H -7.01075 17.62730  5.26490
H -15.67025 22.37270  5.26490
H -8.96780 24.32975  0.92910
H -14.21545 19.41115 -2.60148
H -10.75165 17.12505  8.79548
H -11.92935 22.87495  8.79548
H -8.46555 20.58885 -2.60148
H -12.79530 18.38933 -2.16790
H -9.72983 18.54520  8.36190
H -12.95117 21.45480  8.36190
H -9.88570 21.61067 -2.16790
H -13.17631 20.13855 -2.27939
H -11.47905 18.16419  8.47339
H -11.20195 21.83581  8.47339
H -9.50469 19.86145 -2.27939
H -16.06859 19.74021  6.56564
H -11.08071 15.27191 -0.37164
H -11.60028 24.72809 -0.37164
H -6.61241 20.25978  6.56564
H -14.80430 19.65362  6.19400
H -10.99412 16.53620  0.00000
H -11.68688 23.46380  0.00000
H -7.87670 20.34638  6.19400
H -15.39315 18.44129  7.28414
H -9.78179 15.94735 -1.09014
H -12.89921 24.05265 -1.09014
H -7.28785 21.55871  7.28414
H -19.13405 22.59785  1.59805
H -13.93835 12.20645  4.59595
H -8.74265 27.79355  4.59595
H -3.54695 17.40215  1.59805
H -18.85695 22.19951  0.24776
H -13.54001 12.48355  5.94624
H -9.14099 27.51645  5.94624
H -3.82405 17.80049  0.24776
H -19.42847 21.21233  1.36268
H -12.55283 11.91203  4.83132
H -10.12817 28.08797  4.83132
H -3.25253 18.78767  1.36268
H -17.35019 14.64843  1.31313
H -5.98893 13.99031  4.88087
H -16.69207 26.00969  4.88087
H -5.33081 25.35157  1.31313
H -18.47593 16.17250  2.13074
H -7.51300 12.86457  4.06326
H -15.16800 27.13543  4.06326
H -4.20507 23.82750  2.13074
H -18.02563 15.01213  2.41566
H -6.35263 13.31487  3.77834
H -16.32837 26.68513  3.77834
H -4.65537 24.98787  2.41566
Mn -12.77798 19.68826 17.14560
Mn -11.02876 18.56252 19.04840
Mn -11.65224 21.43748 19.04840
Mn -9.90302 20.31174 17.14560
Mn -15.50226 19.19813 17.14312
Mn -10.53863 15.83824 19.05088
Mn -12.14237 24.16176 19.05088
Mn -7.17874 20.80187 17.14312
Mn -13.78767 16.61414 18.35591
Mn -7.95464 17.55283 17.83809
Mn -14.72636 22.44717 17.83809
Mn -8.89333 23.38586 18.35591
O -12.53205 19.73675 19.02982
O -11.07725 18.80845 17.16418
O -11.60375 21.19155 17.16418
O -10.14895 20.26325 19.02982
O -13.90718 18.19190 17.31656
O -9.53240 17.43332 18.87744
O -13.14860 22.56668 18.87744
O -8.77382 21.80810 17.31656
O -14.34535 20.67198 17.27444
O -12.01248 16.99515 18.91956
O -10.66852 23.00485 18.91956
O -8.33565 19.32802 17.27444
O -12.81781 19.62591 15.23537
O -10.96641 18.52269 20.95863
O -11.71459 21.47731 20.95863
O -9.86319 20.37409 15.23537
O -15.02771 19.20506 14.94549
O -10.54556 16.31278 21.24851
O -12.13544 23.68721 21.24851
O -7.65328 20.79494 14.94549
O -15.91272 19.09595 19.28873
O -10.43645 15.42778 16.90527
O -12.24455 24.57222 16.90527
O -6.76828 20.90405 19.28873
O -14.63457 17.48355 20.11005
O -8.82405 16.70593 16.08395
O -13.85695 23.29407 16.08395
O -8.04643 22.51645 20.11005
O -17.07655 20.27710 16.87430
O -11.61760 14.26395 19.31970
O -11.06340 25.73605 19.31970
O -5.60445 19.72290 16.87430
O -13.74611 14.92034 19.37668
O -6.26084 17.59439 16.81732
O -16.42016 22.40561 16.81732
O -8.93489 25.07966 19.37668
O -16.65397 17.67752 16.80245
O -9.01802 14.68653 19.39155
O -13.66298 25.31347 19.39155
O -6.02703 22.32248 16.80245
O -15.63215 16.01143 17.82942
O -7.35193 15.70835 18.36458
O -15.32907 24.29165 18.36458
O -7.04885 23.98857 17.82942
O -13.17805 15.43471 16.62902
O -6.77521 18.16245 19.56498
O -15.90579 21.83755 19.56498
O -9.50295 24.56529 16.62902
C -13.85349 19.36439 14.50820
C -10.70489 17.48701 21.68580
C -11.97611 22.51299 21.68580
C -8.82751 20.63561 14.50820
C -13.57985 19.22065 13.04146
C -10.56114 17.76065 23.15254
C -12.11985 22.23935 23.15254
C -9.10115 20.77935 13.04146
C -15.32214 18.50191 20.21783
C -9.84241 16.01836 15.97617
C -12.83859 23.98164 15.97617
C -7.35886 21.49809 20.21783
C -15.39488 19.04399 21.62386
C -10.38449 15.94562 14.57014
C -12.29651 24.05438 14.57014
C -7.28612 20.95601 21.62386
C -17.26706 21.53793 16.68105
C -12.87843 14.07344 19.51295
C -9.80257 25.92656 19.51295
C -5.41394 18.46207 16.68105
C -18.61621 21.88257 16.20783
C -13.22307 12.72429 19.98617
C -9.45792 27.27571 19.98617
C -4.06479 18.11742 16.20783
C -16.56564 16.48251 17.21250
C -7.82301 14.77486 18.98150
C -14.85799 25.22514 18.98150
C -6.11536 23.51749 17.21250
C -17.72948 15.58366 16.84333
C -6.92415 13.61102 19.35067
C -15.75684 26.38898 19.35067
C -4.95152 24.41634 16.84333
H -12.43160 15.84344 16.23880
H -7.18394 18.90890 19.95520
H -15.49706 21.09110 19.95520
H -10.24940 24.15656 16.23880
H -13.71320 15.67025 15.92910
H -7.01075 17.62730 20.26490
H -15.67025 22.37270 20.26490
H -8.96780 24.32975 15.92910
H -14.21545 19.41115 12.39852
H -10.75165 17.12505 23.79548
H -11.92935 22.87495 23.79548
H -8.46555 20.58885 12.39852
H -12.79530 18.38933 12.83210
H -9.72983 18.54520 23.36190
H -12.95117 21.45480 23.36190
H -9.88570 21.61067 12.83210
H -13.17631 20.13855 12.72061
H -11.47905 18.16419 23.47339
H -11.20195 21.83581 23.47339
H -9.50469 19.86145 12.72061
H -16.06859 19.74021 21.56564
H -11.08071 15.27191 14.62836
H -11.60028 24.72809 14.62836
H -6.61241 20.25978 21.56564
H -14.80430 19.65362 21.19400
H -10.99412 16.53620 15.00000
H -11.68688 23.46380 15.00000
H -7.87670 20.34638 21.19400
H -15.39315 18.44129 22.28414
H -9.78179 15.94735 13.90986
H -12.89921 24.05265 13.90986
H -7.28785 21.55871 22.28414
H -19.13405 22.59785 16.59805
H -13.93835 12.20645 19.59595
H -8.74265 27.79355 19.59595
H -3.54695 17.40215 16.59805
H -18.85695 22.19951 15.24776
H -13.54001 12.48355 20.94624
H -9.14099 27.51645 20.94624
H -3.82405 17.80049 15.24776
H -19.42847 21.21233 16.36268
H -12.55283 11.91203 19.83132
H -10.12817 28.08797 19.83132
H -3.25253 18.78767 16.36268
H -17.35019 14.64843 16.31313
H -5.98893 13.99031 19.88087
H -16.69207 26.00969 19.88087
H -5.33081 25.35157 16.31313
H -18.47593 16.17250 17.13074
H -7.51300 12.86457 19.06326
H -15.16800 27.13543 19.06326
H -4.20507 23.82750 17.13074
H -18.02563 15.01213 17.41566
H -6.35263 13.31487 18.77834
H -16.32837 26.68513 18.77834
H -4.65537 24.98787 17.41566
Mn  7.22202 -20.31174 -12.85440
Mn  8.97124 -21.43748 -10.95160
Mn  8.34776 -18.56252 -10.95160
Mn 10.09698 -19.68826 -12.85440
Mn  4.49774 -20.80187 -12.85688
Mn  9.46137 -24.16176 -10.94912
Mn  7.85763 -15.83824 -10.94912
Mn 12.82126 -19.19813 -12.85688
Mn  6.21232 -23.38586 -11.64409
Mn 12.04536 -22.44717 -12.16191
Mn  5.27363 -17.55283 -12.16191
Mn 11.10667 -16.61414 -11.64409
O  7.46795 -20.26325 -10.97018
O  8.92275 -21.19155 -12.83582
O  8.39625 -18.80845 -12.83582
O  9.85105 -19.73675 -10.97018
O  6.09282 -21.80810 -12.68344
O 10.46760 -22.56668 -11.12256
O  6.85140 -17.43332 -11.12256
O 11.22618 -18.19190 -12.68344
O  5.65465 -19.32802 -12.72556
O  7.98752 -23.00485 -11.08044
O  9.33148 -16.99515 -11.08044
O 11.66435 -20.67198 -12.72556
O  7.18219 -20.37409 -14.76463
O  9.03359 -21.47731 -9.04137
O  8.28541 -18.52269 -9.04137
O 10.13681 -19.62591 -14.76463
O  4.97229 -20.79494 -15.05451
O  9.45444 -23.68721 -8.75149
O  7.86456 -16.31278 -8.75149
O 12.34671 -19.20506 -15.05451
O  4.08728 -20.90405 -10.71127
O  9.56355 -24.57222 -13.09473
O  7.75545 -15.42778 -13.09473
O 13.23172 -19.09595 -10.71127
O  5.36543 -22.51645 -9.88995
O 11.17595 -23.29407 -13.91605
O  6.14305 -16.70593 -13.91605
O 11.95357 -17.48355 -9.88995
O  2.92345 -19.72290 -13.12570
O  8.38240 -25.73605 -10.68030
O  8.93660 -14.26395 -10.68030
O 14.39555 -20.27710 -13.12570
O  6.25389 -25.07966 -10.62332
O 13.73916 -22.40561 -13.18268
O  3.57984 -17.59439 -13.18268
O 11.06511 -14.92034 -10.62332
O  3.34603 -22.32248 -13.19755
O 10.98198 -25.31347 -10.60845
O  6.33702 -14.68653 -10.60845
O 13.97297 -17.67752 -13.19755
O  4.36785 -23.98857 -12.17058
O 12.64807 -24.29165 -11.63542
O  4.67093 -15.70835 -11.63542
O 12.95115 -16.01143 -12.17058
O  6.82195 -24.56529 -13.37098
O 13.22479 -21.83755 -10.43502
O  4.09421 -18.16245 -10.43502
O 10.49705 -15.43471 -13.37098
C  6.14651 -20.63561 -15.49180
C  9.29511 -22.51299 -8.31420
C  8.02389 -17.48701 -8.31420
C 11.17249 -19.36439 -15.49180
C  6.42015 -20.77935 -16.95854
C  9.43886 -22.23935 -6.84746
C  7.88014 -17.76065 -6.84746
C 10.89885 -19.22065 -16.95854
C  4.67786 -21.49809 -9.78217
C 10.15759 -23.98164 -14.02383
C  7.16141 -16.01836 -14.02383
C 12.64114 -18.50191 -9.78217
C  4.60512 -20.95601 -8.37614
C  9.61551 -24.05438 -15.42986
C  7.70349 -15.94562 -15.42986
C 12.71388 -19.04399 -8.37614
C  2.73294 -18.46207 -13.31895
C  7.12157 -25.92656 -10.48705
C 10.19743 -14.07344 -10.48705
C 14.58606 -21.53793 -13.31895
C  1.38379 -18.11742 -13.79217
C  6.77693 -27.27571 -10.01383
C 10.54208 -12.72429 -10.01383
C 15.93521 -21.88257 -13.79217
C  3.43436 -23.51749 -12.78750
C 12.17699 -25.22514 -11.01850
C  5.14201 -14.77486 -11.01850
C 13.88464 -16.48251 -12.78750
C  2.27052 -24.41634 -13.15667
C 13.07584 -26.38898 -10.64933
C  4.24315 -13.61102 -10.64933
C 15.04848 -15.58366 -13.15667
H  7.56840 -24.15656 -13.76120
H 12.81606 -21.09110 -10.04480
H  4.50294 -18.90890 -10.04480
H  9.75060 -15.84344 -13.76120
H  6.28680 -24.32975 -14.07090
H 12.98925 -22.37270 -9.73510
H  4.32975 -17.62730 -9.73510
H 11.03220 -15.67025 -14.07090
H  5.78455 -20.58885 -17.60148
H  9.24835 -22.87495 -6.20452
H  8.07065 -17.12505 -6.20452
H 11.53445 -19.41115 -17.60148
H  7.20470 -21.61067 -17.16790
H 10.27017 -21.45480 -6.63810
H  7.04883 -18.54520 -6.63810
H 10.11430 -18.38933 -17.16790
H  6.82369 -19.86145 -17.27939
H  8.52095 -21.83581 -6.52661
H  8.79805 -18.16419 -6.52661
H 10.49531 -20.13855 -17.27939
H  3.93141 -20.25978 -8.43436
H  8.91929 -24.72809 -15.37164
H  8.39972 -15.27191 -15.37164
H 13.38759 -19.74021 -8.43436
H  5.19570 -20.34638 -8.80600
H  9.00588 -23.46380 -15.00000
H  8.31312 -16.53620 -15.00000
H 12.12330 -19.65362 -8.80600
H  4.60685 -21.55871 -7.71586
H 10.21821 -24.05265 -16.09014
H  7.10079 -15.94735 -16.09014
H 12.71215 -18.44129 -7.71586
H  0.86595 -17.40215 -13.40195
H  6.06165 -27.79355 -10.40405
H 11.25735 -12.20645 -10.40405
H 16.45305 -22.59785 -13.40195
H  1.14305 -17.80049 -14.75224
H  6.45999 -27.51645 -9.05376
H 10.85901 -12.48355 -9.05376
H 16.17595 -22.19951 -14.75224
H  0.57153 -18.78767 -13.63732
H  7.44717 -28.08797 -10.16868
H  9.87183 -11.91203 -10.16868
H 16.74747 -21.21233 -13.63732
H  2.64981 -25.35157 -13.68687
H 14.01107 -26.00969 -10.11913
H  3.30793 -13.99031 -10.11913
H 14.66919 -14.64843 -13.68687
H  1.52407 -23.82750 -12.86926
H 12.48700 -27.13543 -10.93674
H  4.83200 -12.86457 -10.93674
H 15.79493 -16.17250 -12.86926
H  1.97437 -24.98787 -12.58434
H 13.64737 -26.68513 -11.22166
H  3.67163 -13.31487 -11.22166
H 15.34463 -15.01213 -12.58434
Mn  7.22202 -20.31174  2.14560
Mn  8.97124 -21.43748  4.04840
Mn  8.34776 -18.56252  4.04840
Mn 10.09698 -19.68826  2.14560
Mn  4.49774 -20.80187  2.14312
Mn  9.46137 -24.16176  4.05088
Mn  7.85763 -15.83824  4.05088
Mn 12.82126 -19.19813  2.14312
Mn  6.21232 -23.38586  3.35591
Mn 12.04536 -22.44717  2.83809
Mn  5.27363 -17.55283  2.83809
Mn 11.10667 -16.61414  3.35591
O  7.46795 -20.26325  4.02982
O  8.92275 -21.19155  2.16418
O  8.39625 -18.80845  2.16418
O  9.85105 -19.73675  4.02982
O  6.09282 -21.80810  2.31656
O 10.46760 -22.56668  3.87744
O  6.85140 -17.43332  3.87744
O 11.22618 -18.19190  2.31656
O  5.65465 -19.32802  2.27444
O  7.98752 -23.00485  3.91956
O  9.33148 -16.99515  3.91956
O 11.66435 -20.67198  2.27444
O  7.18219 -20.37409  0.23537
O  9.03359 -21.47731  5.95863
O  8.28541 -18.52269  5.95863
O 10.13681 -19.62591  0.23537
O  4.97229 -20.79494 -0.05451
O  9.45444 -23.68721  6.24851
O  7.86456 -16.31278  6.24851
O 12.34671 -19.20506 -0.05451
O  4.08728 -20.90405  4.28873
O  9.56355 -24.57222  1.90527
O  7.75545 -15.42778  1.90527
O 13.23172 -19.09595  4.28873
O  5.36543 -22.51645  5.11005
O 11.17595 -23.29407  1.08395
O  6.14305 -16.70593  1.08395
O 11.95357 -17.48355  5.11005
O  2.92345 -19.72290  1.87430
O  8.38240 -25.73605  4.31970
O  8.93660 -14.26395  4.31970
O 14.39555 -20.27710  1.87430
O  6.25389 -25.07966  4.37668
O 13.73916 -22.40561  1.81732
O  3.57984 -17.59439  1.81732
O 11.06511 -14.92034  4.37668
O  3.34603 -22.32248  1.80245
O 10.98198 -25.31347  4.39155
O  6.33702 -14.68653  4.39155
O 13.97297 -17.67752  1.80245
O  4.36785 -23.98857  2.82942
O 12.64807 -24.29165  3.36458
O  4.67093 -15.70835  3.36458
O 12.95115 -16.01143  2.82942
O  6.82195 -24.56529  1.62902
O 13.22479 -21.83755  4.56498
O  4.09421 -18.16245  4.56498
O 10.49705 -15.43471  1.62902
C  6.14651 -20.63561 -0.49180
C  9.29511 -22.51299  6.68580
C  8.02389 -17.48701  6.68580
C 11.17249 -19.36439 -0.49180
C  6.42015 -20.77935 -1.95854
C  9.43886 -22.23935  8.15254
C  7.88014 -17.76065  8.15254
C 10.89885 -19.22065 -1.95854
C  4.67786 -21.49809  5.21783
C 10.15759 -23.98164  0.97617
C  7.16141 -16.01836  0.97617
C 12.64114 -18.50191  5.21783
C  4.60512 -20.95601  6.62386
C  9.61551 -24.05438 -0.42986
C  7.70349 -15.94562 -0.42986
C 12.71388 -19.04399  6.62386
C  2.73294 -18.46207  1.68105
C  7.12157 -25.92656  4.51295
C 10.19743 -14.07344  4.51295
C 14.58606 -21.53793  1.68105
C  1.38379 -18.11742  1.20783
C  6.77693 -27.27571  4.98617
C 10.54208 -12.72429  4.98617
C 15.93521 -21.88257  1.20783
C  3.43436 -23.51749  2.21250
C 12.17699 -25.22514  3.98150
C  5.14201 -14.77486  3.98150
C 13.88464 -16.48251  2.21250
C  2.27052 -24.41634  1.84333
C 13.07584 -26.38898  4.35067
C  4.24315 -13.61102  4.35067
C 15.04848 -15.58366  1.84333
H  7.56840 -24.15656  1.23880
H 12.81606 -21.09110  4.95520
H  4.50294 -18.90890  4.95520
H  9.75060 -15.84344  1.23880
H  6.28680 -24.32975  0.92910
H 12.98925 -22.37270  5.26490
H  4.32975 -17.62730  5.26490
H 11.03220 -15.67025  0.92910
H  5.78455 -20.58885 -2.60148
H  9.24835 -22.87495  8.79548
H  8.07065 -17.12505  8.79548
H 11.53445 -19.41115 -2.60148
H  7.20470 -21.61067 -2.16790
H 10.27017 -21.45480  8.36190
H  7.04883 -18.54520  8.36190
H 10.11430 -18.38933 -2.16790
H  6.82369 -19.86145 -2.27939
H  8.52095 -21.83581  8.47339
H  8.79805 -18.16419  8.47339
H 10.49531 -20.13855 -2.27939
H  3.93141 -20.25978  6.56564
H  8.91929 -24.72809 -0.37164
H  8.39972 -15.27191 -0.37164
H 13.38759 -19.74021  6.56564
H  5.19570 -20.34638  6.19400
H  9.00588 -23.46380  0.00000
H  8.31312 -16.53620  0.00000
H 12.12330 -19.65362  6.19400
H  4.60685 -21.55871  7.28414
H 10.21821 -24.05265 -1.09014
H  7.10079 -15.94735 -1.09014
H 12.71215 -18.44129  7.28414
H  0.86595 -17.40215  1.59805
H  6.06165 -27.79355  4.59595
H 11.25735 -12.20645  4.59595
H 16.45305 -22.59785  1.59805
H  1.14305 -17.80049  0.24776
H  6.45999 -27.51645  5.94624
H 10.85901 -12.48355  5.94624
H 16.17595 -22.19951  0.24776
H  0.57153 -18.78767  1.36268
H  7.44717 -28.08797  4.83132
H  9.87183 -11.91203  4.83132
H 16.74747 -21.21233  1.36268
H  2.64981 -25.35157  1.31313
H 14.01107 -26.00969  4.88087
H  3.30793 -13.99031  4.88087
H 14.66919 -14.64843  1.31313
H  1.52407 -23.82750  2.13074
H 12.48700 -27.13543  4.06326
H  4.83200 -12.86457  4.06326
H 15.79493 -16.17250  2.13074
H  1.97437 -24.98787  2.41566
H 13.64737 -26.68513  3.77834
H  3.67163 -13.31487  3.77834
H 15.34463 -15.01213  2.41566
Mn  7.22202 -20.31174 17.14560
Mn  8.97124 -21.43748 19.04840
Mn  8.34776 -18.56252 19.04840
Mn 10.09698 -19.68826 17.14560
Mn  4.49774 -20.80187 17.14312
Mn  9.46137 -24.16176 19.05088
Mn  7.85763 -15.83824 19.05088
Mn 12.82126 -19.19813 17.14312
Mn  6.21232 -23.38586 18.35591
Mn 12.04536 -22.44717 17.83809
Mn  5.27363 -17.55283 17.83809
Mn 11.10667 -16.61414 18.35591
O  7.46795 -20.26325 19.02982
O  8.92275 -21.19155 17.16418
O  8.39625 -18.80845 17.16418
O  9.85105 -19.73675 19.02982
O  6.09282 -21.80810 17.31656
O 10.46760 -22.56668 18.87744
O  6.85140 -17.43332 18.87744
O 11.22618 -18.19190 17.31656
O  5.65465 -19.32802 17.27444
O  7.98752 -23.00485 18.91956
O  9.33148 -16.99515 18.91956
O 11.66435 -20.67198 17.27444
O  7.18219 -20.37409 15.23537
O  9.03359 -21.47731 20.95863
O  8.28541 -18.52269 20.95863
O 10.13681 -19.62591 15.23537
O  4.97229 -20.79494 14.94549
O  9.45444 -23.68721 21.24851
O  7.86456 -16.31278 21.24851
O 12.34671 -19.20506 14.94549
O  4.08728 -20.90405 19.28873
O  9.56355 -24.57222 16.90527
O  7.75545 -15.42778 16.90527
O 13.23172 -19.09595 19.28873
O  5.36543 -22.51645 20.11005
O 11.17595 -23.29407 16.08395
O  6.14305 -16.70593 16.08395
O 11.95357 -17.48355 20.11005
O  2.92345 -19.72290 16.87430
O  8.38240 -25.73605 19.31970
O  8.93660 -14.26395 19.31970
O 14.39555 -20.27710 16.87430
O  6.25389 -25.07966 19.37668
O 13.73916 -22.40561 16.81732
O  3.57984 -17.59439 16.81732
O 11.06511 -14.92034 19.37668
O  3.34603 -22.32248 16.80245
O 10.98198 -25.31347 19.39155
O  6.33702 -14.68653 19.39155
O 13.97297 -17.67752 16.80245
O  4.36785 -23.98857 17.82942
O 12.64807 -24.29165 18.36458
O  4.67093 -15.70835 18.36458
O 12.95115 -16.01143 17.82942
O  6.82195 -24.56529 16.62902
O 13.22479 -21.83755 19.56498
O  4.09421 -18.16245 19.56498
O 10.49705 -15.43471 16.62902
C  6.14651 -20.63561 14.50820
C  9.29511 -22.51299 21.68580
C  8.02389 -17.48701 21.68580
C 11.17249 -19.36439 14.50820
C  6.42015 -20.77935 13.04146
C  9.43886 -22.23935 23.15254
C  7.88014 -17.76065 23.15254
C 10.89885 -19.22065 13.04146
C  4.67786 -21.49809 20.21783
C 10.15759 -23.98164 15.97617
C  7.16141 -16.01836 15.97617
C 12.64114 -18.50191 20.21783
C  4.60512 -20.95601 21.62386
C  9.61551 -24.05438 14.57014
C  7.70349 -15.94562 14.57014
C 12.71388 -19.04399 21.62386
C  2.73294 -18.46207 16.68105
C  7.12157 -25.92656 19.51295
C 10.19743 -14.07344 19.51295
C 14.58606 -21.53793 16.68105
C  1.38379 -18.11742 16.20783
C  6.77693 -27.27571 19.98617
C 10.54208 -12.72429 19.98617
C 15.93521 -21.88257 16.20783
C  3.43436 -23.51749 17.21250
C 12.17699 -25.22514 18.98150
C  5.14201 -14.77486 18.98150
C 13.88464 -16.48251 17.21250
C  2.27052 -24.41634 16.84333
C 13.07584 -26.38898 19.35067
C  4.24315 -13.61102 19.35067
C 15.04848 -15.58366 16.84333
H  7.56840 -24.15656 16.23880
H 12.81606 -21.09110 19.95520
H  4.50294 -18.90890 19.95520
H  9.75060 -15.84344 16.23880
H  6.28680 -24.32975 15.92910
H 12.98925 -22.37270 20.26490
H  4.32975 -17.62730 20.26490
H 11.03220 -15.67025 15.92910
H  5.78455 -20.58885 12.39852
H  9.24835 -22.87495 23.79548
H  8.07065 -17.12505 23.79548
H 11.53445 -19.41115 12.39852
H  7.20470 -21.61067 12.83210
H 10.27017 -21.45480 23.36190
H  7.04883 -18.54520 23.36190
H 10.11430 -18.38933 12.83210
H  6.82369 -19.86145 12.72061
H  8.52095 -21.83581 23.47339
H  8.79805 -18.16419 23.47339
H 10.49531 -20.13855 12.72061
H  3.93141 -20.25978 21.56564
H  8.91929 -24.72809 14.62836
H  8.39972 -15.27191 14.62836
H 13.38759 -19.74021 21.56564
H  5.19570 -20.34638 21.19400
H  9.00588 -23.46380 15.00000
H  8.31312 -16.53620 15.00000
H 12.12330 -19.65362 21.19400
H  4.60685 -21.55871 22.28414
H 10.21821 -24.05265 13.90986
H  7.10079 -15.94735 13.90986
H 12.71215 -18.44129 22.28414
H  0.86595 -17.40215 16.59805
H  6.06165 -27.79355 19.59595
H 11.25735 -12.20645 19.59595
H 16.45305 -22.59785 16.59805
H  1.14305 -17.80049 15.24776
H  6.45999 -27.51645 20.94624
H 10.85901 -12.48355 20.94624
H 16.17595 -22.19951 15.24776
H  0.57153 -18.78767 16.36268
H  7.44717 -28.08797 19.83132
H  9.87183 -11.91203 19.83132
H 16.74747 -21.21233 16.36268
H  2.64981 -25.35157 16.31313
H 14.01107 -26.00969 19.88087
H  3.30793 -13.99031 19.88087
H 14.66919 -14.64843 16.31313
H  1.52407 -23.82750 17.13074
H 12.48700 -27.13543 19.06326
H  4.83200 -12.86457 19.06326
H 15.79493 -16.17250 17.13074
H  1.97437 -24.98787 17.41566
H 13.64737 -26.68513 18.77834
H  3.67163 -13.31487 18.77834
H 15.34463 -15.01213 17.41566
Mn  7.22202 -0.31174 -12.85440
Mn  8.97124 -1.43748 -10.95160
Mn  8.34776  1.43748 -10.95160
Mn 10.09698  0.31174 -12.85440
Mn  4.49774 -0.80187 -12.85688
Mn  9.46137 -4.16176 -10.94912
Mn  7.85763  4.16176 -10.94912
Mn 12.82126  0.80187 -12.85688
Mn  6.21232 -3.38586 -11.64409
Mn 12.04536 -2.44718 -12.16191
Mn  5.27363  2.44718 -12.16191
Mn 11.10667  3.38586 -11.64409
O  7.46795 -0.26325 -10.97018
O  8.92275 -1.19155 -12.83582
O  8.39625  1.19155 -12.83582
O  9.85105  0.26325 -10.97018
O  6.09282 -1.80810 -12.68344
O 10.46760 -2.56668 -11.12256
O  6.85140  2.56668 -11.12256
O 11.22618  1.80810 -12.68344
O  5.65465  0.67198 -12.72556
O  7.98752 -3.00485 -11.08044
O  9.33148  3.00485 -11.08044
O 11.66435 -0.67198 -12.72556
O  7.18219 -0.37409 -14.76463
O  9.03359 -1.47731 -9.04137
O  8.28541  1.47731 -9.04137
O 10.13681  0.37409 -14.76463
O  4.97229 -0.79494 -15.05451
O  9.45444 -3.68722 -8.75149
O  7.86456  3.68722 -8.75149
O 12.34671  0.79494 -15.05451
O  4.08728 -0.90405 -10.71127
O  9.56355 -4.57222 -13.09473
O  7.75545  4.57222 -13.09473
O 13.23172  0.90405 -10.71127
O  5.36543 -2.51645 -9.88995
O 11.17595 -3.29407 -13.91605
O  6.14305  3.29407 -13.91605
O 11.95357  2.51645 -9.88995
O  2.92345  0.27710 -13.12570
O  8.38240 -5.73605 -10.68030
O  8.93660  5.73605 -10.68030
O 14.39555 -0.27710 -13.12570
O  6.25389 -5.07966 -10.62332
O 13.73916 -2.40561 -13.18268
O  3.57984  2.40561 -13.18268
O 11.06511  5.07966 -10.62332
O  3.34603 -2.32248 -13.19755
O 10.98198 -5.31347 -10.60845
O  6.33702  5.31347 -10.60845
O 13.97297  2.32248 -13.19755
O  4.36785 -3.98857 -12.17058
O 12.64807 -4.29165 -11.63542
O  4.67093  4.29165 -11.63542
O 12.95115  3.98857 -12.17058
O  6.82195 -4.56529 -13.37098
O 13.22479 -1.83755 -10.43502
O  4.09421  1.83755 -10.43502
O 10.49705  4.56529 -13.37098
C  6.14651 -0.63561 -15.49180
C  9.29511 -2.51299 -8.31420
C  8.02389  2.51299 -8.31420
C 11.17249  0.63561 -15.49180
C  6.42015 -0.77936 -16.95854
C  9.43886 -2.23935 -6.84746
C  7.88014  2.23935 -6.84746
C 10.89885  0.77936 -16.95854
C  4.67786 -1.49809 -9.78217
C 10.15759 -3.98164 -14.02383
C  7.16141  3.98164 -14.02383
C 12.64114  1.49809 -9.78217
C  4.60512 -0.95601 -8.37614
C  9.61551 -4.05438 -15.42986
C  7.70349  4.05438 -15.42986
C 12.71388  0.95601 -8.37614
C  2.73294  1.53793 -13.31895
C  7.12157 -5.92656 -10.48705
C 10.19743  5.92656 -10.48705
C 14.58606 -1.53793 -13.31895
C  1.38379  1.88257 -13.79217
C  6.77693 -7.27571 -10.01383
C 10.54208  7.27571 -10.01383
C 15.93521 -1.88257 -13.79217
C  3.43436 -3.51749 -12.78750
C 12.17699 -5.22514 -11.01850
C  5.14201  5.22514 -11.01850
C 13.88464  3.51749 -12.78750
C  2.27052 -4.41634 -13.15667
C 13.07584 -6.38898 -10.64933
C  4.24315  6.38898 -10.64933
C 15.04848  4.41634 -13.15667
H  7.56840 -4.15656 -13.76120
H 12.81606 -1.09110 -10.04480
H  4.50294  1.09110 -10.04480
H  9.75060  4.15656 -13.76120
H  6.28680 -4.32975 -14.07090
H 12.98925 -2.37270 -9.73510
H  4.32975  2.37270 -9.73510
H 11.03220  4.32975 -14.07090
H  5.78455 -0.58885 -17.60148
H  9.24835 -2.87495 -6.20452
H  8.07065  2.87495 -6.20452
H 11.53445  0.58885 -17.60148
H  7.20470 -1.61067 -17.16790
H 10.27017 -1.45480 -6.63810
H  7.04883  1.45480 -6.63810
H 10.11430  1.61067 -17.16790
H  6.82369  0.13855 -17.27939
H  8.52095 -1.83581 -6.52661
H  8.79805  1.83581 -6.52661
H 10.49531 -0.13855 -17.27939
H  3.93141 -0.25978 -8.43436
H  8.91929 -4.72809 -15.37164
H  8.39972  4.72809 -15.37164
H 13.38759  0.25978 -8.43436
H  5.19570 -0.34638 -8.80600
H  9.00588 -3.46380 -15.00000
H  8.31312  3.46380 -15.00000
H 12.12330  0.34638 -8.80600
H  4.60685 -1.55871 -7.71586
H 10.21821 -4.05265 -16.09014
H  7.10079  4.05265 -16.09014
H 12.71215  1.55871 -7.71586
H  0.86595  2.59785 -13.40195
H  6.06165 -7.79355 -10.40405
H 11.25735  7.79355 -10.40405
H 16.45305 -2.59785 -13.40195
H  1.14305  2.19951 -14.75224
H  6.45999 -7.51645 -9.05376
H 10.85901  7.51645 -9.05376
H 16.17595 -2.19951 -14.75224
H  0.57153  1.21233 -13.63732
H  7.44717 -8.08797 -10.16868
H  9.87183  8.08797 -10.16868
H 16.74747 -1.21233 -13.63732
H  2.64981 -5.35157 -13.68687
H 14.01107 -6.00969 -10.11913
H  3.30793  6.00969 -10.11913
H 14.66919  5.35157 -13.68687
H  1.52407 -3.82750 -12.86926
H 12.48700 -7.13543 -10.93674
H  4.83200  7.13543 -10.93674
H 15.79493  3.82750 -12.86926
H  1.97437 -4.98787 -12.58434
H 13.64737 -6.68513 -11.22166
H  3.67163  6.68513 -11.22166
H 15.34463  4.98787 -12.58434
Mn  7.22202 -0.31174  2.14560
Mn  8.97124 -1.43748  4.04840
Mn  8.34776  1.43748  4.04840
Mn 10.09698  0.31174  2.14560
Mn  4.49774 -0.80187  2.14312
Mn  9.46137 -4.16176  4.05088
Mn  7.85763  4.16176  4.05088
Mn 12.82126  0.80187  2.14312
Mn  6.21232 -3.38586  3.35591
Mn 12.04536 -2.44718  2.83809
Mn  5.27363  2.44718  2.83809
Mn 11.10667  3.38586  3.35591
O  7.46795 -0.26325  4.02982
O  8.92275 -1.19155  2.16418
O  8.39625  1.19155  2.16418
O  9.85105  0.26325  4.02982
O  6.09282 -1.80810  2.31656
O 10.46760 -2.56668  3.87744
O  6.85140  2.56668  3.87744
O 11.22618  1.80810  2.31656
O  5.65465  0.67198  2.27444
O  7.98752 -3.00485  3.91956
O  9.33148  3.00485  3.91956
O 11.66435 -0.67198  2.27444
O  7.18219 -0.37409  0.23537
O  9.03359 -1.47731  5.95863
O  8.28541  1.47731  5.95863
O 10.13681  0.37409  0.23537
O  4.97229 -0.79494 -0.05451
O  9.45444 -3.68722  6.24851
O  7.86456  3.68722  6.24851
O 12.34671  0.79494 -0.05451
O  4.08728 -0.90405  4.28873
O  9.56355 -4.57222  1.90527
O  7.75545  4.57222  1.90527
O 13.23172  0.90405  4.28873
O  5.36543 -2.51645  5.11005
O 11.17595 -3.29407  1.08395
O  6.14305  3.29407  1.08395
O 11.95357  2.51645  5.11005
O  2.92345  0.27710  1.87430
O  8.38240 -5.73605  4.31970
O  8.93660  5.73605  4.31970
O 14.39555 -0.27710  1.87430
O  6.25389 -5.07966  4.37668
O 13.73916 -2.40561  1.81732
O  3.57984  2.40561  1.81732
O 11.06511  5.07966  4.37668
O  3.34603 -2.32248  1.80245
O 10.98198 -5.31347  4.39155
O  6.33702  5.31347  4.39155
O 13.97297  2.32248  1.80245
O  4.36785 -3.98857  2.82942
O 12.64807 -4.29165  3.36458
O  4.67093  4.29165  3.36458
O 12.95115  3.98857  2.82942
O  6.82195 -4.56529  1.62902
O 13.22479 -1.83755  4.56498
O  4.09421  1.83755  4.56498
O 10.49705  4.56529  1.62902
C  6.14651 -0.63561 -0.49180
C  9.29511 -2.51299  6.68580
C  8.02389  2.51299  6.68580
C 11.17249  0.63561 -0.49180
C  6.42015 -0.77936 -1.95854
C  9.43886 -2.23935  8.15254
C  7.88014  2.23935  8.15254
C 10.89885  0.77936 -1.95854
C  4.67786 -1.49809  5.21783
C 10.15759 -3.98164  0.97617
C  7.16141  3.98164  0.97617
C 12.64114  1.49809  5.21783
C  4.60512 -0.95601  6.62386
C  9.61551 -4.05438 -0.42986
C  7.70349  4.05438 -0.42986
C 12.71388  0.95601  6.62386
C  2.73294  1.53793  1.68105
C  7.12157 -5.92656  4.51295
C 10.19743  5.92656  4.51295
C 14.58606 -1.53793  1.68105
C  1.38379  1.88257  1.20783
C  6.77693 -7.27571  4.98617
C 10.54208  7.27571  4.98617
C 15.93521 -1.88257  1.20783
C  3.43436 -3.51749  2.21250
C 12.17699 -5.22514  3.98150
C  5.14201  5.22514  3.98150
C 13.88464  3.51749  2.21250
C  2.27052 -4.41634  1.84333
C 13.07584 -6.38898  4.35067
C  4.24315  6.38898  4.35067
C 15.04848  4.41634  1.84333
H  7.56840 -4.15656  1.23880
H 12.81606 -1.09110  4.95520
H  4.50294  1.09110  4.95520
H  9.75060  4.15656  1.23880
H  6.28680 -4.32975  0.92910
H 12.98925 -2.37270  5.26490
H  4.32975  2.37270  5.26490
H 11.03220  4.32975  0.92910
H  5.78455 -0.58885 -2.60148
H  9.24835 -2.87495  8.79548
H  8.07065  2.87495  8.79548
H 11.53445  0.58885 -2.60148
H  7.20470 -1.61067 -2.16790
H 10.27017 -1.45480  8.36190
H  7.04883  1.45480  8.36190
H 10.11430  1.61067 -2.16790
H  6.82369  0.13855 -2.27939
H  8.52095 -1.83581  8.47339
H  8.79805  1.83581  8.47339
H 10.49531 -0.13855 -2.27939
H  3.93141 -0.25978  6.56564
H  8.91929 -4.72809 -0.37164
H  8.39972  4.72809 -0.37164
H 13.38759  0.25978  6.56564
H  5.19570 -0.34638  6.19400
H  9.00588 -3.46380  0.00000
H  8.31312  3.46380  0.00000
H 12.12330  0.34638  6.19400
H  4.60685 -1.55871  7.28414
H 10.21821 -4.05265 -1.09014
H  7.10079  4.05265 -1.09014
H 12.71215  1.55871  7.28414
H  0.86595  2.59785  1.59805
H  6.06165 -7.79355  4.59595
H 11.25735  7.79355  4.59595
H 16.45305 -2.59785  1.59805
H  1.14305  2.19951  0.24776
H  6.45999 -7.51645  5.94624
H 10.85901  7.51645  5.94624
H 16.17595 -2.19951  0.24776
H  0.57153  1.21233  1.36268
H  7.44717 -8.08797  4.83132
H  9.87183  8.08797  4.83132
H 16.74747 -1.21233  1.36268
H  2.64981 -5.35157  1.31313
H 14.01107 -6.00969  4.88087
H  3.30793  6.00969  4.88087
H 14.66919  5.35157  1.31313
H  1.52407 -3.82750  2.13074
H 12.48700 -7.13543  4.06326
H  4.83200  7.13543  4.06326
H 15.79493  3.82750  2.13074
H  1.97437 -4.98787  2.41566
H 13.64737 -6.68513  3.77834
H  3.67163  6.68513  3.77834
H 15.34463  4.98787  2.41566
Mn  7.22202 -0.31174 17.14560
Mn  8.97124 -1.43748 19.04840
Mn  8.34776  1.43748 19.04840
Mn 10.09698  0.31174 17.14560
Mn  4.49774 -0.80187 17.14312
Mn  9.46137 -4.16176 19.05088
Mn  7.85763  4.16176 19.05088
Mn 12.82126  0.80187 17.14312
Mn  6.21232 -3.38586 18.35591
Mn 12.04536 -2.44718 17.83809
Mn  5.27363  2.44718 17.83809
Mn 11.10667  3.38586 18.35591
O  7.46795 -0.26325 19.02982
O  8.92275 -1.19155 17.16418
O  8.39625  1.19155 17.16418
O  9.85105  0.26325 19.02982
O  6.09282 -1.80810 17.31656
O 10.46760 -2.56668 18.87744
O  6.85140  2.56668 18.87744
O 11.22618  1.80810 17.31656
O  5.65465  0.67198 17.27444
O  7.98752 -3.00485 18.91956
O  9.33148  3.00485 18.91956
O 11.66435 -0.67198 17.27444
O  7.18219 -0.37409 15.23537
O  9.03359 -1.47731 20.95863
O  8.28541  1.47731 20.95863
O 10.13681  0.37409 15.23537
O  4.97229 -0.79494 14.94549
O  9.45444 -3.68722 21.24851
O  7.86456  3.68722 21.24851
O 12.34671  0.79494 14.94549
O  4.08728 -0.90405 19.28873
O  9.56355 -4.57222 16.90527
O  7.75545  4.57222 16.90527
O 13.23172  0.90405 19.28873
O  5.36543 -2.51645 20.11005
O 11.17595 -3.29407 16.08395
O  6.14305  3.29407 16.08395
O 11.95357  2.51645 20.11005
O  2.92345  0.27710 16.87430
O  8.38240 -5.73605 19.31970
O  8.93660  5.73605 19.31970
O 14.39555 -0.27710 16.87430
O  6.25389 -5.07966 19.37668
O 13.73916 -2.40561 16.81732
O  3.57984  2.40561 16.81732
O 11.06511  5.07966 19.37668
O  3.34603 -2.32248 16.80245
O 10.98198 -5.31347 19.39155
O  6.33702  5.31347 19.39155
O 13.97297  2.32248 16.80245
O  4.36785 -3.98857 17.82942
O 12.64807 -4.29165 18.36458
O  4.67093  4.29165 18.36458
O 12.95115  3.98857 17.82942
O  6.82195 -4.56529 16.62902
O 13.22479 -1.83755 19.56498
O  4.09421  1.83755 19.56498
O 10.49705  4.56529 16.62902
C  6.14651 -0.63561 14.50820
C  9.29511 -2.51299 21.68580
C  8.02389  2.51299 21.68580
C 11.17249  0.63561 14.50820
C  6.42015 -0.77936 13.04146
C  9.43886 -2.23935 23.15254
C  7.88014  2.23935 23.15254
C 10.89885  0.77936 13.04146
C  4.67786 -1.49809 20.21783
C 10.15759 -3.98164 15.97617
C  7.16141  3.98164 15.97617
C 12.64114  1.49809 20.21783
C  4.60512 -0.95601 21.62386
C  9.61551 -4.05438 14.57014
C  7.70349  4.05438 14.57014
C 12.71388  0.95601 21.62386
C  2.73294  1.53793 16.68105
C  7.12157 -5.92656 19.51295
C 10.19743  5.92656 19.51295
C 14.58606 -1.53793 16.68105
C  1.38379  1.88257 16.20783
C  6.77693 -7.27571 19.98617
C 10.54208  7.27571 19.98617
C 15.93521 -1.88257 16.20783
C  3.43436 -3.51749 17.21250
C 12.17699 -5.22514 18.98150
C  5.14201  5.22514 18.98150
C 13.88464  3.51749 17.21250
C  2.27052 -4.41634 16.84333
C 13.07584 -6.38898 19.35067
C  4.24315  6.38898 19.35067
C 15.04848  4.41634 16.84333
H  7.56840 -4.15656 16.23880
H 12.81606 -1.09110 19.95520
H  4.50294  1.09110 19.95520
H  9.75060  4.15656 16.23880
H  6.28680 -4.32975 15.92910
H 12.98925 -2.37270 20.26490
H  4.32975  2.37270 20.26490
H 11.03220  4.32975 15.92910
H  5.78455 -0.58885 12.39852
H  9.24835 -2.87495 23.79548
H  8.07065  2.87495 23.79548
H 11.53445  0.58885 12.39852
H  7.20470 -1.61067 12.83210
H 10.27017 -1.45480 23.36190
H  7.04883  1.45480 23.36190
H 10.11430  1.61067 12.83210
H  6.82369  0.13855 12.72061
H  8.52095 -1.83581 23.47339
H  8.79805  1.83581 23.47339
H 10.49531 -0.13855 12.72061
H  3.93141 -0.25978 21.56564
H  8.91929 -4.72809 14.62836
H  8.39972  4.72809 14.62836
H 13.38759  0.25978 21.56564
H  5.19570 -0.34638 21.19400
H  9.00588 -3.46380 15.00000
H  8.31312  3.46380 15.00000
H 12.12330  0.34638 21.19400
H  4.60685 -1.55871 22.28414
H 10.21821 -4.05265 13.90986
H  7.10079  4.05265 13.90986
H 12.71215  1.55871 22.28414
H  0.86595  2.59785 16.59805
H  6.06165 -7.79355 19.59595
H 11.25735  7.79355 19.59595
H 16.45305 -2.59785 16.59805
H  1.14305  2.19951 15.24776
H  6.45999 -7.51645 20.94624
H 10.85901  7.51645 20.94624
H 16.17595 -2.19951 15.24776
H  0.57153  1.21233 16.36268
H  7.44717 -8.08797 19.83132
H  9.87183  8.08797 19.83132
H 16.74747 -1.21233 16.36268
H  2.64981 -5.35157 16.31313
H 14.01107 -6.00969 19.88087
H  3.30793  6.00969 19.88087
H 14.66919  5.35157 16.31313
H  1.52407 -3.82750 17.13074
H 12.48700 -7.13543 19.06326
H  4.83200  7.13543 19.06326
H 15.79493  3.82750 17.13074
H  1.97437 -4.98787 17.41566
H 13.64737 -6.68513 18.77834
H  3.67163  6.68513 18.77834
H 15.34463  4.98787 17.41566
Mn  7.22202 19.68826 -12.85440
Mn  8.97124 18.56252 -10.95160
Mn  8.34776 21.43748 -10.95160
Mn 10.09698 20.31174 -12.85440
Mn  4.49774 19.19813 -12.85688
Mn  9.46137 15.83824 -10.94912
Mn  7.85763 24.16176 -10.94912
Mn 12.82126 20.80187 -12.85688
Mn  6.21232 16.61414 -11.64409
Mn 12.04536 17.55283 -12.16191
Mn  5.27363 22.44717 -12.16191
Mn 11.10667 23.38586 -11.64409
O  7.46795 19.73675 -10.97018
O  8.92275 18.80845 -12.83582
O  8.39625 21.19155 -12.83582
O  9.85105 20.26325 -10.97018
O  6.09282 18.19190 -12.68344
O 10.46760 17.43332 -11.12256
O  6.85140 22.56668 -11.12256
O 11.22618 21.80810 -12.68344
O  5.65465 20.67198 -12.72556
O  7.98752 16.99515 -11.08044
O  9.33148 23.00485 -11.08044
O 11.66435 19.32802 -12.72556
O  7.18219 19.62591 -14.76463
O  9.03359 18.52269 -9.04137
O  8.28541 21.47731 -9.04137
O 10.13681 20.37409 -14.76463
O  4.97229 19.20506 -15.05451
O  9.45444 16.31278 -8.75149
O  7.86456 23.68721 -8.75149
O 12.34671 20.79494 -15.05451
O  4.08728 19.09595 -10.71127
O  9.56355 15.42778 -13.09473
O  7.75545 24.57222 -13.09473
O 13.23172 20.90405 -10.71127
O  5.36543 17.48355 -9.88995
O 11.17595 16.70593 -13.91605
O  6.14305 23.29407 -13.91605
O 11.95357 22.51645 -9.88995
O  2.92345 20.27710 -13.12570
O  8.38240 14.26395 -10.68030
O  8.93660 25.73605 -10.68030
O 14.39555 19.72290 -13.12570
O  6.25389 14.92034 -10.62332
O 13.73916 17.59439 -13.18268
O  3.57984 22.40561 -13.18268
O 11.06511 25.07966 -10.62332
O  3.34603 17.67752 -13.19755
O 10.98198 14.68653 -10.60845
O  6.33702 25.31347 -10.60845
O 13.97297 22.32248 -13.19755
O  4.36785 16.01143 -12.17058
O 12.64807 15.70835 -11.63542
O  4.67093 24.29165 -11.63542
O 12.95115 23.98857 -12.17058
O  6.82195 15.43471 -13.37098
O 13.22479 18.16245 -10.43502
O  4.09421 21.83755 -10.43502
O 10.49705 24.56529 -13.37098
C  6.14651 19.36439 -15.49180
C  9.29511 17.48701 -8.31420
C  8.02389 22.51299 -8.31420
C 11.17249 20.63561 -15.49180
C  6.42015 19.22065 -16.95854
C  9.43886 17.76065 -6.84746
C  7.88014 22.23935 -6.84746
C 10.89885 20.77935 -16.95854
C  4.67786 18.50191 -9.78217
C 10.15759 16.01836 -14.02383
C  7.16141 23.98164 -14.02383
C 12.64114 21.49809 -9.78217
C  4.60512 19.04399 -8.37614
C  9.61551 15.94562 -15.42986
C  7.70349 24.05438 -15.42986
C 12.71388 20.95601 -8.37614
C  2.73294 21.53793 -13.31895
C  7.12157 14.07344 -10.48705
C 10.19743 25.92656 -10.48705
C 14.58606 18.46207 -13.31895
C  1.38379 21.88257 -13.79217
C  6.77693 12.72429 -10.01383
C 10.54208 27.27571 -10.01383
C 15.93521 18.11742 -13.79217
C  3.43436 16.48251 -12.78750
C 12.17699 14.77486 -11.01850
C  5.14201 25.22514 -11.01850
C 13.88464 23.51749 -12.78750
C  2.27052 15.58366 -13.15667
C 13.07584 13.61102 -10.64933
C  4.24315 26.38898 -10.64933
C 15.04848 24.41634 -13.15667
H  7.56840 15.84344 -13.76120
H 12.81606 18.90890 -10.04480
H  4.50294 21.09110 -10.04480
H  9.75060 24.15656 -13.76120
H  6.28680 15.67025 -14.07090
H 12.98925 17.62730 -9.73510
H  4.32975 22.37270 -9.73510
H 11.03220 24.32975 -14.07090
H  5.78455 19.41115 -17.60148
H  9.24835 17.12505 -6.20452
H  8.07065 22.87495 -6.20452
H 11.53445 20.58885 -17.60148
H  7.20470 18.38933 -17.16790
H 10.27017 18.54520 -6.63810
H  7.04883 21.45480 -6.63810
H 10.11430 21.61067 -17.16790
H  6.82369 20.13855 -17.27939
H  8.52095 18.16419 -6.52661
H  8.79805 21.83581 -6.52661
H 10.49531 19.86145 -17.27939
H  3.93141 19.74021 -8.43436
H  8.91929 15.27191 -15.37164
H  8.39972 24.72809 -15.37164
H 13.38759 20.25978 -8.43436
H  5.19570 19.65362 -8.80600
H  9.00588 16.53620 -15.00000
H  8.31312 23.46380 -15.00000
H 12.12330 20.34638 -8.80600
H  4.60685 18.44129 -7.71586
H 10.21821 15.94735 -16.09014
H  7.10079 24.05265 -16.09014
H 12.71215 21.55871 -7.71586
H  0.86595 22.59785 -13.40195
H  6.06165 12.20645 -10.40405
H 11.25735 27.79355 -10.40405
H 16.45305 17.40215 -13.40195
H  1.14305 22.19951 -14.75224
H  6.45999 12.48355 -9.05376
H 10.85901 27.51645 -9.05376
H 16.17595 17.80049 -14.75224
H  0.57153 21.21233 -13.63732
H  7.44717 11.91203 -10.16868
H  9.87183 28.08797 -10.16868
H 16.74747 18.78767 -13.63732
H  2.64981 14.64843 -13.68687
H 14.01107 13.99031 -10.11913
H  3.30793 26.00969 -10.11913
H 14.66919 25.35157 -13.68687
H  1.52407 16.17250 -12.86926
H 12.48700 12.86457 -10.93674
H  4.83200 27.13543 -10.93674
H 15.79493 23.82750 -12.86926
H  1.97437 15.01213 -12.58434
H 13.64737 13.31487 -11.22166
H  3.67163 26.68513 -11.22166
H 15.34463 24.98787 -12.58434
Mn  7.22202 19.68826  2.14560
Mn  8.97124 18.56252  4.04840
Mn  8.34776 21.43748  4.04840
Mn 10.09698 20.31174  2.14560
Mn  4.49774 19.19813  2.14312
Mn  9.46137 15.83824  4.05088
Mn  7.85763 24.16176  4.05088
Mn 12.82126 20.80187  2.14312
Mn  6.21232 16.61414  3.35591
Mn 12.04536 17.55283  2.83809
Mn  5.27363 22.44717  2.83809
Mn 11.10667 23.38586  3.35591
O  7.46795 19.73675  4.02982
O  8.92275 18.80845  2.16418
O  8.39625 21.19155  2.16418
O  9.85105 20.26325  4.02982
O  6.09282 18.19190  2.31656
O 10.46760 17.43332  3.87744
O  6.85140 22.56668  3.87744
O 11.22618 21.80810  2.31656
O  5.65465 20.67198  2.27444
O  7.98752 16.99515  3.91956
O  9.33148 23.00485  3.91956
O 11.66435 19.32802  2.27444
O  7.18219 19.62591  0.23537
O  9.03359 18.52269  5.95863
O  8.28541 21.47731  5.95863
O 10.13681 20.37409  0.23537
O  4.97229 19.20506 -0.05451
O  9.45444 16.31278  6.24851
O  7.86456 23.68721  6.24851
O 12.34671 20.79494 -0.05451
O  4.08728 19.09595  4.28873
O  9.56355 15.42778  1.90527
O  7.75545 24.57222  1.90527
O 13.23172 20.90405  4.28873
O  5.36543 17.48355  5.11005
O 11.17595 16.70593  1.08395
O  6.14305 23.29407  1.08395
O 11.95357 22.51645  5.11005
O  2.92345 20.27710  1.87430
O  8.38240 14.26395  4.31970
O  8.93660 25.73605  4.31970
O 14.39555 19.72290  1.87430
O  6.25389 14.92034  4.37668
O 13.73916 17.59439  1.81732
O  3.57984 22.40561  1.81732
O 11.06511 25.07966  4.37668
O  3.34603 17.67752  1.80245
O 10.98198 14.68653  4.39155
O  6.33702 25.31347  4.39155
O 13.97297 22.32248  1.80245
O  4.36785 16.01143  2.82942
O 12.64807 15.70835  3.36458
O  4.67093 24.29165  3.36458
O 12.95115 23.98857  2.82942
O  6.82195 15.43471  1.62902
O 13.22479 18.16245  4.56498
O  4.09421 21.83755  4.56498
O 10.49705 24.56529  1.62902
C  6.14651 19.36439 -0.49180
C  9.29511 17.48701  6.68580
C  8.02389 22.51299  6.68580
C 11.17249 20.63561 -0.49180
C  6.42015 19.22065 -1.95854
C  9.43886 17.76065  8.15254
C  7.88014 22.23935  8.15254
C 10.89885 20.77935 -1.95854
C  4.67786 18.50191  5.21783
C 10.15759 16.01836  0.97617
C  7.16141 23.98164  0.97617
C 12.64114 21.49809  5.21783
C  4.60512 19.04399  6.62386
C  9.61551 15.94562 -0.42986
C  7.70349 24.05438 -0.42986
C 12.71388 20.95601  6.62386
C  2.73294 21.53793  1.68105
C  7.12157 14.07344  4.51295
C 10.19743 25.92656  4.51295
C 14.58606 18.46207  1.68105
C  1.38379 21.88257  1.20783
C  6.77693 12.72429  4.98617
C 10.54208 27.27571  4.98617
C 15.93521 18.11742  1.20783
C  3.43436 16.48251  2.21250
C 12.17699 14.77486  3.98150
C  5.14201 25.22514  3.98150
C 13.88464 23.51749  2.21250
C  2.27052 15.58366  1.84333
C 13.07584 13.61102  4.35067
C  4.24315 26.38898  4.35067
C 15.04848 24.41634  1.84333
H  7.56840 15.84344  1.23880
H 12.81606 18.90890  4.95520
H  4.50294 21.09110  4.95520
H  9.75060 24.15656  1.23880
H  6.28680 15.67025  0.92910
H 12.98925 17.62730  5.26490
H  4.32975 22.37270  5.26490
H 11.03220 24.32975  0.92910
H  5.78455 19.41115 -2.60148
H  9.24835 17.12505  8.79548
H  8.07065 22.87495  8.79548
H 11.53445 20.58885 -2.60148
H  7.20470 18.38933 -2.16790
H 10.27017 18.54520  8.36190
H  7.04883 21.45480  8.36190
H 10.11430 21.61067 -2.16790
H  6.82369 20.13855 -2.27939
H  8.52095 18.16419  8.47339
H  8.79805 21.83581  8.47339
H 10.49531 19.86145 -2.27939
H  3.93141 19.74021  6.56564
H  8.91929 15.27191 -0.37164
H  8.39972 24.72809 -0.37164
H 13.38759 20.25978  6.56564
H  5.19570 19.65362  6.19400
H  9.00588 16.53620  0.00000
H  8.31312 23.46380  0.00000
H 12.12330 20.34638  6.19400
H  4.60685 18.44129  7.28414
H 10.21821 15.94735 -1.09014
H  7.10079 24.05265 -1.09014
H 12.71215 21.55871  7.28414
H  0.86595 22.59785  1.59805
H  6.06165 12.20645  4.59595
H 11.25735 27.79355  4.59595
H 16.45305 17.40215  1.59805
H  1.14305 22.19951  0.24776
H  6.45999 12.48355  5.94624
H 10.85901 27.51645  5.94624
H 16.17595 17.80049  0.24776
H  0.57153 21.21233  1.36268
H  7.44717 11.91203  4.83132
H  9.87183 28.08797  4.83132
H 16.74747 18.78767  1.36268
H  2.64981 14.64843  1.31313
H 14.01107 13.99031  4.88087
H  3.30793 26.00969  4.88087
H 14.66919 25.35157  1.31313
H  1.52407 16.17250  2.13074
H 12.48700 12.86457  4.06326
H  4.83200 27.13543  4.06326
H 15.79493 23.82750  2.13074
H  1.97437 15.01213  2.41566
H 13.64737 13.31487  3.77834
H  3.67163 26.68513  3.77834
H 15.34463 24.98787  2.41566
Mn  7.22202 19.68826 17.14560
Mn  8.97124 18.56252 19.04840
Mn  8.34776 21.43748 19.04840
Mn 10.09698 20.31174 17.14560
Mn  4.49774 19.19813 17.14312
Mn  9.46137 15.83824 19.05088
Mn  7.85763 24.16176 19.05088
Mn 12.82126 20.80187 17.14312
Mn  6.21232 16.61414 18.35591
Mn 12.04536 17.55283 17.83809
Mn  5.27363 22.44717 17.83809
Mn 11.10667 23.38586 18.35591
O  7.46795 19.73675 19.02982
O  8.92275 18.80845 17.16418
O  8.39625 21.19155 17.16418
O  9.85105 20.26325 19.02982
O  6.09282 18.19190 17.31656
O 10.46760 17.43332 18.87744
O  6.85140 22.56668 18.87744
O 11.22618 21.80810 17.31656
O  5.65465 20.67198 17.27444
O  7.98752 16.99515 18.91956
O  9.33148 23.00485 18.91956
O 11.66435 19.32802 17.27444
O  7.18219 19.62591 15.23537
O  9.03359 18.52269 20.95863
O  8.28541 21.47731 20.95863
O 10.13681 20.37409 15.23537
O  4.97229 19.20506 14.94549
O  9.45444 16.31278 21.24851
O  7.86456 23.68721 21.24851
O 12.34671 20.79494 14.94549
O  4.08728 19.09595 19.28873
O  9.56355 15.42778 16.90527
O  7.75545 24.57222 16.90527
O 13.23172 20.90405 19.28873
O  5.36543 17.48355 20.11005
O 11.17595 16.70593 16.08395
O  6.14305 23.29407 16.08395
O 11.95357 22.51645 20.11005
O  2.92345 20.27710 16.87430
O  8.38240 14.26395 19.31970
O  8.93660 25.73605 19.31970
O 14.39555 19.72290 16.87430
O  6.25389 14.92034 19.37668
O 13.73916 17.59439 16.81732
O  3.57984 22.40561 16.81732
O 11.06511 25.07966 19.37668
O  3.34603 17.67752 16.80245
O 10.98198 14.68653 19.39155
O  6.33702 25.31347 19.39155
O 13.97297 22.32248 16.80245
O  4.36785 16.01143 17.82942
O 12.64807 15.70835 18.36458
O  4.67093 24.29165 18.36458
O 12.95115 23.98857 17.82942
O  6.82195 15.43471 16.62902
O 13.22479 18.16245 19.56498
O  4.09421 21.83755 19.56498
O 10.49705 24.56529 16.62902
C  6.14651 19.36439 14.50820
C  9.29511 17.48701 21.68580
C  8.02389 22.51299 21.68580
C 11.17249 20.63561 14.50820
C  6.42015 19.22065 13.04146
C  9.43886 17.76065 23.15254
C  7.88014 22.23935 23.15254
C 10.89885 20.77935 13.04146
C  4.67786 18.50191 20.21783
C 10.15759 16.01836 15.97617
C  7.16141 23.98164 15.97617
C 12.64114 21.49809 20.21783
C  4.60512 19.04399 21.62386
C  9.61551 15.94562 14.57014
C  7.70349 24.05438 14.57014
C 12.71388 20.95601 21.62386
C  2.73294 21.53793 16.68105
C  7.12157 14.07344 19.51295
C 10.19743 25.92656 19.51295
C 14.58606 18.46207 16.68105
C  1.38379 21.88257 16.20783
C  6.77693 12.72429 19.98617
C 10.54208 27.27571 19.98617
C 15.93521 18.11742 16.20783
C  3.43436 16.48251 17.21250
C 12.17699 14.77486 18.98150
C  5.14201 25.22514 18.98150
C 13.88464 23.51749 17.21250
C  2.27052 15.58366 16.84333
C 13.07584 13.61102 19.35067
C  4.24315 26.38898 19.35067
C 15.04848 24.41634 16.84333
H  7.56840 15.84344 16.23880
H 12.81606 18.90890 19.95520
H  4.50294 21.09110 19.95520
H  9.75060 24.15656 16.23880
H  6.28680 15.67025 15.92910
H 12.98925 17.62730 20.26490
H  4.32975 22.37270 20.26490
H 11.03220 24.32975 15.92910
H  5.78455 19.41115 12.39852
H  9.24835 17.12505 23.79548
H  8.07065 22.87495 23.79548
H 11.53445 20.58885 12.39852
H  7.20470 18.38933 12.83210
H 10.27017 18.54520 23.36190
H  7.04883 21.45480 23.36190
H 10.11430 21.61067 12.83210
H  6.82369 20.13855 12.72061
H  8.52095 18.16419 23.47339
H  8.79805 21.83581 23.47339
H 10.49531 19.86145 12.72061
H  3.93141 19.74021 21.56564
H  8.91929 15.27191 14.62836
H  8.39972 24.72809 14.62836
H 13.38759 20.25978 21.56564
H  5.19570 19.65362 21.19400
H  9.00588 16.53620 15.00000
H  8.31312 23.46380 15.00000
H 12.12330 20.34638 21.19400
H  4.60685 18.44129 22.28414
H 10.21821 15.94735 13.90986
H  7.10079 24.05265 13.90986
H 12.71215 21.55871 22.28414
H  0.86595 22.59785 16.59805
H  6.06165 12.20645 19.59595
H 11.25735 27.79355 19.59595
H 16.45305 17.40215 16.59805
H  1.14305 22.19951 15.24776
H  6.45999 12.48355 20.94624
H 10.85901 27.51645 20.94624
H 16.17595 17.80049 15.24776
H  0.57153 21.21233 16.36268
H  7.44717 11.91203 19.83132
H  9.87183 28.08797 19.83132
H 16.74747 18.78767 16.36268
H  2.64981 14.64843 16.31313
H 14.01107 13.99031 19.88087
H  3.30793 26.00969 19.88087
H 14.66919 25.35157 16.31313
H  1.52407 16.17250 17.13074
H 12.48700 12.86457 19.06326
H  4.83200 27.13543 19.06326
H 15.79493 23.82750 17.13074
H  1.97437 15.01213 17.41566
H 13.64737 13.31487 18.77834
H  3.67163 26.68513 18.77834
H 15.34463 24.98787 17.41566
Mn 27.22202 -20.31174 -12.85440
Mn 28.97124 -21.43748 -10.95160
Mn 28.34776 -18.56252 -10.95160
Mn 30.09698 -19.68826 -12.85440
Mn 24.49774 -20.80187 -12.85688
Mn 29.46137 -24.16176 -10.94912
Mn 27.85763 -15.83824 -10.94912
Mn 32.82126 -19.19813 -12.85688
Mn 26.21232 -23.38586 -11.64409
Mn 32.04536 -22.44717 -12.16191
Mn 25.27363 -17.55283 -12.16191
Mn 31.10667 -16.61414 -11.64409
O 27.46795 -20.26325 -10.97018
O 28.92275 -21.19155 -12.83582
O 28.39625 -18.80845 -12.83582
O 29.85105 -19.73675 -10.97018
O 26.09282 -21.80810 -12.68344
O 30.46760 -22.56668 -11.12256
O 26.85140 -17.43332 -11.12256
O 31.22618 -18.19190 -12.68344
O 25.65465 -19.32802 -12.72556
O 27.98752 -23.00485 -11.08044
O 29.33148 -16.99515 -11.08044
O 31.66435 -20.67198 -12.72556
O 27.18219 -20.37409 -14.76463
O 29.03359 -21.47731 -9.04137
O 28.28541 -18.52269 -9.04137
O 30.13681 -19.62591 -14.76463
O 24.97228 -20.79494 -15.05451
O 29.45444 -23.68721 -8.75149
O 27.86456 -16.31278 -8.75149
O 32.34671 -19.20506 -15.05451
O 24.08728 -20.90405 -10.71127
O 29.56355 -24.57222 -13.09473
O 27.75545 -15.42778 -13.09473
O 33.23172 -19.09595 -10.71127
O 25.36543 -22.51645 -9.88995
O 31.17595 -23.29407 -13.91605
O 26.14305 -16.70593 -13.91605
O 31.95357 -17.48355 -9.88995
O 22.92345 -19.72290 -13.12570
O 28.38240 -25.73605 -10.68030
O 28.93660 -14.26395 -10.68030
O 34.39555 -20.27710 -13.12570
O 26.25389 -25.07966 -10.62332
O 33.73916 -22.40561 -13.18268
O 23.57984 -17.59439 -13.18268
O 31.06511 -14.92034 -10.62332
O 23.34603 -22.32248 -13.19755
O 30.98198 -25.31347 -10.60845
O 26.33702 -14.68653 -10.60845
O 33.97297 -17.67752 -13.19755
O 24.36785 -23.98857 -12.17058
O 32.64807 -24.29165 -11.63542
O 24.67093 -15.70835 -11.63542
O 32.95115 -16.01143 -12.17058
O 26.82195 -24.56529 -13.37098
O 33.22479 -21.83755 -10.43502
O 24.09421 -18.16245 -10.43502
O 30.49705 -15.43471 -13.37098
C 26.14651 -20.63561 -15.49180
C 29.29511 -22.51299 -8.31420
C 28.02389 -17.48701 -8.31420
C 31.17249 -19.36439 -15.49180
C 26.42015 -20.77935 -16.95854
C 29.43886 -22.23935 -6.84746
C 27.88014 -17.76065 -6.84746
C 30.89885 -19.22065 -16.95854
C 24.67786 -21.49809 -9.78217
C 30.15759 -23.98164 -14.02383
C 27.16141 -16.01836 -14.02383
C 32.64114 -18.50191 -9.78217
C 24.60512 -20.95601 -8.37614
C 29.61551 -24.05438 -15.42986
C 27.70349 -15.94562 -15.42986
C 32.71388 -19.04399 -8.37614
C 22.73294 -18.46207 -13.31895
C 27.12157 -25.92656 -10.48705
C 30.19743 -14.07344 -10.48705
C 34.58606 -21.53793 -13.31895
C 21.38379 -18.11742 -13.79217
C 26.77692 -27.27571 -10.01383
C 30.54208 -12.72429 -10.01383
C 35.93521 -21.88257 -13.79217
C 23.43436 -23.51749 -12.78750
C 32.17699 -25.22514 -11.01850
C 25.14201 -14.77486 -11.01850
C 33.88464 -16.48251 -12.78750
C 22.27052 -24.41634 -13.15667
C 33.07585 -26.38898 -10.64933
C 24.24315 -13.61102 -10.64933
C 35.04848 -15.58366 -13.15667
H 27.56840 -24.15656 -13.76120
H 32.81606 -21.09110 -10.04480
H 24.50294 -18.90890 -10.04480
H 29.75060 -15.84344 -13.76120
H 26.28680 -24.32975 -14.07090
H 32.98925 -22.37270 -9.73510
H 24.32975 -17.62730 -9.73510
H 31.03220 -15.67025 -14.07090
H 25.78455 -20.58885 -17.60148
H 29.24835 -22.87495 -6.20452
H 28.07065 -17.12505 -6.20452
H 31.53445 -19.41115 -17.60148
H 27.20470 -21.61067 -17.16790
H 30.27017 -21.45480 -6.63810
H 27.04883 -18.54520 -6.63810
H 30.11430 -18.38933 -17.16790
H 26.82369 -19.86145 -17.27939
H 28.52095 -21.83581 -6.52661
H 28.79805 -18.16419 -6.52661
H 30.49531 -20.13855 -17.27939
H 23.93141 -20.25978 -8.43436
H 28.91928 -24.72809 -15.37164
H 28.39971 -15.27191 -15.37164
H 33.38759 -19.74021 -8.43436
H 25.19570 -20.34638 -8.80600
H 29.00588 -23.46380 -15.00000
H 28.31312 -16.53620 -15.00000
H 32.12330 -19.65362 -8.80600
H 24.60685 -21.55871 -7.71586
H 30.21821 -24.05265 -16.09014
H 27.10079 -15.94735 -16.09014
H 32.71215 -18.44129 -7.71586
H 20.86595 -17.40215 -13.40195
H 26.06165 -27.79355 -10.40405
H 31.25735 -12.20645 -10.40405
H 36.45305 -22.59785 -13.40195
H 21.14305 -17.80049 -14.75224
H 26.45999 -27.51645 -9.05376
H 30.85901 -12.48355 -9.05376
H 36.17595 -22.19951 -14.75224
H 20.57153 -18.78767 -13.63732
H 27.44717 -28.08797 -10.16868
H 29.87183 -11.91203 -10.16868
H 36.74747 -21.21233 -13.63732
H 22.64981 -25.35157 -13.68687
H 34.01107 -26.00969 -10.11913
H 23.30793 -13.99031 -10.11913
H 34.66919 -14.64843 -13.68687
H 21.52407 -23.82750 -12.86926
H 32.48700 -27.13543 -10.93674
H 24.83200 -12.86457 -10.93674
H 35.79493 -16.17250 -12.86926
H 21.97437 -24.98787 -12.58434
H 33.64737 -26.68513 -11.22166
H 23.67163 -13.31487 -11.22166
H 35.34463 -15.01213 -12.58434
Mn 27.22202 -20.31174  2.14560
Mn 28.97124 -21.43748  4.04840
Mn 28.34776 -18.56252  4.04840
Mn 30.09698 -19.68826  2.14560
Mn 24.49774 -20.80187  2.14312
Mn 29.46137 -24.16176  4.05088
Mn 27.85763 -15.83824  4.05088
Mn 32.82126 -19.19813  2.14312
Mn 26.21232 -23.38586  3.35591
Mn 32.04536 -22.44717  2.83809
Mn 25.27363 -17.55283  2.83809
Mn 31.10667 -16.61414  3.35591
O 27.46795 -20.26325  4.02982
O 28.92275 -21.19155  2.16418
O 28.39625 -18.80845  2.16418
O 29.85105 -19.73675  4.02982
O 26.09282 -21.80810  2.31656
O 30.46760 -22.56668  3.87744
O 26.85140 -17.43332  3.87744
O 31.22618 -18.19190  2.31656
O 25.65465 -19.32802  2.27444
O 27.98752 -23.00485  3.91956
O 29.33148 -16.99515  3.91956
O 31.66435 -20.67198  2.27444
O 27.18219 -20.37409  0.23537
O 29.03359 -21.47731  5.95863
O 28.28541 -18.52269  5.95863
O 30.13681 -19.62591  0.23537
O 24.97228 -20.79494 -0.05451
O 29.45444 -23.68721  6.24851
O 27.86456 -16.31278  6.24851
O 32.34671 -19.20506 -0.05451
O 24.08728 -20.90405  4.28873
O 29.56355 -24.57222  1.90527
O 27.75545 -15.42778  1.90527
O 33.23172 -19.09595  4.28873
O 25.36543 -22.51645  5.11005
O 31.17595 -23.29407  1.08395
O 26.14305 -16.70593  1.08395
O 31.95357 -17.48355  5.11005
O 22.92345 -19.72290  1.87430
O 28.38240 -25.73605  4.31970
O 28.93660 -14.26395  4.31970
O 34.39555 -20.27710  1.87430
O 26.25389 -25.07966  4.37668
O 33.73916 -22.40561  1.81732
O 23.57984 -17.59439  1.81732
O 31.06511 -14.92034  4.37668
O 23.34603 -22.32248  1.80245
O 30.98198 -25.31347  4.39155
O 26.33702 -14.68653  4.39155
O 33.97297 -17.67752  1.80245
O 24.36785 -23.98857  2.82942
O 32.64807 -24.29165  3.36458
O 24.67093 -15.70835  3.36458
O 32.95115 -16.01143  2.82942
O 26.82195 -24.56529  1.62902
O 33.22479 -21.83755  4.56498
O 24.09421 -18.16245  4.56498
O 30.49705 -15.43471  1.62902
C 26.14651 -20.63561 -0.49180
C 29.29511 -22.51299  6.68580
C 28.02389 -17.48701  6.68580
C 31.17249 -19.36439 -0.49180
C 26.42015 -20.77935 -1.95854
C 29.43886 -22.23935  8.15254
C 27.88014 -17.76065  8.15254
C 30.89885 -19.22065 -1.95854
C 24.67786 -21.49809  5.21783
C 30.15759 -23.98164  0.97617
C 27.16141 -16.01836  0.97617
C 32.64114 -18.50191  5.21783
C 24.60512 -20.95601  6.62386
C 29.61551 -24.05438 -0.42986
C 27.70349 -15.94562 -0.42986
C 32.71388 -19.04399  6.62386
C 22.73294 -18.46207  1.68105
C 27.12157 -25.92656  4.51295
C 30.19743 -14.07344  4.51295
C 34.58606 -21.53793  1.68105
C 21.38379 -18.11742  1.20783
C 26.77692 -27.27571  4.98617
C 30.54208 -12.72429  4.98617
C 35.93521 -21.88257  1.20783
C 23.43436 -23.51749  2.21250
C 32.17699 -25.22514  3.98150
C 25.14201 -14.77486  3.98150
C 33.88464 -16.48251  2.21250
C 22.27052 -24.41634  1.84333
C 33.07585 -26.38898  4.35067
C 24.24315 -13.61102  4.35067
C 35.04848 -15.58366  1.84333
H 27.56840 -24.15656  1.23880
H 32.81606 -21.09110  4.95520
H 24.50294 -18.90890  4.95520
H 29.75060 -15.84344  1.23880
H 26.28680 -24.32975  0.92910
H 32.98925 -22.37270  5.26490
H 24.32975 -17.62730  5.26490
H 31.03220 -15.67025  0.92910
H 25.78455 -20.58885 -2.60148
H 29.24835 -22.87495  8.79548
H 28.07065 -17.12505  8.79548
H 31.53445 -19.41115 -2.60148
H 27.20470 -21.61067 -2.16790
H 30.27017 -21.45480  8.36190
H 27.04883 -18.54520  8.36190
H 30.11430 -18.38933 -2.16790
H 26.82369 -19.86145 -2.27939
H 28.52095 -21.83581  8.47339
H 28.79805 -18.16419  8.47339
H 30.49531 -20.13855 -2.27939
H 23.93141 -20.25978  6.56564
H 28.91928 -24.72809 -0.37164
H 28.39971 -15.27191 -0.37164
H 33.38759 -19.74021  6.56564
H 25.19570 -20.34638  6.19400
H 29.00588 -23.46380  0.00000
H 28.31312 -16.53620  0.00000
H 32.12330 -19.65362  6.19400
H 24.60685 -21.55871  7.28414
H 30.21821 -24.05265 -1.09014
H 27.10079 -15.94735 -1.09014
H 32.71215 -18.44129  7.28414
H 20.86595 -17.40215  1.59805
H 26.06165 -27.79355  4.59595
H 31.25735 -12.20645  4.59595
H 36.45305 -22.59785  1.59805
H 21.14305 -17.80049  0.24776
H 26.45999 -27.51645  5.94624
H 30.85901 -12.48355  5.94624
H 36.17595 -22.19951  0.24776
H 20.57153 -18.78767  1.36268
H 27.44717 -28.08797  4.83132
H 29.87183 -11.91203  4.83132
H 36.74747 -21.21233  1.36268
H 22.64981 -25.35157  1.31313
H 34.01107 -26.00969  4.88087
H 23.30793 -13.99031  4.88087
H 34.66919 -14.64843  1.31313
H 21.52407 -23.82750  2.13074
H 32.48700 -27.13543  4.06326
H 24.83200 -12.86457  4.06326
H 35.79493 -16.17250  2.13074
H 21.97437 -24.98787  2.41566
H 33.64737 -26.68513  3.77834
H 23.67163 -13.31487  3.77834
H 35.34463 -15.01213  2.41566
Mn 27.22202 -20.31174 17.14560
Mn 28.97124 -21.43748 19.04840
Mn 28.34776 -18.56252 19.04840
Mn 30.09698 -19.68826 17.14560
Mn 24.49774 -20.80187 17.14312
Mn 29.46137 -24.16176 19.05088
Mn 27.85763 -15.83824 19.05088
Mn 32.82126 -19.19813 17.14312
Mn 26.21232 -23.38586 18.35591
Mn 32.04536 -22.44717 17.83809
Mn 25.27363 -17.55283 17.83809
Mn 31.10667 -16.61414 18.35591
O 27.46795 -20.26325 19.02982
O 28.92275 -21.19155 17.16418
O 28.39625 -18.80845 17.16418
O 29.85105 -19.73675 19.02982
O 26.09282 -21.80810 17.31656
O 30.46760 -22.56668 18.87744
O 26.85140 -17.43332 18.87744
O 31.22618 -18.19190 17.31656
O 25.65465 -19.32802 17.27444
O 27.98752 -23.00485 18.91956
O 29.33148 -16.99515 18.91956
O 31.66435 -20.67198 17.27444
O 27.18219 -20.37409 15.23537
O 29.03359 -21.47731 20.95863
O 28.28541 -18.52269 20.95863
O 30.13681 -19.62591 15.23537
O 24.97228 -20.79494 14.94549
O 29.45444 -23.68721 21.24851
O 27.86456 -16.31278 21.24851
O 32.34671 -19.20506 14.94549
O 24.08728 -20.90405 19.28873
O 29.56355 -24.57222 16.90527
O 27.75545 -15.42778 16.90527
O 33.23172 -19.09595 19.28873
O 25.36543 -22.51645 20.11005
O 31.17595 -23.29407 16.08395
O 26.14305 -16.70593 16.08395
O 31.95357 -17.48355 20.11005
O 22.92345 -19.72290 16.87430
O 28.38240 -25.73605 19.31970
O 28.93660 -14.26395 19.31970
O 34.39555 -20.27710 16.87430
O 26.25389 -25.07966 19.37668
O 33.73916 -22.40561 16.81732
O 23.57984 -17.59439 16.81732
O 31.06511 -14.92034 19.37668
O 23.34603 -22.32248 16.80245
O 30.98198 -25.31347 19.39155
O 26.33702 -14.68653 19.39155
O 33.97297 -17.67752 16.80245
O 24.36785 -23.98857 17.82942
O 32.64807 -24.29165 18.36458
O 24.67093 -15.70835 18.36458
O 32.95115 -16.01143 17.82942
O 26.82195 -24.56529 16.62902
O 33.22479 -21.83755 19.56498
O 24.09421 -18.16245 19.56498
O 30.49705 -15.43471 16.62902
C 26.14651 -20.63561 14.50820
C 29.29511 -22.51299 21.68580
C 28.02389 -17.48701 21.68580
C 31.17249 -19.36439 14.50820
C 26.42015 -20.77935 13.04146
C 29.43886 -22.23935 23.15254
C 27.88014 -17.76065 23.15254
C 30.89885 -19.22065 13.04146
C 24.67786 -21.49809 20.21783
C 30.15759 -23.98164 15.97617
C 27.16141 -16.01836 15.97617
C 32.64114 -18.50191 20.21783
C 24.60512 -20.95601 21.62386
C 29.61551 -24.05438 14.57014
C 27.70349 -15.94562 14.57014
C 32.71388 -19.04399 21.62386
C 22.73294 -18.46207 16.68105
C 27.12157 -25.92656 19.51295
C 30.19743 -14.07344 19.51295
C 34.58606 -21.53793 16.68105
C 21.38379 -18.11742 16.20783
C 26.77692 -27.27571 19.98617
C 30.54208 -12.72429 19.98617
C 35.93521 -21.88257 16.20783
C 23.43436 -23.51749 17.21250
C 32.17699 -25.22514 18.98150
C 25.14201 -14.77486 18.98150
C 33.88464 -16.48251 17.21250
C 22.27052 -24.41634 16.84333
C 33.07585 -26.38898 19.35067
C 24.24315 -13.61102 19.35067
C 35.04848 -15.58366 16.84333
H 27.56840 -24.15656 16.23880
H 32.81606 -21.09110 19.95520
H 24.50294 -18.90890 19.95520
H 29.75060 -15.84344 16.23880
H 26.28680 -24.32975 15.92910
H 32.98925 -22.37270 20.26490
H 24.32975 -17.62730 20.26490
H 31.03220 -15.67025 15.92910
H 25.78455 -20.58885 12.39852
H 29.24835 -22.87495 23.79548
H 28.07065 -17.12505 23.79548
H 31.53445 -19.41115 12.39852
H 27.20470 -21.61067 12.83210
H 30.27017 -21.45480 23.36190
H 27.04883 -18.54520 23.36190
H 30.11430 -18.38933 12.83210
H 26.82369 -19.86145 12.72061
H 28.52095 -21.83581 23.47339
H 28.79805 -18.16419 23.47339
H 30.49531 -20.13855 12.72061
H 23.93141 -20.25978 21.56564
H 28.91928 -24.72809 14.62836
H 28.39971 -15.27191 14.62836
H 33.38759 -19.74021 21.56564
H 25.19570 -20.34638 21.19400
H 29.00588 -23.46380 15.00000
H 28.31312 -16.53620 15.00000
H 32.12330 -19.65362 21.19400
H 24.60685 -21.55871 22.28414
H 30.21821 -24.05265 13.90986
H 27.10079 -15.94735 13.90986
H 32.71215 -18.44129 22.28414
H 20.86595 -17.40215 16.59805
H 26.06165 -27.79355 19.59595
H 31.25735 -12.20645 19.59595
H 36.45305 -22.59785 16.59805
H 21.14305 -17.80049 15.24776
H 26.45999 -27.51645 20.94624
H 30.85901 -12.48355 20.94624
H 36.17595 -22.19951 15.24776
H 20.57153 -18.78767 16.36268
H 27.44717 -28.08797 19.83132
H 29.87183 -11.91203 19.83132
H 36.74747 -21.21233 16.36268
H 22.64981 -25.35157 16.31313
H 34.01107 -26.00969 19.88087
H 23.30793 -13.99031 19.88087
H 34.66919 -14.64843 16.31313
H 21.52407 -23.82750 17.13074
H 32.48700 -27.13543 19.06326
H 24.83200 -12.86457 19.06326
H 35.79493 -16.17250 17.13074
H 21.97437 -24.98787 17.41566
H 33.64737 -26.68513 18.77834
H 23.67163 -13.31487 18.77834
H 35.34463 -15.01213 17.41566
Mn 27.22202 -0.31174 -12.85440
Mn 28.97124 -1.43748 -10.95160
Mn 28.34776  1.43748 -10.95160
Mn 30.09698  0.31174 -12.85440
Mn 24.49774 -0.80187 -12.85688
Mn 29.46137 -4.16176 -10.94912
Mn 27.85763  4.16176 -10.94912
Mn 32.82126  0.80187 -12.85688
Mn 26.21232 -3.38586 -11.64409
Mn 32.04536 -2.44718 -12.16191
Mn 25.27363  2.44718 -12.16191
Mn 31.10667  3.38586 -11.64409
O 27.46795 -0.26325 -10.97018
O 28.92275 -1.19155 -12.83582
O 28.39625  1.19155 -12.83582
O 29.85105  0.26325 -10.97018
O 26.09282 -1.80810 -12.68344
O 30.46760 -2.56668 -11.12256
O 26.85140  2.56668 -11.12256
O 31.22618  1.80810 -12.68344
O 25.65465  0.67198 -12.72556
O 27.98752 -3.00485 -11.08044
O 29.33148  3.00485 -11.08044
O 31.66435 -0.67198 -12.72556
O 27.18219 -0.37409 -14.76463
O 29.03359 -1.47731 -9.04137
O 28.28541  1.47731 -9.04137
O 30.13681  0.37409 -14.76463
O 24.97228 -0.79494 -15.05451
O 29.45444 -3.68722 -8.75149
O 27.86456  3.68722 -8.75149
O 32.34671  0.79494 -15.05451
O 24.08728 -0.90405 -10.71127
O 29.56355 -4.57222 -13.09473
O 27.75545  4.57222 -13.09473
O 33.23172  0.90405 -10.71127
O 25.36543 -2.51645 -9.88995
O 31.17595 -3.29407 -13.91605
O 26.14305  3.29407 -13.91605
O 31.95357  2.51645 -9.88995
O 22.92345  0.27710 -13.12570
O 28.38240 -5.73605 -10.68030
O 28.93660  5.73605 -10.68030
O 34.39555 -0.27710 -13.12570
O 26.25389 -5.07966 -10.62332
O 33.73916 -2.40561 -13.18268
O 23.57984  2.40561 -13.18268
O 31.06511  5.07966 -10.62332
O 23.34603 -2.32248 -13.19755
O 30.98198 -5.31347 -10.60845
O 26.33702  5.31347 -10.60845
O 33.97297  2.32248 -13.19755
O 24.36785 -3.98857 -12.17058
O 32.64807 -4.29165 -11.63542
O 24.67093  4.29165 -11.63542
O 32.95115  3.98857 -12.17058
O 26.82195 -4.56529 -13.37098
O 33.22479 -1.83755 -10.43502
O 24.09421  1.83755 -10.43502
O 30.49705  4.56529 -13.37098
C 26.14651 -0.63561 -15.49180
C 29.29511 -2.51299 -8.31420
C 28.02389  2.51299 -8.31420
C 31.17249  0.63561 -15.49180
C 26.42015 -0.77936 -16.95854
C 29.43886 -2.23935 -6.84746
C 27.88014  2.23935 -6.84746
C 30.89885  0.77936 -16.95854
C 24.67786 -1.49809 -9.78217
C 30.15759 -3.98164 -14.02383
C 27.16141  3.98164 -14.02383
C 32.64114  1.49809 -9.78217
C 24.60512 -0.95601 -8.37614
C 29.61551 -4.05438 -15.42986
C 27.70349  4.05438 -15.42986
C 32.71388  0.95601 -8.37614
C 22.73294  1.53793 -13.31895
C 27.12157 -5.92656 -10.48705
C 30.19743  5.92656 -10.48705
C 34.58606 -1.53793 -13.31895
C 21.38379  1.88257 -13.79217
C 26.77692 -7.27571 -10.01383
C 30.54208  7.27571 -10.01383
C 35.93521 -1.88257 -13.79217
C 23.43436 -3.51749 -12.78750
C 32.17699 -5.22514 -11.01850
C 25.14201  5.22514 -11.01850
C 33.88464  3.51749 -12.78750
C 22.27052 -4.41634 -13.15667
C 33.07585 -6.38898 -10.64933
C 24.24315  6.38898 -10.64933
C 35.04848  4.41634 -13.15667
H 27.56840 -4.15656 -13.76120
H 32.81606 -1.09110 -10.04480
H 24.50294  1.09110 -10.04480
H 29.75060  4.15656 -13.76120
H 26.28680 -4.32975 -14.07090
H 32.98925 -2.37270 -9.73510
H 24.32975  2.37270 -9.73510
H 31.03220  4.32975 -14.07090
H 25.78455 -0.58885 -17.60148
H 29.24835 -2.87495 -6.20452
H 28.07065  2.87495 -6.20452
H 31.53445  0.58885 -17.60148
H 27.20470 -1.61067 -17.16790
H 30.27017 -1.45480 -6.63810
H 27.04883  1.45480 -6.63810
H 30.11430  1.61067 -17.16790
H 26.82369  0.13855 -17.27939
H 28.52095 -1.83581 -6.52661
H 28.79805  1.83581 -6.52661
H 30.49531 -0.13855 -17.27939
H 23.93141 -0.25978 -8.43436
H 28.91928 -4.72809 -15.37164
H 28.39971  4.72809 -15.37164
H 33.38759  0.25978 -8.43436
H 25.19570 -0.34638 -8.80600
H 29.00588 -3.46380 -15.00000
H 28.31312  3.46380 -15.00000
H 32.12330  0.34638 -8.80600
H 24.60685 -1.55871 -7.71586
H 30.21821 -4.05265 -16.09014
H 27.10079  4.05265 -16.09014
H 32.71215  1.55871 -7.71586
H 20.86595  2.59785 -13.40195
H 26.06165 -7.79355 -10.40405
H 31.25735  7.79355 -10.40405
H 36.45305 -2.59785 -13.40195
H 21.14305  2.19951 -14.75224
H 26.45999 -7.51645 -9.05376
H 30.85901  7.51645 -9.05376
H 36.17595 -2.19951 -14.75224
H 20.57153  1.21233 -13.63732
H 27.44717 -8.08797 -10.16868
H 29.87183  8.08797 -10.16868
H 36.74747 -1.21233 -13.63732
H 22.64981 -5.35157 -13.68687
H 34.01107 -6.00969 -10.11913
H 23.30793  6.00969 -10.11913
H 34.66919  5.35157 -13.68687
H 21.52407 -3.82750 -12.86926
H 32.48700 -7.13543 -10.93674
H 24.83200  7.13543 -10.93674
H 35.79493  3.82750 -12.86926
H 21.97437 -4.98787 -12.58434
H 33.64737 -6.68513 -11.22166
H 23.67163  6.68513 -11.22166
H 35.34463  4.98787 -12.58434
Mn 27.22202 -0.31174  2.14560
Mn 28.97124 -1.43748  4.04840
Mn 28.34776  1.43748  4.04840
Mn 30.09698  0.31174  2.14560
Mn 24.49774 -0.80187  2.14312
Mn 29.46137 -4.16176  4.05088
Mn 27.85763  4.16176  4.05088
Mn 32.82126  0.80187  2.14312
Mn 26.21232 -3.38586  3.35591
Mn 32.04536 -2.44718  2.83809
Mn 25.27363  2.44718  2.83809
Mn 31.10667  3.38586  3.35591
O 27.46795 -0.26325  4.02982
O 28.92275 -1.19155  2.16418
O 28.39625  1.19155  2.16418
O 29.85105  0.26325  4.02982
O 26.09282 -1.80810  2.31656
O 30.46760 -2.56668  3.87744
O 26.85140  2.56668  3.87744
O 31.22618  1.80810  2.31656
O 25.65465  0.67198  2.27444
O 27.98752 -3.00485  3.91956
O 29.33148  3.00485  3.91956
O 31.66435 -0.67198  2.27444
O 27.18219 -0.37409  0.23537
O 29.03359 -1.47731  5.95863
O 28.28541  1.47731  5.95863
O 30.13681  0.37409  0.23537
O 24.97228 -0.79494 -0.05451
O 29.45444 -3.68722  6.24851
O 27.86456  3.68722  6.24851
O 32.34671  0.79494 -0.05451
O 24.08728 -0.90405  4.28873
O 29.56355 -4.57222  1.90527
O 27.75545  4.57222  1.90527
O 33.23172  0.90405  4.28873
O 25.36543 -2.51645  5.11005
O 31.17595 -3.29407  1.08395
O 26.14305  3.29407  1.08395
O 31.95357  2.51645  5.11005
O 22.92345  0.27710  1.87430
O 28.38240 -5.73605  4.31970
O 28.93660  5.73605  4.31970
O 34.39555 -0.27710  1.87430
O 26.25389 -5.07966  4.37668
O 33.73916 -2.40561  1.81732
O 23.57984  2.40561  1.81732
O 31.06511  5.07966  4.37668
O 23.34603 -2.32248  1.80245
O 30.98198 -5.31347  4.39155
O 26.33702  5.31347  4.39155
O 33.97297  2.32248  1.80245
O 24.36785 -3.98857  2.82942
O 32.64807 -4.29165  3.36458
O 24.67093  4.29165  3.36458
O 32.95115  3.98857  2.82942
O 26.82195 -4.56529  1.62902
O 33.22479 -1.83755  4.56498
O 24.09421  1.83755  4.56498
O 30.49705  4.56529  1.62902
C 26.14651 -0.63561 -0.49180
C 29.29511 -2.51299  6.68580
C 28.02389  2.51299  6.68580
C 31.17249  0.63561 -0.49180
C 26.42015 -0.77936 -1.95854
C 29.43886 -2.23935  8.15254
C 27.88014  2.23935  8.15254
C 30.89885  0.77936 -1.95854
C 24.67786 -1.49809  5.21783
C 30.15759 -3.98164  0.97617
C 27.16141  3.98164  0.97617
C 32.64114  1.49809  5.21783
C 24.60512 -0.95601  6.62386
C 29.61551 -4.05438 -0.42986
C 27.70349  4.05438 -0.42986
C 32.71388  0.95601  6.62386
C 22.73294  1.53793  1.68105
C 27.12157 -5.92656  4.51295
C 30.19743  5.92656  4.51295
C 34.58606 -1.53793  1.68105
C 21.38379  1.88257  1.20783
C 26.77692 -7.27571  4.98617
C 30.54208  7.27571  4.98617
C 35.93521 -1.88257  1.20783
C 23.43436 -3.51749  2.21250
C 32.17699 -5.22514  3.98150
C 25.14201  5.22514  3.98150
C 33.88464  3.51749  2.21250
C 22.27052 -4.41634  1.84333
C 33.07585 -6.38898  4.35067
C 24.24315  6.38898  4.35067
C 35.04848  4.41634  1.84333
H 27.56840 -4.15656  1.23880
H 32.81606 -1.09110  4.95520
H 24.50294  1.09110  4.95520
H 29.75060  4.15656  1.23880
H 26.28680 -4.32975  0.92910
H 32.98925 -2.37270  5.26490
H 24.32975  2.37270  5.26490
H 31.03220  4.32975  0.92910
H 25.78455 -0.58885 -2.60148
H 29.24835 -2.87495  8.79548
H 28.07065  2.87495  8.79548
H 31.53445  0.58885 -2.60148
H 27.20470 -1.61067 -2.16790
H 30.27017 -1.45480  8.36190
H 27.04883  1.45480  8.36190
H 30.11430  1.61067 -2.16790
H 26.82369  0.13855 -2.27939
H 28.52095 -1.83581  8.47339
H 28.79805  1.83581  8.47339
H 30.49531 -0.13855 -2.27939
H 23.93141 -0.25978  6.56564
H 28.91928 -4.72809 -0.37164
H 28.39971  4.72809 -0.37164
H 33.38759  0.25978  6.56564
H 25.19570 -0.34638  6.19400
H 29.00588 -3.46380  0.00000
H 28.31312  3.46380  0.00000
H 32.12330  0.34638  6.19400
H 24.60685 -1.55871  7.28414
H 30.21821 -4.05265 -1.09014
H 27.10079  4.05265 -1.09014
H 32.71215  1.55871  7.28414
H 20.86595  2.59785  1.59805
H 26.06165 -7.79355  4.59595
H 31.25735  7.79355  4.59595
H 36.45305 -2.59785  1.59805
H 21.14305  2.19951  0.24776
H 26.45999 -7.51645  5.94624
H 30.85901  7.51645  5.94624
H 36.17595 -2.19951  0.24776
H 20.57153  1.21233  1.36268
H 27.44717 -8.08797  4.83132
H 29.87183  8.08797  4.83132
H 36.74747 -1.21233  1.36268
H 22.64981 -5.35157  1.31313
H 34.01107 -6.00969  4.88087
H 23.30793  6.00969  4.88087
H 34.66919  5.35157  1.31313
H 21.52407 -3.82750  2.13074
H 32.48700 -7.13543  4.06326
H 24.83200  7.13543  4.06326
H 35.79493  3.82750  2.13074
H 21.97437 -4.98787  2.41566
H 33.64737 -6.68513  3.77834
H 23.67163  6.68513  3.77834
H 35.34463  4.98787  2.41566
Mn 27.22202 -0.31174 17.14560
Mn 28.97124 -1.43748 19.04840
Mn 28.34776  1.43748 19.04840
Mn 30.09698  0.31174 17.14560
Mn 24.49774 -0.80187 17.14312
Mn 29.46137 -4.16176 19.05088
Mn 27.85763  4.16176 19.05088
Mn 32.82126  0.80187 17.14312
Mn 26.21232 -3.38586 18.35591
Mn 32.04536 -2.44718 17.83809
Mn 25.27363  2.44718 17.83809
Mn 31.10667  3.38586 18.35591
O 27.46795 -0.26325 19.02982
O 28.92275 -1.19155 17.16418
O 28.39625  1.19155 17.16418
O 29.85105  0.26325 19.02982
O 26.09282 -1.80810 17.31656
O 30.46760 -2.56668 18.87744
O 26.85140  2.56668 18.87744
O 31.22618  1.80810 17.31656
O 25.65465  0.67198 17.27444
O 27.98752 -3.00485 18.91956
O 29.33148  3.00485 18.91956
O 31.66435 -0.67198 17.27444
O 27.18219 -0.37409 15.23537
O 29.03359 -1.47731 20.95863
O 28.28541  1.47731 20.95863
O 30.13681  0.37409 15.23537
O 24.97228 -0.79494 14.94549
O 29.45444 -3.68722 21.24851
O 27.86456  3.68722 21.24851
O 32.34671  0.79494 14.94549
O 24.08728 -0.90405 19.28873
O 29.56355 -4.57222 16.90527
O 27.75545  4.57222 16.90527
O 33.23172  0.90405 19.28873
O 25.36543 -2.51645 20.11005
O 31.17595 -3.29407 16.08395
O 26.14305  3.29407 16.08395
O 31.95357  2.51645 20.11005
O 22.92345  0.27710 16.87430
O 28.38240 -5.73605 19.31970
O 28.93660  5.73605 19.31970
O 34.39555 -0.27710 16.87430
O 26.25389 -5.07966 19.37668
O 33.73916 -2.40561 16.81732
O 23.57984  2.40561 16.81732
O 31.06511  5.07966 19.37668
O 23.34603 -2.32248 16.80245
O 30.98198 -5.31347 19.39155
O 26.33702  5.31347 19.39155
O 33.97297  2.32248 16.80245
O 24.36785 -3.98857 17.82942
O 32.64807 -4.29165 18.36458
O 24.67093  4.29165 18.36458
O 32.95115  3.98857 17.82942
O 26.82195 -4.56529 16.62902
O 33.22479 -1.83755 19.56498
O 24.09421  1.83755 19.56498
O 30.49705  4.56529 16.62902
C 26.14651 -0.63561 14.50820
C 29.29511 -2.51299 21.68580
C 28.02389  2.51299 21.68580
C 31.17249  0.63561 14.50820
C 26.42015 -0.77936 13.04146
C 29.43886 -2.23935 23.15254
C 27.88014  2.23935 23.15254
C 30.89885  0.77936 13.04146
C 24.67786 -1.49809 20.21783
C 30.15759 -3.98164 15.97617
C 27.16141  3.98164 15.97617
C 32.64114  1.49809 20.21783
C 24.60512 -0.95601 21.62386
C 29.61551 -4.05438 14.57014
C 27.70349  4.05438 14.57014
C 32.71388  0.95601 21.62386
C 22.73294  1.53793 16.68105
C 27.12157 -5.92656 19.51295
C 30.19743  5.92656 19.51295
C 34.58606 -1.53793 16.68105
C 21.38379  1.88257 16.20783
C 26.77692 -7.27571 19.98617
C 30.54208  7.27571 19.98617
C 35.93521 -1.88257 16.20783
C 23.43436 -3.51749 17.21250
C 32.17699 -5.22514 18.98150
C 25.14201  5.22514 18.98150
C 33.88464  3.51749 17.21250
C 22.27052 -4.41634 16.84333
C 33.07585 -6.38898 19.35067
C 24.24315  6.38898 19.35067
C 35.04848  4.41634 16.84333
H 27.56840 -4.15656 16.23880
H 32.81606 -1.09110 19.95520
H 24.50294  1.09110 19.95520
H 29.75060  4.15656 16.23880
H 26.28680 -4.32975 15.92910
H 32.98925 -2.37270 20.26490
H 24.32975  2.37270 20.26490
H 31.03220  4.32975 15.92910
H 25.78455 -0.58885 12.39852
H 29.24835 -2.87495 23.79548
H 28.07065  2.87495 23.79548
H 31.53445  0.58885 12.39852
H 27.20470 -1.61067 12.83210
H 30.27017 -1.45480 23.36190
H 27.04883  1.45480 23.36190
H 30.11430  1.61067 12.83210
H 26.82369  0.13855 12.72061
H 28.52095 -1.83581 23.47339
H 28.79805  1.83581 23.47339
H 30.49531 -0.13855 12.72061
H 23.93141 -0.25978 21.56564
H 28.91928 -4.72809 14.62836
H 28.39971  4.72809 14.62836
H 33.38759  0.25978 21.56564
H 25.19570 -0.34638 21.19400
H 29.00588 -3.46380 15.00000
H 28.31312  3.46380 15.00000
H 32.12330  0.34638 21.19400
H 24.60685 -1.55871 22.28414
H 30.21821 -4.05265 13.90986
H 27.10079  4.05265 13.90986
H 32.71215  1.55871 22.28414
H 20.86595  2.59785 16.59805
H 26.06165 -7.79355 19.59595
H 31.25735  7.79355 19.59595
H 36.45305 -2.59785 16.59805
H 21.14305  2.19951 15.24776
H 26.45999 -7.51645 20.94624
H 30.85901  7.51645 20.94624
H 36.17595 -2.19951 15.24776
H 20.57153  1.21233 16.36268
H 27.44717 -8.08797 19.83132
H 29.87183  8.08797 19.83132
H 36.74747 -1.21233 16.36268
H 22.64981 -5.35157 16.31313
H 34.01107 -6.00969 19.88087
H 23.30793  6.00969 19.88087
H 34.66919  5.35157 16.31313
H 21.52407 -3.82750 17.13074
H 32.48700 -7.13543 19.06326
H 24.83200  7.13543 19.06326
H 35.79493  3.82750 17.13074
H 21.97437 -4.98787 17.41566
H 33.64737 -6.68513 18.77834
H 23.67163  6.68513 18.77834
H 35.34463  4.98787 17.41566
Mn 27.22202 19.68826 -12.85440
Mn 28.97124 18.56252 -10.95160
Mn 28.34776 21.43748 -10.95160
Mn 30.09698 20.31174 -12.85440
Mn 24.49774 19.19813 -12.85688
Mn 29.46137 15.83824 -10.94912
Mn 27.85763 24.16176 -10.94912
Mn 32.82126 20.80187 -12.85688
Mn 26.21232 16.61414 -11.64409
Mn 32.04536 17.55283 -12.16191
Mn 25.27363 22.44717 -12.16191
Mn 31.10667 23.38586 -11.64409
O 27.46795 19.73675 -10.97018
O 28.92275 18.80845 -12.83582
O 28.39625 21.19155 -12.83582
O 29.85105 20.26325 -10.97018
O 26.09282 18.19190 -12.68344
O 30.46760 17.43332 -11.12256
O 26.85140 22.56668 -11.12256
O 31.22618 21.80810 -12.68344
O 25.65465 20.67198 -12.72556
O 27.98752 16.99515 -11.08044
O 29.33148 23.00485 -11.08044
O 31.66435 19.32802 -12.72556
O 27.18219 19.62591 -14.76463
O 29.03359 18.52269 -9.04137
O 28.28541 21.47731 -9.04137
O 30.13681 20.37409 -14.76463
O 24.97228 19.20506 -15.05451
O 29.45444 16.31278 -8.75149
O 27.86456 23.68721 -8.75149
O 32.34671 20.79494 -15.05451
O 24.08728 19.09595 -10.71127
O 29.56355 15.42778 -13.09473
O 27.75545 24.57222 -13.09473
O 33.23172 20.90405 -10.71127
O 25.36543 17.48355 -9.88995
O 31.17595 16.70593 -13.91605
O 26.14305 23.29407 -13.91605
O 31.95357 22.51645 -9.88995
O 22.92345 20.27710 -13.12570
O 28.38240 14.26395 -10.68030
O 28.93660 25.73605 -10.68030
O 34.39555 19.72290 -13.12570
O 26.25389 14.92034 -10.62332
O 33.73916 17.59439 -13.18268
O 23.57984 22.40561 -13.18268
O 31.06511 25.07966 -10.62332
O 23.34603 17.67752 -13.19755
O 30.98198 14.68653 -10.60845
O 26.33702 25.31347 -10.60845
O 33.97297 22.32248 -13.19755
O 24.36785 16.01143 -12.17058
O 32.64807 15.70835 -11.63542
O 24.67093 24.29165 -11.63542
O 32.95115 23.98857 -12.17058
O 26.82195 15.43471 -13.37098
O 33.22479 18.16245 -10.43502
O 24.09421 21.83755 -10.43502
O 30.49705 24.56529 -13.37098
C 26.14651 19.36439 -15.49180
C 29.29511 17.48701 -8.31420
C 28.02389 22.51299 -8.31420
C 31.17249 20.63561 -15.49180
C 26.42015 19.22065 -16.95854
C 29.43886 17.76065 -6.84746
C 27.88014 22.23935 -6.84746
C 30.89885 20.77935 -16.95854
C 24.67786 18.50191 -9.78217
C 30.15759 16.01836 -14.02383
C 27.16141 23.98164 -14.02383
C 32.64114 21.49809 -9.78217
C 24.60512 19.04399 -8.37614
C 29.61551 15.94562 -15.42986
C 27.70349 24.05438 -15.42986
C 32.71388 20.95601 -8.37614
C 22.73294 21.53793 -13.31895
C 27.12157 14.07344 -10.48705
C 30.19743 25.92656 -10.48705
C 34.58606 18.46207 -13.31895
C 21.38379 21.88257 -13.79217
C 26.77692 12.72429 -10.01383
C 30.54208 27.27571 -10.01383
C 35.93521 18.11742 -13.79217
C 23.43436 16.48251 -12.78750
C 32.17699 14.77486 -11.01850
C 25.14201 25.22514 -11.01850
C 33.88464 23.51749 -12.78750
C 22.27052 15.58366 -13.15667
C 33.07585 13.61102 -10.64933
C 24.24315 26.38898 -10.64933
C 35.04848 24.41634 -13.15667
H 27.56840 15.84344 -13.76120
H 32.81606 18.90890 -10.04480
H 24.50294 21.09110 -10.04480
H 29.75060 24.15656 -13.76120
H 26.28680 15.67025 -14.07090
H 32.98925 17.62730 -9.73510
H 24.32975 22.37270 -9.73510
H 31.03220 24.32975 -14.07090
H 25.78455 19.41115 -17.60148
H 29.24835 17.12505 -6.20452
H 28.07065 22.87495 -6.20452
H 31.53445 20.58885 -17.60148
H 27.20470 18.38933 -17.16790
H 30.27017 18.54520 -6.63810
H 27.04883 21.45480 -6.63810
H 30.11430 21.61067 -17.16790
H 26.82369 20.13855 -17.27939
H 28.52095 18.16419 -6.52661
H 28.79805 21.83581 -6.52661
H 30.49531 19.86145 -17.27939
H 23.93141 19.74021 -8.43436
H 28.91928 15.27191 -15.37164
H 28.39971 24.72809 -15.37164
H 33.38759 20.25978 -8.43436
H 25.19570 19.65362 -8.80600
H 29.00588 16.53620 -15.00000
H 28.31312 23.46380 -15.00000
H 32.12330 20.34638 -8.80600
H 24.60685 18.44129 -7.71586
H 30.21821 15.94735 -16.09014
H 27.10079 24.05265 -16.09014
H 32.71215 21.55871 -7.71586
H 20.86595 22.59785 -13.40195
H 26.06165 12.20645 -10.40405
H 31.25735 27.79355 -10.40405
H 36.45305 17.40215 -13.40195
H 21.14305 22.19951 -14.75224
H 26.45999 12.48355 -9.05376
H 30.85901 27.51645 -9.05376
H 36.17595 17.80049 -14.75224
H 20.57153 21.21233 -13.63732
H 27.44717 11.91203 -10.16868
H 29.87183 28.08797 -10.16868
H 36.74747 18.78767 -13.63732
H 22.64981 14.64843 -13.68687
H 34.01107 13.99031 -10.11913
H 23.30793 26.00969 -10.11913
H 34.66919 25.35157 -13.68687
H 21.52407 16.17250 -12.86926
H 32.48700 12.86457 -10.93674
H 24.83200 27.13543 -10.93674
H 35.79493 23.82750 -12.86926
H 21.97437 15.01213 -12.58434
H 33.64737 13.31487 -11.22166
H 23.67163 26.68513 -11.22166
H 35.34463 24.98787 -12.58434
Mn 27.22202 19.68826  2.14560
Mn 28.97124 18.56252  4.04840
Mn 28.34776 21.43748  4.04840
Mn 30.09698 20.31174  2.14560
Mn 24.49774 19.19813  2.14312
Mn 29.46137 15.83824  4.05088
Mn 27.85763 24.16176  4.05088
Mn 32.82126 20.80187  2.14312
Mn 26.21232 16.61414  3.35591
Mn 32.04536 17.55283  2.83809
Mn 25.27363 22.44717  2.83809
Mn 31.10667 23.38586  3.35591
O 27.46795 19.73675  4.02982
O 28.92275 18.80845  2.16418
O 28.39625 21.19155  2.16418
O 29.85105 20.26325  4.02982
O 26.09282 18.19190  2.31656
O 30.46760 17.43332  3.87744
O 26.85140 22.56668  3.87744
O 31.22618 21.80810  2.31656
O 25.65465 20.67198  2.27444
O 27.98752 16.99515  3.91956
O 29.33148 23.00485  3.91956
O 31.66435 19.32802  2.27444
O 27.18219 19.62591  0.23537
O 29.03359 18.52269  5.95863
O 28.28541 21.47731  5.95863
O 30.13681 20.37409  0.23537
O 24.97228 19.20506 -0.05451
O 29.45444 16.31278  6.24851
O 27.86456 23.68721  6.24851
O 32.34671 20.79494 -0.05451
O 24.08728 19.09595  4.28873
O 29.56355 15.42778  1.90527
O 27.75545 24.57222  1.90527
O 33.23172 20.90405  4.28873
O 25.36543 17.48355  5.11005
O 31.17595 16.70593  1.08395
O 26.14305 23.29407  1.08395
O 31.95357 22.51645  5.11005
O 22.92345 20.27710  1.87430
O 28.38240 14.26395  4.31970
O 28.93660 25.73605  4.31970
O 34.39555 19.72290  1.87430
O 26.25389 14.92034  4.37668
O 33.73916 17.59439  1.81732
O 23.57984 22.40561  1.81732
O 31.06511 25.07966  4.37668
O 23.34603 17.67752  1.80245
O 30.98198 14.68653  4.39155
O 26.33702 25.31347  4.39155
O 33.97297 22.32248  1.80245
O 24.36785 16.01143  2.82942
O 32.64807 15.70835  3.36458
O 24.67093 24.29165  3.36458
O 32.95115 23.98857  2.82942
O 26.82195 15.43471  1.62902
O 33.22479 18.16245  4.56498
O 24.09421 21.83755  4.56498
O 30.49705 24.56529  1.62902
C 26.14651 19.36439 -0.49180
C 29.29511 17.48701  6.68580
C 28.02389 22.51299  6.68580
C 31.17249 20.63561 -0.49180
C 26.42015 19.22065 -1.95854
C 29.43886 17.76065  8.15254
C 27.88014 22.23935  8.15254
C 30.89885 20.77935 -1.95854
C 24.67786 18.50191  5.21783
C 30.15759 16.01836  0.97617
C 27.16141 23.98164  0.97617
C 32.64114 21.49809  5.21783
C 24.60512 19.04399  6.62386
C 29.61551 15.94562 -0.42986
C 27.70349 24.05438 -0.42986
C 32.71388 20.95601  6.62386
C 22.73294 21.53793  1.68105
C 27.12157 14.07344  4.51295
C 30.19743 25.92656  4.51295
C 34.58606 18.46207  1.68105
C 21.38379 21.88257  1.20783
C 26.77692 12.72429  4.98617
C 30.54208 27.27571  4.98617
C 35.93521 18.11742  1.20783
C 23.43436 16.48251  2.21250
C 32.17699 14.77486  3.98150
C 25.14201 25.22514  3.98150
C 33.88464 23.51749  2.21250
C 22.27052 15.58366  1.84333
C 33.07585 13.61102  4.35067
C 24.24315 26.38898  4.35067
C 35.04848 24.41634  1.84333
H 27.56840 15.84344  1.23880
H 32.81606 18.90890  4.95520
H 24.50294 21.09110  4.95520
H 29.75060 24.15656  1.23880
H 26.28680 15.67025  0.92910
H 32.98925 17.62730  5.26490
H 24.32975 22.37270  5.26490
H 31.03220 24.32975  0.92910
H 25.78455 19.41115 -2.60148
H 29.24835 17.12505  8.79548
H 28.07065 22.87495  8.79548
H 31.53445 20.58885 -2.60148
H 27.20470 18.38933 -2.16790
H 30.27017 18.54520  8.36190
H 27.04883 21.45480  8.36190
H 30.11430 21.61067 -2.16790
H 26.82369 20.13855 -2.27939
H 28.52095 18.16419  8.47339
H 28.79805 21.83581  8.47339
H 30.49531 19.86145 -2.27939
H 23.93141 19.74021  6.56564
H 28.91928 15.27191 -0.37164
H 28.39971 24.72809 -0.37164
H 33.38759 20.25978  6.56564
H 25.19570 19.65362  6.19400
H 29.00588 16.53620  0.00000
H 28.31312 23.46380  0.00000
H 32.12330 20.34638  6.19400
H 24.60685 18.44129  7.28414
H 30.21821 15.94735 -1.09014
H 27.10079 24.05265 -1.09014
H 32.71215 21.55871  7.28414
H 20.86595 22.59785  1.59805
H 26.06165 12.20645  4.59595
H 31.25735 27.79355  4.59595
H 36.45305 17.40215  1.59805
H 21.14305 22.19951  0.24776
H 26.45999 12.48355  5.94624
H 30.85901 27.51645  5.94624
H 36.17595 17.80049  0.24776
H 20.57153 21.21233  1.36268
H 27.44717 11.91203  4.83132
H 29.87183 28.08797  4.83132
H 36.74747 18.78767  1.36268
H 22.64981 14.64843  1.31313
H 34.01107 13.99031  4.88087
H 23.30793 26.00969  4.88087
H 34.66919 25.35157  1.31313
H 21.52407 16.17250  2.13074
H 32.48700 12.86457  4.06326
H 24.83200 27.13543  4.06326
H 35.79493 23.82750  2.13074
H 21.97437 15.01213  2.41566
H 33.64737 13.31487  3.77834
H 23.67163 26.68513  3.77834
H 35.34463 24.98787  2.41566
Mn 27.22202 19.68826 17.14560
Mn 28.97124 18.56252 19.04840
Mn 28.34776 21.43748 19.04840
Mn 30.09698 20.31174 17.14560
Mn 24.49774 19.19813 17.14312
Mn 29.46137 15.83824 19.05088
Mn 27.85763 24.16176 19.05088
Mn 32.82126 20.80187 17.14312
Mn 26.21232 16.61414 18.35591
Mn 32.04536 17.55283 17.83809
Mn 25.27363 22.44717 17.83809
Mn 31.10667 23.38586 18.35591
O 27.46795 19.73675 19.02982
O 28.92275 18.80845 17.16418
O 28.39625 21.19155 17.16418
O 29.85105 20.26325 19.02982
O 26.09282 18.19190 17.31656
O 30.46760 17.43332 18.87744
O 26.85140 22.56668 18.87744
O 31.22618 21.80810 17.31656
O 25.65465 20.67198 17.27444
O 27.98752 16.99515 18.91956
O 29.33148 23.00485 18.91956
O 31.66435 19.32802 17.27444
O 27.18219 19.62591 15.23537
O 29.03359 18.52269 20.95863
O 28.28541 21.47731 20.95863
O 30.13681 20.37409 15.23537
O 24.97228 19.20506 14.94549
O 29.45444 16.31278 21.24851
O 27.86456 23.68721 21.24851
O 32.34671 20.79494 14.94549
O 24.08728 19.09595 19.28873
O 29.56355 15.42778 16.90527
O 27.75545 24.57222 16.90527
O 33.23172 20.90405 19.28873
O 25.36543 17.48355 20.11005
O 31.17595 16.70593 16.08395
O 26.14305 23.29407 16.08395
O 31.95357 22.51645 20.11005
O 22.92345 20.27710 16.87430
O 28.38240 14.26395 19.31970
O 28.93660 25.73605 19.31970
O 34.39555 19.72290 16.87430
O 26.25389 14.92034 19.37668
O 33.73916 17.59439 16.81732
O 23.57984 22.40561 16.81732
O 31.06511 25.07966 19.37668
O 23.34603 17.67752 16.80245
O 30.98198 14.68653 19.39155
O 26.33702 25.31347 19.39155
O 33.97297 22.32248 16.80245
O 24.36785 16.01143 17.82942
O 32.64807 15.70835 18.36458
O 24.67093 24.29165 18.36458
O 32.95115 23.98857 17.82942
O 26.82195 15.43471 16.62902
O 33.22479 18.16245 19.56498
O 24.09421 21.83755 19.56498
O 30.49705 24.56529 16.62902
C 26.14651 19.36439 14.50820
C 29.29511 17.48701 21.68580
C 28.02389 22.51299 21.68580
C 31.17249 20.63561 14.50820
C 26.42015 19.22065 13.04146
C 29.43886 17.76065 23.15254
C 27.88014 22.23935 23.15254
C 30.89885 20.77935 13.04146
C 24.67786 18.50191 20.21783
C 30.15759 16.01836 15.97617
C 27.16141 23.98164 15.97617
C 32.64114 21.49809 20.21783
C 24.60512 19.04399 21.62386
C 29.61551 15.94562 14.57014
C 27.70349 24.05438 14.57014
C 32.71388 20.95601 21.62386
C 22.73294 21.53793 16.68105
C 27.12157 14.07344 19.51295
C 30.19743 25.92656 19.51295
C 34.58606 18.46207 16.68105
C 21.38379 21.88257 16.20783
C 26.77692 12.72429 19.98617
C 30.54208 27.27571 19.98617
C 35.93521 18.11742 16.20783
C 23.43436 16.48251 17.21250
C 32.17699 14.77486 18.98150
C 25.14201 25.22514 18.98150
C 33.88464 23.51749 17.21250
C 22.27052 15.58366 16.84333
C 33.07585 13.61102 19.35067
C 24.24315 26.38898 19.35067
C 35.04848 24.41634 16.84333
H 27.56840 15.84344 16.23880
H 32.81606 18.90890 19.95520
H 24.50294 21.09110 19.95520
H 29.75060 24.15656 16.23880
H 26.28680 15.67025 15.92910
H 32.98925 17.62730 20.26490
H 24.32975 22.37270 20.26490
H 31.03220 24.32975 15.92910
H 25.78455 19.41115 12.39852
H 29.24835 17.12505 23.79548
H 28.07065 22.87495 23.79548
H 31.53445 20.58885 12.39852
H 27.20470 18.38933 12.83210
H 30.27017 18.54520 23.36190
H 27.04883 21.45480 23.36190
H 30.11430 21.61067 12.83210
H 26.82369 20.13855 12.72061
H 28.52095 18.16419 23.47339
H 28.79805 21.83581 23.47339
H 30.49531 19.86145 12.72061
H 23.93141 19.74021 21.56564
H 28.91928 15.27191 14.62836
H 28.39971 24.72809 14.62836
H 33.38759 20.25978 21.56564
H 25.19570 19.65362 21.19400
H 29.00588 16.53620 15.00000
H 28.31312 23.46380 15.00000
H 32.12330 20.34638 21.19400
H 24.60685 18.44129 22.28414
H 30.21821 15.94735 13.90986
H 27.10079 24.05265 13.90986
H 32.71215 21.55871 22.28414
H 20.86595 22.59785 16.59805
H 26.06165 12.20645 19.59595
H 31.25735 27.79355 19.59595
H 36.45305 17.40215 16.59805
H 21.14305 22.19951 15.24776
H 26.45999 12.48355 20.94624
H 30.85901 27.51645 20.94624
H 36.17595 17.80049 15.24776
H 20.57153 21.21233 16.36268
H 27.44717 11.91203 19.83132
H 29.87183 28.08797 19.83132
H 36.74747 18.78767 16.36268
H 22.64981 14.64843 16.31313
H 34.01107 13.99031 19.88087
H 23.30793 26.00969 19.88087
H 34.66919 25.35157 16.31313
H 21.52407 16.17250 17.13074
H 32.48700 12.86457 19.06326
H 24.83200 27.13543 19.06326
H 35.79493 23.82750 17.13074
H 21.97437 15.01213 17.41566
H 33.64737 13.31487 18.77834
H 23.67163 26.68513 18.77834
H 35.34463 24.98787 17.41566
