512 

Si    0.67887   0.67888   0.67887   0.000000287788349   0.000000287822547   0.000000281613577
Si    3.39437   0.67888   3.39437  -0.000000301319887   0.000008739376038  -0.000000300161592
Si    0.67887   3.39438   3.39437   0.000008739297045  -0.000000301251058  -0.000000300201454
Si    3.39437   3.39438   0.67887  -0.000000304020482  -0.000000304046906   0.000008743770573
Si    4.75212   2.03662   2.03662   0.000006174421926  -0.000004995984903  -0.000004988061586
Si    4.75212   4.75212   4.75212  -0.000001386647888  -0.000001386573272  -0.000001396096024
Si    2.03662   2.03662   4.75212  -0.000005003788670  -0.000005003857251   0.000006163727828
Si    2.03662   4.75212   2.03662  -0.000004995942415   0.000006174481289  -0.000004988033201
Si    0.67887   0.67888   6.10987  -0.000003885457079  -0.000003885433736   0.000006583461923
Si    3.39437   0.67888   8.82537  -0.000000014702364   0.000003014218556  -0.000002137379418
Si    0.67887   3.39438   8.82537   0.000003014206237  -0.000000014671784  -0.000002137386968
Si    3.39437   3.39438   6.10987   0.000000077444459   0.000000077382703   0.000004295577148
Si    4.75212   2.03662   7.46762   0.000001799690938   0.000008992317434  -0.000003068036845
Si    4.75212   4.75212  10.18313  -0.000002301532281  -0.000002301553142   0.000007467525432
Si    2.03662   2.03662  10.18313  -0.000001858890763  -0.000001858921147   0.000005185815865
Si    2.03662   4.75212   7.46762   0.000008992293158   0.000001799744145  -0.000003068020022
Si    0.67887   0.67888  11.54087   0.000001773599256   0.000001773591320   0.000004589228073
Si    3.39437   0.67888  14.25638   0.000001379023410   0.000004542331018   0.000000848716247
Si    0.67887   3.39438  14.25638   0.000004542325696   0.000001378986986   0.000000848689942
Si    3.39437   3.39438  11.54087   0.000004014468583   0.000004014481192  -0.000005766551835
Si    4.75212   2.03662  12.89862  -0.000003103304122  -0.000003493689252   0.000002216960703
Si    4.75212   4.75212  15.61412  -0.000000438638090  -0.000000438678523   0.000000624186653
Si    2.03662   2.03662  15.61412   0.000002688316681   0.000002688346229  -0.000006644879138
Si    2.03662   4.75212  12.89862  -0.000003493715093  -0.000003103301892   0.000002217009724
Si    0.67887   0.67888  16.97187  -0.000000480312458  -0.000000480260966   0.000001530399788
Si    3.39437   0.67888  19.68737  -0.000004818942686  -0.000001247294396  -0.000001210159559
Si    0.67887   3.39438  19.68737  -0.000001247286311  -0.000004818936903  -0.000001210090449
Si    3.39437   3.39438  16.97187   0.000000597305501   0.000000597290175  -0.000003536475519
Si    4.75212   2.03662  18.32963   0.000000696126905   0.000004149225677   0.000000658608491
Si    4.75212   4.75212  21.04512   0.000002606974114   0.000002606937395  -0.000003464530648
Si    2.03662   2.03662  21.04512  -0.000001560503912  -0.000001560414588  -0.000000008222511
Si    2.03662   4.75212  18.32963   0.000004149249810   0.000000696036895   0.000000658545063
Si    0.67887   6.10987   0.67887  -0.000003879258773   0.000006574784229  -0.000003883719007
Si    3.39437   6.10987   3.39437   0.000000069644662   0.000004299424316   0.000000070340757
Si    0.67887   8.82537   3.39437   0.000003010585776  -0.000002139899038  -0.000000005274839
Si    3.39437   8.82537   0.67887  -0.000000006609005  -0.000002134175406   0.000003014815510
Si    4.75212   7.46762   2.03662   0.000001801157076  -0.000003075071165   0.000008987972797
Si    4.75212  10.18313   4.75212  -0.000002299188379   0.000007474110936  -0.000002298818116
Si    2.03662   7.46762   4.75212   0.000008983423024  -0.000003080486736   0.000001799152586
Si    2.03662  10.18313   2.03662  -0.000001870159748   0.000005192154015  -0.000001868898074
Si    0.67887   6.10987   6.10987   0.000001069312130   0.000001180364795   0.000001176259209
Si    3.39437   6.10987   8.82537   0.000005750471030   0.000002243547530   0.000004212423138
Si    0.67887   8.82537   8.82537   0.000000526236628   0.000000590975977   0.000000596736701
Si    3.39437   8.82537   6.10987   0.000005744676933   0.000004214110134   0.000002246721008
Si    4.75212   7.46762   7.46762   0.000000162022305   0.000001757169765   0.000001753483632
Si    4.75212  10.18313  10.18313  -0.000002452190018  -0.000003028903056  -0.000003017712796
Si    2.03662   7.46762  10.18313   0.000002000145643   0.000004857468478  -0.000002432678921
Si    2.03662  10.18313   7.46762   0.000002006384770  -0.000002428396522   0.000004851920880
Si    0.67887   6.10987  11.54087   0.000004688444240  -0.000001695953718  -0.000002388532511
Si    3.39437   6.10987  14.25638  -0.000004054319219   0.000002169554764   0.000005257564100
Si    0.67887   8.82537  14.25638  -0.000001687773622  -0.000000894366208   0.000003040879745
Si    3.39437   8.82537  11.54087  -0.000001175216476  -0.000001146095828  -0.000007856401078
Si    4.75212   7.46762  12.89862   0.000001291434723   0.000006436190686   0.000003267931646
Si    4.75212  10.18313  15.61412  -0.000003341623844   0.000000876765659  -0.000003805648310
Si    2.03662   7.46762  15.61412  -0.000002804752752  -0.000000097452392  -0.000001228385421
Si    2.03662  10.18313  12.89862  -0.000002199324079  -0.000003101167098   0.000000562152983
Si    0.67887   6.10987  16.97187   0.000003741762387   0.000000294741855  -0.000000110547432
Si    3.39437   6.10987  19.68737   0.000000604124650  -0.000004495378789   0.000005005126431
Si    0.67887   8.82537  19.68737  -0.000002825899614   0.000003287461700   0.000000455063785
Si    3.39437   8.82537  16.97187   0.000000634328586  -0.000001562551350   0.000001075806322
Si    4.75212   7.46762  18.32963  -0.000000088637256  -0.000003257438966  -0.000001623799611
Si    4.75212  10.18313  21.04512   0.000005518876408   0.000005002079920  -0.000005117751482
Si    2.03662   7.46762  21.04512  -0.000006184453158  -0.000005164119915   0.000002242772982
Si    2.03662  10.18313  18.32963   0.000002237190115   0.000003226629769  -0.000000141083664
Si    0.67887  11.54087   0.67887   0.000001766811264   0.000004589127453   0.000001764354055
Si    3.39437  11.54087   3.39437   0.000004011749927  -0.000005765403979   0.000004015018402
Si    0.67887  14.25638   3.39437   0.000004540282526   0.000000848653177   0.000001378232735
Si    3.39437  14.25638   0.67887   0.000001379277001   0.000000847347650   0.000004539775922
Si    4.75212  12.89862   2.03662  -0.000003103569623   0.000002211652699  -0.000003492428334
Si    4.75212  15.61412   4.75212  -0.000000438183455   0.000000635103829  -0.000000429880885
Si    2.03662  12.89862   4.75212  -0.000003482901127   0.000002208017378  -0.000003097754820
Si    2.03662  15.61412   2.03662   0.000002693835772  -0.000006638773266   0.000002684311997
Si    0.67887  11.54087   6.10987   0.000004696306746  -0.000002386585796  -0.000001708066447
Si    3.39437  11.54087   8.82537  -0.000001177311452  -0.000007858441985  -0.000001145572561
Si    0.67887  14.25638   8.82537  -0.000001687196651   0.000003037784705  -0.000000897520094
Si    3.39437  14.25638   6.10987  -0.000004054112145   0.000005258212461   0.000002174602570
Si    4.75212  12.89862   7.46762   0.000001291035962   0.000003259546293   0.000006433744789
Si    4.75212  15.61412  10.18313  -0.000003331980248  -0.000003820324621   0.000000879588612
Si    2.03662  12.89862  10.18313  -0.000002212133450   0.000000577540093  -0.000003092254025
Si    2.03662  15.61412   7.46762  -0.000002803846710  -0.000001223534658  -0.000000101126978
Si    0.67887  11.54087  11.54087   0.000004552501299  -0.000003631270923  -0.000003632559145
Si    3.39437  11.54087  14.25638  -0.000004757204121   0.000006692414469  -0.000002435047857
Si    0.67887  14.25638  14.25638   0.000000519479500   0.000001641168785   0.000001644455621
Si    3.39437  14.25638  11.54087  -0.000004762703874  -0.000002432068717   0.000006693420436
Si    4.75212  12.89862  12.89862   0.000000018068910  -0.000001761197310  -0.000001764889292
Si    4.75212  15.61412  15.61412   0.000000292626987  -0.000001615039853  -0.000001616436888
Si    2.03662  12.89862  15.61412   0.000007187398754   0.000000515990837  -0.000000602561311
Si    2.03662  15.61412  12.89862   0.000007179701463  -0.000000609442050   0.000000515969721
Si    0.67887  11.54087  16.97187   0.000005125152759  -0.000004997653525  -0.000005524850928
Si    3.39437  11.54087  19.68737   0.000000133717077  -0.000003226503382  -0.000002242214762
Si    0.67887  14.25638  19.68737  -0.000002253131390   0.000005173692580   0.000006187638641
Si    3.39437  14.25638  16.97187   0.000001622533346   0.000003255832232   0.000000093028438
Si    4.75212  12.89862  18.32963  -0.000001073960880   0.000001568308610  -0.000000646477772
Si    4.75212  15.61412  21.04512   0.000000109986319  -0.000000299954927  -0.000003730998212
Si    2.03662  12.89862  21.04512  -0.000000453094589  -0.000003288444273   0.000002835739970
Si    2.03662  15.61412  18.32963  -0.000005010381064   0.000004495557983  -0.000000615348793
Si    0.67887  16.97187   0.67887  -0.000000465005648   0.000001535608106  -0.000000466736803
Si    3.39437  16.97187   3.39437   0.000000594149804  -0.000003535275287   0.000000599983377
Si    0.67887  19.68737   3.39437  -0.000001253020822  -0.000001213742185  -0.000004828709385
Si    3.39437  19.68737   0.67887  -0.000004824583355  -0.000001213740305  -0.000001249838335
Si    4.75212  18.32963   2.03662   0.000000710426221   0.000000649670976   0.000004144342947
Si    4.75212  21.04512   4.75212   0.000002615278323  -0.000003452278249   0.000002604959793
Si    2.03662  18.32963   4.75212   0.000004143374829   0.000000651393529   0.000000701831338
Si    2.03662  21.04512   2.03662  -0.000001574903639  -0.000000004099305  -0.000001562183298
Si    0.67887  16.97187   6.10987   0.000003735144718  -0.000000107924259   0.000000302167821
Si    3.39437  16.97187   8.82537   0.000000636199412   0.000001077085962  -0.000001558087729
Si    0.67887  19.68737   8.82537  -0.000002831987685   0.000000453348936   0.000003282222307
Si    3.39437  19.68737   6.10987   0.000000614751057   0.000005002498677  -0.000004499685362
Si    4.75212  18.32963   7.46762  -0.000000099325945  -0.000001630939512  -0.000003258247667
Si    4.75212  21.04512  10.18313   0.000005522368715  -0.000005124143054   0.000004994667453
Si    2.03662  18.32963  10.18313   0.000002236913527  -0.000000130285785   0.000003228336740
Si    2.03662  21.04512   7.46762  -0.000006180284068   0.000002239056826  -0.000005167209067
Si    0.67887  16.97187  11.54087   0.000005124115772  -0.000005522488090  -0.000004994668944
Si    3.39437  16.97187  14.25638   0.000001630921409   0.000000099301711   0.000003258279441
Si    0.67887  19.68737  14.25638  -0.000002239079175   0.000006180313936   0.000005167279817
Si    3.39437  19.68737  11.54087   0.000000130320349  -0.000002236867629  -0.000003228395041
Si    4.75212  18.32963  12.89862  -0.000001077010339  -0.000000636173962   0.000001558134824
Si    4.75212  21.04512  15.61412   0.000000107948655  -0.000003735168966  -0.000000302193373
Si    2.03662  18.32963  15.61412  -0.000005002498626  -0.000000614781810   0.000004499716626
Si    2.03662  21.04512  12.89862  -0.000000453308336   0.000002831956927  -0.000003282215324
Si    0.67887  16.97187  16.97187   0.000003452253939  -0.000002615259447  -0.000002604927873
Si    3.39437  16.97187  19.68737  -0.000000649671188  -0.000000710408074  -0.000004144331888
Si    0.67887  19.68737  19.68737   0.000000004085700   0.000001574971610   0.000001562155755
Si    3.39437  19.68737  16.97187  -0.000000651481605  -0.000004143342429  -0.000000701863970
Si    4.75212  18.32963  18.32963   0.000003535321828  -0.000000594117992  -0.000000599958227
Si    4.75212  21.04512  21.04512  -0.000001535598554   0.000000465002324   0.000000466597026
Si    2.03662  18.32963  21.04512   0.000001213745854   0.000004824462611   0.000001249850182
Si    2.03662  21.04512  18.32963   0.000001213836965   0.000001252951768   0.000004828750609
Si    6.10988   0.67888   0.67887   0.000006574834915  -0.000003879214967  -0.000003883679973
Si    8.82537   0.67888   3.39437  -0.000002139919590   0.000003010592857  -0.000000005240797
Si    6.10988   3.39438   3.39437   0.000004299427926   0.000000069580955   0.000000070233422
Si    8.82537   3.39438   0.67887  -0.000002134189127  -0.000000006567705   0.000003014876401
Si   10.18313   2.03662   2.03662   0.000005192171734  -0.000001870102014  -0.000001868838328
Si   10.18313   4.75212   4.75212   0.000007474141334  -0.000002299221058  -0.000002298832311
Si    7.46762   2.03662   4.75212  -0.000003080442704   0.000008983330685   0.000001799100342
Si    7.46762   4.75212   2.03662  -0.000003075070123   0.000001801130874   0.000008988033350
Si    6.10988   0.67888   6.10987   0.000001180354712   0.000001069250358   0.000001176260084
Si    8.82537   0.67888   8.82537   0.000000591082375   0.000000526272430   0.000000596659957
Si    6.10988   3.39438   8.82537   0.000002243573042   0.000005750487754   0.000004212451987
Si    8.82537   3.39438   6.10987   0.000004214134189   0.000005744641240   0.000002246748709
Si   10.18313   2.03662   7.46762  -0.000002428417321   0.000002006335795   0.000004851936650
Si   10.18313   4.75212  10.18313  -0.000003028906127  -0.000002452303934  -0.000003017613488
Si    7.46762   2.03662  10.18313   0.000004857433326   0.000002000169220  -0.000002432711387
Si    7.46762   4.75212   7.46762   0.000001757198273   0.000000161961855   0.000001753591130
Si    6.10988   0.67888  11.54087  -0.000001695882253   0.000004688492463  -0.000002388445520
Si    8.82537   0.67888  14.25638  -0.000000894484358  -0.000001687797134   0.000003040843369
Si    6.10988   3.39438  14.25638   0.000002169632571  -0.000004054290905   0.000005257507032
Si    8.82537   3.39438  11.54087  -0.000001146108091  -0.000001175181341  -0.000007856354577
Si   10.18313   2.03662  12.89862  -0.000003101180105  -0.000002199333533   0.000000562212437
Si   10.18313   4.75212  15.61412   0.000000876730530  -0.000003341586484  -0.000003805712720
Si    7.46762   2.03662  15.61412  -0.000000097362593  -0.000002804787470  -0.000001228358648
Si    7.46762   4.75212  12.89862   0.000006436171757   0.000001291401742   0.000003267885523
Si    6.10988   0.67888  16.97187   0.000000294658564   0.000003741866882  -0.000000110592787
Si    8.82537   0.67888  19.68737   0.000003287538039  -0.000002825832471   0.000000455123017
Si    6.10988   3.39438  19.68737  -0.000004495390298   0.000000604179271   0.000005005056629
Si    8.82537   3.39438  16.97187  -0.000001562601360   0.000000634328468   0.000001075789780
Si   10.18313   2.03662  18.32963   0.000003226642034   0.000002237161323  -0.000000141107500
Si   10.18313   4.75212  21.04512   0.000005002134817   0.000005518880721  -0.000005117745181
Si    7.46762   2.03662  21.04512  -0.000005164221103  -0.000006184473427   0.000002242726900
Si    7.46762   4.75212  18.32963  -0.000003257359252  -0.000000088633259  -0.000001623848371
Si    6.10988   6.10987   0.67887   0.000001169496739   0.000001169525412   0.000001074709459
Si    8.82537   6.10987   3.39437   0.000004220030283   0.000002241821633   0.000005740299775
Si    6.10988   8.82537   3.39437   0.000002241798092   0.000004220042167   0.000005740323754
Si    8.82537   8.82537   0.67887   0.000000602628963   0.000000602697227   0.000000532422052
Si   10.18313   7.46762   2.03662  -0.000002429850412   0.000004861981295   0.000001999154186
Si   10.18313  10.18313   4.75212  -0.000003026528987  -0.000003026506567  -0.000002459857566
Si    7.46762   7.46762   4.75212   0.000001746528580   0.000001746519445   0.000000164894369
Si    7.46762  10.18313   2.03662   0.000004862033090  -0.000002429889590   0.000001999139096
Si    6.10988   6.10987   6.10987   0.000002961657528   0.000002961714521   0.000002963007020
Si    8.82537   6.10987   8.82537  -0.000001790096751   0.000000807229006  -0.000001791744967
Si    6.10988   8.82537   8.82537   0.000000807215193  -0.000001789954359  -0.000001791663922
Si    8.82537   8.82537   6.10987  -0.000001788084735  -0.000001788095656   0.000000811670695
Si   10.18313   7.46762   7.46762  -0.000003344781458  -0.000000063410554  -0.000000061632038
Si   10.18313  10.18313  10.18313  -0.000003658650506  -0.000003658584767  -0.000003660478887
Si    7.46762   7.46762  10.18313  -0.000000058043041  -0.000000058117599  -0.000003348109890
Si    7.46762  10.18313   7.46762  -0.000000063543086  -0.000003344877575  -0.000000061675814
Si    6.10988   6.10987  11.54087   0.000004695728739   0.000004695693265   0.000000405155986
Si    8.82537   6.10987  14.25638   0.000000190277408   0.000000467325439   0.000003277512580
Si    6.10988   8.82537  14.25638   0.000000467285495   0.000000190306262   0.000003277371922
Si    8.82537   8.82537  11.54087   0.000003012143501   0.000003012131075   0.000000923254483
Si   10.18313   7.46762  12.89862  -0.000000336799122   0.000003662104217   0.000004568846879
Si   10.18313  10.18313  15.61412  -0.000000862904338  -0.000000862932404  -0.000000235261666
Si    7.46762   7.46762  15.61412   0.000000548515430   0.000000548468246   0.000003155516133
Si    7.46762  10.18313  12.89862   0.000003662047119  -0.000000336895583   0.000004568954525
Si    6.10988   6.10987  16.97187   0.000001635092287   0.000001635081981  -0.000000292002701
Si    8.82537   6.10987  19.68737  -0.000000532752065   0.000000615511188  -0.000007185366668
Si    6.10988   8.82537  19.68737   0.000000615524538  -0.000000532728804  -0.000007185301083
Si    8.82537   8.82537  16.97187   0.000001746584949   0.000001746550462  -0.000000010093496
Si   10.18313   7.46762  18.32963  -0.000006698045501   0.000002429938029   0.000004761004226
Si   10.18313  10.18313  21.04512   0.000003632664811   0.000003632638006  -0.000004560197620
Si    7.46762   7.46762  21.04512  -0.000001640696188  -0.000001640749271  -0.000000510784995
Si    7.46762  10.18313  18.32963   0.000002429967936  -0.000006698016747   0.000004761026950
Si    6.10988  11.54087   0.67887  -0.000001709925119  -0.000002389931971   0.000004698406461
Si    8.82537  11.54087   3.39437  -0.000001147696307  -0.000007860727763  -0.000001184220593
Si    6.10988  14.25638   3.39437   0.000002171857174   0.000005259423847  -0.000004056036648
Si    8.82537  14.25638   0.67887  -0.000000889731564   0.000003042399584  -0.000001688423601
Si   10.18313  12.89862   2.03662  -0.000003105504268   0.000000567601093  -0.000002198384840
Si   10.18313  15.61412   4.75212   0.000000863782191  -0.000003813752031  -0.000003340367817
Si    7.46762  12.89862   4.75212   0.000006448310328   0.000003272704307   0.000001295122542
Si    7.46762  15.61412   2.03662  -0.000000091285464  -0.000001233218685  -0.000002805210183
Si    6.10988  11.54087   6.10987   0.000004703792514   0.000000398683232   0.000004706197830
Si    8.82537  11.54087   8.82537   0.000003008983945   0.000000917752009   0.000003003431262
Si    6.10988  14.25638   8.82537   0.000000475864233   0.000003284325045   0.000000182749406
Si    8.82537  14.25638   6.10987   0.000000185706070   0.000003277862540   0.000000470793969
Si   10.18313  12.89862   7.46762  -0.000000332007411   0.000004567010981   0.000003665342473
Si   10.18313  15.61412  10.18313  -0.000000861977381  -0.000000231420449  -0.000000869721838
Si    7.46762  12.89862  10.18313   0.000003652697430   0.000004574874905  -0.000000335331182
Si    7.46762  15.61412   7.46762   0.000000547877057   0.000003162458771   0.000000548969290
Si    6.10988  11.54087  11.54087   0.000000231431282   0.000000861939202   0.000000869802173
Si    8.82537  11.54087  14.25638  -0.000004566973202   0.000000332005517  -0.000003665361104
Si    6.10988  14.25638  14.25638  -0.000003162489075  -0.000000547851772  -0.000000548930321
Si    8.82537  14.25638  11.54087  -0.000004574867014  -0.000003652681833   0.000000335334502
Si   10.18313  12.89862  12.89862  -0.000000917735895  -0.000003008924978  -0.000003003305023
Si   10.18313  15.61412  15.61412  -0.000000398644987  -0.000004703793946  -0.000004706198406
Si    7.46762  12.89862  15.61412  -0.000003277823173  -0.000000185662934  -0.000000470890086
Si    7.46762  15.61412  12.89862  -0.000003284311842  -0.000000475820641  -0.000000182798268
Si    6.10988  11.54087  16.97187   0.000003813652661  -0.000000863743343   0.000003340458275
Si    8.82537  11.54087  19.68737  -0.000000567444816   0.000003105504755   0.000002198343944
Si    6.10988  14.25638  19.68737   0.000001233106939   0.000000091253382   0.000002805153186
Si    8.82537  14.25638  16.97187  -0.000003272601153  -0.000006448310956  -0.000001294997051
Si   10.18313  12.89862  18.32963   0.000007860687169   0.000001147745867   0.000001184236002
Si   10.18313  15.61412  21.04512   0.000002390047913   0.000001709962237  -0.000004698361170
Si    7.46762  12.89862  21.04512  -0.000003042415292   0.000000889736102   0.000001688466765
Si    7.46762  15.61412  18.32963  -0.000005259391570  -0.000002171888379   0.000004056009170
Si    6.10988  16.97187   0.67887   0.000000299987352  -0.000000109900779   0.000003731006028
Si    8.82537  16.97187   3.39437  -0.000001568280572   0.000001074012970   0.000000646370077
Si    6.10988  19.68737   3.39437  -0.000004495493763   0.000005010363523   0.000000615365779
Si    8.82537  19.68737   0.67887   0.000003288485150   0.000000453104551  -0.000002835766670
Si   10.18313  18.32963   2.03662   0.000003226454159  -0.000000133823651   0.000002242287002
Si   10.18313  21.04512   4.75212   0.000004997728145  -0.000005125068024   0.000005524837278
Si    7.46762  18.32963   4.75212  -0.000003255873739  -0.000001622590450  -0.000000093010589
Si    7.46762  21.04512   2.03662  -0.000005173703425   0.000002253132551  -0.000006187638558
Si    6.10988  16.97187   6.10987   0.000001615112968  -0.000000292621062   0.000001616493028
Si    8.82537  16.97187   8.82537   0.000001761198377  -0.000000018041332   0.000001764845866
Si    6.10988  19.68737   8.82537   0.000000609422101  -0.000007179724344  -0.000000516016535
Si    8.82537  19.68737   6.10987  -0.000000515947585  -0.000007187404159   0.000000602599087
Si   10.18313  18.32963   7.46762  -0.000006692474680   0.000004757212046   0.000002435091676
Si   10.18313  21.04512  10.18313   0.000003631277479  -0.000004552501509   0.000003632552495
Si    7.46762  18.32963  10.18313   0.000002432035993   0.000004762800052  -0.000006693338779
Si    7.46762  21.04512   7.46762  -0.000001641204602  -0.000000519484432  -0.000001644483771
Si    6.10988  16.97187  11.54087   0.000003820352351   0.000003331989363  -0.000000879556282
Si    8.82537  16.97187  14.25638  -0.000003259540295  -0.000001291116757  -0.000006433736822
Si    6.10988  19.68737  14.25638   0.000001223516779   0.000002803872552   0.000000101233900
Si    8.82537  19.68737  11.54087  -0.000000577509085   0.000002212056855   0.000003092236599
Si   10.18313  18.32963  12.89862   0.000007858374849   0.000001177316694   0.000001145529111
Si   10.18313  21.04512  15.61412   0.000002386593427  -0.000004696375090   0.000001708079228
Si    7.46762  18.32963  15.61412  -0.000005258263639   0.000004054199422  -0.000002174616376
Si    7.46762  21.04512  12.89862  -0.000003037812831   0.000001687190895   0.000000897456757
Si    6.10988  16.97187  16.97187  -0.000000635173253   0.000000438214718   0.000000429896667
Si    8.82537  16.97187  19.68737  -0.000002211656842   0.000003103608717   0.000003492372181
Si    6.10988  19.68737  19.68737   0.000006638773574  -0.000002693820054  -0.000002684247448
Si    8.82537  19.68737  16.97187  -0.000002207995359   0.000003482813569   0.000003097758638
Si   10.18313  18.32963  18.32963   0.000005765403116  -0.000004011728016  -0.000004015005216
Si   10.18313  21.04512  21.04512  -0.000004589139149  -0.000001766771637  -0.000001764327262
Si    7.46762  18.32963  21.04512  -0.000000847449721  -0.000001379278287  -0.000004539843563
Si    7.46762  21.04512  18.32963  -0.000000848693913  -0.000004540267399  -0.000001378196648
Si   11.54087   0.67888   0.67887   0.000004589150583   0.000001766664798   0.000001764364448
Si   14.25638   0.67888   3.39437   0.000000848629610   0.000004540234753   0.000001378187575
Si   11.54087   3.39438   3.39437  -0.000005765415065   0.000004011829207   0.000004014999517
Si   14.25638   3.39438   0.67887   0.000000847404752   0.000001379297511   0.000004539696596
Si   15.61412   2.03662   2.03662  -0.000006638718218   0.000002693746083   0.000002684261580
Si   15.61412   4.75212   4.75212   0.000000635254806  -0.000000438243043  -0.000000429930649
Si   12.89862   2.03662   4.75212   0.000002207985023  -0.000003482918198  -0.000003097698890
Si   12.89862   4.75212   2.03662   0.000002211569261  -0.000003103540598  -0.000003492367290
Si   11.54087   0.67888   6.10987  -0.000002386581371   0.000004696370798  -0.000001708116270
Si   14.25638   0.67888   8.82537   0.000003037744524  -0.000001687197954  -0.000000897440033
Si   11.54087   3.39438   8.82537  -0.000007858394994  -0.000001177306591  -0.000001145520826
Si   14.25638   3.39438   6.10987   0.000005258146168  -0.000004054220763   0.000002174532067
Si   15.61412   2.03662   7.46762  -0.000001223562994  -0.000002803819598  -0.000000101142192
Si   15.61412   4.75212  10.18313  -0.000003820434552  -0.000003331957636   0.000000879594158
Si   12.89862   2.03662  10.18313   0.000000577566059  -0.000002212112815  -0.000003092309877
Si   12.89862   4.75212   7.46762   0.000003259496888   0.000001291066885   0.000006433777194
Si   11.54087   0.67888  11.54087  -0.000003631256196   0.000004552493231  -0.000003632502040
Si   14.25638   0.67888  14.25638   0.000001641159314   0.000000519402904   0.000001644507962
Si   11.54087   3.39438  14.25638   0.000006692472936  -0.000004757226922  -0.000002435007483
Si   14.25638   3.39438  11.54087  -0.000002431990147  -0.000004762659181   0.000006693364812
Si   15.61412   2.03662  12.89862  -0.000000609381789   0.000007179668772   0.000000515997380
Si   15.61412   4.75212  15.61412  -0.000001615067555   0.000000292586066  -0.000001616535753
Si   12.89862   2.03662  15.61412   0.000000515927898   0.000007187475436  -0.000000602568268
Si   12.89862   4.75212  12.89862  -0.000001761174691   0.000000018067000  -0.000001764821229
Si   11.54087   0.67888  16.97187  -0.000004997721429   0.000005125064400  -0.000005524875906
Si   14.25638   0.67888  19.68737   0.000005173656161  -0.000002253266385   0.000006187647611
Si   11.54087   3.39438  19.68737  -0.000003226442235   0.000000133724275  -0.000002242240838
Si   14.25638   3.39438  16.97187   0.000003255846009   0.000001622571412   0.000000092993292
Si   15.61412   2.03662  18.32963   0.000004495522546  -0.000005010360281  -0.000000615392106
Si   15.61412   4.75212  21.04512  -0.000000299920967   0.000000109949659  -0.000003730930319
Si   12.89862   2.03662  21.04512  -0.000003288478355  -0.000000453059437   0.000002835719722
Si   12.89862   4.75212  18.32963   0.000001568280461  -0.000001073965441  -0.000000646405645
Si   11.54087   6.10987   0.67887  -0.000002389986007  -0.000001709890802   0.000004698400879
Si   14.25638   6.10987   3.39437   0.000005259448704   0.000002171885499  -0.000004056080824
Si   11.54087   8.82537   3.39437  -0.000007860745460  -0.000001147705199  -0.000001184186390
Si   14.25638   8.82537   0.67887   0.000003042392494  -0.000000889695117  -0.000001688433714
Si   15.61412   7.46762   2.03662  -0.000001233189593  -0.000000091221516  -0.000002805159246
Si   15.61412  10.18313   4.75212  -0.000003813706677   0.000000863752213  -0.000003340442482
Si   12.89862   7.46762   4.75212   0.000003272662704   0.000006448286550   0.000001295065073
Si   12.89862  10.18313   2.03662   0.000000567533558  -0.000003105586097  -0.000002198390584
Si   11.54087   6.10987   6.10987   0.000000398696343   0.000004703797083   0.000004706208015
Si   14.25638   6.10987   8.82537   0.000003284349666   0.000000475875062   0.000000182816424
Si   11.54087   8.82537   8.82537   0.000000917659372   0.000003008950227   0.000003003252761
Si   14.25638   8.82537   6.10987   0.000003277743009   0.000000185697771   0.000000470898606
Si   15.61412   7.46762   7.46762   0.000003162517719   0.000000547811976   0.000000548907258
Si   15.61412  10.18313  10.18313  -0.000000231361748  -0.000000861963793  -0.000000869702058
Si   12.89862   7.46762  10.18313   0.000004574859946   0.000003652678197  -0.000000335368736
Si   12.89862  10.18313   7.46762   0.000004566970003  -0.000000332015000   0.000003665376411
Si   11.54087   6.10987  11.54087   0.000000861973600   0.000000231389975   0.000000869828255
Si   14.25638   6.10987  14.25638  -0.000000547823958  -0.000003162512551  -0.000000548913627
Si   11.54087   8.82537  14.25638   0.000000332015042  -0.000004566958333  -0.000003665306710
Si   14.25638   8.82537  11.54087  -0.000003652736590  -0.000004574888298   0.000000335364113
Si   15.61412   7.46762  12.89862  -0.000000475866990  -0.000003284316111  -0.000000182759569
Si   15.61412  10.18313  15.61412  -0.000004703786086  -0.000000398630356  -0.000004706206818
Si   12.89862   7.46762  15.61412  -0.000000185758563  -0.000003277843606  -0.000000470914640
Si   12.89862  10.18313  12.89862  -0.000003008999217  -0.000000917642523  -0.000003003334966
Si   11.54087   6.10987  16.97187  -0.000000863759914   0.000003813637792   0.000003340420586
Si   14.25638   6.10987  19.68737   0.000000091264626   0.000001233205354   0.000002805202609
Si   11.54087   8.82537  19.68737   0.000003105494127  -0.000000567491245   0.000002198447253
Si   14.25638   8.82537  16.97187  -0.000006448219062  -0.000003272695905  -0.000001295042570
Si   15.61412   7.46762  18.32963  -0.000002171825618  -0.000005259374898   0.000004056068327
Si   15.61412  10.18313  21.04512   0.000001709901598   0.000002389982612  -0.000004698410229
Si   12.89862   7.46762  21.04512   0.000000889650171  -0.000003042462942   0.000001688418422
Si   12.89862  10.18313  18.32963   0.000001147717148   0.000007860782059   0.000001184283264
Si   11.54087  11.54087   0.67887  -0.000003632676310  -0.000003632605128   0.000004560083804
Si   14.25638  11.54087   3.39437  -0.000002429932421   0.000006698069310  -0.000004760997990
Si   11.54087  14.25638   3.39437   0.000006698006183  -0.000002429963948  -0.000004760967753
Si   14.25638  14.25638   0.67887   0.000001640709746   0.000001640688571   0.000000510813336
Si   15.61412  12.89862   2.03662  -0.000000615523041   0.000000532728555   0.000007185267269
Si   15.61412  15.61412   4.75212  -0.000001635060229  -0.000001635048473   0.000000292057557
Si   12.89862  12.89862   4.75212  -0.000001746516563  -0.000001746489247   0.000000010040328
Si   12.89862  15.61412   2.03662   0.000000532741433  -0.000000615477512   0.000007185284996
Si   11.54087  11.54087   6.10987   0.000000862951319   0.000000862928332   0.000000235228152
Si   14.25638  11.54087   8.82537  -0.000003662108457   0.000000336842972  -0.000004568853361
Si   11.54087  14.25638   8.82537   0.000000336856553  -0.000003662091055  -0.000004568906465
Si   14.25638  14.25638   6.10987  -0.000000548436092  -0.000000548551206  -0.000003155410215
Si   15.61412  12.89862   7.46762  -0.000000467366827  -0.000000190248385  -0.000003277447396
Si   15.61412  15.61412  10.18313  -0.000004695726510  -0.000004695752821  -0.000000405181803
Si   12.89862  12.89862  10.18313  -0.000003012209572  -0.000003012115687  -0.000000923256463
Si   12.89862  15.61412   7.46762  -0.000000190305934  -0.000000467396511  -0.000003277471364
Si   11.54087  11.54087  11.54087   0.000003658652643   0.000003658641000   0.000003660428588
Si   14.25638  11.54087  14.25638   0.000000063496687   0.000003344839521   0.000000061683742
Si   11.54087  14.25638  14.25638   0.000003344850148   0.000000063434526   0.000000061587171
Si   14.25638  14.25638  11.54087   0.000000058127143   0.000000058072940   0.000003348076191
Si   15.61412  12.89862  12.89862  -0.000000807207431   0.000001789986165   0.000001791754356
Si   15.61412  15.61412  15.61412  -0.000002961664487  -0.000002961682184  -0.000002963080194
Si   12.89862  12.89862  15.61412   0.000001788103993   0.000001788063013  -0.000000811684411
Si   12.89862  15.61412  12.89862   0.000001790009183  -0.000000807242486   0.000001791713658
Si   11.54087  11.54087  16.97187   0.000003026481353   0.000003026521775   0.000002459784445
Si   14.25638  11.54087  19.68737  -0.000004862020469   0.000002429793701  -0.000001999124409
Si   11.54087  14.25638  19.68737   0.000002429841316  -0.000004862080092  -0.000001999141533
Si   14.25638  14.25638  16.97187  -0.000001746503025  -0.000001746473818  -0.000000164841659
Si   15.61412  12.89862  18.32963  -0.000002241833017  -0.000004219981633  -0.000005740363062
Si   15.61412  15.61412  21.04512  -0.000001169496721  -0.000001169447895  -0.000001074647137
Si   12.89862  12.89862  21.04512  -0.000000602635097  -0.000000602649493  -0.000000532468402
Si   12.89862  15.61412  18.32963  -0.000004220052420  -0.000002241850342  -0.000005740299014
Si   11.54087  16.97187   0.67887  -0.000005002144394  -0.000005518878259   0.000005117655983
Si   14.25638  16.97187   3.39437   0.000003257401469   0.000000088592709   0.000001623813688
Si   11.54087  19.68737   3.39437  -0.000003226627710  -0.000002237190085   0.000000141040285
Si   14.25638  19.68737   0.67887   0.000005164101640   0.000006184485173  -0.000002242696964
Si   15.61412  18.32963   2.03662   0.000004495398565  -0.000000604139656  -0.000005005124737
Si   15.61412  21.04512   4.75212  -0.000000294681352  -0.000003741886276   0.000000110544361
Si   12.89862  18.32963   4.75212   0.000001562581547  -0.000000634311525  -0.000001075730377
Si   12.89862  21.04512   2.03662  -0.000003287456357   0.000002825902894  -0.000000455056661
Si   11.54087  16.97187   6.10987  -0.000000876763060   0.000003341541816   0.000003805591490
Si   14.25638  16.97187   8.82537  -0.000006436154634  -0.000001291433217  -0.000003267909150
Si   11.54087  19.68737   8.82537   0.000003101133214   0.000002199265139  -0.000000562241427
Si   14.25638  19.68737   6.10987   0.000000097370392   0.000002804802455   0.000001228400183
Si   15.61412  18.32963   7.46762  -0.000002169585796   0.000004054310359  -0.000005257574884
Si   15.61412  21.04512  10.18313   0.000001695931468  -0.000004688428061   0.000002388466460
Si   12.89862  18.32963  10.18313   0.000001146081526   0.000001175245027   0.000007856425984
Si   12.89862  21.04512   7.46762   0.000000894501007   0.000001687862533  -0.000003040868420
Si   11.54087  16.97187  11.54087   0.000003028920496   0.000002452267789   0.000003017683357
Si   14.25638  16.97187  14.25638  -0.000001757231971  -0.000000162037095  -0.000001753498085
Si   11.54087  19.68737  14.25638   0.000002428380667  -0.000002006379132  -0.000004851843934
Si   14.25638  19.68737  11.54087  -0.000004857512538  -0.000002000180083   0.000002432720813
Si   15.61412  18.32963  12.89862  -0.000002243497878  -0.000005750385142  -0.000004212429699
Si   15.61412  21.04512  15.61412  -0.000001180310025  -0.000001069232853  -0.000001176274997
Si   12.89862  18.32963  15.61412  -0.000004214138536  -0.000005744701303  -0.000002246734909
Si   12.89862  21.04512  12.89862  -0.000000590993606  -0.000000526227194  -0.000000596715195
Si   11.54087  16.97187  16.97187  -0.000007474122934   0.000002299228129   0.000002298857723
Si   14.25638  16.97187  19.68737   0.000003075112483  -0.000001801149164  -0.000008988103172
Si   11.54087  19.68737  19.68737  -0.000005192173048   0.000001870086477   0.000001868878669
Si   14.25638  19.68737  16.97187   0.000003080459717  -0.000008983336869  -0.000001799131427
Si   15.61412  18.32963  18.32963  -0.000004299504281  -0.000000069536714  -0.000000070253348
Si   15.61412  21.04512  21.04512  -0.000006574836318   0.000003879263847   0.000003883731912
Si   12.89862  18.32963  21.04512   0.000002134139018   0.000000006580765  -0.000003014901144
Si   12.89862  21.04512  18.32963   0.000002139926370  -0.000003010599290   0.000000005203002
Si   16.97187   0.67888   0.67887   0.000001535537867  -0.000000465035835  -0.000000466698157
Si   19.68737   0.67888   3.39437  -0.000001213742153  -0.000001252951617  -0.000004828707936
Si   16.97187   3.39438   3.39437  -0.000003535364094   0.000000594181912   0.000000600038281
Si   19.68737   3.39438   0.67887  -0.000001213726951  -0.000004824547488  -0.000001249852693
Si   21.04512   2.03662   2.03662  -0.000000004103287  -0.000001575013464  -0.000001562147103
Si   21.04512   4.75212   4.75212  -0.000003452250004   0.000002615311109   0.000002604973156
Si   18.32963   2.03662   4.75212   0.000000651545562   0.000004143426356   0.000000701758218
Si   18.32963   4.75212   2.03662   0.000000649686567   0.000000710444022   0.000004144303773
Si   16.97187   0.67888   6.10987  -0.000000107856933   0.000003735122337   0.000000302227307
Si   19.68737   0.67888   8.82537   0.000000453304996  -0.000002832034915   0.000003282225748
Si   16.97187   3.39438   8.82537   0.000001076997928   0.000000636083810  -0.000001558146255
Si   19.68737   3.39438   6.10987   0.000005002548317   0.000000614710177  -0.000004499733378
Si   21.04512   2.03662   7.46762   0.000002239078871  -0.000006180322096  -0.000005167232566
Si   21.04512   4.75212  10.18313  -0.000005124073001   0.000005522423216   0.000004994681065
Si   18.32963   2.03662  10.18313  -0.000000130232928   0.000002236898642   0.000003228405224
Si   18.32963   4.75212   7.46762  -0.000001630954212  -0.000000099291814  -0.000003258268736
Si   16.97187   0.67888  11.54087  -0.000005522419590   0.000005124085626  -0.000004994626792
Si   19.68737   0.67888  14.25638   0.000006180366303  -0.000002239129322   0.000005167252513
Si   16.97187   3.39438  14.25638   0.000000099252406   0.000001630923120   0.000003258321170
Si   19.68737   3.39438  11.54087  -0.000002236930528   0.000000130348987  -0.000003228399060
Si   21.04512   2.03662  12.89862   0.000002832000247  -0.000000453333671  -0.000003282188495
Si   21.04512   4.75212  15.61412  -0.000003735153232   0.000000107928223  -0.000000302249313
Si   18.32963   2.03662  15.61412  -0.000000614756594  -0.000005002442738   0.000004499706147
Si   18.32963   4.75212  12.89862  -0.000000636134726  -0.000001076942729   0.000001558164542
Si   16.97187   0.67888  16.97187  -0.000002615336060   0.000003452270348  -0.000002605015044
Si   19.68737   0.67888  19.68737   0.000001574986783   0.000000004075200   0.000001562220440
Si   16.97187   3.39438  19.68737  -0.000000710358966  -0.000000649665920  -0.000004144290608
Si   19.68737   3.39438  16.97187  -0.000004143336799  -0.000000651491717  -0.000000701819905
Si   21.04512   2.03662  18.32963   0.000001252896630   0.000001213737869   0.000004828714980
Si   21.04512   4.75212  21.04512   0.000000465009211  -0.000001535617870   0.000000466711497
Si   18.32963   2.03662  21.04512   0.000004824488859   0.000001213805555   0.000001249806063
Si   18.32963   4.75212  18.32963  -0.000000594134007   0.000003535250805  -0.000000599981503
Si   16.97187   6.10987   0.67887  -0.000000109913600   0.000000299899517   0.000003731018679
Si   19.68737   6.10987   3.39437   0.000005010391996  -0.000004495497805   0.000000615373928
Si   16.97187   8.82537   3.39437   0.000001074003183  -0.000001568323591   0.000000646327081
Si   19.68737   8.82537   0.67887   0.000000453075973   0.000003288542940  -0.000002835708702
Si   21.04512   7.46762   2.03662   0.000002253159254  -0.000005173717122  -0.000006187620522
Si   21.04512  10.18313   4.75212  -0.000005125127026   0.000004997671493   0.000005524858719
Si   18.32963   7.46762   4.75212  -0.000001622597963  -0.000003255872557  -0.000000093009553
Si   18.32963  10.18313   2.03662  -0.000000133752697   0.000003226418247   0.000002242309533
Si   16.97187   6.10987   6.10987  -0.000000292583060   0.000001615077772   0.000001616541753
Si   19.68737   6.10987   8.82537  -0.000007179660139   0.000000609446397  -0.000000516057398
Si   16.97187   8.82537   8.82537  -0.000000018124944   0.000001761152548   0.000001764853032
Si   19.68737   8.82537   6.10987  -0.000007187419721  -0.000000515912699   0.000000602523197
Si   21.04512   7.46762   7.46762  -0.000000519487829  -0.000001641173793  -0.000001644475591
Si   21.04512  10.18313  10.18313  -0.000004552514898   0.000003631315540   0.000003632540233
Si   18.32963   7.46762  10.18313   0.000004762728391   0.000002431948655  -0.000006693359501
Si   18.32963  10.18313   7.46762   0.000004757315660  -0.000006692424245   0.000002435019019
Si   16.97187   6.10987  11.54087   0.000003332029329   0.000003820371453  -0.000000879622184
Si   19.68737   6.10987  14.25638   0.000002803850117   0.000001223486925   0.000000101134324
Si   16.97187   8.82537  14.25638  -0.000001291133901  -0.000003259491461  -0.000006433731369
Si   19.68737   8.82537  11.54087   0.000002212085088  -0.000000577542662   0.000003092241930
Si   21.04512   7.46762  12.89862   0.000001687137578  -0.000003037785771   0.000000897518226
Si   21.04512  10.18313  15.61412  -0.000004696338443   0.000002386493234   0.000001708020924
Si   18.32963   7.46762  15.61412   0.000004054166731  -0.000005258214345  -0.000002174597888
Si   18.32963  10.18313  12.89862   0.000001177391179   0.000007858453946   0.000001145517213
Si   16.97187   6.10987  16.97187   0.000000438178300  -0.000000635090597   0.000000429929040
Si   19.68737   6.10987  19.68737  -0.000002693835009   0.000006638738746  -0.000002684264235
Si   16.97187   8.82537  19.68737   0.000003103587855  -0.000002211675850   0.000003492375466
Si   19.68737   8.82537  16.97187   0.000003482889535  -0.000002208018095   0.000003097751088
Si   21.04512   7.46762  18.32963  -0.000004540238138  -0.000000848702003  -0.000001378287021
Si   21.04512  10.18313  21.04512  -0.000001766743752  -0.000004589062784  -0.000001764382457
Si   18.32963   7.46762  21.04512  -0.000001379330681  -0.000000847363754  -0.000004539798067
Si   18.32963  10.18313  18.32963  -0.000004011799734   0.000005765433972  -0.000004015029035
Si   16.97187  11.54087   0.67887  -0.000005518907289  -0.000005002089294   0.000005117702630
Si   19.68737  11.54087   3.39437  -0.000002237175799  -0.000003226603172   0.000000141082288
Si   16.97187  14.25638   3.39437   0.000000088601817   0.000003257438872   0.000001623836513
Si   19.68737  14.25638   0.67887   0.000006184417885   0.000005164211083  -0.000002242691634
Si   21.04512  12.89862   2.03662   0.000002825885531  -0.000003287553924  -0.000000455120388
Si   21.04512  15.61412   4.75212  -0.000003741854038  -0.000000294722075   0.000000110558513
Si   18.32963  12.89862   4.75212  -0.000000634377899   0.000001562544173  -0.000001075730394
Si   18.32963  15.61412   2.03662  -0.000000604085129   0.000004495379456  -0.000005005137617
Si   16.97187  11.54087   6.10987   0.000003341585837  -0.000000876705681   0.000003805650350
Si   19.68737  11.54087   8.82537   0.000002199330650   0.000003101147700  -0.000000562170649
Si   16.97187  14.25638   8.82537  -0.000001291373622  -0.000006436166782  -0.000003267960702
Si   19.68737  14.25638   6.10987   0.000002804771539   0.000000097436236   0.000001228327631
Si   21.04512  12.89862   7.46762   0.000001687782374   0.000000894487548  -0.000003040883342
Si   21.04512  15.61412  10.18313  -0.000004688464855   0.000001695939492   0.000002388561209
Si   18.32963  12.89862  10.18313   0.000001175219064   0.000001146072545   0.000007856369855
Si   18.32963  15.61412   7.46762   0.000004054234229  -0.000002169519359  -0.000005257544545
Si   16.97187  11.54087  11.54087   0.000002452186771   0.000003028935458   0.000003017625011
Si   19.68737  11.54087  14.25638  -0.000002006427901   0.000002428363184  -0.000004851927844
Si   16.97187  14.25638  14.25638  -0.000000162001208  -0.000001757150817  -0.000001753508933
Si   19.68737  14.25638  11.54087  -0.000002000197934  -0.000004857412956   0.000002432743355
Si   21.04512  12.89862  12.89862  -0.000000526234063  -0.000000591010587  -0.000000596650660
Si   21.04512  15.61412  15.61412  -0.000001069287838  -0.000001180356841  -0.000001176328714
Si   18.32963  12.89862  15.61412  -0.000005744669043  -0.000004214113257  -0.000002246811159
Si   18.32963  15.61412  12.89862  -0.000005750449131  -0.000002243586520  -0.000004212447097
Si   16.97187  11.54087  16.97187   0.000002299189836  -0.000007474151597   0.000002298816583
Si   19.68737  11.54087  19.68737   0.000001870108675  -0.000005192175929   0.000001868899663
Si   16.97187  14.25638  19.68737  -0.000001801151139   0.000003075009432  -0.000008988054183
Si   19.68737  14.25638  16.97187  -0.000008983378480   0.000003080489746  -0.000001799061517
Si   21.04512  12.89862  18.32963  -0.000003010573437   0.000002139922480   0.000000005275327
Si   21.04512  15.61412  21.04512   0.000003879273622  -0.000006574821675   0.000003883697469
Si   18.32963  12.89862  21.04512   0.000000006595176   0.000002134171059  -0.000003014943401
Si   18.32963  15.61412  18.32963  -0.000000069589548  -0.000004299462239  -0.000000070324268
Si   16.97187  16.97187   0.67887  -0.000002607013704  -0.000002606954760   0.000003464485030
Si   19.68737  16.97187   3.39437  -0.000004149231208  -0.000000696003687  -0.000000658507137
Si   16.97187  19.68737   3.39437  -0.000000696039706  -0.000004149264478  -0.000000658502853
Si   19.68737  19.68737   0.67887   0.000001560507789   0.000001560514625   0.000000008264610
Si   21.04512  18.32963   2.03662   0.000001247318768   0.000004818931291   0.000001210151409
Si   21.04512  21.04512   4.75212   0.000000480297976   0.000000480292006  -0.000001530466907
Si   18.32963  18.32963   4.75212  -0.000000597317437  -0.000000597314911   0.000003536399070
Si   18.32963  21.04512   2.03662   0.000004818918444   0.000001247333221   0.000001210114546
Si   16.97187  16.97187   6.10987   0.000000438659889   0.000000438540798  -0.000000624115501
Si   19.68737  16.97187   8.82537   0.000003493659955   0.000003103381782  -0.000002216990849
Si   16.97187  19.68737   8.82537   0.000003103311062   0.000003493663160  -0.000002216976359
Si   19.68737  19.68737   6.10987  -0.000002688354342  -0.000002688329053   0.000006644953676
Si   21.04512  18.32963   7.46762  -0.000004542312197  -0.000001378951040  -0.000000848713735
Si   21.04512  21.04512  10.18313  -0.000001773617490  -0.000001773560047  -0.000004589247111
Si   18.32963  18.32963  10.18313  -0.000004014453818  -0.000004014415246   0.000005766545341
Si   18.32963  21.04512   7.46762  -0.000001378986850  -0.000004542259709  -0.000000848756605
Si   16.97187  16.97187  11.54087   0.000002301523151   0.000002301495723  -0.000007467474834
Si   19.68737  16.97187  14.25638  -0.000008992287586  -0.000001799716521   0.000003068032806
Si   16.97187  19.68737  14.25638  -0.000001799689089  -0.000008992303033   0.000003068002767
Si   19.68737  19.68737  11.54087   0.000001858928094   0.000001858873378  -0.000005185868854
Si   21.04512  18.32963  12.89862  -0.000003014284745   0.000000014614009   0.000002137333448
Si   21.04512  21.04512  15.61412   0.000003885422142   0.000003885494281  -0.000006583482608
Si   18.32963  18.32963  15.61412  -0.000000077400851  -0.000000077393742  -0.000004295575618
Si   18.32963  21.04512  12.89862   0.000000014634280  -0.000003014288616   0.000002137428117
Si   16.97187  16.97187  16.97187   0.000001386601921   0.000001386617107   0.000001396184785
Si   19.68737  16.97187  19.68737   0.000004995999562  -0.000006174464634   0.000004988079020
Si   16.97187  19.68737  19.68737  -0.000006174453834   0.000004995910983   0.000004988105851
Si   19.68737  19.68737  16.97187   0.000005003826248   0.000005003834771  -0.000006163713997
Si   21.04512  18.32963  18.32963  -0.000008739311493   0.000000301238019   0.000000300159417
Si   21.04512  21.04512  21.04512  -0.000000287790953  -0.000000287835222  -0.000000281695988
Si   18.32963  18.32963  21.04512   0.000000303993221   0.000000304061234  -0.000008743838734
Si   18.32963  21.04512  18.32963   0.000000301334300  -0.000008739320001   0.000000300133225
