512 

Si    0.67887   0.67888   0.67887   0.000000287818691   0.000000287845300   0.000000281654120
Si    3.39437   0.67888   3.39437  -0.000000301279307   0.000008739340836  -0.000000300173210
Si    0.67887   3.39438   3.39437   0.000008739281395  -0.000000301283972  -0.000000300217014
Si    3.39437   3.39438   0.67887  -0.000000304027565  -0.000000304028353   0.000008743781441
Si    4.75212   2.03662   2.03662   0.000006174517844  -0.000004995979531  -0.000004988126757
Si    4.75212   4.75212   4.75212  -0.000001386580764  -0.000001386557429  -0.000001396112875
Si    2.03662   2.03662   4.75212  -0.000005003846272  -0.000005003853422   0.000006163745045
Si    2.03662   4.75212   2.03662  -0.000004995980303   0.000006174511594  -0.000004988135965
Si    0.67887   0.67888   6.10987  -0.000003885414816  -0.000003885433159   0.000006583536269
Si    3.39437   0.67888   8.82537  -0.000000014663069   0.000003014236494  -0.000002137376434
Si    0.67887   3.39438   8.82537   0.000003014241506  -0.000000014670939  -0.000002137401671
Si    3.39437   3.39438   6.10987   0.000000077407108   0.000000077403241   0.000004295546292
Si    4.75212   2.03662   7.46762   0.000001799729203   0.000008992289568  -0.000003068068951
Si    4.75212   4.75212  10.18313  -0.000002301504941  -0.000002301487241   0.000007467496395
Si    2.03662   2.03662  10.18313  -0.000001858965701  -0.000001858899740   0.000005185794026
Si    2.03662   4.75212   7.46762   0.000008992227171   0.000001799722524  -0.000003068023828
Si    0.67887   0.67888  11.54087   0.000001773571848   0.000001773591370   0.000004589275003
Si    3.39437   0.67888  14.25638   0.000001378976487   0.000004542357546   0.000000848742204
Si    0.67887   3.39438  14.25638   0.000004542331662   0.000001378996529   0.000000848689250
Si    3.39437   3.39438  11.54087   0.000004014448123   0.000004014489729  -0.000005766518467
Si    4.75212   2.03662  12.89862  -0.000003103277966  -0.000003493691263   0.000002217075467
Si    4.75212   4.75212  15.61412  -0.000000438558851  -0.000000438561396   0.000000624112599
Si    2.03662   2.03662  15.61412   0.000002688322101   0.000002688291644  -0.000006644929646
Si    2.03662   4.75212  12.89862  -0.000003493721025  -0.000003103326013   0.000002217010579
Si    0.67887   0.67888  16.97187  -0.000000480287687  -0.000000480287557   0.000001530463772
Si    3.39437   0.67888  19.68737  -0.000004818904163  -0.000001247288523  -0.000001210023589
Si    0.67887   3.39438  19.68737  -0.000001247337983  -0.000004818983583  -0.000001209992720
Si    3.39437   3.39438  16.97187   0.000000597332315   0.000000597284008  -0.000003536497526
Si    4.75212   2.03662  18.32963   0.000000696183249   0.000004149225349   0.000000658560849
Si    4.75212   4.75212  21.04512   0.000002606986787   0.000002607045012  -0.000003464460684
Si    2.03662   2.03662  21.04512  -0.000001560492956  -0.000001560452686  -0.000000008241569
Si    2.03662   4.75212  18.32963   0.000004149213263   0.000000696083099   0.000000658591997
Si    0.67887   6.10987   0.67887  -0.000003879288044   0.000006574805261  -0.000003883699760
Si    3.39437   6.10987   3.39437   0.000000069603147   0.000004299464109   0.000000070270580
Si    0.67887   8.82537   3.39437   0.000003010543227  -0.000002140010368  -0.000000005286918
Si    3.39437   8.82537   0.67887  -0.000000006564035  -0.000002134200516   0.000003014851814
Si    4.75212   7.46762   2.03662   0.000001801228903  -0.000003075084275   0.000008988028014
Si    4.75212  10.18313   4.75212  -0.000002299153403   0.000007474059557  -0.000002298904749
Si    2.03662   7.46762   4.75212   0.000008983402378  -0.000003080495414   0.000001799090447
Si    2.03662  10.18313   2.03662  -0.000001870144409   0.000005192085286  -0.000001868937564
Si    0.67887   6.10987   6.10987   0.000001069254218   0.000001180341423   0.000001176261066
Si    3.39437   6.10987   8.82537   0.000005750461490   0.000002243597758   0.000004212403954
Si    0.67887   8.82537   8.82537   0.000000526250767   0.000000591007621   0.000000596696994
Si    3.39437   8.82537   6.10987   0.000005744656271   0.000004214056218   0.000002246758772
Si    4.75212   7.46762   7.46762   0.000000162066802   0.000001757170576   0.000001753506352
Si    4.75212  10.18313  10.18313  -0.000002452186645  -0.000003028969790  -0.000003017606580
Si    2.03662   7.46762  10.18313   0.000002000150895   0.000004857471614  -0.000002432725861
Si    2.03662  10.18313   7.46762   0.000002006364406  -0.000002428454824   0.000004851906587
Si    0.67887   6.10987  11.54087   0.000004688410875  -0.000001695903717  -0.000002388522262
Si    3.39437   6.10987  14.25638  -0.000004054227394   0.000002169639173   0.000005257556742
Si    0.67887   8.82537  14.25638  -0.000001687816643  -0.000000894459237   0.000003040896131
Si    3.39437   8.82537  11.54087  -0.000001175219181  -0.000001146170852  -0.000007856350695
Si    4.75212   7.46762  12.89862   0.000001291447712   0.000006436209993   0.000003267965393
Si    4.75212  10.18313  15.61412  -0.000003341568108   0.000000876757479  -0.000003805672421
Si    2.03662   7.46762  15.61412  -0.000002804732251  -0.000000097437540  -0.000001228436647
Si    2.03662  10.18313  12.89862  -0.000002199289917  -0.000003101156984   0.000000562235982
Si    0.67887   6.10987  16.97187   0.000003741816390   0.000000294754167  -0.000000110547847
Si    3.39437   6.10987  19.68737   0.000000604150611  -0.000004495400093   0.000005005165849
Si    0.67887   8.82537  19.68737  -0.000002825918263   0.000003287495482   0.000000455108189
Si    3.39437   8.82537  16.97187   0.000000634370534  -0.000001562559085   0.000001075675581
Si    4.75212   7.46762  18.32963  -0.000000088515326  -0.000003257398729  -0.000001623803706
Si    4.75212  10.18313  21.04512   0.000005518924573   0.000005002073459  -0.000005117730068
Si    2.03662   7.46762  21.04512  -0.000006184440919  -0.000005164175688   0.000002242730355
Si    2.03662  10.18313  18.32963   0.000002237138247   0.000003226595673  -0.000000141084401
Si    0.67887  11.54087   0.67887   0.000001766789567   0.000004589156120   0.000001764327116
Si    3.39437  11.54087   3.39437   0.000004011789831  -0.000005765434059   0.000004014982132
Si    0.67887  14.25638   3.39437   0.000004540190453   0.000000848715813   0.000001378259244
Si    3.39437  14.25638   0.67887   0.000001379267489   0.000000847404854   0.000004539695554
Si    4.75212  12.89862   2.03662  -0.000003103444586   0.000002211647110  -0.000003492492790
Si    4.75212  15.61412   4.75212  -0.000000438137505   0.000000635166530  -0.000000429842787
Si    2.03662  12.89862   4.75212  -0.000003482989340   0.000002208043159  -0.000003097688687
Si    2.03662  15.61412   2.03662   0.000002693805162  -0.000006638781529   0.000002684239552
Si    0.67887  11.54087   6.10987   0.000004696304540  -0.000002386555601  -0.000001708066048
Si    3.39437  11.54087   8.82537  -0.000001177333037  -0.000007858405093  -0.000001145532823
Si    0.67887  14.25638   8.82537  -0.000001687206720   0.000003037752011  -0.000000897461650
Si    3.39437  14.25638   6.10987  -0.000004054167800   0.000005258311182   0.000002174662220
Si    4.75212  12.89862   7.46762   0.000001291105862   0.000003259532366   0.000006433765800
Si    4.75212  15.61412  10.18313  -0.000003331970283  -0.000003820459405   0.000000879552269
Si    2.03662  12.89862  10.18313  -0.000002212123391   0.000000577562683  -0.000003092215250
Si    2.03662  15.61412   7.46762  -0.000002803849798  -0.000001223533516  -0.000000101182069
Si    0.67887  11.54087  11.54087   0.000004552507811  -0.000003631295122  -0.000003632500254
Si    3.39437  11.54087  14.25638  -0.000004757238003   0.000006692418851  -0.000002435062048
Si    0.67887  14.25638  14.25638   0.000000519454198   0.000001641129327   0.000001644391347
Si    3.39437  14.25638  11.54087  -0.000004762693631  -0.000002432039035   0.000006693413082
Si    4.75212  12.89862  12.89862   0.000000018084786  -0.000001761160619  -0.000001764753162
Si    4.75212  15.61412  15.61412   0.000000292625564  -0.000001615142875  -0.000001616517917
Si    2.03662  12.89862  15.61412   0.000007187415561   0.000000515943889  -0.000000602591231
Si    2.03662  15.61412  12.89862   0.000007179707681  -0.000000609455195   0.000000516078343
Si    0.67887  11.54087  16.97187   0.000005125049515  -0.000004997683216  -0.000005524867048
Si    3.39437  11.54087  19.68737   0.000000133778959  -0.000003226442102  -0.000002242216114
Si    0.67887  14.25638  19.68737  -0.000002253159853   0.000005173689045   0.000006187614357
Si    3.39437  14.25638  16.97187   0.000001622606442   0.000003255849437   0.000000092959744
Si    4.75212  12.89862  18.32963  -0.000001073927174   0.000001568331433  -0.000000646423043
Si    4.75212  15.61412  21.04512   0.000000109955975  -0.000000300022944  -0.000003731005261
Si    2.03662  12.89862  21.04512  -0.000000453077108  -0.000003288521416   0.000002835746399
Si    2.03662  15.61412  18.32963  -0.000005010383612   0.000004495490331  -0.000000615376656
Si    0.67887  16.97187   0.67887  -0.000000465018941   0.000001535570112  -0.000000466746822
Si    3.39437  16.97187   3.39437   0.000000594155144  -0.000003535287064   0.000000600042727
Si    0.67887  19.68737   3.39437  -0.000001253025370  -0.000001213727196  -0.000004828776959
Si    3.39437  19.68737   0.67887  -0.000004824519045  -0.000001213749095  -0.000001249893204
Si    4.75212  18.32963   2.03662   0.000000710442176   0.000000649691202   0.000004144290128
Si    4.75212  21.04512   4.75212   0.000002615372769  -0.000003452233514   0.000002605072165
Si    2.03662  18.32963   4.75212   0.000004143414013   0.000000651448165   0.000000701831772
Si    2.03662  21.04512   2.03662  -0.000001574996843  -0.000000004051762  -0.000001562217187
Si    0.67887  16.97187   6.10987   0.000003735198738  -0.000000107954514   0.000000302255132
Si    3.39437  16.97187   8.82537   0.000000636186964   0.000001076938329  -0.000001558211337
Si    0.67887  19.68737   8.82537  -0.000002832000358   0.000000453336708   0.000003282246227
Si    3.39437  19.68737   6.10987   0.000000614796507   0.000005002517376  -0.000004499677850
Si    4.75212  18.32963   7.46762  -0.000000099216268  -0.000001630987648  -0.000003258305652
Si    4.75212  21.04512  10.18313   0.000005522470526  -0.000005124079057   0.000004994625549
Si    2.03662  18.32963  10.18313   0.000002236860233  -0.000000130313733   0.000003228312645
Si    2.03662  21.04512   7.46762  -0.000006180300381   0.000002239086019  -0.000005167308524
Si    0.67887  16.97187  11.54087   0.000005124056204  -0.000005522458617  -0.000004994650681
Si    3.39437  16.97187  14.25638   0.000001630922395   0.000000099205532   0.000003258298425
Si    0.67887  19.68737  14.25638  -0.000002239169116   0.000006180299854   0.000005167302473
Si    3.39437  19.68737  11.54087   0.000000130317821  -0.000002236811408  -0.000003228343964
Si    4.75212  18.32963  12.89862  -0.000001076931466  -0.000000636105058   0.000001558224718
Si    4.75212  21.04512  15.61412   0.000000107943550  -0.000003735069559  -0.000000302286013
Si    2.03662  18.32963  15.61412  -0.000005002595145  -0.000000614803975   0.000004499719667
Si    2.03662  21.04512  12.89862  -0.000000453349452   0.000002832005576  -0.000003282212970
Si    0.67887  16.97187  16.97187   0.000003452232686  -0.000002615318775  -0.000002605041002
Si    3.39437  16.97187  19.68737  -0.000000649716202  -0.000000710478282  -0.000004144302649
Si    0.67887  19.68737  19.68737   0.000000004048305   0.000001575028301   0.000001562197840
Si    3.39437  19.68737  16.97187  -0.000000651481220  -0.000004143330774  -0.000000701793726
Si    4.75212  18.32963  18.32963   0.000003535353764  -0.000000594163764  -0.000000599976153
Si    4.75212  21.04512  21.04512  -0.000001535566128   0.000000465034261   0.000000466701137
Si    2.03662  18.32963  21.04512   0.000001213724691   0.000004824544493   0.000001249848965
Si    2.03662  21.04512  18.32963   0.000001213760797   0.000001252974099   0.000004828718448
Si    6.10988   0.67888   0.67887   0.000006574855426  -0.000003879249607  -0.000003883713369
Si    8.82537   0.67888   3.39437  -0.000002139950588   0.000003010584493  -0.000000005270523
Si    6.10988   3.39438   3.39437   0.000004299477619   0.000000069640816   0.000000070251994
Si    8.82537   3.39438   0.67887  -0.000002134171870  -0.000000006585432   0.000003014891872
Si   10.18313   2.03662   2.03662   0.000005192100444  -0.000001870098594  -0.000001868885639
Si   10.18313   4.75212   4.75212   0.000007474124308  -0.000002299196965  -0.000002298806280
Si    7.46762   2.03662   4.75212  -0.000003080443313   0.000008983364095   0.000001799107052
Si    7.46762   4.75212   2.03662  -0.000003075035347   0.000001801209328   0.000008988039157
Si    6.10988   0.67888   6.10987   0.000001180371663   0.000001069276036   0.000001176256955
Si    8.82537   0.67888   8.82537   0.000000591007831   0.000000526220124   0.000000596643445
Si    6.10988   3.39438   8.82537   0.000002243611932   0.000005750491101   0.000004212420607
Si    8.82537   3.39438   6.10987   0.000004214153222   0.000005744691156   0.000002246780475
Si   10.18313   2.03662   7.46762  -0.000002428403120   0.000002006419048   0.000004851893771
Si   10.18313   4.75212  10.18313  -0.000003028997376  -0.000002452213422  -0.000003017714684
Si    7.46762   2.03662  10.18313   0.000004857507571   0.000002000183172  -0.000002432714103
Si    7.46762   4.75212   7.46762   0.000001757283683   0.000000162037262   0.000001753524858
Si    6.10988   0.67888  11.54087  -0.000001695865786   0.000004688466904  -0.000002388475322
Si    8.82537   0.67888  14.25638  -0.000000894492442  -0.000001687782220   0.000003040897144
Si    6.10988   3.39438  14.25638   0.000002169655120  -0.000004054306996   0.000005257528892
Si    8.82537   3.39438  11.54087  -0.000001146119334  -0.000001175220590  -0.000007856348131
Si   10.18313   2.03662  12.89862  -0.000003101178434  -0.000002199303988   0.000000562207365
Si   10.18313   4.75212  15.61412   0.000000876678225  -0.000003341577937  -0.000003805673804
Si    7.46762   2.03662  15.61412  -0.000000097467358  -0.000002804807302  -0.000001228411518
Si    7.46762   4.75212  12.89862   0.000006436210526   0.000001291452428   0.000003267989578
Si    6.10988   0.67888  16.97187   0.000000294773706   0.000003741874025  -0.000000110578996
Si    8.82537   0.67888  19.68737   0.000003287537464  -0.000002825843456   0.000000455099246
Si    6.10988   3.39438  19.68737  -0.000004495302373   0.000000604123244   0.000005005139807
Si    8.82537   3.39438  16.97187  -0.000001562559518   0.000000634350227   0.000001075713080
Si   10.18313   2.03662  18.32963   0.000003226556715   0.000002237121097  -0.000000141104356
Si   10.18313   4.75212  21.04512   0.000005002169532   0.000005518862602  -0.000005117678106
Si    7.46762   2.03662  21.04512  -0.000005164139073  -0.000006184413654   0.000002242695367
Si    7.46762   4.75212  18.32963  -0.000003257343180  -0.000000088512084  -0.000001623827472
Si    6.10988   6.10987   0.67887   0.000001169481556   0.000001169504167   0.000001074607591
Si    8.82537   6.10987   3.39437   0.000004219964877   0.000002241900458   0.000005740295041
Si    6.10988   8.82537   3.39437   0.000002241927766   0.000004219958260   0.000005740280774
Si    8.82537   8.82537   0.67887   0.000000602670491   0.000000602651832   0.000000532459422
Si   10.18313   7.46762   2.03662  -0.000002429888437   0.000004862061411   0.000001999084471
Si   10.18313  10.18313   4.75212  -0.000003026501024  -0.000003026587222  -0.000002459885758
Si    7.46762   7.46762   4.75212   0.000001746571299   0.000001746438809   0.000000164827155
Si    7.46762  10.18313   2.03662   0.000004862014202  -0.000002429901185   0.000001999062695
Si    6.10988   6.10987   6.10987   0.000002961703287   0.000002961716986   0.000002963062592
Si    8.82537   6.10987   8.82537  -0.000001789984109   0.000000807206951  -0.000001791747700
Si    6.10988   8.82537   8.82537   0.000000807286677  -0.000001790104970  -0.000001791667609
Si    8.82537   8.82537   6.10987  -0.000001788092019  -0.000001788165829   0.000000811725056
Si   10.18313   7.46762   7.46762  -0.000003344884390  -0.000000063519604  -0.000000061733980
Si   10.18313  10.18313  10.18313  -0.000003658706345  -0.000003658652203  -0.000003660454116
Si    7.46762   7.46762  10.18313  -0.000000058117247  -0.000000058061266  -0.000003348118760
Si    7.46762  10.18313   7.46762  -0.000000063448259  -0.000003344875745  -0.000000061657582
Si    6.10988   6.10987  11.54087   0.000004695768461   0.000004695730412   0.000000405266975
Si    8.82537   6.10987  14.25638   0.000000190221587   0.000000467329536   0.000003277480082
Si    6.10988   8.82537  14.25638   0.000000467368660   0.000000190219913   0.000003277437430
Si    8.82537   8.82537  11.54087   0.000003012066148   0.000003012093028   0.000000923324034
Si   10.18313   7.46762  12.89862  -0.000000336851117   0.000003662113209   0.000004568899852
Si   10.18313  10.18313  15.61412  -0.000000862989619  -0.000000862990004  -0.000000235318466
Si    7.46762   7.46762  15.61412   0.000000548489242   0.000000548442095   0.000003155436288
Si    7.46762  10.18313  12.89862   0.000003662102128  -0.000000336896808   0.000004568893430
Si    6.10988   6.10987  16.97187   0.000001635121801   0.000001635058421  -0.000000292072378
Si    8.82537   6.10987  19.68737  -0.000000532792383   0.000000615545667  -0.000007185313835
Si    6.10988   8.82537  19.68737   0.000000615561876  -0.000000532817039  -0.000007185245169
Si    8.82537   8.82537  16.97187   0.000001746503157   0.000001746519625  -0.000000010091594
Si   10.18313   7.46762  18.32963  -0.000006698042324   0.000002429938561   0.000004761012290
Si   10.18313  10.18313  21.04512   0.000003632599497   0.000003632637450  -0.000004560123007
Si    7.46762   7.46762  21.04512  -0.000001640764388  -0.000001640674245  -0.000000510790248
Si    7.46762  10.18313  18.32963   0.000002429963765  -0.000006698017315   0.000004760993926
Si    6.10988  11.54087   0.67887  -0.000001709838822  -0.000002389966986   0.000004698388607
Si    8.82537  11.54087   3.39437  -0.000001147688532  -0.000007860720630  -0.000001184267611
Si    6.10988  14.25638   3.39437   0.000002171935817   0.000005259427754  -0.000004056120439
Si    8.82537  14.25638   0.67887  -0.000000889703142   0.000003042380798  -0.000001688437375
Si   10.18313  12.89862   2.03662  -0.000003105516262   0.000000567548958  -0.000002198490639
Si   10.18313  15.61412   4.75212   0.000000863768136  -0.000003813731398  -0.000003340426371
Si    7.46762  12.89862   4.75212   0.000006448256528   0.000003272656349   0.000001295051981
Si    7.46762  15.61412   2.03662  -0.000000091260873  -0.000001233186330  -0.000002805257555
Si    6.10988  11.54087   6.10987   0.000004703869312   0.000000398705933   0.000004706254594
Si    8.82537  11.54087   8.82537   0.000003008922285   0.000000917685932   0.000003003327007
Si    6.10988  14.25638   8.82537   0.000000475896860   0.000003284381538   0.000000182799862
Si    8.82537  14.25638   6.10987   0.000000185700103   0.000003277774153   0.000000470892475
Si   10.18313  12.89862   7.46762  -0.000000332022018   0.000004567043399   0.000003665357349
Si   10.18313  15.61412  10.18313  -0.000000861985294  -0.000000231417253  -0.000000869817565
Si    7.46762  12.89862  10.18313   0.000003652715096   0.000004574901133  -0.000000335365477
Si    7.46762  15.61412   7.46762   0.000000547823505   0.000003162511330   0.000000548934221
Si    6.10988  11.54087  11.54087   0.000000231432797   0.000000861934648   0.000000869852866
Si    8.82537  11.54087  14.25638  -0.000004567031797   0.000000331997975  -0.000003665323259
Si    6.10988  14.25638  14.25638  -0.000003162502767  -0.000000547862919  -0.000000548873990
Si    8.82537  14.25638  11.54087  -0.000004574930219  -0.000003652692995   0.000000335413396
Si   10.18313  12.89862  12.89862  -0.000000917720974  -0.000003008947933  -0.000003003277737
Si   10.18313  15.61412  15.61412  -0.000000398674420  -0.000004703859719  -0.000004706186232
Si    7.46762  12.89862  15.61412  -0.000003277804712  -0.000000185757294  -0.000000470872457
Si    7.46762  15.61412  12.89862  -0.000003284340059  -0.000000475861318  -0.000000182772293
Si    6.10988  11.54087  16.97187   0.000003813758459  -0.000000863810669   0.000003340363095
Si    8.82537  11.54087  19.68737  -0.000000567521995   0.000003105477491   0.000002198436815
Si    6.10988  14.25638  19.68737   0.000001233236417   0.000000091295937   0.000002805212235
Si    8.82537  14.25638  16.97187  -0.000003272684006  -0.000006448265795  -0.000001295058911
Si   10.18313  12.89862  18.32963   0.000007860714388   0.000001147721460   0.000001184226120
Si   10.18313  15.61412  21.04512   0.000002389982180   0.000001709832964  -0.000004698374194
Si    7.46762  12.89862  21.04512  -0.000003042393741   0.000000889698444   0.000001688460687
Si    7.46762  15.61412  18.32963  -0.000005259455799  -0.000002171969099   0.000004056116053
Si    6.10988  16.97187   0.67887   0.000000300052952  -0.000000109941846   0.000003730980879
Si    8.82537  16.97187   3.39437  -0.000001568305364   0.000001073985666   0.000000646379649
Si    6.10988  19.68737   3.39437  -0.000004495524411   0.000005010411988   0.000000615347311
Si    8.82537  19.68737   0.67887   0.000003288519057   0.000000453116911  -0.000002835795857
Si   10.18313  18.32963   2.03662   0.000003226429867  -0.000000133770540   0.000002242160881
Si   10.18313  21.04512   4.75212   0.000004997706062  -0.000005125067818   0.000005524877793
Si    7.46762  18.32963   4.75212  -0.000003255836651  -0.000001622608010  -0.000000093018072
Si    7.46762  21.04512   2.03662  -0.000005173655898   0.000002253233285  -0.000006187641339
Si    6.10988  16.97187   6.10987   0.000001615033064  -0.000000292605856   0.000001616531126
Si    8.82537  16.97187   8.82537   0.000001761127214  -0.000000018078108   0.000001764834422
Si    6.10988  19.68737   8.82537   0.000000609454726  -0.000007179727787  -0.000000516074751
Si    8.82537  19.68737   6.10987  -0.000000515950225  -0.000007187422284   0.000000602580645
Si   10.18313  18.32963   7.46762  -0.000006692454682   0.000004757275560   0.000002435077528
Si   10.18313  21.04512  10.18313   0.000003631350035  -0.000004552491593   0.000003632529942
Si    7.46762  18.32963  10.18313   0.000002432004887   0.000004762656293  -0.000006693415998
Si    7.46762  21.04512   7.46762  -0.000001641145968  -0.000000519466097  -0.000001644441671
Si    6.10988  16.97187  11.54087   0.000003820493557   0.000003331934283  -0.000000879608575
Si    8.82537  16.97187  14.25638  -0.000003259524474  -0.000001291087322  -0.000006433781521
Si    6.10988  19.68737  14.25638   0.000001223579803   0.000002803915976   0.000000101116168
Si    8.82537  19.68737  11.54087  -0.000000577490796   0.000002212169658   0.000003092315559
Si   10.18313  18.32963  12.89862   0.000007858373591   0.000001177323224   0.000001145581498
Si   10.18313  21.04512  15.61412   0.000002386551193  -0.000004696276675   0.000001708029096
Si    7.46762  18.32963  15.61412  -0.000005258212642   0.000004054203643  -0.000002174628791
Si    7.46762  21.04512  12.89862  -0.000003037711903   0.000001687206072   0.000000897504228
Si    6.10988  16.97187  16.97187  -0.000000635136630   0.000000438175412   0.000000429850892
Si    8.82537  16.97187  19.68737  -0.000002211634911   0.000003103540429   0.000003492442875
Si    6.10988  19.68737  19.68737   0.000006638777380  -0.000002693761642  -0.000002684253015
Si    8.82537  19.68737  16.97187  -0.000002208082943   0.000003482960521   0.000003097731922
Si   10.18313  18.32963  18.32963   0.000005765404537  -0.000004011791804  -0.000004015020802
Si   10.18313  21.04512  21.04512  -0.000004589142332  -0.000001766735481  -0.000001764316786
Si    7.46762  18.32963  21.04512  -0.000000847387001  -0.000001379281184  -0.000004539726629
Si    7.46762  21.04512  18.32963  -0.000000848657012  -0.000004540187935  -0.000001378266813
Si   11.54087   0.67888   0.67887   0.000004589196760   0.000001766773287   0.000001764250805
Si   14.25638   0.67888   3.39437   0.000000848667861   0.000004540247208   0.000001378240772
Si   11.54087   3.39438   3.39437  -0.000005765418684   0.000004011741199   0.000004015056675
Si   14.25638   3.39438   0.67887   0.000000847398135   0.000001379233964   0.000004539740366
Si   15.61412   2.03662   2.03662  -0.000006638859103   0.000002693756382   0.000002684221945
Si   15.61412   4.75212   4.75212   0.000000635075563  -0.000000438207462  -0.000000429890631
Si   12.89862   2.03662   4.75212   0.000002208026802  -0.000003482964723  -0.000003097722594
Si   12.89862   4.75212   2.03662   0.000002211654934  -0.000003103533916  -0.000003492468426
Si   11.54087   0.67888   6.10987  -0.000002386530817   0.000004696379276  -0.000001708073017
Si   14.25638   0.67888   8.82537   0.000003037820684  -0.000001687188048  -0.000000897435709
Si   11.54087   3.39438   8.82537  -0.000007858381202  -0.000001177307983  -0.000001145582257
Si   14.25638   3.39438   6.10987   0.000005258201519  -0.000004054168901   0.000002174626888
Si   15.61412   2.03662   7.46762  -0.000001223590418  -0.000002803886855  -0.000000101165929
Si   15.61412   4.75212  10.18313  -0.000003820449353  -0.000003332028273   0.000000879580969
Si   12.89862   2.03662  10.18313   0.000000577526504  -0.000002212154241  -0.000003092241625
Si   12.89862   4.75212   7.46762   0.000003259539090   0.000001291043388   0.000006433722364
Si   11.54087   0.67888  11.54087  -0.000003631273513   0.000004552454133  -0.000003632538730
Si   14.25638   0.67888  14.25638   0.000001641134119   0.000000519424685   0.000001644466081
Si   11.54087   3.39438  14.25638   0.000006692374064  -0.000004757283012  -0.000002435049513
Si   14.25638   3.39438  11.54087  -0.000002431996996  -0.000004762703907   0.000006693380590
Si   15.61412   2.03662  12.89862  -0.000000609457029   0.000007179707792   0.000000516028691
Si   15.61412   4.75212  15.61412  -0.000001615064854   0.000000292658885  -0.000001616537639
Si   12.89862   2.03662  15.61412   0.000000515933632   0.000007187426646  -0.000000602531941
Si   12.89862   4.75212  12.89862  -0.000001761152171   0.000000018128189  -0.000001764773390
Si   11.54087   0.67888  16.97187  -0.000004997701365   0.000005125131260  -0.000005524880583
Si   14.25638   0.67888  19.68737   0.000005173657534  -0.000002253149500   0.000006187662221
Si   11.54087   3.39438  19.68737  -0.000003226410387   0.000000133759108  -0.000002242177388
Si   14.25638   3.39438  16.97187   0.000003255848839   0.000001622653025   0.000000093025062
Si   15.61412   2.03662  18.32963   0.000004495422505  -0.000005010351840  -0.000000615344021
Si   15.61412   4.75212  21.04512  -0.000000299989407   0.000000109947755  -0.000003731042926
Si   12.89862   2.03662  21.04512  -0.000003288455608  -0.000000453061839   0.000002835800504
Si   12.89862   4.75212  18.32963   0.000001568317759  -0.000001073963621  -0.000000646427837
Si   11.54087   6.10987   0.67887  -0.000002389974414  -0.000001709895815   0.000004698378960
Si   14.25638   6.10987   3.39437   0.000005259404175   0.000002171888486  -0.000004056067907
Si   11.54087   8.82537   3.39437  -0.000007860765026  -0.000001147750698  -0.000001184188509
Si   14.25638   8.82537   0.67887   0.000003042316645  -0.000000889742193  -0.000001688498545
Si   15.61412   7.46762   2.03662  -0.000001233210130  -0.000000091299218  -0.000002805232295
Si   15.61412  10.18313   4.75212  -0.000003813776894   0.000000863775896  -0.000003340365207
Si   12.89862   7.46762   4.75212   0.000003272657897   0.000006448240612   0.000001295061431
Si   12.89862  10.18313   2.03662   0.000000567506441  -0.000003105540264  -0.000002198490086
Si   11.54087   6.10987   6.10987   0.000000398628238   0.000004703832958   0.000004706180689
Si   14.25638   6.10987   8.82537   0.000003284291474   0.000000475837928   0.000000182786218
Si   11.54087   8.82537   8.82537   0.000000917762520   0.000003008927653   0.000003003309527
Si   14.25638   8.82537   6.10987   0.000003277800473   0.000000185730154   0.000000470896026
Si   15.61412   7.46762   7.46762   0.000003162476444   0.000000547860653   0.000000548884145
Si   15.61412  10.18313  10.18313  -0.000000231426024  -0.000000861988617  -0.000000869839161
Si   12.89862   7.46762  10.18313   0.000004574925309   0.000003652636566  -0.000000335411737
Si   12.89862  10.18313   7.46762   0.000004567008059  -0.000000332058783   0.000003665321402
Si   11.54087   6.10987  11.54087   0.000000861979575   0.000000231429366   0.000000869854342
Si   14.25638   6.10987  14.25638  -0.000000547869210  -0.000003162456970  -0.000000548897458
Si   11.54087   8.82537  14.25638   0.000000332050660  -0.000004567059910  -0.000003665279727
Si   14.25638   8.82537  11.54087  -0.000003652690275  -0.000004574964764   0.000000335444387
Si   15.61412   7.46762  12.89862  -0.000000475904568  -0.000003284338169  -0.000000182745471
Si   15.61412  10.18313  15.61412  -0.000004703815850  -0.000000398739539  -0.000004706230901
Si   12.89862   7.46762  15.61412  -0.000000185656693  -0.000003277809533  -0.000000470851670
Si   12.89862  10.18313  12.89862  -0.000003008905634  -0.000000917749045  -0.000003003311005
Si   11.54087   6.10987  16.97187  -0.000000863754777   0.000003813737990   0.000003340407859
Si   14.25638   6.10987  19.68737   0.000000091305398   0.000001233193760   0.000002805193542
Si   11.54087   8.82537  19.68737   0.000003105511602  -0.000000567569380   0.000002198451655
Si   14.25638   8.82537  16.97187  -0.000006448260158  -0.000003272766548  -0.000001295025237
Si   15.61412   7.46762  18.32963  -0.000002171957539  -0.000005259453809   0.000004056092327
Si   15.61412  10.18313  21.04512   0.000001709820588   0.000002389971471  -0.000004698405084
Si   12.89862   7.46762  21.04512   0.000000889733024  -0.000003042357020   0.000001688442107
Si   12.89862  10.18313  18.32963   0.000001147739812   0.000007860653502   0.000001184247216
Si   11.54087  11.54087   0.67887  -0.000003632595245  -0.000003632603234   0.000004560078721
Si   14.25638  11.54087   3.39437  -0.000002429942369   0.000006698054163  -0.000004761035674
Si   11.54087  14.25638   3.39437   0.000006698019187  -0.000002429951968  -0.000004761041935
Si   14.25638  14.25638   0.67887   0.000001640649544   0.000001640693267   0.000000510756836
Si   15.61412  12.89862   2.03662  -0.000000615520665   0.000000532771382   0.000007185317484
Si   15.61412  15.61412   4.75212  -0.000001635088073  -0.000001635087600   0.000000292035355
Si   12.89862  12.89862   4.75212  -0.000001746491570  -0.000001746535468   0.000000010053666
Si   12.89862  15.61412   2.03662   0.000000532778669  -0.000000615564088   0.000007185264375
Si   11.54087  11.54087   6.10987   0.000000862968380   0.000000862915041   0.000000235364986
Si   14.25638  11.54087   8.82537  -0.000003662051023   0.000000336812332  -0.000004569000221
Si   11.54087  14.25638   8.82537   0.000000336859906  -0.000003662081464  -0.000004568910250
Si   14.25638  14.25638   6.10987  -0.000000548482634  -0.000000548529912  -0.000003155429615
Si   15.61412  12.89862   7.46762  -0.000000467365784  -0.000000190300453  -0.000003277470967
Si   15.61412  15.61412  10.18313  -0.000004695783124  -0.000004695706526  -0.000000405223598
Si   12.89862  12.89862  10.18313  -0.000003012112418  -0.000003012071915  -0.000000923290672
Si   12.89862  15.61412   7.46762  -0.000000190281993  -0.000000467363532  -0.000003277434590
Si   11.54087  11.54087  11.54087   0.000003658632236   0.000003658669954   0.000003660528986
Si   14.25638  11.54087  14.25638   0.000000063436400   0.000003344861224   0.000000061730761
Si   11.54087  14.25638  14.25638   0.000003344840657   0.000000063448080   0.000000061701137
Si   14.25638  14.25638  11.54087   0.000000058070439   0.000000058114159   0.000003348124907
Si   15.61412  12.89862  12.89862  -0.000000807269083   0.000001790017746   0.000001791769433
Si   15.61412  15.61412  15.61412  -0.000002961712972  -0.000002961658971  -0.000002963067273
Si   12.89862  12.89862  15.61412   0.000001788101346   0.000001788112517  -0.000000811708478
Si   12.89862  15.61412  12.89862   0.000001790074120  -0.000000807208054   0.000001791683434
Si   11.54087  11.54087  16.97187   0.000003026509344   0.000003026501819   0.000002459852693
Si   14.25638  11.54087  19.68737  -0.000004862040668   0.000002429891789  -0.000001999072522
Si   11.54087  14.25638  19.68737   0.000002429885531  -0.000004861978990  -0.000001999081674
Si   14.25638  14.25638  16.97187  -0.000001746504823  -0.000001746497198  -0.000000164873895
Si   15.61412  12.89862  18.32963  -0.000002241943873  -0.000004219976902  -0.000005740259621
Si   15.61412  15.61412  21.04512  -0.000001169547406  -0.000001169504956  -0.000001074619771
Si   12.89862  12.89862  21.04512  -0.000000602667706  -0.000000602639525  -0.000000532424840
Si   12.89862  15.61412  18.32963  -0.000004220041313  -0.000002241861358  -0.000005740297702
Si   11.54087  16.97187   0.67887  -0.000005002131663  -0.000005518893459   0.000005117707876
Si   14.25638  16.97187   3.39437   0.000003257399866   0.000000088517803   0.000001623777618
Si   11.54087  19.68737   3.39437  -0.000003226592219  -0.000002237077784   0.000000141053508
Si   14.25638  19.68737   0.67887   0.000005164156855   0.000006184489030  -0.000002242729489
Si   15.61412  18.32963   2.03662   0.000004495374625  -0.000000604129610  -0.000005005177253
Si   15.61412  21.04512   4.75212  -0.000000294801602  -0.000003741846018   0.000000110562763
Si   12.89862  18.32963   4.75212   0.000001562583524  -0.000000634320704  -0.000001075702703
Si   12.89862  21.04512   2.03662  -0.000003287516831   0.000002825925105  -0.000000455115388
Si   11.54087  16.97187   6.10987  -0.000000876747830   0.000003341598055   0.000003805669754
Si   14.25638  16.97187   8.82537  -0.000006436209064  -0.000001291447215  -0.000003267956266
Si   11.54087  19.68737   8.82537   0.000003101137821   0.000002199379136  -0.000000562166137
Si   14.25638  19.68737   6.10987   0.000000097424419   0.000002804833518   0.000001228436377
Si   15.61412  18.32963   7.46762  -0.000002169601581   0.000004054287120  -0.000005257537565
Si   15.61412  21.04512  10.18313   0.000001695857374  -0.000004688398075   0.000002388510251
Si   12.89862  18.32963  10.18313   0.000001146142430   0.000001175266309   0.000007856388364
Si   12.89862  21.04512   7.46762   0.000000894444447   0.000001687797622  -0.000003040898807
Si   11.54087  16.97187  11.54087   0.000003028957522   0.000002452230946   0.000003017691587
Si   14.25638  16.97187  14.25638  -0.000001757193413  -0.000000161995225  -0.000001753506275
Si   11.54087  19.68737  14.25638   0.000002428405638  -0.000002006340085  -0.000004851914103
Si   14.25638  19.68737  11.54087  -0.000004857540378  -0.000002000130595   0.000002432718852
Si   15.61412  18.32963  12.89862  -0.000002243602328  -0.000005750409653  -0.000004212402517
Si   15.61412  21.04512  15.61412  -0.000001180380974  -0.000001069284141  -0.000001176321071
Si   12.89862  18.32963  15.61412  -0.000004214113903  -0.000005744669154  -0.000002246794475
Si   12.89862  21.04512  12.89862  -0.000000591009918  -0.000000526263795  -0.000000596708289
Si   11.54087  16.97187  16.97187  -0.000007474071087   0.000002299176785   0.000002298832053
Si   14.25638  16.97187  19.68737   0.000003075006677  -0.000001801256007  -0.000008987986948
Si   11.54087  19.68737  19.68737  -0.000005192113292   0.000001870175106   0.000001868893903
Si   14.25638  19.68737  16.97187   0.000003080470388  -0.000008983361895  -0.000001799115977
Si   15.61412  18.32963  18.32963  -0.000004299456050  -0.000000069616911  -0.000000070309923
Si   15.61412  21.04512  21.04512  -0.000006574819849   0.000003879302330   0.000003883763766
Si   12.89862  18.32963  21.04512   0.000002134175462   0.000000006571167  -0.000003014919358
Si   12.89862  21.04512  18.32963   0.000002139986388  -0.000003010523180   0.000000005280235
Si   16.97187   0.67888   0.67887   0.000001535525130  -0.000000465049994  -0.000000466710755
Si   19.68737   0.67888   3.39437  -0.000001213732107  -0.000001252998952  -0.000004828735984
Si   16.97187   3.39438   3.39437  -0.000003535403012   0.000000594167945   0.000000599977627
Si   19.68737   3.39438   0.67887  -0.000001213713080  -0.000004824496581  -0.000001249904344
Si   21.04512   2.03662   2.03662  -0.000000004057468  -0.000001574985645  -0.000001562218017
Si   21.04512   4.75212   4.75212  -0.000003452263414   0.000002615335453   0.000002605061708
Si   18.32963   2.03662   4.75212   0.000000651473509   0.000004143322348   0.000000701857482
Si   18.32963   4.75212   2.03662   0.000000649674524   0.000000710449036   0.000004144228719
Si   16.97187   0.67888   6.10987  -0.000000107954016   0.000003735207132   0.000000302249568
Si   19.68737   0.67888   8.82537   0.000000453333656  -0.000002831970908   0.000003282191938
Si   16.97187   3.39438   8.82537   0.000001076923933   0.000000636126305  -0.000001558094472
Si   19.68737   3.39438   6.10987   0.000005002541022   0.000000614765729  -0.000004499691137
Si   21.04512   2.03662   7.46762   0.000002239046356  -0.000006180276207  -0.000005167235954
Si   21.04512   4.75212  10.18313  -0.000005124079527   0.000005522445855   0.000004994670059
Si   18.32963   2.03662  10.18313  -0.000000130311942   0.000002236842474   0.000003228389280
Si   18.32963   4.75212   7.46762  -0.000001630988332  -0.000000099240928  -0.000003258317849
Si   16.97187   0.67888  11.54087  -0.000005522521485   0.000005124108990  -0.000004994678808
Si   19.68737   0.67888  14.25638   0.000006180361195  -0.000002239100593   0.000005167244679
Si   16.97187   3.39438  14.25638   0.000000099202018   0.000001631003490   0.000003258307962
Si   19.68737   3.39438  11.54087  -0.000002236896282   0.000000130300725  -0.000003228338536
Si   21.04512   2.03662  12.89862   0.000002831979053  -0.000000453354683  -0.000003282202434
Si   21.04512   4.75212  15.61412  -0.000003735149662   0.000000107970662  -0.000000302270639
Si   18.32963   2.03662  15.61412  -0.000000614811623  -0.000005002546961   0.000004499662850
Si   18.32963   4.75212  12.89862  -0.000000636162109  -0.000001077046254   0.000001558119464
Si   16.97187   0.67888  16.97187  -0.000002615339289   0.000003452265333  -0.000002605073892
Si   19.68737   0.67888  19.68737   0.000001574995720   0.000000004061553   0.000001562264568
Si   16.97187   3.39438  19.68737  -0.000000710554260  -0.000000649656279  -0.000004144248287
Si   19.68737   3.39438  16.97187  -0.000004143358464  -0.000000651447939  -0.000000701796601
Si   21.04512   2.03662  18.32963   0.000001253024034   0.000001213740186   0.000004828778153
Si   21.04512   4.75212  21.04512   0.000000465021258  -0.000001535537997   0.000000466721469
Si   18.32963   2.03662  21.04512   0.000004824508692   0.000001213727263   0.000001249837318
Si   18.32963   4.75212  18.32963  -0.000000594214952   0.000003535317181  -0.000000600014637
Si   16.97187   6.10987   0.67887  -0.000000109928575   0.000000299975404   0.000003730969229
Si   19.68737   6.10987   3.39437   0.000005010441117  -0.000004495495313   0.000000615331166
Si   16.97187   8.82537   3.39437   0.000001073951824  -0.000001568310989   0.000000646414169
Si   19.68737   8.82537   0.67887   0.000000453061963   0.000003288403704  -0.000002835809121
Si   21.04512   7.46762   2.03662   0.000002253188641  -0.000005173707872  -0.000006187654120
Si   21.04512  10.18313   4.75212  -0.000005125120515   0.000004997687369   0.000005524903179
Si   18.32963   7.46762   4.75212  -0.000001622619185  -0.000003255818497  -0.000000093020783
Si   18.32963  10.18313   2.03662  -0.000000133722258   0.000003226428675   0.000002242174646
Si   16.97187   6.10987   6.10987  -0.000000292622811   0.000001615092378   0.000001616552032
Si   19.68737   6.10987   8.82537  -0.000007179680057   0.000000609449559  -0.000000515986185
Si   16.97187   8.82537   8.82537  -0.000000018142623   0.000001761133849   0.000001764824207
Si   19.68737   8.82537   6.10987  -0.000007187430246  -0.000000515901593   0.000000602571077
Si   21.04512   7.46762   7.46762  -0.000000519466860  -0.000001641183395  -0.000001644449046
Si   21.04512  10.18313  10.18313  -0.000004552443301   0.000003631281195   0.000003632532235
Si   18.32963   7.46762  10.18313   0.000004762676585   0.000002431953157  -0.000006693345378
Si   18.32963  10.18313   7.46762   0.000004757265264  -0.000006692467501   0.000002435026652
Si   16.97187   6.10987  11.54087   0.000003331953135   0.000003820375200  -0.000000879608533
Si   19.68737   6.10987  14.25638   0.000002803882366   0.000001223537297   0.000000101167498
Si   16.97187   8.82537  14.25638  -0.000001291134296  -0.000003259538237  -0.000006433720052
Si   19.68737   8.82537  11.54087   0.000002212184306  -0.000000577577901   0.000003092295558
Si   21.04512   7.46762  12.89862   0.000001687181888  -0.000003037792348   0.000000897478382
Si   21.04512  10.18313  15.61412  -0.000004696348689   0.000002386590221   0.000001708071795
Si   18.32963   7.46762  15.61412   0.000004054137099  -0.000005258246883  -0.000002174601124
Si   18.32963  10.18313  12.89862   0.000001177335618   0.000007858427746   0.000001145632925
Si   16.97187   6.10987  16.97187   0.000000438076892  -0.000000635120511   0.000000429815626
Si   19.68737   6.10987  19.68737  -0.000002693817947   0.000006638796295  -0.000002684203438
Si   16.97187   8.82537  19.68737   0.000003103509647  -0.000002211731127   0.000003492373097
Si   19.68737   8.82537  16.97187   0.000003482975271  -0.000002208018126   0.000003097717185
Si   21.04512   7.46762  18.32963  -0.000004540202259  -0.000000848680767  -0.000001378188777
Si   21.04512  10.18313  21.04512  -0.000001766726022  -0.000004589158422  -0.000001764324891
Si   18.32963   7.46762  21.04512  -0.000001379231013  -0.000000847424577  -0.000004539729856
Si   18.32963  10.18313  18.32963  -0.000004011803696   0.000005765378816  -0.000004015063556
Si   16.97187  11.54087   0.67887  -0.000005518947743  -0.000005002119568   0.000005117694472
Si   19.68737  11.54087   3.39437  -0.000002237126152  -0.000003226578633   0.000000141086324
Si   16.97187  14.25638   3.39437   0.000000088505558   0.000003257333731   0.000001623772588
Si   19.68737  14.25638   0.67887   0.000006184403544   0.000005164162493  -0.000002242746784
Si   21.04512  12.89862   2.03662   0.000002825864591  -0.000003287565073  -0.000000455104938
Si   21.04512  15.61412   4.75212  -0.000003741842449  -0.000000294753503   0.000000110551416
Si   18.32963  12.89862   4.75212  -0.000000634358765   0.000001562567261  -0.000001075699650
Si   18.32963  15.61412   2.03662  -0.000000604149502   0.000004495403721  -0.000005005152276
Si   16.97187  11.54087   6.10987   0.000003341577744  -0.000000876753451   0.000003805648739
Si   19.68737  11.54087   8.82537   0.000002199321653   0.000003101132229  -0.000000562215833
Si   16.97187  14.25638   8.82537  -0.000001291488996  -0.000006436233231  -0.000003267972242
Si   19.68737  14.25638   6.10987   0.000002804811011   0.000000097424118   0.000001228399302
Si   21.04512  12.89862   7.46762   0.000001687802167   0.000000894471946  -0.000003040885193
Si   21.04512  15.61412  10.18313  -0.000004688432031   0.000001695871095   0.000002388519291
Si   18.32963  12.89862  10.18313   0.000001175270492   0.000001146106085   0.000007856338873
Si   18.32963  15.61412   7.46762   0.000004054288835  -0.000002169608013  -0.000005257581256
Si   16.97187  11.54087  11.54087   0.000002452175476   0.000003028950620   0.000003017690366
Si   19.68737  11.54087  14.25638  -0.000002006367274   0.000002428362696  -0.000004851890357
Si   16.97187  14.25638  14.25638  -0.000000162026913  -0.000001757164145  -0.000001753517767
Si   19.68737  14.25638  11.54087  -0.000002000123837  -0.000004857445262   0.000002432746474
Si   21.04512  12.89862  12.89862  -0.000000526205267  -0.000000590950938  -0.000000596630580
Si   21.04512  15.61412  15.61412  -0.000001069303411  -0.000001180344630  -0.000001176290659
Si   18.32963  12.89862  15.61412  -0.000005744585831  -0.000004214103623  -0.000002246754663
Si   18.32963  15.61412  12.89862  -0.000005750461215  -0.000002243613916  -0.000004212361067
Si   16.97187  11.54087  16.97187   0.000002299177241  -0.000007474154263   0.000002298789970
Si   19.68737  11.54087  19.68737   0.000001870145240  -0.000005192121374   0.000001868892420
Si   16.97187  14.25638  19.68737  -0.000001801244845   0.000003075047660  -0.000008988041080
Si   19.68737  14.25638  16.97187  -0.000008983368052   0.000003080470566  -0.000001799192239
Si   21.04512  12.89862  18.32963  -0.000003010564697   0.000002139937686   0.000000005245439
Si   21.04512  15.61412  21.04512   0.000003879282388  -0.000006574772289   0.000003883665682
Si   18.32963  12.89862  21.04512   0.000000006619025   0.000002134190091  -0.000003014887601
Si   18.32963  15.61412  18.32963  -0.000000069584576  -0.000004299400440  -0.000000070301138
Si   16.97187  16.97187   0.67887  -0.000002607011092  -0.000002606960722   0.000003464482885
Si   19.68737  16.97187   3.39437  -0.000004149228860  -0.000000696105797  -0.000000658610621
Si   16.97187  19.68737   3.39437  -0.000000696138731  -0.000004149191718  -0.000000658627261
Si   19.68737  19.68737   0.67887   0.000001560469637   0.000001560488307   0.000000008256603
Si   21.04512  18.32963   2.03662   0.000001247339414   0.000004818957722   0.000001210032405
Si   21.04512  21.04512   4.75212   0.000000480243326   0.000000480312579  -0.000001530474839
Si   18.32963  18.32963   4.75212  -0.000000597300920  -0.000000597303143   0.000003536505638
Si   18.32963  21.04512   2.03662   0.000004818935783   0.000001247323247   0.000001210019336
Si   16.97187  16.97187   6.10987   0.000000438547462   0.000000438546665  -0.000000624124930
Si   19.68737  16.97187   8.82537   0.000003493706851   0.000003103300621  -0.000002216999367
Si   16.97187  19.68737   8.82537   0.000003103334834   0.000003493771415  -0.000002217011232
Si   19.68737  19.68737   6.10987  -0.000002688319654  -0.000002688212948   0.000006644895965
Si   21.04512  18.32963   7.46762  -0.000004542291426  -0.000001378976761  -0.000000848699043
Si   21.04512  21.04512  10.18313  -0.000001773585811  -0.000001773576550  -0.000004589267249
Si   18.32963  18.32963  10.18313  -0.000004014490727  -0.000004014399971   0.000005766557313
Si   18.32963  21.04512   7.46762  -0.000001378993649  -0.000004542266878  -0.000000848705953
Si   16.97187  16.97187  11.54087   0.000002301431644   0.000002301551463  -0.000007467460888
Si   19.68737  16.97187  14.25638  -0.000008992304633  -0.000001799731736   0.000003068070254
Si   16.97187  19.68737  14.25638  -0.000001799770503  -0.000008992300017   0.000003068075680
Si   19.68737  19.68737  11.54087   0.000001858916661   0.000001858988496  -0.000005185729160
Si   21.04512  18.32963  12.89862  -0.000003014263331   0.000000014724348   0.000002137478372
Si   21.04512  21.04512  15.61412   0.000003885446956   0.000003885424293  -0.000006583514680
Si   18.32963  18.32963  15.61412  -0.000000077415841  -0.000000077407843  -0.000004295570964
Si   18.32963  21.04512  12.89862   0.000000014694578  -0.000003014243567   0.000002137390234
Si   16.97187  16.97187  16.97187   0.000001386639235   0.000001386628198   0.000001396120123
Si   19.68737  16.97187  19.68737   0.000004995984693  -0.000006174498597   0.000004988073783
Si   16.97187  19.68737  19.68737  -0.000006174473887   0.000004996041791   0.000004988099411
Si   19.68737  19.68737  16.97187   0.000005003900085   0.000005003790687  -0.000006163769012
Si   21.04512  18.32963  18.32963  -0.000008739339304   0.000000301267554   0.000000300123708
Si   21.04512  21.04512  21.04512  -0.000000287822677  -0.000000287794213  -0.000000281675425
Si   18.32963  18.32963  21.04512   0.000000303992305   0.000000304056782  -0.000008743736118
Si   18.32963  21.04512  18.32963   0.000000301244051  -0.000008739373518   0.000000300203816
