216 

Si    0.67888   0.67888   0.67888   0.000008999695343   0.000008999675121   0.000008981257891
Si    3.39437   0.67888   3.39437  -0.000008999694053   0.000008999720859  -0.000008981271899
Si    0.67888   3.39437   3.39437   0.000008999701068  -0.000008999680037  -0.000008981254760
Si    3.39437   3.39437   0.67888  -0.000008999708460  -0.000008999688102   0.000008981275402
Si    4.75213   2.03662   2.03662   0.000007115130507   0.000000000008799  -0.000000000003161
Si    4.75213   4.75213   4.75213   0.000008153976660   0.000008153963386   0.000008157455383
Si    2.03662   2.03662   4.75213  -0.000000000001872  -0.000000000000867   0.000007121919123
Si    2.03662   4.75213   2.03662   0.000000000017224   0.000007115137575  -0.000000000005293
Si    0.67888   0.67888   6.10987   0.000002866715945   0.000002866714942   0.000000874886296
Si    3.39437   0.67888   8.82538  -0.000008153979817   0.000008153965652   0.000008157492798
Si    0.67888   3.39437   8.82538   0.000008153980045  -0.000008153975559   0.000008157477638
Si    3.39437   3.39437   6.10987  -0.000002866713559  -0.000002866743869   0.000000874854100
Si    4.75213   2.03662   7.46762   0.000002884634210   0.000000879937520  -0.000002880211302
Si    4.75213   4.75213  10.18313   0.000002866724653   0.000002866729982  -0.000000874852855
Si    2.03662   2.03662  10.18313   0.000000000005327   0.000000000010181  -0.000000000003372
Si    2.03662   4.75213   7.46762   0.000000879946296   0.000002884656531  -0.000002880211035
Si    0.67888   0.67888  11.54087   0.000008153955408   0.000008153964274  -0.000008157495508
Si    3.39437   0.67888  14.25638  -0.000002866729359   0.000002866722557  -0.000000874855594
Si    0.67888   3.39437  14.25638   0.000002866752668  -0.000002866712214  -0.000000874896762
Si    3.39437   3.39437  11.54087  -0.000008153970309  -0.000008153980872  -0.000008157477845
Si    4.75213   2.03662  12.89863   0.000002884660970  -0.000000879944980   0.000002880156896
Si    4.75213   4.75213  15.61412   0.000008999699962   0.000008999694035  -0.000008981245301
Si    2.03662   2.03662  15.61412  -0.000000000007215   0.000000000019619  -0.000007121911292
Si    2.03662   4.75213  12.89863  -0.000000879950967   0.000002884652614   0.000002880227874
Si    0.67888   6.10987   0.67888   0.000002884620226   0.000000879940134   0.000002880204935
Si    3.39437   6.10987   3.39437  -0.000002884649819   0.000000879934180  -0.000002880225219
Si    0.67888   8.82538   3.39437   0.000008153981568   0.000008153969455  -0.000008157479445
Si    3.39437   8.82538   0.67888  -0.000008153988253   0.000008153971067   0.000008157467553
Si    4.75213   7.46762   2.03662   0.000002866733931  -0.000002866746389   0.000000874871185
Si    4.75213  10.18313   4.75213   0.000002884614511  -0.000000879945479   0.000002880208195
Si    2.03662   7.46762   4.75213   0.000000879922750  -0.000002884637679   0.000002880187804
Si    2.03662  10.18313   2.03662   0.000000000001054   0.000000000002723   0.000000000011882
Si    0.67888   6.10987   6.10987   0.000007115147523  -0.000000000009799   0.000000000004415
Si    3.39437   6.10987   8.82538  -0.000002884654894  -0.000000879959613   0.000002880246631
Si    0.67888   8.82538   8.82538   0.000008999705393   0.000008999689469   0.000008981285987
Si    3.39437   8.82538   6.10987  -0.000002866718440   0.000002866744636  -0.000000874859280
Si    4.75213   7.46762   7.46762   0.000008153976990  -0.000008153970921  -0.000008157486396
Si    4.75213  10.18313  10.18313   0.000007115135825  -0.000000000011576  -0.000000000006957
Si    2.03662   7.46762  10.18313  -0.000000000015673  -0.000007115140882   0.000000000000818
Si    2.03662  10.18313   7.46762   0.000000000015609  -0.000000000012382  -0.000007121916364
Si    0.67888   6.10987  11.54087   0.000002884661562  -0.000000879943765  -0.000002880216777
Si    3.39437   6.10987  14.25638  -0.000007115144300  -0.000000000007272  -0.000000000030843
Si    0.67888   8.82538  14.25638   0.000002866751843   0.000002866727980   0.000000874853444
Si    3.39437   8.82538  11.54087  -0.000008999693534   0.000008999682691  -0.000008981275031
Si    4.75213   7.46762  12.89863   0.000008999685157  -0.000008999698926   0.000008981250403
Si    4.75213  10.18313  15.61412   0.000002884648704   0.000000879955386  -0.000002880221889
Si    2.03662   7.46762  15.61412  -0.000000879942928  -0.000002884632980  -0.000002880215837
Si    2.03662  10.18313  12.89863  -0.000000000016738  -0.000000000007871   0.000007121910356
Si    0.67888  11.54087   0.67888   0.000008153981138  -0.000008153971502   0.000008157485192
Si    3.39437  11.54087   3.39437  -0.000008154010405  -0.000008153963019  -0.000008157438518
Si    0.67888  14.25638   3.39437   0.000002884672217  -0.000000879954751  -0.000002880200943
Si    3.39437  14.25638   0.67888  -0.000002884651255  -0.000000879955119   0.000002880198981
Si    4.75213  12.89863   2.03662   0.000002866735386   0.000002866742792  -0.000000874864513
Si    4.75213  15.61412   4.75213   0.000008999704893  -0.000008999697406   0.000008981269595
Si    2.03662  12.89863   4.75213  -0.000000879930599   0.000002884663330   0.000002880176347
Si    2.03662  15.61412   2.03662  -0.000000000000114  -0.000007115155995  -0.000000000024506
Si    0.67888  11.54087   6.10987   0.000002866732522  -0.000002866741451  -0.000000874872905
Si    3.39437  11.54087   8.82538  -0.000008999710898  -0.000008999711764   0.000008981276812
Si    0.67888  14.25638   8.82538   0.000002884660048   0.000000879938075   0.000002880207392
Si    3.39437  14.25638   6.10987  -0.000007115152401   0.000000000006127  -0.000000000018188
Si    4.75213  12.89863   7.46762   0.000008999718092   0.000008999706130  -0.000008981244702
Si    4.75213  15.61412  10.18313   0.000002866707980  -0.000002866731844   0.000000874871635
Si    2.03662  12.89863  10.18313  -0.000000000015073   0.000007115146484   0.000000000004598
Si    2.03662  15.61412   7.46762  -0.000000879943794  -0.000002884647953  -0.000002880196148
Si    0.67888  11.54087  11.54087   0.000008999697108  -0.000008999680898  -0.000008981261885
Si    3.39437  11.54087  14.25638  -0.000002866726823  -0.000002866722435   0.000000874871363
Si    0.67888  14.25638  14.25638   0.000007115132794  -0.000000000006061  -0.000000000000435
Si    3.39437  14.25638  11.54087  -0.000002884656773   0.000000879955238  -0.000002880204831
Si    4.75213  12.89863  12.89863   0.000008153977025   0.000008153990577   0.000008157476476
Si    4.75213  15.61412  15.61412   0.000008153979642  -0.000008153994616  -0.000008157486608
Si    2.03662  12.89863  15.61412   0.000000879953744   0.000002884633830  -0.000002880199536
Si    2.03662  15.61412  12.89863   0.000000879943725  -0.000002884645271   0.000002880195810
Si    6.10987   0.67888   0.67888   0.000000879976347   0.000002884643218   0.000002880200518
Si    8.82538   0.67888   3.39437   0.000008153982028   0.000008153966179  -0.000008157479582
Si    6.10987   3.39437   3.39437   0.000000879952889  -0.000002884659034  -0.000002880190681
Si    8.82538   3.39437   0.67888   0.000008153979219  -0.000008153967078   0.000008157488913
Si   10.18313   2.03662   2.03662  -0.000000000008946  -0.000000000010489   0.000000000005560
Si   10.18313   4.75213   4.75213  -0.000000879928810   0.000002884649225   0.000002880223872
Si    7.46762   2.03662   4.75213  -0.000002884665791   0.000000879962467   0.000002880210006
Si    7.46762   4.75213   2.03662  -0.000002866744844   0.000002866714276   0.000000874870807
Si    6.10987   0.67888   6.10987  -0.000000000003560   0.000007115140969  -0.000000000005895
Si    8.82538   0.67888   8.82538   0.000008999691222   0.000008999705811   0.000008981280311
Si    6.10987   3.39437   8.82538  -0.000000879933946  -0.000002884643735   0.000002880210400
Si    8.82538   3.39437   6.10987   0.000002866736200  -0.000002866729616  -0.000000874873833
Si   10.18313   2.03662   7.46762   0.000000000019272   0.000000000027007  -0.000007121926927
Si   10.18313   4.75213  10.18313   0.000000000003833   0.000007115113854  -0.000000000016271
Si    7.46762   2.03662  10.18313  -0.000007115136273   0.000000000004821   0.000000000021145
Si    7.46762   4.75213   7.46762  -0.000008153998385   0.000008153969982  -0.000008157469933
Si    6.10987   0.67888  11.54087  -0.000000879960641   0.000002884667529  -0.000002880213449
Si    8.82538   0.67888  14.25638   0.000002866721865   0.000002866767298   0.000000874879989
Si    6.10987   3.39437  14.25638   0.000000000018491  -0.000007115111525  -0.000000000007000
Si    8.82538   3.39437  11.54087   0.000008999672274  -0.000008999708752  -0.000008981237212
Si   10.18313   2.03662  12.89863  -0.000000000020972   0.000000000026848   0.000007121899512
Si   10.18313   4.75213  15.61412   0.000000879949816   0.000002884638495  -0.000002880206154
Si    7.46762   2.03662  15.61412  -0.000002884654588  -0.000000879961667  -0.000002880218252
Si    7.46762   4.75213  12.89863  -0.000008999699169   0.000008999675647   0.000008981254107
Si    6.10987   6.10987   0.67888   0.000000000000838  -0.000000000006024   0.000007121919006
Si    8.82538   6.10987   3.39437   0.000002884627874  -0.000000879952629  -0.000002880200068
Si    6.10987   8.82538   3.39437  -0.000000879942528   0.000002884648131  -0.000002880207819
Si    8.82538   8.82538   0.67888   0.000008999699952   0.000008999690229   0.000008981261948
Si   10.18313   7.46762   2.03662   0.000000000018494  -0.000007115124566   0.000000000004824
Si   10.18313  10.18313   4.75213  -0.000000000002658   0.000000000002849   0.000007121896757
Si    7.46762   7.46762   4.75213  -0.000008153984936  -0.000008153975488   0.000008157447638
Si    7.46762  10.18313   2.03662  -0.000007115120576   0.000000000020947   0.000000000017170
Si    6.10987   6.10987   6.10987   0.000000000002832  -0.000000000022284  -0.000000000007813
Si    8.82538   6.10987   8.82538   0.000002884656586   0.000000879916737   0.000002880204382
Si    6.10987   8.82538   8.82538   0.000000879933750   0.000002884655020   0.000002880186424
Si    8.82538   8.82538   6.10987   0.000002866742604   0.000002866725441   0.000000874860898
Si   10.18313   7.46762   7.46762  -0.000000879934530  -0.000002884645602  -0.000002880217608
Si   10.18313  10.18313  10.18313   0.000000000009884   0.000000000029913  -0.000000000028253
Si    7.46762   7.46762  10.18313  -0.000002866715326  -0.000002866726168  -0.000000874862879
Si    7.46762  10.18313   7.46762  -0.000002884651467  -0.000000879930694  -0.000002880200244
Si    6.10987   6.10987  11.54087  -0.000000000015359  -0.000000000020338  -0.000007121898879
Si    8.82538   6.10987  14.25638   0.000007115131037  -0.000000000008335   0.000000000002867
Si    6.10987   8.82538  14.25638  -0.000000000016830   0.000007115138592   0.000000000019194
Si    8.82538   8.82538  11.54087   0.000008153982828   0.000008153964232  -0.000008157447693
Si   10.18313   7.46762  12.89863   0.000000879941043  -0.000002884667732   0.000002880192876
Si   10.18313  10.18313  15.61412   0.000000000006572   0.000000000003679  -0.000007121917698
Si    7.46762   7.46762  15.61412  -0.000008999705554  -0.000008999713851  -0.000008981270812
Si    7.46762  10.18313  12.89863  -0.000002884651934   0.000000879963143   0.000002880201798
Si    6.10987  11.54087   0.67888  -0.000000879925213  -0.000002884615461   0.000002880200488
Si    8.82538  11.54087   3.39437   0.000008999704109  -0.000008999679219  -0.000008981261062
Si    6.10987  14.25638   3.39437   0.000000000009293  -0.000000000020149  -0.000007121920312
Si    8.82538  14.25638   0.67888   0.000002884642365   0.000000879969720   0.000002880225601
Si   10.18313  12.89863   2.03662  -0.000000000024998   0.000007115140483  -0.000000000011468
Si   10.18313  15.61412   4.75213   0.000000879937504  -0.000002884644634   0.000002880214974
Si    7.46762  12.89863   4.75213  -0.000008999701905   0.000008999692481   0.000008981238516
Si    7.46762  15.61412   2.03662  -0.000002866717142  -0.000002866750159  -0.000000874864651
Si    6.10987  11.54087   6.10987   0.000000000005663  -0.000007115132325  -0.000000000002824
Si    8.82538  11.54087   8.82538   0.000008153980475  -0.000008153946792   0.000008157464368
Si    6.10987  14.25638   8.82538   0.000000000008824  -0.000000000015315   0.000007121926074
Si    8.82538  14.25638   6.10987   0.000007115135978   0.000000000002260   0.000000000004790
Si   10.18313  12.89863   7.46762   0.000000879955304   0.000002884647462  -0.000002880187870
Si   10.18313  15.61412  10.18313   0.000000000018618  -0.000007115155037   0.000000000016790
Si    7.46762  12.89863  10.18313  -0.000002866748592   0.000002866734377   0.000000874885115
Si    7.46762  15.61412   7.46762  -0.000008999683501  -0.000008999708962  -0.000008981248663
Si    6.10987  11.54087  11.54087   0.000000879955034  -0.000002884635346  -0.000002880206295
Si    8.82538  11.54087  14.25638   0.000002866725056  -0.000002866718380  -0.000000874877676
Si    6.10987  14.25638  14.25638  -0.000000000007312  -0.000000000015260   0.000000000006812
Si    8.82538  14.25638  11.54087   0.000002884646135  -0.000000879962603  -0.000002880189623
Si   10.18313  12.89863  12.89863  -0.000000879946553   0.000002884634138   0.000002880181321
Si   10.18313  15.61412  15.61412  -0.000000879938208  -0.000002884674225  -0.000002880199556
Si    7.46762  12.89863  15.61412  -0.000008154000342   0.000008153959749  -0.000008157472032
Si    7.46762  15.61412  12.89863  -0.000008153973262  -0.000008154006140   0.000008157470858
Si   11.54087   0.67888   0.67888  -0.000008153961066   0.000008153971819   0.000008157471106
Si   14.25638   0.67888   3.39437  -0.000000879929200   0.000002884651292  -0.000002880221381
Si   11.54087   3.39437   3.39437  -0.000008153965253  -0.000008153973592  -0.000008157466019
Si   14.25638   3.39437   0.67888  -0.000000879943136  -0.000002884628250   0.000002880209750
Si   15.61412   2.03662   2.03662  -0.000007115133703  -0.000000000017084   0.000000000003071
Si   15.61412   4.75213   4.75213  -0.000008999704273   0.000008999708317   0.000008981245381
Si   12.89863   2.03662   4.75213   0.000002884644275  -0.000000879934469   0.000002880216825
Si   12.89863   4.75213   2.03662   0.000002866727166   0.000002866736186  -0.000000874850153
Si   11.54087   0.67888   6.10987  -0.000002866736532   0.000002866722611  -0.000000874867429
Si   14.25638   0.67888   8.82538   0.000000879954976   0.000002884637024   0.000002880214587
Si   11.54087   3.39437   8.82538  -0.000008999690898  -0.000008999690261   0.000008981258736
Si   14.25638   3.39437   6.10987  -0.000000000024609  -0.000007115132881   0.000000000014686
Si   15.61412   2.03662   7.46762  -0.000002884619817  -0.000000879938156  -0.000002880209271
Si   15.61412   4.75213  10.18313  -0.000002866760314   0.000002866732963   0.000000874900445
Si   12.89863   2.03662  10.18313   0.000007115127607  -0.000000000006229   0.000000000005256
Si   12.89863   4.75213   7.46762   0.000008999696072   0.000008999674874  -0.000008981243533
Si   11.54087   0.67888  11.54087  -0.000008999691448   0.000008999680412  -0.000008981279414
Si   14.25638   0.67888  14.25638   0.000000000003678   0.000007115131668  -0.000000000019324
Si   11.54087   3.39437  14.25638  -0.000002866743341  -0.000002866712563   0.000000874847432
Si   14.25638   3.39437  11.54087   0.000000879942435  -0.000002884650557  -0.000002880203795
Si   15.61412   2.03662  12.89863  -0.000002884637730   0.000000879940395   0.000002880212120
Si   15.61412   4.75213  15.61412  -0.000008153976560   0.000008153990697  -0.000008157483551
Si   12.89863   2.03662  15.61412   0.000002884669230   0.000000879952146  -0.000002880191162
Si   12.89863   4.75213  12.89863   0.000008153982074   0.000008153981030   0.000008157461111
Si   11.54087   6.10987   0.67888  -0.000002884659872  -0.000000879928092   0.000002880195503
Si   14.25638   6.10987   3.39437  -0.000000000012466  -0.000000000003056  -0.000007121907642
Si   11.54087   8.82538   3.39437  -0.000008999707288   0.000008999683790  -0.000008981260963
Si   14.25638   8.82538   0.67888   0.000000879960334   0.000002884644693   0.000002880192795
Si   15.61412   7.46762   2.03662  -0.000002866733394  -0.000002866725461  -0.000000874890077
Si   15.61412  10.18313   4.75213  -0.000002884665382   0.000000879940048   0.000002880204314
Si   12.89863   7.46762   4.75213   0.000008999700350  -0.000008999721812   0.000008981259743
Si   12.89863  10.18313   2.03662   0.000007115146828  -0.000000000007080   0.000000000001531
Si   11.54087   6.10987   6.10987  -0.000007115141951   0.000000000006625  -0.000000000002001
Si   14.25638   6.10987   8.82538  -0.000000000015979   0.000000000001526   0.000007121893789
Si   11.54087   8.82538   8.82538  -0.000008153958861   0.000008153992956   0.000008157465517
Si   14.25638   8.82538   6.10987  -0.000000000012540   0.000007115135458   0.000000000001080
Si   15.61412   7.46762   7.46762  -0.000008999709657  -0.000008999706107  -0.000008981267456
Si   15.61412  10.18313  10.18313  -0.000007115137565  -0.000000000002870   0.000000000018898
Si   12.89863   7.46762  10.18313   0.000002866724619  -0.000002866722035   0.000000874881653
Si   12.89863  10.18313   7.46762   0.000002884653795   0.000000879945746  -0.000002880178606
Si   11.54087   6.10987  11.54087  -0.000002884635095   0.000000879967099  -0.000002880196956
Si   14.25638   6.10987  14.25638   0.000000000006451  -0.000000000009878   0.000000000014026
Si   11.54087   8.82538  14.25638  -0.000002866731320   0.000002866730997  -0.000000874868311
Si   14.25638   8.82538  11.54087  -0.000000879944950   0.000002884639591  -0.000002880223488
Si   15.61412   7.46762  12.89863  -0.000008153975062  -0.000008153976303   0.000008157472058
Si   15.61412  10.18313  15.61412  -0.000002884657669  -0.000000879965149  -0.000002880181510
Si   12.89863   7.46762  15.61412   0.000008153972367  -0.000008154000642  -0.000008157461923
Si   12.89863  10.18313  12.89863   0.000002884634991  -0.000000879927124   0.000002880205135
Si   11.54087  11.54087   0.67888  -0.000008999692997  -0.000008999683011   0.000008981266988
Si   14.25638  11.54087   3.39437   0.000000879945622  -0.000002884636831  -0.000002880190632
Si   11.54087  14.25638   3.39437  -0.000002884650039   0.000000879923025  -0.000002880230410
Si   14.25638  14.25638   0.67888   0.000000000021172  -0.000000000008525   0.000007121923250
Si   15.61412  12.89863   2.03662  -0.000002866718510   0.000002866738747   0.000000874843606
Si   15.61412  15.61412   4.75213  -0.000008153977941  -0.000008153993408   0.000008157468254
Si   12.89863  12.89863   4.75213   0.000008153972041   0.000008153979944   0.000008157466514
Si   12.89863  15.61412   2.03662   0.000002866732653  -0.000002866727496   0.000000874851920
Si   11.54087  11.54087   6.10987  -0.000002866743305  -0.000002866730739   0.000000874869949
Si   14.25638  11.54087   8.82538  -0.000000879967440  -0.000002884629266   0.000002880183770
Si   11.54087  14.25638   8.82538  -0.000002884635577  -0.000000879957433   0.000002880213775
Si   14.25638  14.25638   6.10987  -0.000000000019846  -0.000000000011903   0.000000000007225
Si   15.61412  12.89863   7.46762  -0.000008153976218   0.000008153979828  -0.000008157443593
Si   15.61412  15.61412  10.18313  -0.000002866740585  -0.000002866706930  -0.000000874860467
Si   12.89863  12.89863  10.18313   0.000002866718929   0.000002866737617  -0.000000874858899
Si   12.89863  15.61412   7.46762   0.000008153969876  -0.000008153997386  -0.000008157453002
Si   11.54087  11.54087  11.54087  -0.000008153989610  -0.000008153981985  -0.000008157490527
Si   14.25638  11.54087  14.25638  -0.000000000008015  -0.000007115149406  -0.000000000023519
Si   11.54087  14.25638  14.25638  -0.000007115136723  -0.000000000003317  -0.000000000000915
Si   14.25638  14.25638  11.54087   0.000000000000289  -0.000000000007933  -0.000007121916914
Si   15.61412  12.89863  12.89863  -0.000008999691660   0.000008999705120   0.000008981230606
Si   15.61412  15.61412  15.61412  -0.000008999692260  -0.000008999721374  -0.000008981259254
Si   12.89863  12.89863  15.61412   0.000008999679316   0.000008999706758  -0.000008981256864
Si   12.89863  15.61412  12.89863   0.000008999698980  -0.000008999683225   0.000008981247456
