300 

Si    0.00000  -0.00000  -0.00000   0.000009455478825  -0.000008764365744  -0.000008763945585
Si    1.35775   1.35775   1.35775  -0.000000103123858   0.000010145482488   0.000010129491181
Si    2.71550   2.71550   0.00000   0.000009455478758  -0.000008764366465  -0.000008763945383
Si    4.07325   4.07325   1.35775  -0.000000103123963   0.000010145481812   0.000010129491368
Si    5.43100   5.43100   0.00000   0.000009455478612  -0.000008764366897  -0.000008763945169
Si    6.78875   6.78875   1.35775  -0.000000103124105   0.000010145481725   0.000010129491561
Si    8.14650   8.14650   0.00000   0.000009455478621  -0.000008764366473  -0.000008763945204
Si    9.50425   9.50425   1.35775  -0.000000103124062   0.000010145482391   0.000010129491476
Si   10.86200  10.86200   0.00000   0.000009455478773  -0.000008764365714  -0.000008763945469
Si   12.21975  12.21975   1.35775  -0.000000103123910   0.000010145482865   0.000010129491226
Si    2.71550   0.00000   2.71550   0.000009455478481  -0.000008764365333  -0.000008763945518
Si    4.07325   1.35775   4.07325  -0.000000103124179   0.000010145482915   0.000010129491468
Si    5.43100   2.71550   2.71550   0.000009455478404  -0.000008764366039  -0.000008763945364
Si    6.78875   4.07325   4.07325  -0.000000103124361   0.000010145482238   0.000010129491680
Si    8.14650   5.43100   2.71550   0.000009455478114  -0.000008764366456  -0.000008763945161
Si    9.50425   6.78875   4.07325  -0.000000103124627   0.000010145482213   0.000010129491882
Si   10.86200   8.14650   2.71550   0.000009455478048  -0.000008764365981  -0.000008763945180
Si   12.21975   9.50425   4.07325  -0.000000103124596   0.000010145482893   0.000010129491778
Si   13.57750  10.86200   2.71550   0.000009455478263  -0.000008764365271  -0.000008763945390
Si   14.93525  12.21975   4.07325  -0.000000103124352   0.000010145483327   0.000010129491520
Si    5.43100  -0.00000   5.43100   0.000009455478279  -0.000008764365017  -0.000008763945090
Si    6.78875   1.35775   6.78875  -0.000000103124256   0.000010145483089   0.000010129491788
Si    8.14650   2.71550   5.43100   0.000009455478086  -0.000008764365783  -0.000008763944861
Si    9.50425   4.07325   6.78875  -0.000000103124602   0.000010145482377   0.000010129492052
Si   10.86200   5.43100   5.43100   0.000009455477714  -0.000008764366178  -0.000008763944619
Si   12.21975   6.78875   6.78875  -0.000000103124904   0.000010145482378   0.000010129492228
Si   13.57750   8.14650   5.43100   0.000009455477702  -0.000008764365653  -0.000008763944673
Si   14.93525   9.50425   6.78875  -0.000000103124786   0.000010145483052   0.000010129492066
Si   16.29300  10.86200   5.43100   0.000009455478041  -0.000008764364953  -0.000008763944959
Si   17.65075  12.21975   6.78875  -0.000000103124408   0.000010145483501   0.000010129491801
Si    8.14650   0.00000   8.14650   0.000009455478560  -0.000008764365251  -0.000008763944841
Si    9.50425   1.35775   9.50425  -0.000000103123986   0.000010145482739   0.000010129491620
Si   10.86200   2.71550   8.14650   0.000009455478192  -0.000008764366018  -0.000008763944614
Si   12.21975   4.07325   9.50425  -0.000000103124365   0.000010145482032   0.000010129491918
Si   13.57750   5.43100   8.14650   0.000009455477896  -0.000008764366424  -0.000008763944381
Si   14.93525   6.78875   9.50425  -0.000000103124516   0.000010145481989   0.000010129492109
Si   16.29300   8.14650   8.14650   0.000009455478024  -0.000008764365963  -0.000008763944451
Si   17.65075   9.50425   9.50425  -0.000000103124280   0.000010145482631   0.000010129491955
Si   19.00850  10.86200   8.14650   0.000009455478440  -0.000008764365226  -0.000008763944737
Si   20.36625  12.21975   9.50425  -0.000000103123927   0.000010145483136   0.000010129491663
Si   10.86200   0.00000  10.86200   0.000009455478853  -0.000008764365714  -0.000008763945191
Si   12.21975   1.35775  12.21975  -0.000000103123756   0.000010145482362   0.000010129491277
Si   13.57750   2.71550  10.86200   0.000009455478596  -0.000008764366449  -0.000008763944977
Si   14.93525   4.07325  12.21975  -0.000000103123939   0.000010145481674   0.000010129491522
Si   16.29300   5.43100  10.86200   0.000009455478486  -0.000008764366875  -0.000008763944719
Si   17.65075   6.78875  12.21975  -0.000000103123997   0.000010145481579   0.000010129491746
Si   19.00850   8.14650  10.86200   0.000009455478636  -0.000008764366464  -0.000008763944760
Si   20.36625   9.50425  12.21975  -0.000000103123834   0.000010145482220   0.000010129491628
Si   21.72400  10.86200  10.86200   0.000009455478908  -0.000008764365699  -0.000008763945050
Si   23.08175  12.21975  12.21975  -0.000000103123635   0.000010145482733   0.000010129491305
Si    0.00000   2.71550   2.71550   0.000005214161521   0.000007339556804   0.000007327681312
Si    1.35775   4.07325   4.07325   0.000005728747053   0.000003543604871   0.000003553536188
Si    2.71550   5.43100   2.71550   0.000005214161441   0.000007339556413   0.000007327681473
Si    4.07325   6.78875   4.07325   0.000005728746966   0.000003543604725   0.000003553536340
Si    5.43100   8.14650   2.71550   0.000005214161336   0.000007339556547   0.000007327681654
Si    6.78875   9.50425   4.07325   0.000005728746880   0.000003543605037   0.000003553536508
Si    8.14650  10.86200   2.71550   0.000005214161400   0.000007339557058   0.000007327681612
Si    9.50425  12.21975   4.07325   0.000005728746941   0.000003543605433   0.000003553536427
Si   10.86200  13.57750   2.71550   0.000005214161526   0.000007339557243   0.000007327681414
Si   12.21975  14.93525   4.07325   0.000005728747034   0.000003543605307   0.000003553536207
Si    2.71550   2.71550   5.43100   0.000005214161173   0.000007339557239   0.000007327681687
Si    4.07325   4.07325   6.78875   0.000005728746706   0.000003543605343   0.000003553536295
Si    5.43100   5.43100   5.43100   0.000005214161111   0.000007339556820   0.000007327681865
Si    6.78875   6.78875   6.78875   0.000005728746552   0.000003543605183   0.000003553536528
Si    8.14650   8.14650   5.43100   0.000005214160909   0.000007339556988   0.000007327682033
Si    9.50425   9.50425   6.78875   0.000005728746349   0.000003543605551   0.000003553536677
Si   10.86200  10.86200   5.43100   0.000005214160875   0.000007339557530   0.000007327681995
Si   12.21975  12.21975   6.78875   0.000005728746340   0.000003543605926   0.000003553536545
Si   13.57750  13.57750   5.43100   0.000005214161009   0.000007339557655   0.000007327681777
Si   14.93525  14.93525   6.78875   0.000005728746545   0.000003543605786   0.000003553536322
Si    5.43100   2.71550   8.14650   0.000005214160969   0.000007339557588   0.000007327681454
Si    6.78875   4.07325   9.50425   0.000005728746581   0.000003543605570   0.000003553535702
Si    8.14650   5.43100   8.14650   0.000005214160770   0.000007339557134   0.000007327681676
Si    9.50425   6.78875   9.50425   0.000005728746252   0.000003543605377   0.000003553535948
Si   10.86200   8.14650   8.14650   0.000005214160463   0.000007339557336   0.000007327681841
Si   12.21975   9.50425   9.50425   0.000005728745986   0.000003543605764   0.000003553536058
Si   13.57750  10.86200   8.14650   0.000005214160429   0.000007339557865   0.000007327681751
Si   14.93525  12.21975   9.50425   0.000005728746088   0.000003543606128   0.000003553535892
Si   16.29300  13.57750   8.14650   0.000005214160732   0.000007339558033   0.000007327681509
Si   17.65075  14.93525   9.50425   0.000005728746471   0.000003543606029   0.000003553535660
Si    8.14650   2.71550  10.86200   0.000005214161175   0.000007339557381   0.000007327680893
Si    9.50425   4.07325  12.21975   0.000005728746824   0.000003543605219   0.000003553535208
Si   10.86200   5.43100  10.86200   0.000005214160830   0.000007339556950   0.000007327681104
Si   12.21975   6.78875  12.21975   0.000005728746476   0.000003543605052   0.000003553535434
Si   13.57750   8.14650  10.86200   0.000005214160579   0.000007339557110   0.000007327681295
Si   14.93525   9.50425  12.21975   0.000005728746343   0.000003543605357   0.000003553535586
Si   16.29300  10.86200  10.86200   0.000005214160707   0.000007339557600   0.000007327681218
Si   17.65075  12.21975  12.21975   0.000005728746619   0.000003543605747   0.000003553535441
Si   19.00850  13.57750  10.86200   0.000005214161133   0.000007339557807   0.000007327680970
Si   20.36625  14.93525  12.21975   0.000005728746937   0.000003543605683   0.000003553535194
Si   10.86200   2.71550  13.57750   0.000005214161520   0.000007339556898   0.000007327680847
Si   12.21975   4.07325  14.93525   0.000005728747130   0.000003543604782   0.000003553535542
Si   13.57750   5.43100  13.57750   0.000005214161289   0.000007339556484   0.000007327681036
Si   14.93525   6.78875  14.93525   0.000005728746956   0.000003543604620   0.000003553535759
Si   16.29300   8.14650  13.57750   0.000005214161184   0.000007339556589   0.000007327681252
Si   17.65075   9.50425  14.93525   0.000005728746916   0.000003543604910   0.000003553535916
Si   19.00850  10.86200  13.57750   0.000005214161363   0.000007339557085   0.000007327681202
Si   20.36625  12.21975  14.93525   0.000005728747101   0.000003543605301   0.000003553535799
Si   21.72400  13.57750  13.57750   0.000005214161606   0.000007339557324   0.000007327680942
Si   23.08175  14.93525  14.93525   0.000005728747254   0.000003543605224   0.000003553535547
Si    0.00000   5.43100   5.43100   0.000012729719410  -0.000004486791325  -0.000004474702553
Si    1.35775   6.78875   6.78875  -0.000003128588303   0.000006967389732   0.000006972811256
Si    2.71550   8.14650   5.43100   0.000012729719369  -0.000004486791199  -0.000004474702454
Si    4.07325   9.50425   6.78875  -0.000003128588334   0.000006967389987   0.000006972811393
Si    5.43100  10.86200   5.43100   0.000012729719320  -0.000004486790922  -0.000004474702305
Si    6.78875  12.21975   6.78875  -0.000003128588364   0.000006967390199   0.000006972811551
Si    8.14650  13.57750   5.43100   0.000012729719358  -0.000004486790842  -0.000004474702280
Si    9.50425  14.93525   6.78875  -0.000003128588376   0.000006967390046   0.000006972811520
Si   10.86200  16.29300   5.43100   0.000012729719389  -0.000004486791090  -0.000004474702437
Si   12.21975  17.65075   6.78875  -0.000003128588365   0.000006967389742   0.000006972811358
Si    2.71550   5.43100   8.14650   0.000012729718899  -0.000004486790737  -0.000004474702744
Si    4.07325   6.78875   9.50425  -0.000003128588803   0.000006967390331   0.000006972810414
Si    5.43100   8.14650   8.14650   0.000012729718923  -0.000004486790643  -0.000004474702638
Si    6.78875   9.50425   9.50425  -0.000003128588876   0.000006967390603   0.000006972810577
Si    8.14650  10.86200   8.14650   0.000012729718775  -0.000004486790313  -0.000004474702472
Si    9.50425  12.21975   9.50425  -0.000003128589073   0.000006967390828   0.000006972810687
Si   10.86200  13.57750   8.14650   0.000012729718641  -0.000004486790244  -0.000004474702466
Si   12.21975  14.93525   9.50425  -0.000003128589174   0.000006967390673   0.000006972810603
Si   13.57750  16.29300   8.14650   0.000012729718690  -0.000004486790530  -0.000004474702647
Si   14.93525  17.65075   9.50425  -0.000003128589000   0.000006967390371   0.000006972810443
Si    5.43100   5.43100  10.86200   0.000012729718654  -0.000004486790353  -0.000004474703929
Si    6.78875   6.78875  12.21975  -0.000003128588944   0.000006967390564   0.000006972809171
Si    8.14650   8.14650  10.86200   0.000012729718543  -0.000004486790262  -0.000004474703792
Si    9.50425   9.50425  12.21975  -0.000003128589190   0.000006967390838   0.000006972809334
Si   10.86200  10.86200  10.86200   0.000012729718234  -0.000004486789926  -0.000004474703655
Si   12.21975  12.21975  12.21975  -0.000003128589485   0.000006967391034   0.000006972809435
Si   13.57750  13.57750  10.86200   0.000012729718117  -0.000004486789850  -0.000004474703698
Si   14.93525  14.93525  12.21975  -0.000003128589425   0.000006967390903   0.000006972809352
Si   16.29300  16.29300  10.86200   0.000012729718400  -0.000004486790087  -0.000004474703877
Si   17.65075  17.65075  12.21975  -0.000003128589059   0.000006967390646   0.000006972809200
Si    8.14650   5.43100  13.57750   0.000012729718971  -0.000004486790664  -0.000004474704433
Si    9.50425   6.78875  14.93525  -0.000003128588565   0.000006967390101   0.000006972809292
Si   10.86200   8.14650  13.57750   0.000012729718711  -0.000004486790567  -0.000004474704303
Si   12.21975   9.50425  14.93525  -0.000003128588830   0.000006967390343   0.000006972809454
Si   13.57750  10.86200  13.57750   0.000012729718469  -0.000004486790286  -0.000004474704134
Si   14.93525  12.21975  14.93525  -0.000003128588981   0.000006967390512   0.000006972809606
Si   16.29300  13.57750  13.57750   0.000012729718559  -0.000004486790215  -0.000004474704152
Si   17.65075  14.93525  14.93525  -0.000003128588765   0.000006967390406   0.000006972809530
Si   19.00850  16.29300  13.57750   0.000012729718921  -0.000004486790406  -0.000004474704343
Si   20.36625  17.65075  14.93525  -0.000003128588501   0.000006967390161   0.000006972809329
Si   10.86200   5.43100  16.29300   0.000012729719445  -0.000004486791288  -0.000004474703583
Si   12.21975   6.78875  17.65075  -0.000003128588130   0.000006967389578   0.000006972810561
Si   13.57750   8.14650  16.29300   0.000012729719254  -0.000004486791161  -0.000004474703447
Si   14.93525   9.50425  17.65075  -0.000003128588287   0.000006967389831   0.000006972810712
Si   16.29300  10.86200  16.29300   0.000012729719169  -0.000004486790914  -0.000004474703273
Si   17.65075  12.21975  17.65075  -0.000003128588310   0.000006967389979   0.000006972810874
Si   19.00850  13.57750  16.29300   0.000012729719329  -0.000004486790831  -0.000004474703286
Si   20.36625  14.93525  17.65075  -0.000003128588144   0.000006967389862   0.000006972810810
Si   21.72400  16.29300  16.29300   0.000012729719506  -0.000004486791062  -0.000004474703476
Si   23.08175  17.65075  17.65075  -0.000003128588062   0.000006967389574   0.000006972810616
Si    0.00000   8.14650   8.14650   0.000009455478717  -0.000008764366313  -0.000008763943672
Si    1.35775   9.50425   9.50425  -0.000000103124080   0.000010145482524   0.000010129492755
Si    2.71550  10.86200   8.14650   0.000009455478718  -0.000008764365930  -0.000008763943620
Si    4.07325  12.21975   9.50425  -0.000000103124069   0.000010145482827   0.000010129492906
Si    5.43100  13.57750   8.14650   0.000009455478668  -0.000008764365933  -0.000008763943397
Si    6.78875  14.93525   9.50425  -0.000000103124143   0.000010145482588   0.000010129493122
Si    8.14650  16.29300   8.14650   0.000009455478619  -0.000008764366333  -0.000008763943297
Si    9.50425  17.65075   9.50425  -0.000000103124246   0.000010145482092   0.000010129493131
Si   10.86200  19.00850   8.14650   0.000009455478628  -0.000008764366572  -0.000008763943490
Si   12.21975  20.36625   9.50425  -0.000000103124196   0.000010145482100   0.000010129492928
Si    2.71550   8.14650  10.86200   0.000009455478117  -0.000008764365645  -0.000008763945012
Si    4.07325   9.50425  12.21975  -0.000000103124645   0.000010145483229   0.000010129491115
Si    5.43100  10.86200  10.86200   0.000009455478179  -0.000008764365272  -0.000008763944951
Si    6.78875  12.21975  12.21975  -0.000000103124701   0.000010145483559   0.000010129491260
Si    8.14650  13.57750  10.86200   0.000009455477984  -0.000008764365217  -0.000008763944741
Si    9.50425  14.93525  12.21975  -0.000000103124999   0.000010145483309   0.000010129491410
Si   10.86200  16.29300  10.86200   0.000009455477740  -0.000008764365635  -0.000008763944684
Si   12.21975  17.65075  12.21975  -0.000000103125149   0.000010145482837   0.000010129491388
Si   13.57750  19.00850  10.86200   0.000009455477826  -0.000008764365887  -0.000008763944854
Si   14.93525  20.36625  12.21975  -0.000000103124916   0.000010145482825   0.000010129491201
Si    5.43100   8.14650  13.57750   0.000009455477874  -0.000008764365251  -0.000008763946300
Si    6.78875   9.50425  14.93525  -0.000000103124784   0.000010145483445   0.000010129490382
Si    8.14650  10.86200  13.57750   0.000009455477805  -0.000008764364887  -0.000008763946222
Si    9.50425  12.21975  14.93525  -0.000000103125004   0.000010145483754   0.000010129490524
Si   10.86200  13.57750  13.57750   0.000009455477425  -0.000008764364864  -0.000008763946038
Si   12.21975  14.93525  14.93525  -0.000000103125367   0.000010145483472   0.000010129490702
Si   13.57750  16.29300  13.57750   0.000009455477255  -0.000008764365253  -0.000008763946000
Si   14.93525  17.65075  14.93525  -0.000000103125326   0.000010145483048   0.000010129490675
Si   16.29300  19.00850  13.57750   0.000009455477577  -0.000008764365461  -0.000008763946183
Si   17.65075  20.36625  14.93525  -0.000000103124947   0.000010145483063   0.000010129490493
Si    8.14650   8.14650  16.29300   0.000009455478275  -0.000008764365655  -0.000008763945834
Si    9.50425   9.50425  17.65075  -0.000000103124284   0.000010145482902   0.000010129491562
Si   10.86200  10.86200  16.29300   0.000009455478064  -0.000008764365305  -0.000008763945738
Si   12.21975  12.21975  17.65075  -0.000000103124541   0.000010145483143   0.000010129491712
Si   13.57750  13.57750  16.29300   0.000009455477769  -0.000008764365341  -0.000008763945520
Si   14.93525  14.93525  17.65075  -0.000000103124754   0.000010145482858   0.000010129491915
Si   16.29300  16.29300  16.29300   0.000009455477812  -0.000008764365706  -0.000008763945478
Si   17.65075  17.65075  17.65075  -0.000000103124579   0.000010145482456   0.000010129491879
Si   19.00850  19.00850  16.29300   0.000009455478151  -0.000008764365883  -0.000008763945693
Si   20.36625  20.36625  17.65075  -0.000000103124314   0.000010145482483   0.000010129491667
Si   10.86200   8.14650  19.00850   0.000009455478834  -0.000008764366337  -0.000008763944213
Si   12.21975   9.50425  20.36625  -0.000000103123818   0.000010145482321   0.000010129493080
Si   13.57750  10.86200  19.00850   0.000009455478662  -0.000008764365965  -0.000008763944127
Si   14.93525  12.21975  20.36625  -0.000000103123977   0.000010145482572   0.000010129493194
Si   16.29300  13.57750  19.00850   0.000009455478538  -0.000008764366007  -0.000008763943908
Si   17.65075  14.93525  20.36625  -0.000000103124025   0.000010145482297   0.000010129493428
Si   19.00850  16.29300  19.00850   0.000009455478650  -0.000008764366375  -0.000008763943850
Si   20.36625  17.65075  20.36625  -0.000000103123919   0.000010145481862   0.000010129493441
Si   21.72400  19.00850  19.00850   0.000009455478820  -0.000008764366592  -0.000008763944019
Si   23.08175  20.36625  20.36625  -0.000000103123826   0.000010145481852   0.000010129493222
Si    0.00000  10.86200  10.86200   0.000005214161166   0.000007339557522   0.000007327682406
Si    1.35775  12.21975  12.21975   0.000005728746670   0.000003543606033   0.000003553536298
Si    2.71550  13.57750  10.86200   0.000005214161145   0.000007339557735   0.000007327682525
Si    4.07325  14.93525  12.21975   0.000005728746660   0.000003543605917   0.000003553536492
Si    5.43100  16.29300  10.86200   0.000005214161049   0.000007339557224   0.000007327682820
Si    6.78875  17.65075  12.21975   0.000005728746508   0.000003543605197   0.000003553536725
Si    8.14650  19.00850  10.86200   0.000005214160973   0.000007339556655   0.000007327682878
Si    9.50425  20.36625  12.21975   0.000005728746411   0.000003543604849   0.000003553536678
Si   10.86200  21.72400  10.86200   0.000005214161053   0.000007339556835   0.000007327682600
Si   12.21975  23.08175  12.21975   0.000005728746557   0.000003543605403   0.000003553536414
Si    2.71550  10.86200  13.57750   0.000005214160555   0.000007339558233   0.000007327680858
Si    4.07325  12.21975  14.93525   0.000005728746085   0.000003543606775   0.000003553535090
Si    5.43100  13.57750  13.57750   0.000005214160563   0.000007339558462   0.000007327680965
Si    6.78875  14.93525  14.93525   0.000005728745981   0.000003543606664   0.000003553535248
Si    8.14650  16.29300  13.57750   0.000005214160266   0.000007339557975   0.000007327681198
Si    9.50425  17.65075  14.93525   0.000005728745607   0.000003543605961   0.000003553535447
Si   10.86200  19.00850  13.57750   0.000005214160050   0.000007339557414   0.000007327681215
Si   12.21975  20.36625  14.93525   0.000005728745522   0.000003543605652   0.000003553535398
Si   13.57750  21.72400  13.57750   0.000005214160245   0.000007339557599   0.000007327681000
Si   14.93525  23.08175  14.93525   0.000005728745841   0.000003543606176   0.000003553535176
Si    5.43100  10.86200  16.29300   0.000005214160270   0.000007339558645   0.000007327680476
Si    6.78875  12.21975  17.65075   0.000005728745934   0.000003543607000   0.000003553535367
Si    8.14650  13.57750  16.29300   0.000005214160152   0.000007339558857   0.000007327680603
Si    9.50425  14.93525  17.65075   0.000005728745640   0.000003543606840   0.000003553535570
Si   10.86200  16.29300  16.29300   0.000005214159716   0.000007339558312   0.000007327680840
Si   12.21975  17.65075  17.65075   0.000005728745263   0.000003543606118   0.000003553535792
Si   13.57750  19.00850  16.29300   0.000005214159616   0.000007339557794   0.000007327680863
Si   14.93525  20.36625  17.65075   0.000005728745372   0.000003543605877   0.000003553535728
Si   16.29300  21.72400  16.29300   0.000005214159986   0.000007339558018   0.000007327680629
Si   17.65075  23.08175  17.65075   0.000005728745773   0.000003543606405   0.000003553535472
Si    8.14650  10.86200  19.00850   0.000005214160736   0.000007339558175   0.000007327681759
Si    9.50425  12.21975  20.36625   0.000005728746502   0.000003543606376   0.000003553536839
Si   10.86200  13.57750  19.00850   0.000005214160474   0.000007339558346   0.000007327681915
Si   12.21975  14.93525  20.36625   0.000005728746167   0.000003543606199   0.000003553537057
Si   13.57750  16.29300  19.00850   0.000005214160118   0.000007339557797   0.000007327682194
Si   14.93525  17.65075  20.36625   0.000005728745934   0.000003543605485   0.000003553537293
Si   16.29300  19.00850  19.00850   0.000005214160205   0.000007339557323   0.000007327682206
Si   17.65075  20.36625  20.36625   0.000005728746143   0.000003543605235   0.000003553537213
Si   19.00850  21.72400  19.00850   0.000005214160579   0.000007339557542   0.000007327681938
Si   20.36625  23.08175  20.36625   0.000005728746463   0.000003543605750   0.000003553536939
Si   10.86200  10.86200  21.72400   0.000005214161325   0.000007339557460   0.000007327683036
Si   12.21975  12.21975  23.08175   0.000005728746945   0.000003543605755   0.000003553537432
Si   13.57750  13.57750  21.72400   0.000005214161102   0.000007339557646   0.000007327683156
Si   14.93525  14.93525  23.08175   0.000005728746766   0.000003543605592   0.000003553537636
Si   16.29300  16.29300  21.72400   0.000005214160953   0.000007339557091   0.000007327683435
Si   17.65075  17.65075  23.08175   0.000005728746723   0.000003543604902   0.000003553537916
Si   19.00850  19.00850  21.72400   0.000005214161087   0.000007339556577   0.000007327683503
Si   20.36625  20.36625  23.08175   0.000005728746831   0.000003543604591   0.000003553537879
Si   21.72400  21.72400  21.72400   0.000005214161303   0.000007339556779   0.000007327683265
Si   23.08175  23.08175  23.08175   0.000005728746990   0.000003543605131   0.000003553537589
Si    0.00000  13.57750  13.57750   0.000012729719227  -0.000004486790153  -0.000004474703436
Si    1.35775  14.93525  14.93525  -0.000003128588355   0.000006967390751   0.000006972809707
Si    2.71550  16.29300  13.57750   0.000012729719176  -0.000004486790502  -0.000004474703259
Si    4.07325  17.65075  14.93525  -0.000003128588443   0.000006967390073   0.000006972809916
Si    5.43100  19.00850  13.57750   0.000012729719066  -0.000004486791298  -0.000004474702998
Si    6.78875  20.36625  14.93525  -0.000003128588608   0.000006967389402   0.000006972810107
Si    8.14650  21.72400  13.57750   0.000012729719013  -0.000004486791466  -0.000004474703016
Si    9.50425  23.08175  14.93525  -0.000003128588632   0.000006967389678   0.000006972810028
Si   10.86200  24.43950  13.57750   0.000012729719147  -0.000004486790722  -0.000004474703294
Si   12.21975  25.79725  14.93525  -0.000003128588460   0.000006967390536   0.000006972809764
Si    2.71550  13.57750  16.29300   0.000012729718708  -0.000004486789521  -0.000004474704178
Si    4.07325  14.93525  17.65075  -0.000003128588871   0.000006967391374   0.000006972809448
Si    5.43100  16.29300  16.29300   0.000012729718655  -0.000004486789871  -0.000004474704056
Si    6.78875  17.65075  17.65075  -0.000003128589040   0.000006967390681   0.000006972809637
Si    8.14650  19.00850  16.29300   0.000012729718351  -0.000004486790684  -0.000004474703829
Si    9.50425  20.36625  17.65075  -0.000003128589373   0.000006967390026   0.000006972809822
Si   10.86200  21.72400  16.29300   0.000012729718221  -0.000004486790800  -0.000004474703849
Si   12.21975  23.08175  17.65075  -0.000003128589374   0.000006967390347   0.000006972809754
Si   13.57750  24.43950  16.29300   0.000012729718443  -0.000004486790072  -0.000004474704071
Si   14.93525  25.79725  17.65075  -0.000003128589048   0.000006967391168   0.000006972809509
Si    5.43100  13.57750  19.00850   0.000012729718472  -0.000004486789157  -0.000004474703789
Si    6.78875  14.93525  20.36625  -0.000003128588976   0.000006967391539   0.000006972810152
Si    8.14650  16.29300  19.00850   0.000012729718296  -0.000004486789561  -0.000004474703616
Si    9.50425  17.65075  20.36625  -0.000003128589301   0.000006967390817   0.000006972810396
Si   10.86200  19.00850  19.00850   0.000012729717873  -0.000004486790382  -0.000004474703349
Si   12.21975  20.36625  20.36625  -0.000003128589656   0.000006967390194   0.000006972810610
Si   13.57750  21.72400  19.00850   0.000012729717843  -0.000004486790442  -0.000004474703365
Si   14.93525  23.08175  20.36625  -0.000003128589519   0.000006967390551   0.000006972810485
Si   16.29300  24.43950  19.00850   0.000012729718205  -0.000004486789708  -0.000004474703624
Si   17.65075  25.79725  20.36625  -0.000003128589119   0.000006967391341   0.000006972810209
Si    8.14650  13.57750  21.72400   0.000012729718911  -0.000004486789566  -0.000004474702672
Si    9.50425  14.93525  23.08175  -0.000003128588501   0.000006967391014   0.000006972810919
Si   10.86200  16.29300  21.72400   0.000012729718574  -0.000004486790000  -0.000004474702454
Si   12.21975  17.65075  23.08175  -0.000003128588897   0.000006967390260   0.000006972811164
Si   13.57750  19.00850  21.72400   0.000012729718241  -0.000004486790776  -0.000004474702195
Si   14.93525  20.36625  23.08175  -0.000003128589069   0.000006967389660   0.000006972811390
Si   16.29300  21.72400  21.72400   0.000012729718370  -0.000004486790847  -0.000004474702227
Si   17.65075  23.08175  23.08175  -0.000003128588850   0.000006967389966   0.000006972811288
Si   19.00850  24.43950  21.72400   0.000012729718731  -0.000004486790142  -0.000004474702520
Si   20.36625  25.79725  23.08175  -0.000003128588489   0.000006967390773   0.000006972810997
Si   10.86200  13.57750  24.43950   0.000012729719386  -0.000004486790171  -0.000004474702462
Si   12.21975  14.93525  25.79725  -0.000003128588159   0.000006967390501   0.000006972810576
Si   13.57750  16.29300  24.43950   0.000012729719086  -0.000004486790587  -0.000004474702266
Si   14.93525  17.65075  25.79725  -0.000003128588353   0.000006967389812   0.000006972810836
Si   16.29300  19.00850  24.43950   0.000012729718980  -0.000004486791383  -0.000004474701971
Si   17.65075  20.36625  25.79725  -0.000003128588397   0.000006967389165   0.000006972811094
Si   19.00850  21.72400  24.43950   0.000012729719124  -0.000004486791534  -0.000004474701968
Si   20.36625  23.08175  25.79725  -0.000003128588268   0.000006967389411   0.000006972811009
Si   21.72400  24.43950  24.43950   0.000012729719372  -0.000004486790797  -0.000004474702273
Si   23.08175  25.79725  25.79725  -0.000003128588066   0.000006967390265   0.000006972810675
