CRYSTAL
PRIMVEC
  10.862000   0.000000   0.000000
   0.000000  10.862000   0.000000
   0.000000   0.000000  10.862000
PRIMCOORD
  64 1
Si     6.789E-01     6.789E-01     6.789E-01     6.093E-15     0.000E+00     3.731E-31
Si     3.394E+00     6.789E-01     3.394E+00     1.869E-15     0.000E+00     1.144E-31
Si     6.789E-01     3.394E+00     3.394E+00     3.997E-15     0.000E+00     2.447E-31
Si     3.394E+00     3.394E+00     6.789E-01     7.552E-15     0.000E+00     4.624E-31
Si     4.752E+00     2.037E+00     2.037E+00     3.166E-15     0.000E+00     1.939E-31
Si     4.752E+00     4.752E+00     4.752E+00     2.710E-15     0.000E+00     1.659E-31
Si     2.037E+00     2.037E+00     4.752E+00     5.004E-15     0.000E+00     3.064E-31
Si     2.037E+00     4.752E+00     2.037E+00     8.159E-16     0.000E+00     4.996E-32
Si     6.789E-01     6.789E-01     6.110E+00     7.236E-15     0.000E+00     4.431E-31
Si     3.394E+00     6.789E-01     8.825E+00     3.511E-15     0.000E+00     2.150E-31
Si     6.789E-01     3.394E+00     8.825E+00     3.007E-15     0.000E+00     1.841E-31
Si     3.394E+00     3.394E+00     6.110E+00     2.227E-15     0.000E+00     1.363E-31
Si     4.752E+00     2.037E+00     7.468E+00     3.429E-15     0.000E+00     2.099E-31
Si     4.752E+00     4.752E+00     1.018E+01     7.800E-15     6.287E-15    -1.425E-15
Si     2.037E+00     2.037E+00     1.018E+01     4.429E-15     0.000E+00     2.712E-31
Si     2.037E+00     4.752E+00     7.468E+00     6.920E-15     0.000E+00     4.237E-31
Si     6.789E-01     6.110E+00     6.789E-01     3.796E-15     0.000E+00     2.325E-31
Si     3.394E+00     6.110E+00     3.394E+00     6.419E-15     0.000E+00     3.930E-31
Si     6.789E-01     8.825E+00     3.394E+00     1.651E-15     0.000E+00     1.011E-31
Si     3.394E+00     8.825E+00     6.789E-01     4.001E-15     0.000E+00     2.450E-31
Si     4.752E+00     7.468E+00     2.037E+00     2.509E-15     0.000E+00     1.536E-31
Si     4.752E+00     1.018E+01     4.752E+00     4.853E-15     0.000E+00     2.972E-31
Si     2.037E+00     7.468E+00     4.752E+00     1.693E-15     0.000E+00     1.037E-31
Si     2.037E+00     1.018E+01     2.037E+00     2.221E-15     0.000E+00     1.360E-31
Si     6.789E-01     6.110E+00     6.110E+00     4.670E-15     0.000E+00     2.860E-31
Si     3.394E+00     6.110E+00     8.825E+00     4.887E-15     0.000E+00     2.992E-31
Si     6.789E-01     8.825E+00     8.825E+00     5.033E-15     0.000E+00     3.082E-31
Si     3.394E+00     8.825E+00     6.110E+00     8.299E-15     0.000E+00     5.082E-31
Si     4.752E+00     7.468E+00     7.468E+00     6.972E-15     0.000E+00     4.269E-31
Si     4.752E+00     1.018E+01     1.018E+01     3.588E-15     0.000E+00     2.197E-31
Si     2.037E+00     7.468E+00     1.018E+01     7.339E-15     0.000E+00     4.494E-31
Si     2.037E+00     1.018E+01     7.468E+00     3.891E-15     0.000E+00     2.382E-31
Si     6.110E+00     6.789E-01     6.789E-01     1.547E-15     0.000E+00     9.474E-32
Si     8.825E+00     6.789E-01     3.394E+00     5.083E-15     0.000E+00     3.112E-31
Si     6.110E+00     3.394E+00     3.394E+00     4.548E-15     0.000E+00     2.785E-31
Si     8.825E+00     3.394E+00     6.789E-01     3.894E-15     0.000E+00     2.384E-31
Si     1.018E+01     2.037E+00     2.037E+00     3.914E-15     0.000E+00     2.396E-31
Si     1.018E+01     4.752E+00     4.752E+00     2.140E-15     0.000E+00     1.310E-31
Si     7.468E+00     2.037E+00     4.752E+00     4.139E-15     0.000E+00     2.534E-31
Si     7.468E+00     4.752E+00     2.037E+00     5.598E-15     0.000E+00     3.428E-31
Si     6.110E+00     6.789E-01     6.110E+00     6.184E-15     0.000E+00     3.786E-31
Si     8.825E+00     6.789E-01     8.825E+00     4.850E-15     0.000E+00     2.970E-31
Si     6.110E+00     3.394E+00     8.825E+00     6.551E-15     0.000E+00     4.011E-31
Si     8.825E+00     3.394E+00     6.110E+00     5.454E-15     0.000E+00     3.340E-31
Si     1.018E+01     2.037E+00     7.468E+00     5.279E-15     0.000E+00     3.233E-31
Si     1.018E+01     4.752E+00     1.018E+01     4.879E-15     0.000E+00     2.988E-31
Si     7.468E+00     2.037E+00     1.018E+01     3.939E-15     0.000E+00     2.412E-31
Si     7.468E+00     4.752E+00     7.468E+00     2.667E-15     0.000E+00     1.633E-31
Si     6.110E+00     6.110E+00     6.789E-01     5.140E-15     0.000E+00     3.147E-31
Si     8.825E+00     6.110E+00     3.394E+00     5.153E-15     0.000E+00     3.155E-31
Si     6.110E+00     8.825E+00     3.394E+00     4.490E-15     0.000E+00     2.749E-31
Si     8.825E+00     8.825E+00     6.789E-01     5.097E-15     0.000E+00     3.121E-31
Si     1.018E+01     7.468E+00     2.037E+00     4.845E-15     0.000E+00     2.966E-31
Si     1.018E+01     1.018E+01     4.752E+00     5.013E-15     0.000E+00     3.070E-31
Si     7.468E+00     7.468E+00     4.752E+00     6.030E-15     0.000E+00     3.692E-31
Si     7.468E+00     1.018E+01     2.037E+00     6.390E-15     0.000E+00     3.913E-31
Si     6.110E+00     6.110E+00     6.110E+00     6.648E-15     0.000E+00     4.071E-31
Si     8.825E+00     6.110E+00     8.825E+00     2.531E-15     0.000E+00     1.550E-31
Si     6.110E+00     8.825E+00     8.825E+00     2.871E-15     0.000E+00     1.758E-31
Si     8.825E+00     8.825E+00     6.110E+00     3.554E-15     0.000E+00     2.176E-31
Si     1.018E+01     7.468E+00     7.468E+00     3.425E-15     0.000E+00     2.097E-31
Si     1.018E+01     1.018E+01     1.018E+01     4.374E-15     0.000E+00     2.678E-31
Si     7.468E+00     7.468E+00     1.018E+01     3.657E-15     0.000E+00     2.240E-31
Si     7.468E+00     1.018E+01     7.468E+00     2.990E-15     0.000E+00     1.831E-31
