216 

Si    0.67888   0.67888   0.67888   0.000006059143173   0.000006059110750   0.000006042247946
Si    3.39437   0.67888   3.39437  -0.000006059078311   0.000006059110709  -0.000006042247914
Si    0.67888   3.39437   3.39437   0.000006059143175  -0.000006059110766  -0.000006042247957
Si    3.39437   3.39437   0.67888  -0.000006059078311  -0.000006059110726   0.000006042247894
Si    4.75213   2.03662   2.03662   0.000008422656546   0.000000000000005  -0.000000000000005
Si    4.75213   4.75213   4.75213   0.000004926635279   0.000004926602804   0.000004930370207
Si    2.03662   2.03662   4.75213   0.000000000032461   0.000000000000041   0.000008428029414
Si    2.03662   4.75213   2.03662   0.000000000032443   0.000008422624108   0.000000000000034
Si    0.67888   0.67888   6.10987   0.000002760312699   0.000002760280274   0.000000197739217
Si    3.39437   0.67888   8.82538  -0.000004926570342   0.000004926602834   0.000004930370227
Si    0.67888   3.39437   8.82538   0.000004926635263  -0.000004926602801   0.000004930370215
Si    3.39437   3.39437   6.10987  -0.000002760247787  -0.000002760280269   0.000000197739258
Si    4.75213   2.03662   7.46762   0.000002775600937   0.000000201979773  -0.000002771749688
Si    4.75213   4.75213  10.18313   0.000002760312709   0.000002760280293  -0.000000197739203
Si    2.03662   2.03662  10.18313   0.000000000032461   0.000000000000004  -0.000000000000009
Si    2.03662   4.75213   7.46762   0.000000202012256   0.000002775568541  -0.000002771749728
Si    0.67888   0.67888  11.54087   0.000004926635259   0.000004926602801  -0.000004930370217
Si    3.39437   0.67888  14.25638  -0.000002760247804   0.000002760280254  -0.000000197739270
Si    0.67888   3.39437  14.25638   0.000002760312702  -0.000002760280273  -0.000000197739227
Si    3.39437   3.39437  11.54087  -0.000004926570342  -0.000004926602818  -0.000004930370233
Si    4.75213   2.03662  12.89863   0.000002775600946  -0.000000201979763   0.000002771749708
Si    4.75213   4.75213  15.61412   0.000006059143187   0.000006059110764  -0.000006042247943
Si    2.03662   2.03662  15.61412   0.000000000032469  -0.000000000000039  -0.000008428029400
Si    2.03662   4.75213  12.89863  -0.000000201947324   0.000002775568494   0.000002771749694
Si    0.67888   6.10987   0.67888   0.000002775600935   0.000000201979790   0.000002771749710
Si    3.39437   6.10987   3.39437  -0.000002775536043   0.000000201979823  -0.000002771749711
Si    0.67888   8.82538   3.39437   0.000004926635249   0.000004926602828  -0.000004930370199
Si    3.39437   8.82538   0.67888  -0.000004926570345   0.000004926602831   0.000004930370240
Si    4.75213   7.46762   2.03662   0.000002760312715  -0.000002760280268   0.000000197739219
Si    4.75213  10.18313   4.75213   0.000002775600947  -0.000000201979770   0.000002771749698
Si    2.03662   7.46762   4.75213   0.000000202012269  -0.000002775568541   0.000002771749746
Si    2.03662  10.18313   2.03662   0.000000000032450  -0.000000000000011   0.000000000000005
Si    0.67888   6.10987   6.10987   0.000008422656567   0.000000000000003   0.000000000000002
Si    3.39437   6.10987   8.82538  -0.000002775536060  -0.000000201979816   0.000002771749729
Si    0.67888   8.82538   8.82538   0.000006059143158   0.000006059110757   0.000006042247960
Si    3.39437   8.82538   6.10987  -0.000002760247813   0.000002760280279  -0.000000197739267
Si    4.75213   7.46762   7.46762   0.000004926635293  -0.000004926602805  -0.000004930370226
Si    4.75213  10.18313  10.18313   0.000008422656534   0.000000000000007  -0.000000000000014
Si    2.03662   7.46762  10.18313   0.000000000032472  -0.000008422624101  -0.000000000000046
Si    2.03662  10.18313   7.46762   0.000000000032480  -0.000000000000034  -0.000008428029411
Si    0.67888   6.10987  11.54087   0.000002775600950  -0.000000201979769  -0.000002771749730
Si    3.39437   6.10987  14.25638  -0.000008422591652  -0.000000000000012  -0.000000000000003
Si    0.67888   8.82538  14.25638   0.000002760312731   0.000002760280276   0.000000197739224
Si    3.39437   8.82538  11.54087  -0.000006059078296   0.000006059110719  -0.000006042247918
Si    4.75213   7.46762  12.89863   0.000006059143198  -0.000006059110739   0.000006042247939
Si    4.75213  10.18313  15.61412   0.000002775600955   0.000000201979766  -0.000002771749701
Si    2.03662   7.46762  15.61412  -0.000000201947328  -0.000002775568481  -0.000002771749688
Si    2.03662  10.18313  12.89863   0.000000000032452   0.000000000000050   0.000008428029414
Si    0.67888  11.54087   0.67888   0.000004926635250  -0.000004926602794   0.000004930370206
Si    3.39437  11.54087   3.39437  -0.000004926570336  -0.000004926602829  -0.000004930370222
Si    0.67888  14.25638   3.39437   0.000002775600964  -0.000000201979760  -0.000002771749687
Si    3.39437  14.25638   0.67888  -0.000002775536038  -0.000000201979824   0.000002771749718
Si    4.75213  12.89863   2.03662   0.000002760312694   0.000002760280281  -0.000000197739207
Si    4.75213  15.61412   4.75213   0.000006059143178  -0.000006059110755   0.000006042247944
Si    2.03662  12.89863   4.75213  -0.000000201947332   0.000002775568498   0.000002771749680
Si    2.03662  15.61412   2.03662   0.000000000032455  -0.000008422624107  -0.000000000000052
Si    0.67888  11.54087   6.10987   0.000002760312715  -0.000002760280257  -0.000000197739205
Si    3.39437  11.54087   8.82538  -0.000006059078292  -0.000006059110721   0.000006042247904
Si    0.67888  14.25638   8.82538   0.000002775600964   0.000000201979761   0.000002771749705
Si    3.39437  14.25638   6.10987  -0.000008422591648  -0.000000000000003   0.000000000000005
Si    4.75213  12.89863   7.46762   0.000006059143182   0.000006059110754  -0.000006042247935
Si    4.75213  15.61412  10.18313   0.000002760312703  -0.000002760280265   0.000000197739222
Si    2.03662  12.89863  10.18313   0.000000000032439   0.000008422624096   0.000000000000041
Si    2.03662  15.61412   7.46762  -0.000000201947338  -0.000002775568502  -0.000002771749687
Si    0.67888  11.54087  11.54087   0.000006059143179  -0.000006059110763  -0.000006042247937
Si    3.39437  11.54087  14.25638  -0.000002760247794  -0.000002760280266   0.000000197739255
Si    0.67888  14.25638  14.25638   0.000008422656549  -0.000000000000006   0.000000000000001
Si    3.39437  14.25638  11.54087  -0.000002775536022   0.000000201979816  -0.000002771749712
Si    4.75213  12.89863  12.89863   0.000004926635284   0.000004926602807   0.000004930370204
Si    4.75213  15.61412  15.61412   0.000004926635273  -0.000004926602804  -0.000004930370217
Si    2.03662  12.89863  15.61412   0.000000202012249   0.000002775568534  -0.000002771749712
Si    2.03662  15.61412  12.89863   0.000000202012257  -0.000002775568521   0.000002771749723
Si    6.10987   0.67888   0.67888   0.000000202012252   0.000002775568522   0.000002771749744
Si    8.82538   0.67888   3.39437   0.000004926635269   0.000004926602807  -0.000004930370212
Si    6.10987   3.39437   3.39437   0.000000202012244  -0.000002775568523  -0.000002771749737
Si    8.82538   3.39437   0.67888   0.000004926635283  -0.000004926602799   0.000004930370199
Si   10.18313   2.03662   2.03662   0.000000000032448  -0.000000000000012   0.000000000000007
Si   10.18313   4.75213   4.75213  -0.000000201947342   0.000002775568511   0.000002771749690
Si    7.46762   2.03662   4.75213  -0.000002775536045   0.000000201979825   0.000002771749707
Si    7.46762   4.75213   2.03662  -0.000002760247790   0.000002760280280   0.000000197739280
Si    6.10987   0.67888   6.10987   0.000000000032449   0.000008422624103  -0.000000000000038
Si    8.82538   0.67888   8.82538   0.000006059143183   0.000006059110757   0.000006042247937
Si    6.10987   3.39437   8.82538  -0.000000201947325  -0.000002775568494   0.000002771749691
Si    8.82538   3.39437   6.10987   0.000002760312705  -0.000002760280281  -0.000000197739201
Si   10.18313   2.03662   7.46762   0.000000000032466  -0.000000000000033  -0.000008428029418
Si   10.18313   4.75213  10.18313   0.000000000032444   0.000008422624097   0.000000000000017
Si    7.46762   2.03662  10.18313  -0.000008422591662   0.000000000000005   0.000000000000024
Si    7.46762   4.75213   7.46762  -0.000004926570347   0.000004926602840  -0.000004930370239
Si    6.10987   0.67888  11.54087  -0.000000201947318   0.000002775568490  -0.000002771749698
Si    8.82538   0.67888  14.25638   0.000002760312712   0.000002760280267   0.000000197739200
Si    6.10987   3.39437  14.25638   0.000000000032483  -0.000008422624104   0.000000000000029
Si    8.82538   3.39437  11.54087   0.000006059143184  -0.000006059110756  -0.000006042247928
Si   10.18313   2.03662  12.89863   0.000000000032450   0.000000000000047   0.000008428029400
Si   10.18313   4.75213  15.61412   0.000000202012247   0.000002775568543  -0.000002771749729
Si    7.46762   2.03662  15.61412  -0.000002775536056  -0.000000201979826  -0.000002771749699
Si    7.46762   4.75213  12.89863  -0.000006059078295   0.000006059110723   0.000006042247912
Si    6.10987   6.10987   0.67888   0.000000000032473  -0.000000000000038   0.000008428029397
Si    8.82538   6.10987   3.39437   0.000002775600961  -0.000000201979768  -0.000002771749714
Si    6.10987   8.82538   3.39437  -0.000000201947325   0.000002775568476  -0.000002771749687
Si    8.82538   8.82538   0.67888   0.000006059143175   0.000006059110763   0.000006042247938
Si   10.18313   7.46762   2.03662   0.000000000032475  -0.000008422624103  -0.000000000000044
Si   10.18313  10.18313   4.75213   0.000000000032470   0.000000000000063   0.000008428029428
Si    7.46762   7.46762   4.75213  -0.000004926570355  -0.000004926602837   0.000004930370222
Si    7.46762  10.18313   2.03662  -0.000008422591635   0.000000000000009  -0.000000000000005
Si    6.10987   6.10987   6.10987   0.000000000032473  -0.000000000000003   0.000000000000005
Si    8.82538   6.10987   8.82538   0.000002775600967   0.000000201979757   0.000002771749717
Si    6.10987   8.82538   8.82538   0.000000202012234   0.000002775568523   0.000002771749732
Si    8.82538   8.82538   6.10987   0.000002760312698   0.000002760280265   0.000000197739226
Si   10.18313   7.46762   7.46762  -0.000000201947320  -0.000002775568495  -0.000002771749717
Si   10.18313  10.18313  10.18313   0.000000000032473   0.000000000000009   0.000000000000007
Si    7.46762   7.46762  10.18313  -0.000002760247806  -0.000002760280282  -0.000000197739261
Si    7.46762  10.18313   7.46762  -0.000002775536051  -0.000000201979809  -0.000002771749705
Si    6.10987   6.10987  11.54087   0.000000000032465   0.000000000000022  -0.000008428029415
Si    8.82538   6.10987  14.25638   0.000008422656542  -0.000000000000005   0.000000000000016
Si    6.10987   8.82538  14.25638   0.000000000032456   0.000008422624113  -0.000000000000051
Si    8.82538   8.82538  11.54087   0.000004926635284   0.000004926602787  -0.000004930370215
Si   10.18313   7.46762  12.89863   0.000000202012276  -0.000002775568522   0.000002771749726
Si   10.18313  10.18313  15.61412   0.000000000032472  -0.000000000000023  -0.000008428029397
Si    7.46762   7.46762  15.61412  -0.000006059078308  -0.000006059110717  -0.000006042247898
Si    7.46762  10.18313  12.89863  -0.000002775536053   0.000000201979830   0.000002771749732
Si    6.10987  11.54087   0.67888  -0.000000201947331  -0.000002775568502   0.000002771749681
Si    8.82538  11.54087   3.39437   0.000006059143168  -0.000006059110761  -0.000006042247932
Si    6.10987  14.25638   3.39437   0.000000000032478   0.000000000000027  -0.000008428029402
Si    8.82538  14.25638   0.67888   0.000002775600959   0.000000201979754   0.000002771749709
Si   10.18313  12.89863   2.03662   0.000000000032462   0.000008422624121   0.000000000000035
Si   10.18313  15.61412   4.75213   0.000000202012252  -0.000002775568534   0.000002771749757
Si    7.46762  12.89863   4.75213  -0.000006059078293   0.000006059110718   0.000006042247914
Si    7.46762  15.61412   2.03662  -0.000002760247805  -0.000002760280259  -0.000000197739251
Si    6.10987  11.54087   6.10987   0.000000000032471  -0.000008422624097   0.000000000000029
Si    8.82538  11.54087   8.82538   0.000004926635254  -0.000004926602790   0.000004930370204
Si    6.10987  14.25638   8.82538   0.000000000032483  -0.000000000000040   0.000008428029414
Si    8.82538  14.25638   6.10987   0.000008422656540   0.000000000000016  -0.000000000000016
Si   10.18313  12.89863   7.46762   0.000000202012251   0.000002775568533  -0.000002771749725
Si   10.18313  15.61412  10.18313   0.000000000032456  -0.000008422624104  -0.000000000000013
Si    7.46762  12.89863  10.18313  -0.000002760247808   0.000002760280265   0.000000197739265
Si    7.46762  15.61412   7.46762  -0.000006059078300  -0.000006059110716  -0.000006042247926
Si    6.10987  11.54087  11.54087   0.000000202012278  -0.000002775568515  -0.000002771749713
Si    8.82538  11.54087  14.25638   0.000002760312690  -0.000002760280269  -0.000000197739222
Si    6.10987  14.25638  14.25638   0.000000000032480  -0.000000000000013   0.000000000000010
Si    8.82538  14.25638  11.54087   0.000002775600941  -0.000000201979758  -0.000002771749714
Si   10.18313  12.89863  12.89863  -0.000000201947321   0.000002775568482   0.000002771749671
Si   10.18313  15.61412  15.61412  -0.000000201947317  -0.000002775568494  -0.000002771749688
Si    7.46762  12.89863  15.61412  -0.000004926570333   0.000004926602857  -0.000004930370235
Si    7.46762  15.61412  12.89863  -0.000004926570327  -0.000004926602845   0.000004930370225
Si   11.54087   0.67888   0.67888  -0.000004926570343   0.000004926602840   0.000004930370250
Si   14.25638   0.67888   3.39437  -0.000000201947325   0.000002775568470  -0.000002771749679
Si   11.54087   3.39437   3.39437  -0.000004926570343  -0.000004926602835  -0.000004930370211
Si   14.25638   3.39437   0.67888  -0.000000201947322  -0.000002775568495   0.000002771749710
Si   15.61412   2.03662   2.03662  -0.000008422591647   0.000000000000005   0.000000000000008
Si   15.61412   4.75213   4.75213  -0.000006059078297   0.000006059110728   0.000006042247917
Si   12.89863   2.03662   4.75213   0.000002775600951  -0.000000201979764   0.000002771749683
Si   12.89863   4.75213   2.03662   0.000002760312711   0.000002760280283  -0.000000197739228
Si   11.54087   0.67888   6.10987  -0.000002760247780   0.000002760280272  -0.000000197739251
Si   14.25638   0.67888   8.82538   0.000000202012263   0.000002775568525   0.000002771749720
Si   11.54087   3.39437   8.82538  -0.000006059078308  -0.000006059110712   0.000006042247912
Si   14.25638   3.39437   6.10987   0.000000000032469  -0.000008422624108   0.000000000000018
Si   15.61412   2.03662   7.46762  -0.000002775536055  -0.000000201979817  -0.000002771749711
Si   15.61412   4.75213  10.18313  -0.000002760247809   0.000002760280272   0.000000197739268
Si   12.89863   2.03662  10.18313   0.000008422656546  -0.000000000000004   0.000000000000006
Si   12.89863   4.75213   7.46762   0.000006059143203   0.000006059110739  -0.000006042247923
Si   11.54087   0.67888  11.54087  -0.000006059078288   0.000006059110714  -0.000006042247908
Si   14.25638   0.67888  14.25638   0.000000000032474   0.000008422624105  -0.000000000000030
Si   11.54087   3.39437  14.25638  -0.000002760247795  -0.000002760280280   0.000000197739268
Si   14.25638   3.39437  11.54087   0.000000202012272  -0.000002775568528  -0.000002771749725
Si   15.61412   2.03662  12.89863  -0.000002775536057   0.000000201979818   0.000002771749710
Si   15.61412   4.75213  15.61412  -0.000004926570328   0.000004926602829  -0.000004930370235
Si   12.89863   2.03662  15.61412   0.000002775600944   0.000000201979769  -0.000002771749706
Si   12.89863   4.75213  12.89863   0.000004926635282   0.000004926602823   0.000004930370203
Si   11.54087   6.10987   0.67888  -0.000002775536047  -0.000000201979824   0.000002771749716
Si   14.25638   6.10987   3.39437   0.000000000032468   0.000000000000035  -0.000008428029400
Si   11.54087   8.82538   3.39437  -0.000006059078288   0.000006059110715  -0.000006042247926
Si   14.25638   8.82538   0.67888   0.000000202012247   0.000002775568536   0.000002771749732
Si   15.61412   7.46762   2.03662  -0.000002760247798  -0.000002760280285  -0.000000197739264
Si   15.61412  10.18313   4.75213  -0.000002775536034   0.000000201979815   0.000002771749726
Si   12.89863   7.46762   4.75213   0.000006059143201  -0.000006059110759   0.000006042247930
Si   12.89863  10.18313   2.03662   0.000008422656544  -0.000000000000010   0.000000000000004
Si   11.54087   6.10987   6.10987  -0.000008422591667  -0.000000000000012  -0.000000000000008
Si   14.25638   6.10987   8.82538   0.000000000032482  -0.000000000000017   0.000008428029398
Si   11.54087   8.82538   8.82538  -0.000004926570365   0.000004926602837   0.000004930370243
Si   14.25638   8.82538   6.10987   0.000000000032461   0.000008422624113  -0.000000000000041
Si   15.61412   7.46762   7.46762  -0.000006059078285  -0.000006059110726  -0.000006042247898
Si   15.61412  10.18313  10.18313  -0.000008422591643  -0.000000000000002  -0.000000000000021
Si   12.89863   7.46762  10.18313   0.000002760312696  -0.000002760280270   0.000000197739211
Si   12.89863  10.18313   7.46762   0.000002775600943   0.000000201979779  -0.000002771749709
Si   11.54087   6.10987  11.54087  -0.000002775536032   0.000000201979815  -0.000002771749704
Si   14.25638   6.10987  14.25638   0.000000000032460   0.000000000000008  -0.000000000000014
Si   11.54087   8.82538  14.25638  -0.000002760247790   0.000002760280249  -0.000000197739279
Si   14.25638   8.82538  11.54087  -0.000000201947313   0.000002775568496  -0.000002771749671
Si   15.61412   7.46762  12.89863  -0.000004926570365  -0.000004926602845   0.000004930370244
Si   15.61412  10.18313  15.61412  -0.000002775536039  -0.000000201979817  -0.000002771749708
Si   12.89863   7.46762  15.61412   0.000004926635276  -0.000004926602825  -0.000004930370206
Si   12.89863  10.18313  12.89863   0.000002775600955  -0.000000201979761   0.000002771749705
Si   11.54087  11.54087   0.67888  -0.000006059078323  -0.000006059110729   0.000006042247896
Si   14.25638  11.54087   3.39437   0.000000202012261  -0.000002775568510  -0.000002771749744
Si   11.54087  14.25638   3.39437  -0.000002775536031   0.000000201979821  -0.000002771749725
Si   14.25638  14.25638   0.67888   0.000000000032475  -0.000000000000034   0.000008428029407
Si   15.61412  12.89863   2.03662  -0.000002760247827   0.000002760280269   0.000000197739254
Si   15.61412  15.61412   4.75213  -0.000004926570331  -0.000004926602828   0.000004930370235
Si   12.89863  12.89863   4.75213   0.000004926635295   0.000004926602789   0.000004930370217
Si   12.89863  15.61412   2.03662   0.000002760312691  -0.000002760280260   0.000000197739225
Si   11.54087  11.54087   6.10987  -0.000002760247801  -0.000002760280282   0.000000197739279
Si   14.25638  11.54087   8.82538  -0.000000201947325  -0.000002775568512   0.000002771749669
Si   11.54087  14.25638   8.82538  -0.000002775536045  -0.000000201979826   0.000002771749708
Si   14.25638  14.25638   6.10987   0.000000000032474   0.000000000000005  -0.000000000000017
Si   15.61412  12.89863   7.46762  -0.000004926570322   0.000004926602832  -0.000004930370225
Si   15.61412  15.61412  10.18313  -0.000002760247808  -0.000002760280266  -0.000000197739270
Si   12.89863  12.89863  10.18313   0.000002760312710   0.000002760280277  -0.000000197739197
Si   12.89863  15.61412   7.46762   0.000004926635261  -0.000004926602800  -0.000004930370208
Si   11.54087  11.54087  11.54087  -0.000004926570347  -0.000004926602836  -0.000004930370227
Si   14.25638  11.54087  14.25638   0.000000000032478  -0.000008422624118   0.000000000000012
Si   11.54087  14.25638  14.25638  -0.000008422591650   0.000000000000009   0.000000000000005
Si   14.25638  14.25638  11.54087   0.000000000032472   0.000000000000025  -0.000008428029405
Si   15.61412  12.89863  12.89863  -0.000006059078285   0.000006059110725   0.000006042247916
Si   15.61412  15.61412  15.61412  -0.000006059078285  -0.000006059110720  -0.000006042247891
Si   12.89863  12.89863  15.61412   0.000006059143179   0.000006059110757  -0.000006042247923
Si   12.89863  15.61412  12.89863   0.000006059143186  -0.000006059110738   0.000006042247943
