250 

Si    0.00000   0.00000   0.00000   0.000000000002865   0.000000000000006  -0.000000000000004
Si    1.35775   1.35775   1.35775   0.000000000002775  -0.000000000000019  -0.000000000000020
Si    2.71550   2.71550   0.00000   0.000000000002875   0.000000000000012   0.000000000000000
Si    4.07325   4.07325   1.35775   0.000000000002764  -0.000000000000024  -0.000000000000021
Si    5.43100   5.43100   0.00000   0.000000000002867   0.000000000000012   0.000000000000015
Si    6.78875   6.78875   1.35775   0.000000000002777  -0.000000000000038  -0.000000000000027
Si    8.14650   8.14650   0.00000   0.000000000002863   0.000000000000022   0.000000000000008
Si    9.50425   9.50425   1.35775   0.000000000002779  -0.000000000000023  -0.000000000000024
Si   10.86200  10.86200   0.00000   0.000000000002872   0.000000000000011  -0.000000000000005
Si   12.21975  12.21975   1.35775   0.000000000002772  -0.000000000000026  -0.000000000000029
Si    2.71550   0.00000   2.71550   0.000000000002862   0.000000000000005   0.000000000000019
Si    4.07325   1.35775   4.07325   0.000000000002788  -0.000000000000025  -0.000000000000017
Si    5.43100   2.71550   2.71550   0.000000000002872   0.000000000000018   0.000000000000030
Si    6.78875   4.07325   4.07325   0.000000000002772  -0.000000000000012  -0.000000000000020
Si    8.14650   5.43100   2.71550   0.000000000002866   0.000000000000016   0.000000000000018
Si    9.50425   6.78875   4.07325   0.000000000002771  -0.000000000000028  -0.000000000000001
Si   10.86200   8.14650   2.71550   0.000000000002873   0.000000000000017   0.000000000000001
Si   12.21975   9.50425   4.07325   0.000000000002772  -0.000000000000023  -0.000000000000018
Si   13.57750  10.86200   2.71550   0.000000000002863   0.000000000000013   0.000000000000028
Si   14.93525  12.21975   4.07325   0.000000000002779  -0.000000000000016  -0.000000000000022
Si    5.43100   0.00000   5.43100   0.000000000002865   0.000000000000011   0.000000000000001
Si    6.78875   1.35775   6.78875   0.000000000002764  -0.000000000000010  -0.000000000000016
Si    8.14650   2.71550   5.43100   0.000000000002870   0.000000000000005   0.000000000000007
Si    9.50425   4.07325   6.78875   0.000000000002765  -0.000000000000033   0.000000000000005
Si   10.86200   5.43100   5.43100   0.000000000002867   0.000000000000018   0.000000000000014
Si   12.21975   6.78875   6.78875   0.000000000002778  -0.000000000000030  -0.000000000000016
Si   13.57750   8.14650   5.43100   0.000000000002864   0.000000000000006   0.000000000000017
Si   14.93525   9.50425   6.78875   0.000000000002775  -0.000000000000032  -0.000000000000008
Si   16.29300  10.86200   5.43100   0.000000000002872   0.000000000000012   0.000000000000014
Si   17.65075  12.21975   6.78875   0.000000000002770  -0.000000000000018  -0.000000000000017
Si    8.14650   0.00000   8.14650   0.000000000002861   0.000000000000014   0.000000000000021
Si    9.50425   1.35775   9.50425   0.000000000002773  -0.000000000000021  -0.000000000000014
Si   10.86200   2.71550   8.14650   0.000000000002859   0.000000000000014   0.000000000000012
Si   12.21975   4.07325   9.50425   0.000000000002775  -0.000000000000017  -0.000000000000016
Si   13.57750   5.43100   8.14650   0.000000000002858   0.000000000000014   0.000000000000012
Si   14.93525   6.78875   9.50425   0.000000000002780  -0.000000000000030  -0.000000000000018
Si   16.29300   8.14650   8.14650   0.000000000002866   0.000000000000016   0.000000000000023
Si   17.65075   9.50425   9.50425   0.000000000002789  -0.000000000000028  -0.000000000000022
Si   19.00850  10.86200   8.14650   0.000000000002862   0.000000000000014   0.000000000000032
Si   20.36625  12.21975   9.50425   0.000000000002769  -0.000000000000014  -0.000000000000026
Si   10.86200   0.00000  10.86200   0.000000000002870   0.000000000000006   0.000000000000009
Si   12.21975   1.35775  12.21975   0.000000000002773  -0.000000000000026  -0.000000000000029
Si   13.57750   2.71550  10.86200   0.000000000002860   0.000000000000012   0.000000000000020
Si   14.93525   4.07325  12.21975   0.000000000002762  -0.000000000000007  -0.000000000000009
Si   16.29300   5.43100  10.86200   0.000000000002866   0.000000000000018   0.000000000000010
Si   17.65075   6.78875  12.21975   0.000000000002775  -0.000000000000024  -0.000000000000009
Si   19.00850   8.14650  10.86200   0.000000000002854   0.000000000000009   0.000000000000002
Si   20.36625   9.50425  12.21975   0.000000000002779  -0.000000000000029  -0.000000000000010
Si   21.72400  10.86200  10.86200   0.000000000002866   0.000000000000014   0.000000000000010
Si   23.08175  12.21975  12.21975   0.000000000002774  -0.000000000000007  -0.000000000000020
Si    0.00000   2.71550   2.71550   0.000000000002873   0.000000000000008   0.000000000000025
Si    1.35775   4.07325   4.07325   0.000000000002772  -0.000000000000033  -0.000000000000026
Si    2.71550   5.43100   2.71550   0.000000000002863   0.000000000000004   0.000000000000019
Si    4.07325   6.78875   4.07325   0.000000000002788  -0.000000000000024  -0.000000000000034
Si    5.43100   8.14650   2.71550   0.000000000002849   0.000000000000019   0.000000000000027
Si    6.78875   9.50425   4.07325   0.000000000002770  -0.000000000000025  -0.000000000000023
Si    8.14650  10.86200   2.71550   0.000000000002863   0.000000000000015   0.000000000000015
Si    9.50425  12.21975   4.07325   0.000000000002783  -0.000000000000034  -0.000000000000022
Si   10.86200  13.57750   2.71550   0.000000000002859   0.000000000000022   0.000000000000018
Si   12.21975  14.93525   4.07325   0.000000000002763  -0.000000000000036  -0.000000000000026
Si    2.71550   2.71550   5.43100   0.000000000002874   0.000000000000027   0.000000000000023
Si    4.07325   4.07325   6.78875   0.000000000002787  -0.000000000000035  -0.000000000000048
Si    5.43100   5.43100   5.43100   0.000000000002861   0.000000000000003   0.000000000000024
Si    6.78875   6.78875   6.78875   0.000000000002783  -0.000000000000038  -0.000000000000044
Si    8.14650   8.14650   5.43100   0.000000000002855   0.000000000000016   0.000000000000017
Si    9.50425   9.50425   6.78875   0.000000000002772  -0.000000000000021  -0.000000000000034
Si   10.86200  10.86200   5.43100   0.000000000002859   0.000000000000008   0.000000000000002
Si   12.21975  12.21975   6.78875   0.000000000002785  -0.000000000000035  -0.000000000000033
Si   13.57750  13.57750   5.43100   0.000000000002862   0.000000000000016   0.000000000000021
Si   14.93525  14.93525   6.78875   0.000000000002772  -0.000000000000015  -0.000000000000042
Si    5.43100   2.71550   8.14650   0.000000000002854   0.000000000000009  -0.000000000000001
Si    6.78875   4.07325   9.50425   0.000000000002776  -0.000000000000018  -0.000000000000035
Si    8.14650   5.43100   8.14650   0.000000000002863   0.000000000000021   0.000000000000019
Si    9.50425   6.78875   9.50425   0.000000000002785  -0.000000000000032  -0.000000000000048
Si   10.86200   8.14650   8.14650   0.000000000002860   0.000000000000006   0.000000000000020
Si   12.21975   9.50425   9.50425   0.000000000002781  -0.000000000000026  -0.000000000000031
Si   13.57750  10.86200   8.14650   0.000000000002860   0.000000000000027   0.000000000000009
Si   14.93525  12.21975   9.50425   0.000000000002775  -0.000000000000031  -0.000000000000044
Si   16.29300  13.57750   8.14650   0.000000000002877   0.000000000000001   0.000000000000024
Si   17.65075  14.93525   9.50425   0.000000000002776  -0.000000000000029  -0.000000000000032
Si    8.14650   2.71550  10.86200   0.000000000002861   0.000000000000023   0.000000000000006
Si    9.50425   4.07325  12.21975   0.000000000002782  -0.000000000000030  -0.000000000000029
Si   10.86200   5.43100  10.86200   0.000000000002859   0.000000000000026   0.000000000000010
Si   12.21975   6.78875  12.21975   0.000000000002779  -0.000000000000022  -0.000000000000029
Si   13.57750   8.14650  10.86200   0.000000000002847   0.000000000000028   0.000000000000019
Si   14.93525   9.50425  12.21975   0.000000000002789  -0.000000000000029  -0.000000000000043
Si   16.29300  10.86200  10.86200   0.000000000002844   0.000000000000020   0.000000000000013
Si   17.65075  12.21975  12.21975   0.000000000002782  -0.000000000000029  -0.000000000000035
Si   19.00850  13.57750  10.86200   0.000000000002861   0.000000000000011  -0.000000000000000
Si   20.36625  14.93525  12.21975   0.000000000002777  -0.000000000000039  -0.000000000000022
Si   10.86200   2.71550  13.57750   0.000000000002837   0.000000000000026   0.000000000000016
Si   12.21975   4.07325  14.93525   0.000000000002785  -0.000000000000017  -0.000000000000031
Si   13.57750   5.43100  13.57750   0.000000000002862   0.000000000000008   0.000000000000003
Si   14.93525   6.78875  14.93525   0.000000000002787  -0.000000000000019  -0.000000000000052
Si   16.29300   8.14650  13.57750   0.000000000002865   0.000000000000019   0.000000000000010
Si   17.65075   9.50425  14.93525   0.000000000002777  -0.000000000000021  -0.000000000000045
Si   19.00850  10.86200  13.57750   0.000000000002854   0.000000000000014   0.000000000000022
Si   20.36625  12.21975  14.93525   0.000000000002769  -0.000000000000035  -0.000000000000029
Si   21.72400  13.57750  13.57750   0.000000000002861   0.000000000000011   0.000000000000004
Si   23.08175  14.93525  14.93525   0.000000000002779  -0.000000000000018  -0.000000000000032
Si    0.00000   5.43100   5.43100   0.000000000002867   0.000000000000006   0.000000000000013
Si    1.35775   6.78875   6.78875   0.000000000002766  -0.000000000000019  -0.000000000000020
Si    2.71550   8.14650   5.43100   0.000000000002870   0.000000000000021   0.000000000000022
Si    4.07325   9.50425   6.78875   0.000000000002774  -0.000000000000030  -0.000000000000032
Si    5.43100  10.86200   5.43100   0.000000000002866  -0.000000000000007   0.000000000000020
Si    6.78875  12.21975   6.78875   0.000000000002774  -0.000000000000038  -0.000000000000012
Si    8.14650  13.57750   5.43100   0.000000000002859   0.000000000000003   0.000000000000005
Si    9.50425  14.93525   6.78875   0.000000000002774  -0.000000000000020  -0.000000000000024
Si   10.86200  16.29300   5.43100   0.000000000002859   0.000000000000012   0.000000000000024
Si   12.21975  17.65075   6.78875   0.000000000002780  -0.000000000000020  -0.000000000000030
Si    2.71550   5.43100   8.14650   0.000000000002867   0.000000000000022   0.000000000000021
Si    4.07325   6.78875   9.50425   0.000000000002774  -0.000000000000013  -0.000000000000031
Si    5.43100   8.14650   8.14650   0.000000000002875   0.000000000000016   0.000000000000033
Si    6.78875   9.50425   9.50425   0.000000000002767  -0.000000000000036  -0.000000000000029
Si    8.14650  10.86200   8.14650   0.000000000002867   0.000000000000012   0.000000000000005
Si    9.50425  12.21975   9.50425   0.000000000002773  -0.000000000000025  -0.000000000000032
Si   10.86200  13.57750   8.14650   0.000000000002856   0.000000000000025   0.000000000000026
Si   12.21975  14.93525   9.50425   0.000000000002769  -0.000000000000022  -0.000000000000030
Si   13.57750  16.29300   8.14650   0.000000000002862   0.000000000000010   0.000000000000018
Si   14.93525  17.65075   9.50425   0.000000000002775  -0.000000000000020  -0.000000000000028
Si    5.43100   5.43100  10.86200   0.000000000002864   0.000000000000011   0.000000000000008
Si    6.78875   6.78875  12.21975   0.000000000002769  -0.000000000000037  -0.000000000000035
Si    8.14650   8.14650  10.86200   0.000000000002851   0.000000000000024  -0.000000000000007
Si    9.50425   9.50425  12.21975   0.000000000002779  -0.000000000000016  -0.000000000000029
Si   10.86200  10.86200  10.86200   0.000000000002870   0.000000000000021   0.000000000000022
Si   12.21975  12.21975  12.21975   0.000000000002765  -0.000000000000022  -0.000000000000039
Si   13.57750  13.57750  10.86200   0.000000000002851   0.000000000000016   0.000000000000016
Si   14.93525  14.93525  12.21975   0.000000000002791  -0.000000000000017  -0.000000000000033
Si   16.29300  16.29300  10.86200   0.000000000002866   0.000000000000012   0.000000000000008
Si   17.65075  17.65075  12.21975   0.000000000002763  -0.000000000000042  -0.000000000000038
Si    8.14650   5.43100  13.57750   0.000000000002856   0.000000000000024   0.000000000000006
Si    9.50425   6.78875  14.93525   0.000000000002783  -0.000000000000033  -0.000000000000038
Si   10.86200   8.14650  13.57750   0.000000000002869   0.000000000000007   0.000000000000020
Si   12.21975   9.50425  14.93525   0.000000000002772  -0.000000000000025  -0.000000000000037
Si   13.57750  10.86200  13.57750   0.000000000002863   0.000000000000023   0.000000000000018
Si   14.93525  12.21975  14.93525   0.000000000002784  -0.000000000000036  -0.000000000000035
Si   16.29300  13.57750  13.57750   0.000000000002855   0.000000000000011   0.000000000000005
Si   17.65075  14.93525  14.93525   0.000000000002773  -0.000000000000015  -0.000000000000027
Si   19.00850  16.29300  13.57750   0.000000000002869   0.000000000000013   0.000000000000007
Si   20.36625  17.65075  14.93525   0.000000000002781  -0.000000000000024  -0.000000000000037
Si   10.86200   5.43100  16.29300   0.000000000002855   0.000000000000019   0.000000000000001
Si   12.21975   6.78875  17.65075   0.000000000002784  -0.000000000000029  -0.000000000000047
Si   13.57750   8.14650  16.29300   0.000000000002860   0.000000000000011   0.000000000000018
Si   14.93525   9.50425  17.65075   0.000000000002767  -0.000000000000034  -0.000000000000046
Si   16.29300  10.86200  16.29300   0.000000000002851   0.000000000000021   0.000000000000021
Si   17.65075  12.21975  17.65075   0.000000000002774  -0.000000000000016  -0.000000000000044
Si   19.00850  13.57750  16.29300   0.000000000002852   0.000000000000024   0.000000000000015
Si   20.36625  14.93525  17.65075   0.000000000002775  -0.000000000000016  -0.000000000000038
Si   21.72400  16.29300  16.29300   0.000000000002867   0.000000000000006   0.000000000000022
Si   23.08175  17.65075  17.65075   0.000000000002763  -0.000000000000040  -0.000000000000042
Si    0.00000   8.14650   8.14650   0.000000000002868   0.000000000000009   0.000000000000008
Si    1.35775   9.50425   9.50425   0.000000000002788  -0.000000000000025  -0.000000000000027
Si    2.71550  10.86200   8.14650   0.000000000002861  -0.000000000000000   0.000000000000015
Si    4.07325  12.21975   9.50425   0.000000000002789  -0.000000000000035  -0.000000000000036
Si    5.43100  13.57750   8.14650   0.000000000002851   0.000000000000008   0.000000000000022
Si    6.78875  14.93525   9.50425   0.000000000002780  -0.000000000000043  -0.000000000000027
Si    8.14650  16.29300   8.14650   0.000000000002861   0.000000000000009   0.000000000000020
Si    9.50425  17.65075   9.50425   0.000000000002779  -0.000000000000031  -0.000000000000039
Si   10.86200  19.00850   8.14650   0.000000000002861   0.000000000000000  -0.000000000000003
Si   12.21975  20.36625   9.50425   0.000000000002777  -0.000000000000022  -0.000000000000017
Si    2.71550   8.14650  10.86200   0.000000000002863   0.000000000000020   0.000000000000006
Si    4.07325   9.50425  12.21975   0.000000000002758  -0.000000000000023  -0.000000000000029
Si    5.43100  10.86200  10.86200   0.000000000002868   0.000000000000017  -0.000000000000004
Si    6.78875  12.21975  12.21975   0.000000000002768  -0.000000000000027  -0.000000000000032
Si    8.14650  13.57750  10.86200   0.000000000002870   0.000000000000007   0.000000000000009
Si    9.50425  14.93525  12.21975   0.000000000002765  -0.000000000000018  -0.000000000000035
Si   10.86200  16.29300  10.86200   0.000000000002874   0.000000000000003   0.000000000000016
Si   12.21975  17.65075  12.21975   0.000000000002770  -0.000000000000019  -0.000000000000031
Si   13.57750  19.00850  10.86200   0.000000000002866   0.000000000000002   0.000000000000012
Si   14.93525  20.36625  12.21975   0.000000000002777  -0.000000000000033  -0.000000000000020
Si    5.43100   8.14650  13.57750   0.000000000002867   0.000000000000009   0.000000000000010
Si    6.78875   9.50425  14.93525   0.000000000002774  -0.000000000000017  -0.000000000000032
Si    8.14650  10.86200  13.57750   0.000000000002861   0.000000000000010   0.000000000000012
Si    9.50425  12.21975  14.93525   0.000000000002774  -0.000000000000021  -0.000000000000047
Si   10.86200  13.57750  13.57750   0.000000000002866   0.000000000000008   0.000000000000030
Si   12.21975  14.93525  14.93525   0.000000000002768  -0.000000000000025  -0.000000000000048
Si   13.57750  16.29300  13.57750   0.000000000002861   0.000000000000008   0.000000000000024
Si   14.93525  17.65075  14.93525   0.000000000002778  -0.000000000000018  -0.000000000000031
Si   16.29300  19.00850  13.57750   0.000000000002858   0.000000000000016   0.000000000000019
Si   17.65075  20.36625  14.93525   0.000000000002771  -0.000000000000023  -0.000000000000044
Si    8.14650   8.14650  16.29300   0.000000000002858   0.000000000000017   0.000000000000011
Si    9.50425   9.50425  17.65075   0.000000000002773  -0.000000000000023  -0.000000000000020
Si   10.86200  10.86200  16.29300   0.000000000002865   0.000000000000010   0.000000000000013
Si   12.21975  12.21975  17.65075   0.000000000002782  -0.000000000000019  -0.000000000000023
Si   13.57750  13.57750  16.29300   0.000000000002862   0.000000000000005   0.000000000000020
Si   14.93525  14.93525  17.65075   0.000000000002776  -0.000000000000027  -0.000000000000034
Si   16.29300  16.29300  16.29300   0.000000000002857   0.000000000000001   0.000000000000014
Si   17.65075  17.65075  17.65075   0.000000000002777  -0.000000000000022  -0.000000000000040
Si   19.00850  19.00850  16.29300   0.000000000002853   0.000000000000019   0.000000000000013
Si   20.36625  20.36625  17.65075   0.000000000002774  -0.000000000000027  -0.000000000000031
Si   10.86200   8.14650  19.00850   0.000000000002850   0.000000000000013   0.000000000000019
Si   12.21975   9.50425  20.36625   0.000000000002759  -0.000000000000032  -0.000000000000025
Si   13.57750  10.86200  19.00850   0.000000000002865   0.000000000000022   0.000000000000007
Si   14.93525  12.21975  20.36625   0.000000000002776  -0.000000000000024  -0.000000000000023
Si   16.29300  13.57750  19.00850   0.000000000002881   0.000000000000017   0.000000000000011
Si   17.65075  14.93525  20.36625   0.000000000002771  -0.000000000000019  -0.000000000000026
Si   19.00850  16.29300  19.00850   0.000000000002867   0.000000000000015   0.000000000000004
Si   20.36625  17.65075  20.36625   0.000000000002777  -0.000000000000024  -0.000000000000031
Si   21.72400  19.00850  19.00850   0.000000000002861   0.000000000000008   0.000000000000007
Si   23.08175  20.36625  20.36625   0.000000000002794  -0.000000000000026  -0.000000000000039
Si    0.00000  10.86200  10.86200   0.000000000002871   0.000000000000002   0.000000000000016
Si    1.35775  12.21975  12.21975   0.000000000002786  -0.000000000000035  -0.000000000000030
Si    2.71550  13.57750  10.86200   0.000000000002850   0.000000000000011   0.000000000000012
Si    4.07325  14.93525  12.21975   0.000000000002787  -0.000000000000028  -0.000000000000027
Si    5.43100  16.29300  10.86200   0.000000000002866   0.000000000000002   0.000000000000010
Si    6.78875  17.65075  12.21975   0.000000000002776  -0.000000000000030  -0.000000000000022
Si    8.14650  19.00850  10.86200   0.000000000002867   0.000000000000011   0.000000000000021
Si    9.50425  20.36625  12.21975   0.000000000002781  -0.000000000000043  -0.000000000000014
Si   10.86200  21.72400  10.86200   0.000000000002870   0.000000000000016   0.000000000000005
Si   12.21975  23.08175  12.21975   0.000000000002777  -0.000000000000049  -0.000000000000032
Si    2.71550  10.86200  13.57750   0.000000000002884   0.000000000000001   0.000000000000007
Si    4.07325  12.21975  14.93525   0.000000000002771  -0.000000000000017  -0.000000000000038
Si    5.43100  13.57750  13.57750   0.000000000002865   0.000000000000019   0.000000000000021
Si    6.78875  14.93525  14.93525   0.000000000002762  -0.000000000000013  -0.000000000000030
Si    8.14650  16.29300  13.57750   0.000000000002857   0.000000000000021   0.000000000000006
Si    9.50425  17.65075  14.93525   0.000000000002770  -0.000000000000013  -0.000000000000026
Si   10.86200  19.00850  13.57750   0.000000000002873   0.000000000000017   0.000000000000007
Si   12.21975  20.36625  14.93525   0.000000000002760  -0.000000000000031  -0.000000000000031
Si   13.57750  21.72400  13.57750   0.000000000002852   0.000000000000027   0.000000000000016
Si   14.93525  23.08175  14.93525   0.000000000002760  -0.000000000000011  -0.000000000000031
Si    5.43100  10.86200  16.29300   0.000000000002866   0.000000000000006   0.000000000000019
Si    6.78875  12.21975  17.65075   0.000000000002777  -0.000000000000026  -0.000000000000027
Si    8.14650  13.57750  16.29300   0.000000000002870   0.000000000000012   0.000000000000016
Si    9.50425  14.93525  17.65075   0.000000000002770  -0.000000000000021  -0.000000000000029
Si   10.86200  16.29300  16.29300   0.000000000002866   0.000000000000011   0.000000000000004
Si   12.21975  17.65075  17.65075   0.000000000002774  -0.000000000000013  -0.000000000000038
Si   13.57750  19.00850  16.29300   0.000000000002871   0.000000000000018   0.000000000000016
Si   14.93525  20.36625  17.65075   0.000000000002778  -0.000000000000023  -0.000000000000040
Si   16.29300  21.72400  16.29300   0.000000000002877  -0.000000000000002   0.000000000000012
Si   17.65075  23.08175  17.65075   0.000000000002765  -0.000000000000016  -0.000000000000030
Si    8.14650  10.86200  19.00850   0.000000000002860   0.000000000000015   0.000000000000014
Si    9.50425  12.21975  20.36625   0.000000000002772  -0.000000000000026  -0.000000000000030
Si   10.86200  13.57750  19.00850   0.000000000002867   0.000000000000001   0.000000000000016
Si   12.21975  14.93525  20.36625   0.000000000002764  -0.000000000000021  -0.000000000000034
Si   13.57750  16.29300  19.00850   0.000000000002862   0.000000000000011   0.000000000000019
Si   14.93525  17.65075  20.36625   0.000000000002769  -0.000000000000007  -0.000000000000034
Si   16.29300  19.00850  19.00850   0.000000000002864   0.000000000000014   0.000000000000010
Si   17.65075  20.36625  20.36625   0.000000000002787  -0.000000000000027  -0.000000000000045
Si   19.00850  21.72400  19.00850   0.000000000002868   0.000000000000013   0.000000000000007
Si   20.36625  23.08175  20.36625   0.000000000002768  -0.000000000000031  -0.000000000000043
Si   10.86200  10.86200  21.72400   0.000000000002865   0.000000000000002  -0.000000000000004
Si   12.21975  12.21975  23.08175   0.000000000002763  -0.000000000000019  -0.000000000000029
Si   13.57750  13.57750  21.72400   0.000000000002866   0.000000000000011   0.000000000000006
Si   14.93525  14.93525  23.08175   0.000000000002761  -0.000000000000028  -0.000000000000043
Si   16.29300  16.29300  21.72400   0.000000000002870   0.000000000000014   0.000000000000014
Si   17.65075  17.65075  23.08175   0.000000000002783  -0.000000000000020  -0.000000000000035
Si   19.00850  19.00850  21.72400   0.000000000002859   0.000000000000022   0.000000000000018
Si   20.36625  20.36625  23.08175   0.000000000002759  -0.000000000000014  -0.000000000000034
Si   21.72400  21.72400  21.72400   0.000000000002872   0.000000000000009   0.000000000000011
Si   23.08175  23.08175  23.08175   0.000000000002780  -0.000000000000016  -0.000000000000040
