216 

Si    0.72888   0.67888   0.67888   0.013554451787347   0.000001990640905   0.000001990780265
Si    3.39437   0.67888   3.39437  -0.000199989007893   0.000120263457138  -0.000193513031260
Si    0.67888   3.39437   3.39437   0.000422773506991  -0.000114168544905  -0.000114502621337
Si    3.39437   3.39437   0.67888  -0.000200041547466  -0.000193657874442   0.000120663348380
Si    4.75213   2.03662   2.03662   0.000010576510862   0.000025270585404   0.000025401975343
Si    4.75213   4.75213   4.75213   0.000016297008308   0.000007132997515   0.000007123560916
Si    2.03662   2.03662   4.75213   0.000033542918729  -0.000036256950645   0.000033870753217
Si    2.03662   4.75213   2.03662   0.000033457696792   0.000033950169002  -0.000036346131556
Si    0.67888   0.67888   6.10987  -0.000019083985791   0.000002861927531   0.000000654374982
Si    3.39437   0.67888   8.82538  -0.000020011019480   0.000008154452372   0.000008156478490
Si    0.67888   3.39437   8.82538  -0.000003687976017  -0.000008030991633   0.000011482742204
Si    3.39437   3.39437   6.10987  -0.000019399986438   0.000022373566952  -0.000003057825990
Si    4.75213   2.03662   7.46762   0.000001035388535  -0.000009020286559  -0.000000594166165
Si    4.75213   4.75213  10.18313   0.000002568178362  -0.000017224008593  -0.000003758273945
Si    2.03662   2.03662  10.18313   0.000015283819324   0.000001235876918   0.000002271956796
Si    2.03662   4.75213   7.46762   0.000012657105280  -0.000007455136429   0.000008759023008
Si    0.67888   0.67888  11.54087  -0.000013794231162   0.000008180520068  -0.000007935554048
Si    3.39437   0.67888  14.25638  -0.000194038207117  -0.000108273334874   0.000183817419216
Si    0.67888   3.39437  14.25638   0.000422018091951   0.000108391887535  -0.000112503298270
Si    3.39437   3.39437  11.54087  -0.000024784668434   0.000017871578365   0.000003896850492
Si    4.75213   2.03662  12.89863  -0.000016026321964   0.000051357085339   0.000024938125246
Si    4.75213   4.75213  15.61412  -0.000009864550312  -0.000013065680329  -0.000061117089029
Si    2.03662   2.03662  15.61412  -0.003371499238569  -0.002473715218554   0.002466596865185
Si    2.03662   4.75213  12.89863  -0.000177682193000   0.000054530224781  -0.000048808596521
Si    0.67888   6.10987   0.67888  -0.000018923252825   0.000000663858979   0.000002869323996
Si    3.39437   6.10987   3.39437  -0.000019464187340  -0.000003057151815   0.000022348832116
Si    0.67888   8.82538   3.39437  -0.000003743736559   0.000011456000965  -0.000008029893178
Si    3.39437   8.82538   0.67888  -0.000019971756275   0.000008152960622   0.000008157714476
Si    4.75213   7.46762   2.03662   0.000001049490055  -0.000000597242471  -0.000009039665583
Si    4.75213  10.18313   4.75213   0.000002692470639  -0.000003774394704  -0.000017203640910
Si    2.03662   7.46762   4.75213   0.000012645039693   0.000008754345802  -0.000007405383619
Si    2.03662  10.18313   2.03662   0.000015293148169   0.000002251096385   0.000001448686367
Si    0.67888   6.10987   6.10987   0.000108632972420  -0.000020934192599  -0.000020952774481
Si    3.39437   6.10987   8.82538  -0.000007160327278   0.000014920101140   0.000006025811666
Si    0.67888   8.82538   8.82538   0.000118916480978   0.000008999730048   0.000008981293021
Si    3.39437   8.82538   6.10987  -0.000007152318781   0.000006016492735   0.000014924995997
Si    4.75213   7.46762   7.46762   0.000009623983980  -0.000012779642483  -0.000012788587236
Si    4.75213  10.18313  10.18313   0.000008585646197   0.000004626591354   0.000004632029607
Si    2.03662   7.46762  10.18313  -0.000063031180408  -0.000005492206707  -0.000001646412321
Si    2.03662  10.18313   7.46762  -0.000063031285144  -0.000001625892291  -0.000005478390845
Si    0.67888   6.10987  11.54087   0.000106104270391   0.000019950795725  -0.000023733117972
Si    3.39437   6.10987  14.25638  -0.000023728036866  -0.000012045944735  -0.000025916089167
Si    0.67888   8.82538  14.25638  -0.000009028785894  -0.000000435019926   0.000000748206574
Si    3.39437   8.82538  11.54087  -0.000013283866111   0.000005850071577  -0.000024781941655
Si    4.75213   7.46762  12.89863   0.000008804203665  -0.000006105854512   0.000029066738594
Si    4.75213  10.18313  15.61412   0.000001067879060  -0.000001390071576   0.000007032973375
Si    2.03662   7.46762  15.61412   0.000014414250824  -0.000005135958238  -0.000004327972475
Si    2.03662  10.18313  12.89863   0.000011764860591  -0.000011637955204   0.000017408413116
Si    0.67888  11.54087   0.67888  -0.000013663077032  -0.000007936309136   0.000008172232865
Si    3.39437  11.54087   3.39437  -0.000024775186841   0.000003895936051   0.000017752843708
Si    0.67888  14.25638   3.39437   0.000422039666336  -0.000112161671616   0.000108726262879
Si    3.39437  14.25638   0.67888  -0.000194099182919   0.000183939698136  -0.000108677924648
Si    4.75213  12.89863   2.03662  -0.000016000514719   0.000024930478752   0.000051245053179
Si    4.75213  15.61412   4.75213  -0.000009909285682  -0.000061252549480  -0.000013078167336
Si    2.03662  12.89863   4.75213  -0.000177682292003  -0.000048770857529   0.000054557681746
Si    2.03662  15.61412   2.03662  -0.003371496769026   0.002466480745971  -0.002473839303711
Si    0.67888  11.54087   6.10987   0.000106085900318  -0.000023696965923   0.000019978704867
Si    3.39437  11.54087   8.82538  -0.000013274033451  -0.000024800525465   0.000005835756058
Si    0.67888  14.25638   8.82538  -0.000008955385995   0.000000757546039  -0.000000444807407
Si    3.39437  14.25638   6.10987  -0.000023734287408  -0.000026034426194  -0.000012050262254
Si    4.75213  12.89863   7.46762   0.000008698172512   0.000029091693451  -0.000006098569847
Si    4.75213  15.61412  10.18313   0.000001018721153   0.000007031740499  -0.000001411626119
Si    2.03662  12.89863  10.18313   0.000011776920935   0.000017455837191  -0.000011638276901
Si    2.03662  15.61412   7.46762   0.000014404596136  -0.000004120283977  -0.000005152462891
Si    0.67888  11.54087  11.54087   0.000110516356281   0.000011937869525   0.000011974813827
Si    3.39437  11.54087  14.25638  -0.000019436189847   0.000001065943444  -0.000024353467100
Si    0.67888  14.25638  14.25638   0.000420829957725   0.000105075494003   0.000105426496592
Si    3.39437  14.25638  11.54087  -0.000019408570109  -0.000024357558294   0.000001047975658
Si    4.75213  12.89863  12.89863   0.000016298076126   0.000009173173336   0.000009189137235
Si    4.75213  15.61412  15.61412   0.000011542944151  -0.000033388144607  -0.000033523297730
Si    2.03662  12.89863  15.61412   0.000034356442354  -0.000023936411302   0.000033472200911
Si    2.03662  15.61412  12.89863   0.000034439565243   0.000033378654260  -0.000023853225993
Si    6.10987   0.67888   0.67888  -0.000005157101788   0.000002872307273   0.000002868718231
Si    8.82538   0.67888   3.39437   0.000005832117061   0.000004821120704  -0.000008019513194
Si    6.10987   3.39437   3.39437   0.000002265747122  -0.000015117122944  -0.000015111098289
Si    8.82538   3.39437   0.67888   0.000005856687376  -0.000008015538895   0.000004835388794
Si   10.18313   2.03662   2.03662   0.000000019178985   0.000002241469997   0.000002255155084
Si   10.18313   4.75213   4.75213  -0.000001029766087   0.000000063888546   0.000000049847789
Si    7.46762   2.03662   4.75213   0.000000525096978   0.000012658058821   0.000004997594637
Si    7.46762   4.75213   2.03662   0.000000536022237   0.000004987350976   0.000012660338983
Si    6.10987   0.67888   6.10987  -0.000000624017798   0.000028678571003  -0.000012286218874
Si    8.82538   0.67888   8.82538   0.000010650571812   0.000009002688885   0.000008981060367
Si    6.10987   3.39437   8.82538   0.000000209830210   0.000012739748147   0.000001216326269
Si    8.82538   3.39437   6.10987   0.000004793693234  -0.000006097619176   0.000000744998404
Si   10.18313   2.03662   7.46762  -0.000004937292962  -0.000001184962898  -0.000007871371263
Si   10.18313   4.75213  10.18313   0.000002553540908   0.000011795758104  -0.000005330362408
Si    7.46762   2.03662  10.18313  -0.000012410446304   0.000002253222908  -0.000000344366828
Si    7.46762   4.75213   7.46762  -0.000005571077383   0.000003651169149  -0.000013451644786
Si    6.10987   0.67888  11.54087  -0.000001503138899  -0.000018673607046   0.000009404530257
Si    8.82538   0.67888  14.25638   0.000000544657359   0.000006199942489   0.000000736609034
Si    6.10987   3.39437  14.25638   0.000001635376378  -0.000011259766220   0.000004137540886
Si    8.82538   3.39437  11.54087   0.000011107069629  -0.000005886787225  -0.000007356479032
Si   10.18313   2.03662  12.89863   0.000003291753710  -0.000011538203056   0.000009481119863
Si   10.18313   4.75213  15.61412   0.000004164364543   0.000000522326349   0.000008664465146
Si    7.46762   2.03662  15.61412  -0.000002635288190  -0.000003255125084  -0.000000493652888
Si    7.46762   4.75213  12.89863  -0.000009079683154   0.000011937601043   0.000006034128251
Si    6.10987   6.10987   0.67888  -0.000000740965326  -0.000012297136670   0.000028678418365
Si    8.82538   6.10987   3.39437   0.000004812330997   0.000000747192201  -0.000006103606050
Si    6.10987   8.82538   3.39437   0.000000200653716   0.000001219947966   0.000012735348241
Si    8.82538   8.82538   0.67888   0.000010605387303   0.000008999508422   0.000008984194523
Si   10.18313   7.46762   2.03662  -0.000004931014316  -0.000007882406307  -0.000001189839077
Si   10.18313  10.18313   4.75213   0.000002560331799  -0.000005332439426   0.000011807708054
Si    7.46762   7.46762   4.75213  -0.000005563713307  -0.000013449275099   0.000003649663445
Si    7.46762  10.18313   2.03662  -0.000012400806550  -0.000000361594826   0.000002259516098
Si    6.10987   6.10987   6.10987  -0.000002068012937   0.000003407746262   0.000003410934350
Si    8.82538   6.10987   8.82538   0.000001049396346   0.000000859960873   0.000002873111552
Si    6.10987   8.82538   8.82538  -0.000000932153244   0.000002884054575   0.000002879593907
Si    8.82538   8.82538   6.10987   0.000001029513590   0.000002850231225   0.000000854696338
Si   10.18313   7.46762   7.46762  -0.000000953457213  -0.000002694426370  -0.000002705812903
Si   10.18313  10.18313  10.18313  -0.000000073644239  -0.000000189612014  -0.000000173898940
Si    7.46762   7.46762  10.18313  -0.000002919415512  -0.000003039996515  -0.000000717183073
Si    7.46762  10.18313   7.46762  -0.000002937292466  -0.000000706261151  -0.000003037423593
Si    6.10987   6.10987  11.54087  -0.000001925119415   0.000003525059271  -0.000010632910799
Si    8.82538   6.10987  14.25638   0.000009220167398  -0.000001632988847  -0.000003105721986
Si    6.10987   8.82538  14.25638   0.000001080998190   0.000008781182636  -0.000015616705381
Si    8.82538   8.82538  11.54087   0.000006316649651   0.000008170545607  -0.000008137603731
Si   10.18313   7.46762  12.89863   0.000003439604808   0.000002448182404  -0.000001805656999
Si   10.18313  10.18313  15.61412  -0.000004930758880   0.000000767009644  -0.000005937006431
Si    7.46762   7.46762  15.61412  -0.000014289024401  -0.000008639575033  -0.000011244361424
Si    7.46762  10.18313  12.89863  -0.000000294154063   0.000006174029597   0.000007389118096
Si    6.10987  11.54087   0.67888  -0.000001619891388   0.000009411165636  -0.000018671931784
Si    8.82538  11.54087   3.39437   0.000011106319352  -0.000007367492639  -0.000005875366485
Si    6.10987  14.25638   3.39437   0.000001635558599   0.000004144647115  -0.000011259267760
Si    8.82538  14.25638   0.67888   0.000000587047521   0.000000741237499   0.000006202725360
Si   10.18313  12.89863   2.03662   0.000003285629347   0.000009478730869  -0.000011547031583
Si   10.18313  15.61412   4.75213   0.000004170685528   0.000008651176974   0.000000522238346
Si    7.46762  12.89863   4.75213  -0.000009079732804   0.000006060746864   0.000011927335120
Si    7.46762  15.61412   2.03662  -0.000002617239044  -0.000000493949205  -0.000003263709934
Si    6.10987  11.54087   6.10987  -0.000001925016166  -0.000010640463313   0.000003510851375
Si    8.82538  11.54087   8.82538   0.000006318607114  -0.000008134237156   0.000008164604059
Si    6.10987  14.25638   8.82538   0.000001090136313  -0.000015625428843   0.000008787129497
Si    8.82538  14.25638   6.10987   0.000009220859241  -0.000003112720682  -0.000001625626151
Si   10.18313  12.89863   7.46762   0.000003432807244  -0.000001796040889   0.000002450584746
Si   10.18313  15.61412  10.18313  -0.000004936909462  -0.000005934962569   0.000000749228739
Si    7.46762  12.89863  10.18313  -0.000000283491386   0.000007370619522   0.000006167743216
Si    7.46762  15.61412   7.46762  -0.000014298677350  -0.000011256355631  -0.000008638412837
Si    6.10987  11.54087  11.54087  -0.000001188525664  -0.000006292220081  -0.000006290970140
Si    8.82538  11.54087  14.25638   0.000004792772924  -0.000004492958704   0.000002346496244
Si    6.10987  14.25638  14.25638   0.000001394817200   0.000012226585048   0.000012224997424
Si    8.82538  14.25638  11.54087   0.000004809994721   0.000002348813877  -0.000004499163350
Si   10.18313  12.89863  12.89863  -0.000001026957051   0.000005709911007   0.000005715079100
Si   10.18313  15.61412  15.61412  -0.000000859592151  -0.000005125559819  -0.000005134635592
Si    7.46762  12.89863  15.61412  -0.000004750739842   0.000006033208144  -0.000019943305856
Si    7.46762  15.61412  12.89863  -0.000004743908956  -0.000019932537407   0.000006039922183
Si   11.54087   0.67888   0.67888  -0.000013900298435   0.000008144042742   0.000008147533159
Si   14.25638   0.67888   3.39437  -0.000183759374743   0.000108387402494   0.000174873081799
Si   11.54087   3.39437   3.39437  -0.000007172646370  -0.000003904533870  -0.000003914246019
Si   14.25638   3.39437   0.67888  -0.000183805986280   0.000174971683888   0.000108788678939
Si   15.61412   2.03662   2.03662  -0.003224257844104   0.002172625410691   0.002172765832411
Si   15.61412   4.75213   4.75213  -0.000181685952041  -0.000042203704448  -0.000042262833428
Si   12.89863   2.03662   4.75213  -0.000013469618946  -0.000051768772648   0.000022761879372
Si   12.89863   4.75213   2.03662  -0.000013431714733   0.000022748577040  -0.000051650934969
Si   11.54087   0.67888   6.10987  -0.000002778912013   0.000023139820644   0.000010924777723
Si   14.25638   0.67888   8.82538  -0.000011243257944   0.000002885463178   0.000002879356703
Si   11.54087   3.39437   8.82538  -0.000008046519127  -0.000024950919744   0.000007407151649
Si   14.25638   3.39437   6.10987  -0.000016566868743  -0.000032763888876   0.000012370029460
Si   15.61412   2.03662   7.46762   0.000012501433522  -0.000002318080719  -0.000000522797801
Si   15.61412   4.75213  10.18313   0.000008547418753   0.000013133248250   0.000012534576145
Si   12.89863   2.03662  10.18313   0.000005488457718   0.000010584097576   0.000002198586477
Si   12.89863   4.75213   7.46762   0.000008739731844   0.000029203778630  -0.000011878248113
Si   11.54087   0.67888  11.54087  -0.000008909742972  -0.000011268287346  -0.000020776836069
Si   14.25638   0.67888  14.25638  -0.000182934900518  -0.000098280306269  -0.000177790325920
Si   11.54087   3.39437  14.25638  -0.000001404952797   0.000009313700050  -0.000011303847553
Si   14.25638   3.39437  11.54087  -0.000015780112088  -0.000029179666035  -0.000007308901711
Si   15.61412   2.03662  12.89863   0.000028277782186   0.000039293082793   0.000027481565639
Si   15.61412   4.75213  15.61412   0.000022871058458  -0.000016588416933  -0.000046632918740
Si   12.89863   2.03662  15.61412   0.000007077426686  -0.000025094965547   0.000023270208438
Si   12.89863   4.75213  12.89863   0.000016291446779   0.000009340268237   0.000006964552721
Si   11.54087   6.10987   0.67888  -0.000002904703949   0.000010931533444   0.000023146748024
Si   14.25638   6.10987   3.39437  -0.000016556584108   0.000012364311108  -0.000032668401241
Si   11.54087   8.82538   3.39437  -0.000008056412172   0.000007425050373  -0.000024926475610
Si   14.25638   8.82538   0.67888  -0.000011207411573   0.000002883822873   0.000002881094891
Si   15.61412   7.46762   2.03662   0.000012544268548  -0.000000531748834  -0.000002544339919
Si   15.61412  10.18313   4.75213   0.000008516042147   0.000012538853369   0.000013098932925
Si   12.89863   7.46762   4.75213   0.000008843208415  -0.000011908790807   0.000029180489701
Si   12.89863  10.18313   2.03662   0.000005518694596   0.000002181009463   0.000010593477443
Si   11.54087   6.10987   6.10987  -0.000009119914164  -0.000003441508146  -0.000003426844670
Si   14.25638   6.10987   8.82538  -0.000004092742089  -0.000015752323033   0.000010299060335
Si   11.54087   8.82538   8.82538  -0.000009908973803   0.000008153543273   0.000008157019489
Si   14.25638   8.82538   6.10987  -0.000004100764449   0.000010296781441  -0.000015753583777
Si   15.61412   7.46762   7.46762  -0.000071653096219  -0.000010788429798  -0.000010791720603
Si   15.61412  10.18313  10.18313  -0.000069762077354   0.000001785484306   0.000001807139304
Si   12.89863   7.46762  10.18313   0.000004182957219   0.000001695884853  -0.000003694768054
Si   12.89863  10.18313   7.46762   0.000004200837231  -0.000003684136316   0.000001687936974
Si   11.54087   6.10987  11.54087  -0.000004805366292  -0.000002647096773   0.000000648789878
Si   14.25638   6.10987  14.25638  -0.000016704370259   0.000004432594898   0.000026300869853
Si   11.54087   8.82538  14.25638  -0.000001923056281   0.000004441106952   0.000015069234759
Si   14.25638   8.82538  11.54087  -0.000004980526464  -0.000000295923371   0.000012871594562
Si   15.61412   7.46762  12.89863   0.000003246343288  -0.000019812735766  -0.000002061205053
Si   15.61412  10.18313  15.61412   0.000012527586350  -0.000003217161268  -0.000001215466562
Si   12.89863   7.46762  15.61412   0.000006554530848  -0.000010332603329  -0.000018751954279
Si   12.89863  10.18313  12.89863   0.000002735569584   0.000002033013505  -0.000017317334712
Si   11.54087  11.54087   0.67888  -0.000009017455808  -0.000020807141668  -0.000011280123597
Si   14.25638  11.54087   3.39437  -0.000015823158802  -0.000007318147026  -0.000029174516374
Si   11.54087  14.25638   3.39437  -0.000001422923355  -0.000011298602330   0.000009300369128
Si   14.25638  14.25638   0.67888  -0.000182973917748  -0.000177894195175  -0.000098679265690
Si   15.61412  12.89863   2.03662   0.000028149264367   0.000027556785886   0.000039378756682
Si   15.61412  15.61412   4.75213   0.000023016807233  -0.000046544606975  -0.000016496555665
Si   12.89863  12.89863   4.75213   0.000016291030670   0.000006965694333   0.000009348715604
Si   12.89863  15.61412   2.03662   0.000007060226611   0.000023162011855  -0.000025222146875
Si   11.54087  11.54087   6.10987  -0.000004787437730   0.000000659424211  -0.000002655012201
Si   14.25638  11.54087   8.82538  -0.000004972429223   0.000012865935833  -0.000000295876432
Si   11.54087  14.25638   8.82538  -0.000001931083967   0.000015070243504   0.000004454001432
Si   14.25638  14.25638   6.10987  -0.000016663203704   0.000026300804031   0.000004428042774
Si   15.61412  12.89863   7.46762   0.000003259934471  -0.000002112262146  -0.000019817000921
Si   15.61412  15.61412  10.18313   0.000012521960348  -0.000001433215449  -0.000003234528115
Si   12.89863  12.89863  10.18313   0.000002614801077  -0.000017335069241   0.000002026086527
Si   12.89863  15.61412   7.46762   0.000006523849097  -0.000018739188400  -0.000010353820825
Si   11.54087  11.54087  11.54087  -0.000010156740665  -0.000004713136169  -0.000004731331936
Si   14.25638  11.54087  14.25638  -0.000016564137629  -0.000019477810817   0.000025547774134
Si   11.54087  14.25638  14.25638  -0.000006141473202  -0.000004256919332  -0.000004250591470
Si   14.25638  14.25638  11.54087  -0.000016572207552   0.000025651680511  -0.000019490520802
Si   15.61412  12.89863  12.89863  -0.000181690223572   0.000060223445095   0.000060246239516
Si   15.61412  15.61412  15.61412  -0.003226192764674  -0.002181521714668  -0.002181649370871
Si   12.89863  12.89863  15.61412  -0.000007271363204  -0.000010868030913   0.000041758104377
Si   12.89863  15.61412  12.89863  -0.000007327169528   0.000041851972332  -0.000010886025883
