512 

Si    0.67887   0.67888   0.67887   0.000000287813310   0.000000287813554   0.000000281671492
Si    3.39437   0.67888   3.39437  -0.000000301268362   0.000008739324618  -0.000000300158284
Si    0.67887   3.39438   3.39437   0.000008739324318  -0.000000301268121  -0.000000300158536
Si    3.39437   3.39438   0.67887  -0.000000304039885  -0.000000304039944   0.000008743797339
Si    4.75212   2.03662   2.03662   0.000006174472175  -0.000004995966038  -0.000004988076441
Si    4.75212   4.75212   4.75212  -0.000001386634281  -0.000001386634431  -0.000001396132218
Si    2.03662   2.03662   4.75212  -0.000005003824538  -0.000005003824802   0.000006163735178
Si    2.03662   4.75212   2.03662  -0.000004995966272   0.000006174472207  -0.000004988076603
Si    0.67887   0.67888   6.10987  -0.000003885450438  -0.000003885450080   0.000006583501786
Si    3.39437   0.67888   8.82537  -0.000000014679752   0.000003014259890  -0.000002137387498
Si    0.67887   3.39438   8.82537   0.000003014259669  -0.000000014679500  -0.000002137387148
Si    3.39437   3.39438   6.10987   0.000000077409967   0.000000077409968   0.000004295551817
Si    4.75212   2.03662   7.46762   0.000001799718534   0.000008992304011  -0.000003068042169
Si    4.75212   4.75212  10.18313  -0.000002301551924  -0.000002301551730   0.000007467496994
Si    2.03662   2.03662  10.18313  -0.000001858904726  -0.000001858904441   0.000005185812297
Si    2.03662   4.75212   7.46762   0.000008992304080   0.000001799718850  -0.000003068041975
Si    0.67887   0.67888  11.54087   0.000001773594149   0.000001773594137   0.000004589255080
Si    3.39437   0.67888  14.25638   0.000001378977124   0.000004542325079   0.000000848717768
Si    0.67887   3.39438  14.25638   0.000004542324670   0.000001378977352   0.000000848718060
Si    3.39437   3.39438  11.54087   0.000004014463171   0.000004014463054  -0.000005766532497
Si    4.75212   2.03662  12.89862  -0.000003103358505  -0.000003493681747   0.000002216986844
Si    4.75212   4.75212  15.61412  -0.000000438620530  -0.000000438620385   0.000000624144469
Si    2.03662   2.03662  15.61412   0.000002688313952   0.000002688314092  -0.000006644906739
Si    2.03662   4.75212  12.89862  -0.000003493681934  -0.000003103358338   0.000002216986783
Si    0.67887   0.67888  16.97187  -0.000000480278382  -0.000000480277976   0.000001530422550
Si    3.39437   0.67888  19.68737  -0.000004818928980  -0.000001247307949  -0.000001210087124
Si    0.67887   3.39438  19.68737  -0.000001247308445  -0.000004818928715  -0.000001210086907
Si    3.39437   3.39438  16.97187   0.000000597301062   0.000000597300967  -0.000003536461081
Si    4.75212   2.03662  18.32963   0.000000696082356   0.000004149240284   0.000000658565928
Si    4.75212   4.75212  21.04512   0.000002606993841   0.000002606993906  -0.000003464478695
Si    2.03662   2.03662  21.04512  -0.000001560460498  -0.000001560460489  -0.000000008256578
Si    2.03662   4.75212  18.32963   0.000004149239993   0.000000696082505   0.000000658566102
Si    0.67887   6.10987   0.67887  -0.000003879268391   0.000006574791980  -0.000003883708126
Si    3.39437   6.10987   3.39437   0.000000069612461   0.000004299422329   0.000000070296095
Si    0.67887   8.82537   3.39437   0.000003010590622  -0.000002139938464  -0.000000005256065
Si    3.39437   8.82537   0.67887  -0.000000006602221  -0.000002134162751   0.000003014915753
Si    4.75212   7.46762   2.03662   0.000001801189620  -0.000003075032008   0.000008988065491
Si    4.75212  10.18313   4.75212  -0.000002299230289   0.000007474128606  -0.000002298835500
Si    2.03662   7.46762   4.75212   0.000008983378081  -0.000003080445569   0.000001799112686
Si    2.03662  10.18313   2.03662  -0.000001870111353   0.000005192147131  -0.000001868864365
Si    0.67887   6.10987   6.10987   0.000001069269712   0.000001180339292   0.000001176265432
Si    3.39437   6.10987   8.82537   0.000005750476938   0.000002243556715   0.000004212426991
Si    0.67887   8.82537   8.82537   0.000000526236059   0.000000591011620   0.000000596681416
Si    3.39437   8.82537   6.10987   0.000005744667877   0.000004214145218   0.000002246725817
Si    4.75212   7.46762   7.46762   0.000000162018774   0.000001757191574   0.000001753506784
Si    4.75212  10.18313  10.18313  -0.000002452224350  -0.000003028937145  -0.000003017663454
Si    2.03662   7.46762  10.18313   0.000002000183924   0.000004857484044  -0.000002432705853
Si    2.03662  10.18313   7.46762   0.000002006405567  -0.000002428402444   0.000004851904040
Si    0.67887   6.10987  11.54087   0.000004688456758  -0.000001695924131  -0.000002388513430
Si    3.39437   6.10987  14.25638  -0.000004054284304   0.000002169568261   0.000005257543029
Si    0.67887   8.82537  14.25638  -0.000001687805417  -0.000000894463565   0.000003040899305
Si    3.39437   8.82537  11.54087  -0.000001175222357  -0.000001146117172  -0.000007856382880
Si    4.75212   7.46762  12.89862   0.000001291413240   0.000006436206868   0.000003267942724
Si    4.75212  10.18313  15.61412  -0.000003341609423   0.000000876748850  -0.000003805647728
Si    2.03662   7.46762  15.61412  -0.000002804792413  -0.000000097446516  -0.000001228381324
Si    2.03662  10.18313  12.89862  -0.000002199298813  -0.000003101126710   0.000000562184576
Si    0.67887   6.10987  16.97187   0.000003741848542   0.000000294719584  -0.000000110547211
Si    3.39437   6.10987  19.68737   0.000000604125593  -0.000004495402789   0.000005005118453
Si    0.67887   8.82537  19.68737  -0.000002825876147   0.000003287536233   0.000000455089680
Si    3.39437   8.82537  16.97187   0.000000634342893  -0.000001562562313   0.000001075737823
Si    4.75212   7.46762  18.32963  -0.000000088592392  -0.000003257386561  -0.000001623803808
Si    4.75212  10.18313  21.04512   0.000005518858262   0.000005002139960  -0.000005117722615
Si    2.03662   7.46762  21.04512  -0.000006184441454  -0.000005164164256   0.000002242700102
Si    2.03662  10.18313  18.32963   0.000002237149970   0.000003226597861  -0.000000141079760
Si    0.67887  11.54087   0.67887   0.000001766762630   0.000004589140525   0.000001764350133
Si    3.39437  11.54087   3.39437   0.000004011771513  -0.000005765404988   0.000004015039225
Si    0.67887  14.25638   3.39437   0.000004540235879   0.000000848669235   0.000001378248936
Si    3.39437  14.25638   0.67887   0.000001379242303   0.000000847394957   0.000004539759961
Si    4.75212  12.89862   2.03662  -0.000003103564030   0.000002211627500  -0.000003492393500
Si    4.75212  15.61412   4.75212  -0.000000438215237   0.000000635148197  -0.000000429904862
Si    2.03662  12.89862   4.75212  -0.000003482912868   0.000002208015645  -0.000003097757619
Si    2.03662  15.61412   2.03662   0.000002693812040  -0.000006638762962   0.000002684284191
Si    0.67887  11.54087   6.10987   0.000004696339147  -0.000002386562385  -0.000001708101027
Si    3.39437  11.54087   8.82537  -0.000001177328074  -0.000007858419094  -0.000001145545433
Si    0.67887  14.25638   8.82537  -0.000001687180363   0.000003037772493  -0.000000897475774
Si    3.39437  14.25638   6.10987  -0.000004054158527   0.000005258227392   0.000002174581243
Si    4.75212  12.89862   7.46762   0.000001291072045   0.000003259512091   0.000006433734769
Si    4.75212  15.61412  10.18313  -0.000003331992429  -0.000003820388930   0.000000879595959
Si    2.03662  12.89862  10.18313  -0.000002212104309   0.000000577521987  -0.000003092273204
Si    2.03662  15.61412   7.46762  -0.000002803882163  -0.000001223515102  -0.000000101141025
Si    0.67887  11.54087  11.54087   0.000004552488688  -0.000003631310738  -0.000003632518517
Si    3.39437  11.54087  14.25638  -0.000004757278870   0.000006692414183  -0.000002435055932
Si    0.67887  14.25638  14.25638   0.000000519450606   0.000001641164134   0.000001644452473
Si    3.39437  14.25638  11.54087  -0.000004762688899  -0.000002431996605   0.000006693368689
Si    4.75212  12.89862  12.89862   0.000000018089246  -0.000001761156990  -0.000001764820600
Si    4.75212  15.61412  15.61412   0.000000292597101  -0.000001615059556  -0.000001616515070
Si    2.03662  12.89862  15.61412   0.000007187432701   0.000000515927399  -0.000000602554808
Si    2.03662  15.61412  12.89862   0.000007179697890  -0.000000609404656   0.000000516021400
Si    0.67887  11.54087  16.97187   0.000005125112828  -0.000004997697896  -0.000005524856540
Si    3.39437  11.54087  19.68737   0.000000133759276  -0.000003226460980  -0.000002242237046
Si    0.67887  14.25638  19.68737  -0.000002253176195   0.000005173691809   0.000006187625760
Si    3.39437  14.25638  16.97187   0.000001622613478   0.000003255840718   0.000000093027481
Si    4.75212  12.89862  18.32963  -0.000001073999072   0.000001568283497  -0.000000646404914
Si    4.75212  15.61412  21.04512   0.000000109941942  -0.000000299959676  -0.000003730993243
Si    2.03662  12.89862  21.04512  -0.000000453056263  -0.000003288497299   0.000002835755391
Si    2.03662  15.61412  18.32963  -0.000005010396391   0.000004495539640  -0.000000615366098
Si    0.67887  16.97187   0.67887  -0.000000465015282   0.000001535574648  -0.000000466694003
Si    3.39437  16.97187   3.39437   0.000000594183195  -0.000003535312296   0.000000600008222
Si    0.67887  19.68737   3.39437  -0.000001252983349  -0.000001213779509  -0.000004828715807
Si    3.39437  19.68737   0.67887  -0.000004824508378  -0.000001213760900  -0.000001249850568
Si    4.75212  18.32963   2.03662   0.000000710438660   0.000000649681835   0.000004144322970
Si    4.75212  21.04512   4.75212   0.000002615310823  -0.000003452276796   0.000002605039568
Si    2.03662  18.32963   4.75212   0.000004143363794   0.000000651450555   0.000000701786868
Si    2.03662  21.04512   2.03662  -0.000001574981246  -0.000000004065753  -0.000001562187168
Si    0.67887  16.97187   6.10987   0.000003735162313  -0.000000107909043   0.000000302231701
Si    3.39437  16.97187   8.82537   0.000000636150613   0.000001077002445  -0.000001558138850
Si    0.67887  19.68737   8.82537  -0.000002831996934   0.000000453323119   0.000003282238754
Si    3.39437  19.68737   6.10987   0.000000614785443   0.000005002528912  -0.000004499724819
Si    4.75212  18.32963   7.46762  -0.000000099263765  -0.000001630965332  -0.000003258290933
Si    4.75212  21.04512  10.18313   0.000005522425475  -0.000005124096591   0.000004994669432
Si    2.03662  18.32963  10.18313   0.000002236896695  -0.000000130305612   0.000003228371668
Si    2.03662  21.04512   7.46762  -0.000006180309242   0.000002239087849  -0.000005167268766
Si    0.67887  16.97187  11.54087   0.000005124096163  -0.000005522425622  -0.000004994669359
Si    3.39437  16.97187  14.25638   0.000001630965299   0.000000099263562   0.000003258290908
Si    0.67887  19.68737  14.25638  -0.000002239088063   0.000006180308954   0.000005167268705
Si    3.39437  19.68737  11.54087   0.000000130305478  -0.000002236896989  -0.000003228371744
Si    4.75212  18.32963  12.89862  -0.000001077002388  -0.000000636150693   0.000001558138733
Si    4.75212  21.04512  15.61412   0.000000107908839  -0.000003735162419  -0.000000302231472
Si    2.03662  18.32963  15.61412  -0.000005002528996  -0.000000614785394   0.000004499724778
Si    2.03662  21.04512  12.89862  -0.000000453323526   0.000002831997008  -0.000003282238928
Si    0.67887  16.97187  16.97187   0.000003452276399  -0.000002615310970  -0.000002605039639
Si    3.39437  16.97187  19.68737  -0.000000649681804  -0.000000710438787  -0.000004144322836
Si    0.67887  19.68737  19.68737   0.000000004065669   0.000001574981063   0.000001562187055
Si    3.39437  19.68737  16.97187  -0.000000651450823  -0.000004143363775  -0.000000701786915
Si    4.75212  18.32963  18.32963   0.000003535312282  -0.000000594183341  -0.000000600007980
Si    4.75212  21.04512  21.04512  -0.000001535574689   0.000000465014988   0.000000466694245
Si    2.03662  18.32963  21.04512   0.000001213760691   0.000004824508291   0.000001249850641
Si    2.03662  21.04512  18.32963   0.000001213779549   0.000001252983405   0.000004828715963
Si    6.10988   0.67888   0.67887   0.000006574791528  -0.000003879268131  -0.000003883708228
Si    8.82537   0.67888   3.39437  -0.000002139938091   0.000003010590718  -0.000000005256088
Si    6.10988   3.39438   3.39437   0.000004299421842   0.000000069612305   0.000000070295831
Si    8.82537   3.39438   0.67887  -0.000002134162561  -0.000000006602468   0.000003014915581
Si   10.18313   2.03662   2.03662   0.000005192146868  -0.000001870110435  -0.000001868864108
Si   10.18313   4.75212   4.75212   0.000007474128449  -0.000002299229981  -0.000002298835578
Si    7.46762   2.03662   4.75212  -0.000003080445827   0.000008983378580   0.000001799112737
Si    7.46762   4.75212   2.03662  -0.000003075031992   0.000001801189739   0.000008988065724
Si    6.10988   0.67888   6.10987   0.000001180338882   0.000001069269964   0.000001176265405
Si    8.82537   0.67888   8.82537   0.000000591011557   0.000000526236659   0.000000596681340
Si    6.10988   3.39438   8.82537   0.000002243556747   0.000005750477171   0.000004212426790
Si    8.82537   3.39438   6.10987   0.000004214144854   0.000005744667943   0.000002246725972
Si   10.18313   2.03662   7.46762  -0.000002428402596   0.000002006405297   0.000004851903924
Si   10.18313   4.75212  10.18313  -0.000003028937533  -0.000002452224395  -0.000003017663311
Si    7.46762   2.03662  10.18313   0.000004857484030   0.000002000184154  -0.000002432705836
Si    7.46762   4.75212   7.46762   0.000001757191525   0.000000162018764   0.000001753506851
Si    6.10988   0.67888  11.54087  -0.000001695924537   0.000004688456951  -0.000002388513383
Si    8.82537   0.67888  14.25638  -0.000000894463301  -0.000001687805065   0.000003040899175
Si    6.10988   3.39438  14.25638   0.000002169568001  -0.000004054284266   0.000005257542733
Si    8.82537   3.39438  11.54087  -0.000001146116882  -0.000001175221967  -0.000007856383194
Si   10.18313   2.03662  12.89862  -0.000003101127132  -0.000002199298854   0.000000562184857
Si   10.18313   4.75212  15.61412   0.000000876748673  -0.000003341609633  -0.000003805647701
Si    7.46762   2.03662  15.61412  -0.000000097446352  -0.000002804791918  -0.000001228381221
Si    7.46762   4.75212  12.89862   0.000006436206736   0.000001291413279   0.000003267942947
Si    6.10988   0.67888  16.97187   0.000000294719001   0.000003741848721  -0.000000110547257
Si    8.82537   0.67888  19.68737   0.000003287536255  -0.000002825875998   0.000000455089638
Si    6.10988   3.39438  19.68737  -0.000004495402814   0.000000604125405   0.000005005118387
Si    8.82537   3.39438  16.97187  -0.000001562562333   0.000000634343075   0.000001075737490
Si   10.18313   2.03662  18.32963   0.000003226598054   0.000002237149938  -0.000000141079915
Si   10.18313   4.75212  21.04512   0.000005002139832   0.000005518858380  -0.000005117722500
Si    7.46762   2.03662  21.04512  -0.000005164164580  -0.000006184440865   0.000002242700190
Si    7.46762   4.75212  18.32963  -0.000003257386849  -0.000000088592223  -0.000001623803690
Si    6.10988   6.10987   0.67887   0.000001169480227   0.000001169480644   0.000001074612043
Si    8.82537   6.10987   3.39437   0.000004220014954   0.000002241841959   0.000005740289945
Si    6.10988   8.82537   3.39437   0.000002241841919   0.000004220015174   0.000005740290196
Si    8.82537   8.82537   0.67887   0.000000602638485   0.000000602638450   0.000000532445299
Si   10.18313   7.46762   2.03662  -0.000002429873734   0.000004861991659   0.000001999136149
Si   10.18313  10.18313   4.75212  -0.000003026511730  -0.000003026511580  -0.000002459855642
Si    7.46762   7.46762   4.75212   0.000001746517711   0.000001746517963   0.000000164861857
Si    7.46762  10.18313   2.03662   0.000004861991122  -0.000002429873948   0.000001999136058
Si    6.10988   6.10987   6.10987   0.000002961673285   0.000002961673469   0.000002963076237
Si    8.82537   6.10987   8.82537  -0.000001790023008   0.000000807216120  -0.000001791679108
Si    6.10988   8.82537   8.82537   0.000000807215662  -0.000001790022994  -0.000001791679097
Si    8.82537   8.82537   6.10987  -0.000001788096055  -0.000001788096006   0.000000811705951
Si   10.18313   7.46762   7.46762  -0.000003344854072  -0.000000063455076  -0.000000061697427
Si   10.18313  10.18313  10.18313  -0.000003658622790  -0.000003658622904  -0.000003660445452
Si    7.46762   7.46762  10.18313  -0.000000058082781  -0.000000058082801  -0.000003348129216
Si    7.46762  10.18313   7.46762  -0.000000063455257  -0.000003344854024  -0.000000061697687
Si    6.10988   6.10987  11.54087   0.000004695710863   0.000004695711243   0.000000405185756
Si    8.82537   6.10987  14.25638   0.000000190275324   0.000000467343220   0.000003277444902
Si    6.10988   8.82537  14.25638   0.000000467343220   0.000000190275637   0.000003277445190
Si    8.82537   8.82537  11.54087   0.000003012153509   0.000003012153517   0.000000923271911
Si   10.18313   7.46762  12.89862  -0.000000336832769   0.000003662101349   0.000004568892542
Si   10.18313  10.18313  15.61412  -0.000000862930553  -0.000000862930440  -0.000000235304773
Si    7.46762   7.46762  15.61412   0.000000548484257   0.000000548484533   0.000003155447446
Si    7.46762  10.18313  12.89862   0.000003662101096  -0.000000336832654   0.000004568892529
Si    6.10988   6.10987  16.97187   0.000001635067435   0.000001635067600  -0.000000292034640
Si    8.82537   6.10987  19.68737  -0.000000532773234   0.000000615511747  -0.000007185295884
Si    6.10988   8.82537  19.68737   0.000000615511704  -0.000000532773247  -0.000007185295922
Si    8.82537   8.82537  16.97187   0.000001746536169   0.000001746536217  -0.000000010040520
Si   10.18313   7.46762  18.32963  -0.000006698020603   0.000002429969641   0.000004760983495
Si   10.18313  10.18313  21.04512   0.000003632636938   0.000003632637162  -0.000004560132202
Si    7.46762   7.46762  21.04512  -0.000001640700487  -0.000001640700068  -0.000000510765411
Si    7.46762  10.18313  18.32963   0.000002429969170  -0.000006698020575   0.000004760983369
Si    6.10988  11.54087   0.67887  -0.000001709914883  -0.000002389977783   0.000004698418137
Si    8.82537  11.54087   3.39437  -0.000001147692615  -0.000007860733936  -0.000001184223162
Si    6.10988  14.25638   3.39437   0.000002171872432   0.000005259429539  -0.000004056061905
Si    8.82537  14.25638   0.67887  -0.000000889706409   0.000003042384246  -0.000001688436768
Si   10.18313  12.89862   2.03662  -0.000003105537888   0.000000567515658  -0.000002198401063
Si   10.18313  15.61412   4.75212   0.000000863775056  -0.000003813714223  -0.000003340409546
Si    7.46762  12.89862   4.75212   0.000006448264311   0.000003272674898   0.000001295063560
Si    7.46762  15.61412   2.03662  -0.000000091302757  -0.000001233177573  -0.000002805189358
Si    6.10988  11.54087   6.10987   0.000004703808606   0.000000398658880   0.000004706191119
Si    8.82537  11.54087   8.82537   0.000003008972988   0.000000917701235   0.000003003352387
Si    6.10988  14.25638   8.82537   0.000000475851325   0.000003284337923   0.000000182780511
Si    8.82537  14.25638   6.10987   0.000000185713972   0.000003277793287   0.000000470874211
Si   10.18313  12.89862   7.46762  -0.000000332036414   0.000004567000041   0.000003665348262
Si   10.18313  15.61412  10.18313  -0.000000861956028  -0.000000231410673  -0.000000869785181
Si    7.46762  12.89862  10.18313   0.000003652696337   0.000004574872979  -0.000000335380884
Si    7.46762  15.61412   7.46762   0.000000547847311   0.000003162494675   0.000000548906905
Si    6.10988  11.54087  11.54087   0.000000231410334   0.000000861955926   0.000000869785108
Si    8.82537  11.54087  14.25638  -0.000004567000233   0.000000332036675  -0.000003665348534
Si    6.10988  14.25638  14.25638  -0.000003162495152  -0.000000547847516  -0.000000548907093
Si    8.82537  14.25638  11.54087  -0.000004574873041  -0.000003652696392   0.000000335380783
Si   10.18313  12.89862  12.89862  -0.000000917701135  -0.000003008973112  -0.000003003352055
Si   10.18313  15.61412  15.61412  -0.000000398659026  -0.000004703809134  -0.000004706190946
Si    7.46762  12.89862  15.61412  -0.000003277793211  -0.000000185713899  -0.000000470874199
Si    7.46762  15.61412  12.89862  -0.000003284337849  -0.000000475851696  -0.000000182780456
Si    6.10988  11.54087  16.97187   0.000003813713704  -0.000000863775257   0.000003340409327
Si    8.82537  11.54087  19.68737  -0.000000567515514   0.000003105537920   0.000002198401022
Si    6.10988  14.25638  19.68737   0.000001233177433   0.000000091302460   0.000002805189026
Si    8.82537  14.25638  16.97187  -0.000003272674905  -0.000006448264381  -0.000001295063592
Si   10.18313  12.89862  18.32963   0.000007860734065   0.000001147692476   0.000001184223152
Si   10.18313  15.61412  21.04512   0.000002389977431   0.000001709914632  -0.000004698418206
Si    7.46762  12.89862  21.04512  -0.000003042384474   0.000000889706463   0.000001688436886
Si    7.46762  15.61412  18.32963  -0.000005259429650  -0.000002171872823   0.000004056061926
Si    6.10988  16.97187   0.67887   0.000000299959802  -0.000000109942203   0.000003730993272
Si    8.82537  16.97187   3.39437  -0.000001568283822   0.000001073999007   0.000000646404843
Si    6.10988  19.68737   3.39437  -0.000004495539980   0.000005010396406   0.000000615366044
Si    8.82537  19.68737   0.67887   0.000003288497264   0.000000453056046  -0.000002835755196
Si   10.18313  18.32963   2.03662   0.000003226460960  -0.000000133759242   0.000002242236932
Si   10.18313  21.04512   4.75212   0.000004997697635  -0.000005125112866   0.000005524856514
Si    7.46762  18.32963   4.75212  -0.000003255840757  -0.000001622613831  -0.000000093027371
Si    7.46762  21.04512   2.03662  -0.000005173692111   0.000002253175878  -0.000006187625925
Si    6.10988  16.97187   6.10987   0.000001615058968  -0.000000292597056   0.000001616515044
Si    8.82537  16.97187   8.82537   0.000001761156903  -0.000000018089242   0.000001764820704
Si    6.10988  19.68737   8.82537   0.000000609404252  -0.000007179698018  -0.000000516021646
Si    8.82537  19.68737   6.10987  -0.000000515927427  -0.000007187433014   0.000000602554933
Si   10.18313  18.32963   7.46762  -0.000006692414239   0.000004757278668   0.000002435055609
Si   10.18313  21.04512  10.18313   0.000003631310732  -0.000004552488524   0.000003632518388
Si    7.46762  18.32963  10.18313   0.000002431996628   0.000004762688765  -0.000006693368567
Si    7.46762  21.04512   7.46762  -0.000001641164602  -0.000000519450795  -0.000001644452529
Si    6.10988  16.97187  11.54087   0.000003820388634   0.000003331992493  -0.000000879595860
Si    8.82537  16.97187  14.25638  -0.000003259512474  -0.000001291072219  -0.000006433734857
Si    6.10988  19.68737  14.25638   0.000001223515133   0.000002803881792   0.000000101140866
Si    8.82537  19.68737  11.54087  -0.000000577521997   0.000002212103894   0.000003092273282
Si   10.18313  18.32963  12.89862   0.000007858419162   0.000001177328097   0.000001145545039
Si   10.18313  21.04512  15.61412   0.000002386562467  -0.000004696339524   0.000001708101071
Si    7.46762  18.32963  15.61412  -0.000005258227516   0.000004054158489  -0.000002174581386
Si    7.46762  21.04512  12.89862  -0.000003037772830   0.000001687179933   0.000000897475746
Si    6.10988  16.97187  16.97187  -0.000000635148471   0.000000438215182   0.000000429904847
Si    8.82537  16.97187  19.68737  -0.000002211627338   0.000003103563741   0.000003492393358
Si    6.10988  19.68737  19.68737   0.000006638762755  -0.000002693812115  -0.000002684284351
Si    8.82537  19.68737  16.97187  -0.000002208015734   0.000003482912650   0.000003097757963
Si   10.18313  18.32963  18.32963   0.000005765405000  -0.000004011771228  -0.000004015039263
Si   10.18313  21.04512  21.04512  -0.000004589140626  -0.000001766762785  -0.000001764350336
Si    7.46762  18.32963  21.04512  -0.000000847395254  -0.000001379242393  -0.000004539759715
Si    7.46762  21.04512  18.32963  -0.000000848669386  -0.000004540236133  -0.000001378249027
Si   11.54087   0.67888   0.67887   0.000004589140639   0.000001766762553   0.000001764350124
Si   14.25638   0.67888   3.39437   0.000000848669102   0.000004540236146   0.000001378248818
Si   11.54087   3.39438   3.39437  -0.000005765405225   0.000004011771119   0.000004015039050
Si   14.25638   3.39438   0.67887   0.000000847395192   0.000001379242213   0.000004539759928
Si   15.61412   2.03662   2.03662  -0.000006638763075   0.000002693812170   0.000002684284175
Si   15.61412   4.75212   4.75212   0.000000635148324  -0.000000438215326  -0.000000429905046
Si   12.89862   2.03662   4.75212   0.000002208015504  -0.000003482912766  -0.000003097757789
Si   12.89862   4.75212   2.03662   0.000002211627077  -0.000003103563796  -0.000003492393490
Si   11.54087   0.67888   6.10987  -0.000002386562632   0.000004696339536  -0.000001708100976
Si   14.25638   0.67888   8.82537   0.000003037772676  -0.000001687179889  -0.000000897475923
Si   11.54087   3.39438   8.82537  -0.000007858419175  -0.000001177328014  -0.000001145545187
Si   14.25638   3.39438   6.10987   0.000005258227310  -0.000004054158667   0.000002174581522
Si   15.61412   2.03662   7.46762  -0.000001223515533  -0.000002803881979  -0.000000101141097
Si   15.61412   4.75212  10.18313  -0.000003820389110  -0.000003331992370   0.000000879595931
Si   12.89862   2.03662  10.18313   0.000000577521659  -0.000002212104066  -0.000003092273218
Si   12.89862   4.75212   7.46762   0.000003259512114   0.000001291072104   0.000006433734806
Si   11.54087   0.67888  11.54087  -0.000003631310686   0.000004552488606  -0.000003632518533
Si   14.25638   0.67888  14.25638   0.000001641164522   0.000000519450821   0.000001644452645
Si   11.54087   3.39438  14.25638   0.000006692413950  -0.000004757278719  -0.000002435055822
Si   14.25638   3.39438  11.54087  -0.000002431996552  -0.000004762689106   0.000006693368718
Si   15.61412   2.03662  12.89862  -0.000000609404849   0.000007179698302   0.000000516021378
Si   15.61412   4.75212  15.61412  -0.000001615059458   0.000000292596991  -0.000001616514904
Si   12.89862   2.03662  15.61412   0.000000515927334   0.000007187432895  -0.000000602554638
Si   12.89862   4.75212  12.89862  -0.000001761157153   0.000000018089352  -0.000001764820603
Si   11.54087   0.67888  16.97187  -0.000004997698285   0.000005125113041  -0.000005524856573
Si   14.25638   0.67888  19.68737   0.000005173691721  -0.000002253176118   0.000006187625516
Si   11.54087   3.39438  19.68737  -0.000003226461429   0.000000133759121  -0.000002242236897
Si   14.25638   3.39438  16.97187   0.000003255840859   0.000001622613530   0.000000093027214
Si   15.61412   2.03662  18.32963   0.000004495539607  -0.000005010396456  -0.000000615366133
Si   15.61412   4.75212  21.04512  -0.000000299959737   0.000000109942111  -0.000003730993229
Si   12.89862   2.03662  21.04512  -0.000003288497543  -0.000000453055962   0.000002835755387
Si   12.89862   4.75212  18.32963   0.000001568283277  -0.000001073998592  -0.000000646404865
Si   11.54087   6.10987   0.67887  -0.000002389977929  -0.000001709914825   0.000004698418146
Si   14.25638   6.10987   3.39437   0.000005259429510   0.000002171872570  -0.000004056061863
Si   11.54087   8.82537   3.39437  -0.000007860734330  -0.000001147692990  -0.000001184223304
Si   14.25638   8.82537   0.67887   0.000003042384256  -0.000000889706383  -0.000001688436883
Si   15.61412   7.46762   2.03662  -0.000001233177515  -0.000000091302617  -0.000002805189162
Si   15.61412  10.18313   4.75212  -0.000003813714070   0.000000863775175  -0.000003340409109
Si   12.89862   7.46762   4.75212   0.000003272674746   0.000006448264642   0.000001295063567
Si   12.89862  10.18313   2.03662   0.000000567515149  -0.000003105537638  -0.000002198401085
Si   11.54087   6.10987   6.10987   0.000000398658655   0.000004703809097   0.000004706190968
Si   14.25638   6.10987   8.82537   0.000003284337678   0.000000475851585   0.000000182780698
Si   11.54087   8.82537   8.82537   0.000000917700846   0.000003008973182   0.000003003352132
Si   14.25638   8.82537   6.10987   0.000003277792976   0.000000185714073   0.000000470874088
Si   15.61412   7.46762   7.46762   0.000003162494781   0.000000547847451   0.000000548907123
Si   15.61412  10.18313  10.18313  -0.000000231410834  -0.000000861955966  -0.000000869784804
Si   12.89862   7.46762  10.18313   0.000004574872786   0.000003652696340  -0.000000335380763
Si   12.89862  10.18313   7.46762   0.000004567000151  -0.000000332036400   0.000003665348639
Si   11.54087   6.10987  11.54087   0.000000861955661   0.000000231410838   0.000000869785019
Si   14.25638   6.10987  14.25638  -0.000000547847612  -0.000003162494793  -0.000000548906854
Si   11.54087   8.82537  14.25638   0.000000332036443  -0.000004567000155  -0.000003665348498
Si   14.25638   8.82537  11.54087  -0.000003652696420  -0.000004574873001   0.000000335380840
Si   15.61412   7.46762  12.89862  -0.000000475851699  -0.000003284337645  -0.000000182780561
Si   15.61412  10.18313  15.61412  -0.000004703809215  -0.000000398659060  -0.000004706191040
Si   12.89862   7.46762  15.61412  -0.000000185714041  -0.000003277793208  -0.000000470874122
Si   12.89862  10.18313  12.89862  -0.000003008973360  -0.000000917700963  -0.000003003352219
Si   11.54087   6.10987  16.97187  -0.000000863775304   0.000003813713867   0.000003340409377
Si   14.25638   6.10987  19.68737   0.000000091302528   0.000001233177603   0.000002805189033
Si   11.54087   8.82537  19.68737   0.000003105537698  -0.000000567515561   0.000002198400912
Si   14.25638   8.82537  16.97187  -0.000006448264588  -0.000003272674826  -0.000001295063613
Si   15.61412   7.46762  18.32963  -0.000002171872774  -0.000005259429555   0.000004056061857
Si   15.61412  10.18313  21.04512   0.000001709914679   0.000002389977507  -0.000004698418095
Si   12.89862   7.46762  21.04512   0.000000889706072  -0.000003042384339   0.000001688436802
Si   12.89862  10.18313  18.32963   0.000001147692726   0.000007860734085   0.000001184223256
Si   11.54087  11.54087   0.67887  -0.000003632637188  -0.000003632637197   0.000004560132387
Si   14.25638  11.54087   3.39437  -0.000002429969721   0.000006698020517  -0.000004760983502
Si   11.54087  14.25638   3.39437   0.000006698020108  -0.000002429969462  -0.000004760983190
Si   14.25638  14.25638   0.67887   0.000001640700268   0.000001640700156   0.000000510765439
Si   15.61412  12.89862   2.03662  -0.000000615511928   0.000000532773294   0.000007185295747
Si   15.61412  15.61412   4.75212  -0.000001635067800  -0.000001635067662   0.000000292034667
Si   12.89862  12.89862   4.75212  -0.000001746536351  -0.000001746536195   0.000000010040365
Si   12.89862  15.61412   2.03662   0.000000532773123  -0.000000615511778   0.000007185295680
Si   11.54087  11.54087   6.10987   0.000000862930003   0.000000862930383   0.000000235305032
Si   14.25638  11.54087   8.82537  -0.000003662101535   0.000000336832763  -0.000004568892808
Si   11.54087  14.25638   8.82537   0.000000336832267  -0.000003662101302  -0.000004568892570
Si   14.25638  14.25638   6.10987  -0.000000548484399  -0.000000548484465  -0.000003155447307
Si   15.61412  12.89862   7.46762  -0.000000467343440  -0.000000190275455  -0.000003277445071
Si   15.61412  15.61412  10.18313  -0.000004695711038  -0.000004695711023  -0.000000405185678
Si   12.89862  12.89862  10.18313  -0.000003012153665  -0.000003012153638  -0.000000923271982
Si   12.89862  15.61412   7.46762  -0.000000190275750  -0.000000467343307  -0.000003277444903
Si   11.54087  11.54087  11.54087   0.000003658622618   0.000003658622923   0.000003660445644
Si   14.25638  11.54087  14.25638   0.000000063454859   0.000003344853966   0.000000061697632
Si   11.54087  14.25638  14.25638   0.000003344853638   0.000000063455104   0.000000061697369
Si   14.25638  14.25638  11.54087   0.000000058082613   0.000000058082577   0.000003348129382
Si   15.61412  12.89862  12.89862  -0.000000807216053   0.000001790022885   0.000001791678917
Si   15.61412  15.61412  15.61412  -0.000002961673487  -0.000002961673671  -0.000002963076467
Si   12.89862  12.89862  15.61412   0.000001788095983   0.000001788095704  -0.000000811705910
Si   12.89862  15.61412  12.89862   0.000001790022655  -0.000000807215984   0.000001791678756
Si   11.54087  11.54087  16.97187   0.000003026511403   0.000003026511759   0.000002459855759
Si   14.25638  11.54087  19.68737  -0.000004861991836   0.000002429874055  -0.000001999136371
Si   11.54087  14.25638  19.68737   0.000002429873841  -0.000004861991583  -0.000001999136026
Si   14.25638  14.25638  16.97187  -0.000001746517873  -0.000001746517868  -0.000000164861674
Si   15.61412  12.89862  18.32963  -0.000002241842190  -0.000004220015490  -0.000005740290360
Si   15.61412  15.61412  21.04512  -0.000001169480817  -0.000001169480635  -0.000001074611962
Si   12.89862  12.89862  21.04512  -0.000000602638793  -0.000000602638477  -0.000000532445415
Si   12.89862  15.61412  18.32963  -0.000004220015412  -0.000002241841883  -0.000005740290177
Si   11.54087  16.97187   0.67887  -0.000005002139926  -0.000005518858178   0.000005117722873
Si   14.25638  16.97187   3.39437   0.000003257386508   0.000000088592290   0.000001623803875
Si   11.54087  19.68737   3.39437  -0.000003226597997  -0.000002237150237   0.000000141079924
Si   14.25638  19.68737   0.67887   0.000005164164120   0.000006184440828  -0.000002242700194
Si   15.61412  18.32963   2.03662   0.000004495402597  -0.000000604125490  -0.000005005118460
Si   15.61412  21.04512   4.75212  -0.000000294719372  -0.000003741848708   0.000000110547472
Si   12.89862  18.32963   4.75212   0.000001562561998  -0.000000634343098  -0.000001075737835
Si   12.89862  21.04512   2.03662  -0.000003287536413   0.000002825876326  -0.000000455089686
Si   11.54087  16.97187   6.10987  -0.000000876749037   0.000003341609642   0.000003805647968
Si   14.25638  16.97187   8.82537  -0.000006436206758  -0.000001291413426  -0.000003267942749
Si   11.54087  19.68737   8.82537   0.000003101126896   0.000002199298667  -0.000000562184590
Si   14.25638  19.68737   6.10987   0.000000097446321   0.000002804792080   0.000001228381302
Si   15.61412  18.32963   7.46762  -0.000002169568365   0.000004054284240  -0.000005257542942
Si   15.61412  21.04512  10.18313   0.000001695924220  -0.000004688456714   0.000002388513714
Si   12.89862  18.32963  10.18313   0.000001146116548   0.000001175222225   0.000007856382790
Si   12.89862  21.04512   7.46762   0.000000894463307   0.000001687805275  -0.000003040899122
Si   11.54087  16.97187  11.54087   0.000003028937170   0.000002452224441   0.000003017663827
Si   14.25638  16.97187  14.25638  -0.000001757191640  -0.000000162018747  -0.000001753506466
Si   11.54087  19.68737  14.25638   0.000002428402374  -0.000002006405638  -0.000004851903964
Si   14.25638  19.68737  11.54087  -0.000004857483960  -0.000002000184162   0.000002432705823
Si   15.61412  18.32963  12.89862  -0.000002243556751  -0.000005750477162  -0.000004212427088
Si   15.61412  21.04512  15.61412  -0.000001180339450  -0.000001069269827  -0.000001176265128
Si   12.89862  18.32963  15.61412  -0.000004214145280  -0.000005744667892  -0.000002246725982
Si   12.89862  21.04512  12.89862  -0.000000591012199  -0.000000526236394  -0.000000596681455
Si   11.54087  16.97187  16.97187  -0.000007474128727   0.000002299230132   0.000002298835788
Si   14.25638  16.97187  19.68737   0.000003075031814  -0.000001801189677  -0.000008988065583
Si   11.54087  19.68737  19.68737  -0.000005192147495   0.000001870110786   0.000001868864322
Si   14.25638  19.68737  16.97187   0.000003080445562  -0.000008983378140  -0.000001799112856
Si   15.61412  18.32963  18.32963  -0.000004299422280  -0.000000069612512  -0.000000070295767
Si   15.61412  21.04512  21.04512  -0.000006574791859   0.000003879268447   0.000003883708500
Si   12.89862  18.32963  21.04512   0.000002134162470   0.000000006602299  -0.000003014915764
Si   12.89862  21.04512  18.32963   0.000002139938396  -0.000003010590669   0.000000005256135
Si   16.97187   0.67888   0.67887   0.000001535574167  -0.000000465015023  -0.000000466693949
Si   19.68737   0.67888   3.39437  -0.000001213779637  -0.000001252983161  -0.000004828715841
Si   16.97187   3.39438   3.39437  -0.000003535312670   0.000000594183270   0.000000600007990
Si   19.68737   3.39438   0.67887  -0.000001213760968  -0.000004824508328  -0.000001249850657
Si   21.04512   2.03662   2.03662  -0.000000004065940  -0.000001574980979  -0.000001562186980
Si   21.04512   4.75212   4.75212  -0.000003452276791   0.000002615310946   0.000002605039626
Si   18.32963   2.03662   4.75212   0.000000651450562   0.000004143363948   0.000000701786805
Si   18.32963   4.75212   2.03662   0.000000649681591   0.000000710438687   0.000004144323072
Si   16.97187   0.67888   6.10987  -0.000000107909191   0.000003735162334   0.000000302231681
Si   19.68737   0.67888   8.82537   0.000000453323164  -0.000002831996700   0.000003282238848
Si   16.97187   3.39438   8.82537   0.000001077002273   0.000000636150569  -0.000001558138853
Si   19.68737   3.39438   6.10987   0.000005002528805   0.000000614785645  -0.000004499724783
Si   21.04512   2.03662   7.46762   0.000002239087791  -0.000006180309447  -0.000005167268867
Si   21.04512   4.75212  10.18313  -0.000005124096686   0.000005522425426   0.000004994669307
Si   18.32963   2.03662  10.18313  -0.000000130305697   0.000002236897027   0.000003228371771
Si   18.32963   4.75212   7.46762  -0.000001630965420  -0.000000099263833  -0.000003258290867
Si   16.97187   0.67888  11.54087  -0.000005522425711   0.000005124096343  -0.000004994669380
Si   19.68737   0.67888  14.25638   0.000006180309336  -0.000002239087670   0.000005167268847
Si   16.97187   3.39438  14.25638   0.000000099263405   0.000001630965305   0.000003258290872
Si   19.68737   3.39438  11.54087  -0.000002236897010   0.000000130305515  -0.000003228371650
Si   21.04512   2.03662  12.89862   0.000002831996740  -0.000000453323008  -0.000003282238888
Si   21.04512   4.75212  15.61412  -0.000003735162545   0.000000107908669  -0.000000302231913
Si   18.32963   2.03662  15.61412  -0.000000614785742  -0.000005002528841   0.000004499724754
Si   18.32963   4.75212  12.89862  -0.000000636150835  -0.000001077002432   0.000001558138527
Si   16.97187   0.67888  16.97187  -0.000002615311452   0.000003452276615  -0.000002605039465
Si   19.68737   0.67888  19.68737   0.000001574980887   0.000000004066027   0.000001562187289
Si   16.97187   3.39438  19.68737  -0.000000710439044  -0.000000649681544  -0.000004144323029
Si   19.68737   3.39438  16.97187  -0.000004143363860  -0.000000651450485  -0.000000701786761
Si   21.04512   2.03662  18.32963   0.000001252983375   0.000001213779406   0.000004828715601
Si   21.04512   4.75212  21.04512   0.000000465014926  -0.000001535574519   0.000000466693865
Si   18.32963   2.03662  21.04512   0.000004824508278   0.000001213760877   0.000001249850529
Si   18.32963   4.75212  18.32963  -0.000000594183474   0.000003535312174  -0.000000600008174
Si   16.97187   6.10987   0.67887  -0.000000109942423   0.000000299959789   0.000003730993335
Si   19.68737   6.10987   3.39437   0.000005010396043  -0.000004495539742   0.000000615366070
Si   16.97187   8.82537   3.39437   0.000001073998642  -0.000001568283641   0.000000646404669
Si   19.68737   8.82537   0.67887   0.000000453055935   0.000003288497108  -0.000002835755329
Si   21.04512   7.46762   2.03662   0.000002253176156  -0.000005173691730  -0.000006187625915
Si   21.04512  10.18313   4.75212  -0.000005125112994   0.000004997697906   0.000005524856616
Si   18.32963   7.46762   4.75212  -0.000001622613659  -0.000003255840919  -0.000000093027344
Si   18.32963  10.18313   2.03662  -0.000000133759449   0.000003226461004   0.000002242236867
Si   16.97187   6.10987   6.10987  -0.000000292597264   0.000001615059428   0.000001616514903
Si   19.68737   6.10987   8.82537  -0.000007179698137   0.000000609404573  -0.000000516021527
Si   16.97187   8.82537   8.82537  -0.000000018089552   0.000001761157063   0.000001764820433
Si   19.68737   8.82537   6.10987  -0.000007187432945  -0.000000515927546   0.000000602554995
Si   21.04512   7.46762   7.46762  -0.000000519450823  -0.000001641164242  -0.000001644452694
Si   21.04512  10.18313  10.18313  -0.000004552488694   0.000003631310527   0.000003632518351
Si   18.32963   7.46762  10.18313   0.000004762688842   0.000002431996437  -0.000006693368495
Si   18.32963  10.18313   7.46762   0.000004757278569  -0.000006692414191   0.000002435055735
Si   16.97187   6.10987  11.54087   0.000003331992490   0.000003820388864  -0.000000879595898
Si   19.68737   6.10987  14.25638   0.000002803881632   0.000001223515517   0.000000101141014
Si   16.97187   8.82537  14.25638  -0.000001291072420  -0.000003259512103  -0.000006433734884
Si   19.68737   8.82537  11.54087   0.000002212104015  -0.000000577521921   0.000003092273439
Si   21.04512   7.46762  12.89862   0.000001687179885  -0.000003037772596   0.000000897475784
Si   21.04512  10.18313  15.61412  -0.000004696339826   0.000002386562595   0.000001708100947
Si   18.32963   7.46762  15.61412   0.000004054158645  -0.000005258227660  -0.000002174581404
Si   18.32963  10.18313  12.89862   0.000001177327704   0.000007858418868   0.000001145545026
Si   16.97187   6.10987  16.97187   0.000000438214732  -0.000000635148259   0.000000429904980
Si   19.68737   6.10987  19.68737  -0.000002693812266   0.000006638763059  -0.000002684284077
Si   16.97187   8.82537  19.68737   0.000003103563465  -0.000002211627213   0.000003492393247
Si   19.68737   8.82537  16.97187   0.000003482912785  -0.000002208015809   0.000003097757929
Si   21.04512   7.46762  18.32963  -0.000004540236181  -0.000000848669285  -0.000001378249169
Si   21.04512  10.18313  21.04512  -0.000001766762582  -0.000004589140449  -0.000001764350254
Si   18.32963   7.46762  21.04512  -0.000001379242189  -0.000000847395303  -0.000004539759803
Si   18.32963  10.18313  18.32963  -0.000004011771603   0.000005765405015  -0.000004015039111
Si   16.97187  11.54087   0.67887  -0.000005518858595  -0.000005002139724   0.000005117722903
Si   19.68737  11.54087   3.39437  -0.000002237149959  -0.000003226597601   0.000000141079801
Si   16.97187  14.25638   3.39437   0.000000088592023   0.000003257386559   0.000001623803607
Si   19.68737  14.25638   0.67887   0.000006184441092   0.000005164164514  -0.000002242700482
Si   21.04512  12.89862   2.03662   0.000002825875917  -0.000003287536438  -0.000000455089409
Si   21.04512  15.61412   4.75212  -0.000003741848892  -0.000000294719563   0.000000110547491
Si   18.32963  12.89862   4.75212  -0.000000634342922   0.000001562562463  -0.000001075737762
Si   18.32963  15.61412   2.03662  -0.000000604125636   0.000004495402649  -0.000005005118232
Si   16.97187  11.54087   6.10987   0.000003341609054  -0.000000876748849   0.000003805647950
Si   19.68737  11.54087   8.82537   0.000002199298686   0.000003101127065  -0.000000562184661
Si   16.97187  14.25638   8.82537  -0.000001291413454  -0.000006436206952  -0.000003267942815
Si   19.68737  14.25638   6.10987   0.000002804792054   0.000000097446493   0.000001228380975
Si   21.04512  12.89862   7.46762   0.000001687805482   0.000000894463258  -0.000003040899291
Si   21.04512  15.61412  10.18313  -0.000004688456853   0.000001695924322   0.000002388513813
Si   18.32963  12.89862  10.18313   0.000001175221914   0.000001146117133   0.000007856382887
Si   18.32963  15.61412   7.46762   0.000004054283960  -0.000002169568194  -0.000005257542806
Si   16.97187  11.54087  11.54087   0.000002452223992   0.000003028937420   0.000003017663721
Si   19.68737  11.54087  14.25638  -0.000002006405275   0.000002428402453  -0.000004851903977
Si   16.97187  14.25638  14.25638  -0.000000162019235  -0.000001757191792  -0.000001753506731
Si   19.68737  14.25638  11.54087  -0.000002000184041  -0.000004857484201   0.000002432705648
Si   21.04512  12.89862  12.89862  -0.000000526236677  -0.000000591011285  -0.000000596681217
Si   21.04512  15.61412  15.61412  -0.000001069269996  -0.000001180339151  -0.000001176265226
Si   18.32963  12.89862  15.61412  -0.000005744668191  -0.000004214144779  -0.000002246725909
Si   18.32963  15.61412  12.89862  -0.000005750477127  -0.000002243556658  -0.000004212426853
Si   16.97187  11.54087  16.97187   0.000002299229718  -0.000007474128465   0.000002298835793
Si   19.68737  11.54087  19.68737   0.000001870110734  -0.000005192146874   0.000001868864222
Si   16.97187  14.25638  19.68737  -0.000001801189626   0.000003075032048  -0.000008988065766
Si   19.68737  14.25638  16.97187  -0.000008983378484   0.000003080445623  -0.000001799112682
Si   21.04512  12.89862  18.32963  -0.000003010590850   0.000002139938109   0.000000005256011
Si   21.04512  15.61412  21.04512   0.000003879268043  -0.000006574791919   0.000003883708630
Si   18.32963  12.89862  21.04512   0.000000006602288   0.000002134162706  -0.000003014915753
Si   18.32963  15.61412  18.32963  -0.000000069612589  -0.000004299422306  -0.000000070295735
Si   16.97187  16.97187   0.67887  -0.000002606994049  -0.000002606993706   0.000003464478748
Si   19.68737  16.97187   3.39437  -0.000004149240418  -0.000000696082618  -0.000000658566108
Si   16.97187  19.68737   3.39437  -0.000000696082576  -0.000004149240116  -0.000000658565825
Si   19.68737  19.68737   0.67887   0.000001560460357   0.000001560460357   0.000000008256527
Si   21.04512  18.32963   2.03662   0.000001247307940   0.000004818928792   0.000001210086866
Si   21.04512  21.04512   4.75212   0.000000480277824   0.000000480277950  -0.000001530422337
Si   18.32963  18.32963   4.75212  -0.000000597301219  -0.000000597300912   0.000003536461218
Si   18.32963  21.04512   2.03662   0.000004818928537   0.000001247308055   0.000001210086858
Si   16.97187  16.97187   6.10987   0.000000438620139   0.000000438620289  -0.000000624144448
Si   19.68737  16.97187   8.82537   0.000003493681817   0.000003103358332  -0.000002216987004
Si   16.97187  19.68737   8.82537   0.000003103358289   0.000003493681776  -0.000002216987054
Si   19.68737  19.68737   6.10987  -0.000002688314109  -0.000002688314060   0.000006644906609
Si   21.04512  18.32963   7.46762  -0.000004542325202  -0.000001378977188  -0.000000848717787
Si   21.04512  21.04512  10.18313  -0.000001773594378  -0.000001773594177  -0.000004589254935
Si   18.32963  18.32963  10.18313  -0.000004014463362  -0.000004014462989   0.000005766532538
Si   18.32963  21.04512   7.46762  -0.000001378977638  -0.000004542325134  -0.000000848717900
Si   16.97187  16.97187  11.54087   0.000002301551347   0.000002301551766  -0.000007467496924
Si   19.68737  16.97187  14.25638  -0.000008992304524  -0.000001799718758   0.000003068041761
Si   16.97187  19.68737  14.25638  -0.000001799718802  -0.000008992304332   0.000003068042015
Si   19.68737  19.68737  11.54087   0.000001858904442   0.000001858904390  -0.000005185812428
Si   21.04512  18.32963  12.89862  -0.000003014259581   0.000000014679574   0.000002137387282
Si   21.04512  21.04512  15.61412   0.000003885450091   0.000003885450271  -0.000006583501640
Si   18.32963  18.32963  15.61412  -0.000000077410107  -0.000000077409890  -0.000004295551646
Si   18.32963  21.04512  12.89862   0.000000014679031  -0.000003014259789   0.000002137387181
Si   16.97187  16.97187  16.97187   0.000001386634045   0.000001386634250   0.000001396132036
Si   19.68737  16.97187  19.68737   0.000004995965906  -0.000006174472081   0.000004988076262
Si   16.97187  19.68737  19.68737  -0.000006174472542   0.000004995965915   0.000004988076263
Si   19.68737  19.68737  16.97187   0.000005003824454   0.000005003824523  -0.000006163735154
Si   21.04512  18.32963  18.32963  -0.000008739324765   0.000000301268127   0.000000300158479
Si   21.04512  21.04512  21.04512  -0.000000287813452  -0.000000287813535  -0.000000281671306
Si   18.32963  18.32963  21.04512   0.000000304039744   0.000000304039711  -0.000008743797185
Si   18.32963  21.04512  18.32963   0.000000301267982  -0.000008739324694   0.000000300158222
