216 

Si    0.67888   0.67888   0.67888   0.000006051419210   0.000006051416434   0.000006034557623
Si    3.39437   0.67888   3.39437  -0.000006051413653   0.000006051416416  -0.000006034557631
Si    0.67888   3.39437   3.39437   0.000006051419206  -0.000006051416432  -0.000006034557638
Si    3.39437   3.39437   0.67888  -0.000006051413673  -0.000006051416428   0.000006034557615
Si    4.75213   2.03662   2.03662   0.000008425820626   0.000000000000004   0.000000000000010
Si    4.75213   4.75213   4.75213   0.000004918364051   0.000004918361266   0.000004922129597
Si    2.03662   2.03662   4.75213   0.000000000002776   0.000000000000013   0.000008431219426
Si    2.03662   4.75213   2.03662   0.000000000002773   0.000008425817828   0.000000000000005
Si    0.67888   0.67888   6.10987   0.000002760297537   0.000002760294786   0.000000196320014
Si    3.39437   0.67888   8.82538  -0.000004918358477   0.000004918361260   0.000004922129596
Si    0.67888   3.39437   8.82538   0.000004918364038  -0.000004918361267   0.000004922129600
Si    3.39437   3.39437   6.10987  -0.000002760291968  -0.000002760294771   0.000000196320013
Si    4.75213   2.03662   7.46762   0.000002775578522   0.000000200558522  -0.000002771758631
Si    4.75213   4.75213  10.18313   0.000002760297536   0.000002760294796  -0.000000196319998
Si    2.03662   2.03662  10.18313   0.000000000002751   0.000000000000014   0.000000000000001
Si    2.03662   4.75213   7.46762   0.000000200561326   0.000002775575777  -0.000002771758643
Si    0.67888   0.67888  11.54087   0.000004918364043   0.000004918361263  -0.000004922129594
Si    3.39437   0.67888  14.25638  -0.000002760291970   0.000002760294765  -0.000000196320023
Si    0.67888   3.39437  14.25638   0.000002760297547  -0.000002760294784  -0.000000196320011
Si    3.39437   3.39437  11.54087  -0.000004918358480  -0.000004918361255  -0.000004922129593
Si    4.75213   2.03662  12.89863   0.000002775578522  -0.000000200558520   0.000002771758654
Si    4.75213   4.75213  15.61412   0.000006051419213   0.000006051416452  -0.000006034557636
Si    2.03662   2.03662  15.61412   0.000000000002774   0.000000000000001  -0.000008431219417
Si    2.03662   4.75213  12.89863  -0.000000200555741   0.000002775575773   0.000002771758646
Si    0.67888   6.10987   0.67888   0.000002775578528   0.000000200558531   0.000002771758637
Si    3.39437   6.10987   3.39437  -0.000002775572964   0.000000200558534  -0.000002771758640
Si    0.67888   8.82538   3.39437   0.000004918364028   0.000004918361282  -0.000004922129597
Si    3.39437   8.82538   0.67888  -0.000004918358477   0.000004918361260   0.000004922129595
Si    4.75213   7.46762   2.03662   0.000002760297534  -0.000002760294784   0.000000196320020
Si    4.75213  10.18313   4.75213   0.000002775578523  -0.000000200558514   0.000002771758637
Si    2.03662   7.46762   4.75213   0.000000200561332  -0.000002775575784   0.000002771758650
Si    2.03662  10.18313   2.03662   0.000000000002754  -0.000000000000002   0.000000000000009
Si    0.67888   6.10987   6.10987   0.000008425820634  -0.000000000000006   0.000000000000008
Si    3.39437   6.10987   8.82538  -0.000002775572968  -0.000000200558509   0.000002771758649
Si    0.67888   8.82538   8.82538   0.000006051419202   0.000006051416437   0.000006034557638
Si    3.39437   8.82538   6.10987  -0.000002760291982   0.000002760294781  -0.000000196320011
Si    4.75213   7.46762   7.46762   0.000004918364055  -0.000004918361262  -0.000004922129606
Si    4.75213  10.18313  10.18313   0.000008425820637   0.000000000000006  -0.000000000000015
Si    2.03662   7.46762  10.18313   0.000000000002789  -0.000008425817829  -0.000000000000008
Si    2.03662  10.18313   7.46762   0.000000000002785  -0.000000000000008  -0.000008431219427
Si    0.67888   6.10987  11.54087   0.000002775578536  -0.000000200558523  -0.000002771758650
Si    3.39437   6.10987  14.25638  -0.000008425815048  -0.000000000000012  -0.000000000000001
Si    0.67888   8.82538  14.25638   0.000002760297563   0.000002760294789   0.000000196320005
Si    3.39437   8.82538  11.54087  -0.000006051413662   0.000006051416428  -0.000006034557620
Si    4.75213   7.46762  12.89863   0.000006051419222  -0.000006051416419   0.000006034557633
Si    4.75213  10.18313  15.61412   0.000002775578525   0.000000200558516  -0.000002771758628
Si    2.03662   7.46762  15.61412  -0.000000200555741  -0.000002775575759  -0.000002771758624
Si    2.03662  10.18313  12.89863   0.000000000002773   0.000000000000006   0.000008431219434
Si    0.67888  11.54087   0.67888   0.000004918364026  -0.000004918361273   0.000004922129601
Si    3.39437  11.54087   3.39437  -0.000004918358472  -0.000004918361260  -0.000004922129583
Si    0.67888  14.25638   3.39437   0.000002775578545  -0.000000200558520  -0.000002771758636
Si    3.39437  14.25638   0.67888  -0.000002775572956  -0.000000200558534   0.000002771758650
Si    4.75213  12.89863   2.03662   0.000002760297539   0.000002760294789  -0.000000196320003
Si    4.75213  15.61412   4.75213   0.000006051419213  -0.000006051416430   0.000006034557627
Si    2.03662  12.89863   4.75213  -0.000000200555756   0.000002775575773   0.000002771758628
Si    2.03662  15.61412   2.03662   0.000000000002777  -0.000008425817823  -0.000000000000009
Si    0.67888  11.54087   6.10987   0.000002760297555  -0.000002760294780  -0.000000196320000
Si    3.39437  11.54087   8.82538  -0.000006051413656  -0.000006051416412   0.000006034557622
Si    0.67888  14.25638   8.82538   0.000002775578549   0.000000200558524   0.000002771758637
Si    3.39437  14.25638   6.10987  -0.000008425815057   0.000000000000003   0.000000000000000
Si    4.75213  12.89863   7.46762   0.000006051419216   0.000006051416427  -0.000006034557623
Si    4.75213  15.61412  10.18313   0.000002760297537  -0.000002760294783   0.000000196320004
Si    2.03662  12.89863  10.18313   0.000000000002764   0.000008425817823   0.000000000000015
Si    2.03662  15.61412   7.46762  -0.000000200555745  -0.000002775575773  -0.000002771758630
Si    0.67888  11.54087  11.54087   0.000006051419202  -0.000006051416435  -0.000006034557629
Si    3.39437  11.54087  14.25638  -0.000002760291969  -0.000002760294772   0.000000196320004
Si    0.67888  14.25638  14.25638   0.000008425820611  -0.000000000000001  -0.000000000000007
Si    3.39437  14.25638  11.54087  -0.000002775572942   0.000000200558519  -0.000002771758637
Si    4.75213  12.89863  12.89863   0.000004918364048   0.000004918361267   0.000004922129597
Si    4.75213  15.61412  15.61412   0.000004918364057  -0.000004918361258  -0.000004922129609
Si    2.03662  12.89863  15.61412   0.000000200561325   0.000002775575778  -0.000002771758633
Si    2.03662  15.61412  12.89863   0.000000200561313  -0.000002775575757   0.000002771758639
Si    6.10987   0.67888   0.67888   0.000000200561326   0.000002775575769   0.000002771758642
Si    8.82538   0.67888   3.39437   0.000004918364042   0.000004918361271  -0.000004922129607
Si    6.10987   3.39437   3.39437   0.000000200561322  -0.000002775575772  -0.000002771758647
Si    8.82538   3.39437   0.67888   0.000004918364059  -0.000004918361266   0.000004922129599
Si   10.18313   2.03662   2.03662   0.000000000002741  -0.000000000000004   0.000000000000005
Si   10.18313   4.75213   4.75213  -0.000000200555741   0.000002775575778   0.000002771758641
Si    7.46762   2.03662   4.75213  -0.000002775572953   0.000000200558531   0.000002771758639
Si    7.46762   4.75213   2.03662  -0.000002760291966   0.000002760294776   0.000000196320020
Si    6.10987   0.67888   6.10987   0.000000000002765   0.000008425817833   0.000000000000000
Si    8.82538   0.67888   8.82538   0.000006051419213   0.000006051416430   0.000006034557627
Si    6.10987   3.39437   8.82538  -0.000000200555748  -0.000002775575770   0.000002771758628
Si    8.82538   3.39437   6.10987   0.000002760297537  -0.000002760294793  -0.000000196320006
Si   10.18313   2.03662   7.46762   0.000000000002773  -0.000000000000004  -0.000008431219420
Si   10.18313   4.75213  10.18313   0.000000000002772   0.000008425817820  -0.000000000000004
Si    7.46762   2.03662  10.18313  -0.000008425815061   0.000000000000005   0.000000000000024
Si    7.46762   4.75213   7.46762  -0.000004918358477   0.000004918361261  -0.000004922129595
Si    6.10987   0.67888  11.54087  -0.000000200555728   0.000002775575767  -0.000002771758635
Si    8.82538   0.67888  14.25638   0.000002760297537   0.000002760294788   0.000000196320000
Si    6.10987   3.39437  14.25638   0.000000000002794  -0.000008425817825  -0.000000000000008
Si    8.82538   3.39437  11.54087   0.000006051419208  -0.000006051416431  -0.000006034557625
Si   10.18313   2.03662  12.89863   0.000000000002769   0.000000000000008   0.000008431219424
Si   10.18313   4.75213  15.61412   0.000000200561320   0.000002775575782  -0.000002771758644
Si    7.46762   2.03662  15.61412  -0.000002775572966  -0.000000200558528  -0.000002771758627
Si    7.46762   4.75213  12.89863  -0.000006051413645   0.000006051416428   0.000006034557619
Si    6.10987   6.10987   0.67888   0.000000000002785  -0.000000000000003   0.000008431219412
Si    8.82538   6.10987   3.39437   0.000002775578530  -0.000000200558515  -0.000002771758650
Si    6.10987   8.82538   3.39437  -0.000000200555736   0.000002775575758  -0.000002771758638
Si    8.82538   8.82538   0.67888   0.000006051419203   0.000006051416431   0.000006034557640
Si   10.18313   7.46762   2.03662   0.000000000002779  -0.000008425817830  -0.000000000000007
Si   10.18313  10.18313   4.75213   0.000000000002776   0.000000000000021   0.000008431219439
Si    7.46762   7.46762   4.75213  -0.000004918358485  -0.000004918361258   0.000004922129582
Si    7.46762  10.18313   2.03662  -0.000008425815044  -0.000000000000004   0.000000000000006
Si    6.10987   6.10987   6.10987   0.000000000002775   0.000000000000004   0.000000000000009
Si    8.82538   6.10987   8.82538   0.000002775578529   0.000000200558529   0.000002771758654
Si    6.10987   8.82538   8.82538   0.000000200561314   0.000002775575771   0.000002771758648
Si    8.82538   8.82538   6.10987   0.000002760297533   0.000002760294796   0.000000196320019
Si   10.18313   7.46762   7.46762  -0.000000200555736  -0.000002775575776  -0.000002771758649
Si   10.18313  10.18313  10.18313   0.000000000002771   0.000000000000005  -0.000000000000001
Si    7.46762   7.46762  10.18313  -0.000002760291983  -0.000002760294785  -0.000000196320010
Si    7.46762  10.18313   7.46762  -0.000002775572967  -0.000000200558525  -0.000002771758630
Si    6.10987   6.10987  11.54087   0.000000000002776   0.000000000000002  -0.000008431219436
Si    8.82538   6.10987  14.25638   0.000008425820629  -0.000000000000009   0.000000000000008
Si    6.10987   8.82538  14.25638   0.000000000002776   0.000008425817841  -0.000000000000010
Si    8.82538   8.82538  11.54087   0.000004918364061   0.000004918361256  -0.000004922129596
Si   10.18313   7.46762  12.89863   0.000000200561337  -0.000002775575764   0.000002771758641
Si   10.18313  10.18313  15.61412   0.000000000002793   0.000000000000011  -0.000008431219415
Si    7.46762   7.46762  15.61412  -0.000006051413675  -0.000006051416420  -0.000006034557612
Si    7.46762  10.18313  12.89863  -0.000002775572974   0.000000200558526   0.000002771758654
Si    6.10987  11.54087   0.67888  -0.000000200555752  -0.000002775575764   0.000002771758630
Si    8.82538  11.54087   3.39437   0.000006051419215  -0.000006051416430  -0.000006034557629
Si    6.10987  14.25638   3.39437   0.000000000002789  -0.000000000000008  -0.000008431219420
Si    8.82538  14.25638   0.67888   0.000002775578530   0.000000200558526   0.000002771758640
Si   10.18313  12.89863   2.03662   0.000000000002777   0.000008425817829   0.000000000000006
Si   10.18313  15.61412   4.75213   0.000000200561323  -0.000002775575770   0.000002771758654
Si    7.46762  12.89863   4.75213  -0.000006051413661   0.000006051416421   0.000006034557624
Si    7.46762  15.61412   2.03662  -0.000002760291972  -0.000002760294776  -0.000000196319998
Si    6.10987  11.54087   6.10987   0.000000000002793  -0.000008425817819   0.000000000000010
Si    8.82538  11.54087   8.82538   0.000004918364031  -0.000004918361258   0.000004922129610
Si    6.10987  14.25638   8.82538   0.000000000002788  -0.000000000000013   0.000008431219424
Si    8.82538  14.25638   6.10987   0.000008425820630   0.000000000000007  -0.000000000000002
Si   10.18313  12.89863   7.46762   0.000000200561321   0.000002775575781  -0.000002771758648
Si   10.18313  15.61412  10.18313   0.000000000002773  -0.000008425817822   0.000000000000014
Si    7.46762  12.89863  10.18313  -0.000002760291970   0.000002760294769   0.000000196320009
Si    7.46762  15.61412   7.46762  -0.000006051413655  -0.000006051416419  -0.000006034557631
Si    6.10987  11.54087  11.54087   0.000000200561341  -0.000002775575762  -0.000002771758629
Si    8.82538  11.54087  14.25638   0.000002760297521  -0.000002760294784  -0.000000196320009
Si    6.10987  14.25638  14.25638   0.000000000002785  -0.000000000000001   0.000000000000008
Si    8.82538  14.25638  11.54087   0.000002775578521  -0.000000200558513  -0.000002771758648
Si   10.18313  12.89863  12.89863  -0.000000200555729   0.000002775575767   0.000002771758627
Si   10.18313  15.61412  15.61412  -0.000000200555730  -0.000002775575771  -0.000002771758633
Si    7.46762  12.89863  15.61412  -0.000004918358478   0.000004918361275  -0.000004922129591
Si    7.46762  15.61412  12.89863  -0.000004918358473  -0.000004918361257   0.000004922129584
Si   11.54087   0.67888   0.67888  -0.000004918358475   0.000004918361261   0.000004922129594
Si   14.25638   0.67888   3.39437  -0.000000200555730   0.000002775575756  -0.000002771758630
Si   11.54087   3.39437   3.39437  -0.000004918358482  -0.000004918361258  -0.000004922129568
Si   14.25638   3.39437   0.67888  -0.000000200555733  -0.000002775575772   0.000002771758656
Si   15.61412   2.03662   2.03662  -0.000008425815035   0.000000000000012   0.000000000000002
Si   15.61412   4.75213   4.75213  -0.000006051413663   0.000006051416427   0.000006034557624
Si   12.89863   2.03662   4.75213   0.000002775578523  -0.000000200558514   0.000002771758630
Si   12.89863   4.75213   2.03662   0.000002760297543   0.000002760294796  -0.000000196320015
Si   11.54087   0.67888   6.10987  -0.000002760291960   0.000002760294770  -0.000000196320009
Si   14.25638   0.67888   8.82538   0.000000200561317   0.000002775575779   0.000002771758635
Si   11.54087   3.39437   8.82538  -0.000006051413664  -0.000006051416419   0.000006034557622
Si   14.25638   3.39437   6.10987   0.000000000002783  -0.000008425817823  -0.000000000000005
Si   15.61412   2.03662   7.46762  -0.000002775572983  -0.000000200558526  -0.000002771758625
Si   15.61412   4.75213  10.18313  -0.000002760291982   0.000002760294774   0.000000196320015
Si   12.89863   2.03662  10.18313   0.000008425820640  -0.000000000000001  -0.000000000000009
Si   12.89863   4.75213   7.46762   0.000006051419222   0.000006051416419  -0.000006034557615
Si   11.54087   0.67888  11.54087  -0.000006051413657   0.000006051416423  -0.000006034557620
Si   14.25638   0.67888  14.25638   0.000000000002791   0.000008425817827   0.000000000000000
Si   11.54087   3.39437  14.25638  -0.000002760291976  -0.000002760294773   0.000000196320011
Si   14.25638   3.39437  11.54087   0.000000200561331  -0.000002775575780  -0.000002771758638
Si   15.61412   2.03662  12.89863  -0.000002775572989   0.000000200558536   0.000002771758637
Si   15.61412   4.75213  15.61412  -0.000004918358468   0.000004918361255  -0.000004922129592
Si   12.89863   2.03662  15.61412   0.000002775578514   0.000000200558525  -0.000002771758641
Si   12.89863   4.75213  12.89863   0.000004918364058   0.000004918361277   0.000004922129604
Si   11.54087   6.10987   0.67888  -0.000002775572965  -0.000000200558529   0.000002771758631
Si   14.25638   6.10987   3.39437   0.000000000002780   0.000000000000004  -0.000008431219413
Si   11.54087   8.82538   3.39437  -0.000006051413655   0.000006051416425  -0.000006034557632
Si   14.25638   8.82538   0.67888   0.000000200561299   0.000002775575786   0.000002771758655
Si   15.61412   7.46762   2.03662  -0.000002760291987  -0.000002760294775  -0.000000196320018
Si   15.61412  10.18313   4.75213  -0.000002775572973   0.000000200558528   0.000002771758632
Si   12.89863   7.46762   4.75213   0.000006051419229  -0.000006051416436   0.000006034557626
Si   12.89863  10.18313   2.03662   0.000008425820636  -0.000000000000008   0.000000000000006
Si   11.54087   6.10987   6.10987  -0.000008425815070   0.000000000000000  -0.000000000000008
Si   14.25638   6.10987   8.82538   0.000000000002781  -0.000000000000003   0.000008431219416
Si   11.54087   8.82538   8.82538  -0.000004918358503   0.000004918361264   0.000004922129598
Si   14.25638   8.82538   6.10987   0.000000000002769   0.000008425817835  -0.000000000000011
Si   15.61412   7.46762   7.46762  -0.000006051413646  -0.000006051416428  -0.000006034557621
Si   15.61412  10.18313  10.18313  -0.000008425815035   0.000000000000004  -0.000000000000013
Si   12.89863   7.46762  10.18313   0.000002760297538  -0.000002760294783   0.000000196320011
Si   12.89863  10.18313   7.46762   0.000002775578524   0.000000200558529  -0.000002771758656
Si   11.54087   6.10987  11.54087  -0.000002775572956   0.000000200558524  -0.000002771758638
Si   14.25638   6.10987  14.25638   0.000000000002766   0.000000000000010  -0.000000000000008
Si   11.54087   8.82538  14.25638  -0.000002760291974   0.000002760294771  -0.000000196320025
Si   14.25638   8.82538  11.54087  -0.000000200555744   0.000002775575768  -0.000002771758617
Si   15.61412   7.46762  12.89863  -0.000004918358474  -0.000004918361275   0.000004922129607
Si   15.61412  10.18313  15.61412  -0.000002775572966  -0.000000200558520  -0.000002771758633
Si   12.89863   7.46762  15.61412   0.000004918364049  -0.000004918361291  -0.000004922129600
Si   12.89863  10.18313  12.89863   0.000002775578532  -0.000000200558515   0.000002771758643
Si   11.54087  11.54087   0.67888  -0.000006051413680  -0.000006051416430   0.000006034557614
Si   14.25638  11.54087   3.39437   0.000000200561324  -0.000002775575769  -0.000002771758649
Si   11.54087  14.25638   3.39437  -0.000002775572956   0.000000200558534  -0.000002771758637
Si   14.25638  14.25638   0.67888   0.000000000002779  -0.000000000000001   0.000008431219412
Si   15.61412  12.89863   2.03662  -0.000002760291995   0.000002760294771   0.000000196320007
Si   15.61412  15.61412   4.75213  -0.000004918358466  -0.000004918361256   0.000004922129582
Si   12.89863  12.89863   4.75213   0.000004918364054   0.000004918361262   0.000004922129610
Si   12.89863  15.61412   2.03662   0.000002760297537  -0.000002760294787   0.000000196320023
Si   11.54087  11.54087   6.10987  -0.000002760291964  -0.000002760294780   0.000000196320017
Si   14.25638  11.54087   8.82538  -0.000000200555735  -0.000002775575779   0.000002771758629
Si   11.54087  14.25638   8.82538  -0.000002775572945  -0.000000200558526   0.000002771758632
Si   14.25638  14.25638   6.10987   0.000000000002769   0.000000000000001  -0.000000000000012
Si   15.61412  12.89863   7.46762  -0.000004918358461   0.000004918361264  -0.000004922129590
Si   15.61412  15.61412  10.18313  -0.000002760291990  -0.000002760294767  -0.000000196320008
Si   12.89863  12.89863  10.18313   0.000002760297536   0.000002760294797  -0.000000196319998
Si   12.89863  15.61412   7.46762   0.000004918364041  -0.000004918361268  -0.000004922129602
Si   11.54087  11.54087  11.54087  -0.000004918358473  -0.000004918361267  -0.000004922129588
Si   14.25638  11.54087  14.25638   0.000000000002782  -0.000008425817827  -0.000000000000005
Si   11.54087  14.25638  14.25638  -0.000008425815066   0.000000000000004   0.000000000000006
Si   14.25638  14.25638  11.54087   0.000000000002780  -0.000000000000003  -0.000008431219424
Si   15.61412  12.89863  12.89863  -0.000006051413643   0.000006051416420   0.000006034557628
Si   15.61412  15.61412  15.61412  -0.000006051413652  -0.000006051416422  -0.000006034557606
Si   12.89863  12.89863  15.61412   0.000006051419210   0.000006051416433  -0.000006034557623
Si   12.89863  15.61412  12.89863   0.000006051419218  -0.000006051416419   0.000006034557631
