384 

Si    0.67887   0.67887   0.67888   0.000003779916525   0.000003780092209  -0.000004943599220
Si    3.39438   0.67887   3.39437  -0.000002077363959  -0.000005614968729   0.000007891822177
Si    0.67887   3.39437   3.39437  -0.000005614763578  -0.000002077221284   0.000007891834121
Si    3.39438   3.39437   0.67888   0.000002232099176   0.000002232404580  -0.000005445798398
Si    4.75212   2.03662   2.03662  -0.000000011985522   0.000000377924621  -0.000000871224739
Si    4.75212   4.75212   4.75213  -0.000002021802505  -0.000002021536259  -0.000003168569658
Si    2.03662   2.03662   4.75213  -0.000002167657435  -0.000002167584072  -0.000003637392452
Si    2.03662   4.75212   2.03662   0.000000377853377  -0.000000011723892  -0.000000871302949
Si    0.67887   0.67887   6.10987  -0.000004899187104  -0.000004899258597   0.000000333477205
Si    3.39438   0.67887   8.82537  -0.000002759523000  -0.000005114997462  -0.000009135348848
Si    0.67887   3.39437   8.82537  -0.000005115157253  -0.000002759373226  -0.000009135087759
Si    3.39438   3.39437   6.10987  -0.000004153430464  -0.000004153177694   0.000000193728477
Si    4.75212   2.03662   7.46762   0.000001267446207  -0.000000900113318   0.000001363949806
Si    4.75212   4.75212  10.18313  -0.000000895870193  -0.000000895641415   0.000001255035136
Si    2.03662   2.03662  10.18313   0.000000066427503   0.000000066678306   0.000000225585520
Si    2.03662   4.75212   7.46762  -0.000000900076769   0.000001267696460   0.000001363997813
Si    0.67887   0.67887  11.54087   0.000003757294476   0.000003757659412   0.000005236556263
Si    3.39438   0.67887  14.25638  -0.000000393023089   0.000007078987838  -0.000000029491765
Si    0.67887   3.39437  14.25638   0.000007078937596  -0.000000392927844  -0.000000029519304
Si    3.39438   3.39437  11.54087   0.000002718383518   0.000002718608241   0.000005988314164
Si    4.75212   2.03662  12.89862   0.000000209508018  -0.000000118003924  -0.000000884138676
Si    4.75212   4.75212  15.61413  -0.000001375971587  -0.000001375684244   0.000004813678433
Si    2.03662   2.03662  15.61413   0.000000043225372   0.000000043596393   0.000002438964102
Si    2.03662   4.75212  12.89862  -0.000000118294889   0.000000209625158  -0.000000884186741
Si    0.67887   6.10987   0.67888   0.000003189439974   0.000001619866567   0.000002412906646
Si    3.39438   6.10987   3.39437   0.000005635992024  -0.000005763650415   0.000003492638667
Si    0.67887   8.82537   3.39437   0.000002212101183   0.000001326974275  -0.000002615912047
Si    3.39438   8.82537   0.67888  -0.000001990456763  -0.000003965386142  -0.000004818399934
Si    4.75212   7.46762   2.03662   0.000002006824768   0.000002568846780   0.000000595825328
Si    4.75212  10.18313   4.75213  -0.000002105192351  -0.000001001608091  -0.000003115703393
Si    2.03662   7.46762   4.75213   0.000003415516296  -0.000000697115908  -0.000006810326056
Si    2.03662  10.18313   2.03662   0.000002104674616   0.000001262292799  -0.000000436856498
Si    0.67887   6.10987   6.10987  -0.000001361012254  -0.000001036673392  -0.000000510780117
Si    3.39438   6.10987   8.82537   0.000007203851862  -0.000005288398157  -0.000002219629903
Si    0.67887   8.82537   8.82537  -0.000000023455081   0.000001437310352   0.000002426220720
Si    3.39438   8.82537   6.10987   0.000000597184812   0.000004613163224  -0.000000323322278
Si    4.75212   7.46762   7.46762   0.000001037202870   0.000001966279408  -0.000002559882923
Si    4.75212  10.18313  10.18313   0.000001849084805   0.000002671421866   0.000000921022460
Si    2.03662   7.46762  10.18313  -0.000002055361878   0.000006386950112  -0.000000250049698
Si    2.03662  10.18313   7.46762  -0.000001910521984   0.000002696130818   0.000001633500006
Si    0.67887   6.10987  11.54087   0.000000087287119   0.000003407898472  -0.000000425759764
Si    3.39438   6.10987  14.25638  -0.000002940663405   0.000002001259981   0.000001111037935
Si    0.67887   8.82537  14.25638   0.000000138550374   0.000001469401951   0.000001037176303
Si    3.39438   8.82537  11.54087   0.000000148028934  -0.000003444931584   0.000003859137334
Si    4.75212   7.46762  12.89862   0.000001130828184  -0.000000432070360   0.000001687453570
Si    4.75212  10.18313  15.61413  -0.000002349446486  -0.000000185236653   0.000002209065420
Si    2.03662   7.46762  15.61413   0.000001688259980  -0.000001468074494   0.000006324140491
Si    2.03662  10.18313  12.89862  -0.000000043245488   0.000003473415329   0.000000471580149
Si    0.67887  11.54087   0.67888  -0.000006918559721   0.000006111755878  -0.000003361668426
Si    3.39438  11.54087   3.39437   0.000005332523711  -0.000002289081180  -0.000003078858647
Si    0.67887  14.25638   3.39437  -0.000002155278698   0.000000712018599   0.000005543898601
Si    3.39438  14.25638   0.67888  -0.000000329910748   0.000000518288301  -0.000002631770821
Si    4.75212  12.89862   2.03662  -0.000000234514360   0.000001157170124   0.000000300954135
Si    4.75212  15.61413   4.75213  -0.000001424454826   0.000000812757869  -0.000003373619396
Si    2.03662  12.89862   4.75213  -0.000005669083804  -0.000000563647590   0.000000868992008
Si    2.03662  15.61413   2.03662   0.000001509779666  -0.000003982181607  -0.000000588814191
Si    0.67887  11.54087   6.10987   0.000001991297380  -0.000003518217280   0.000000137510684
Si    3.39438  11.54087   8.82537   0.000005882218876  -0.000001779513996   0.000002225911845
Si    0.67887  14.25638   8.82537  -0.000003222288616   0.000001260966524  -0.000005794648641
Si    3.39438  14.25638   6.10987   0.000007352017743   0.000005928930068  -0.000000202225501
Si    4.75212  12.89862   7.46762  -0.000006277469676  -0.000002011920999  -0.000002876021064
Si    4.75212  15.61413  10.18313   0.000007656316734  -0.000001764452198   0.000000133359441
Si    2.03662  12.89862  10.18313  -0.000004023839910   0.000005474423224   0.000000748435130
Si    2.03662  15.61413   7.46762  -0.000002784552768  -0.000002365417876  -0.000000309767670
Si    0.67887  11.54087  11.54087  -0.000006353320491   0.000002712825448   0.000004752633460
Si    3.39438  11.54087  14.25638   0.000003808954184  -0.000003176002464  -0.000001515712741
Si    0.67887  14.25638  14.25638   0.000003956056279  -0.000004248377334   0.000000324350254
Si    3.39438  14.25638  11.54087  -0.000000235747411   0.000000430333951   0.000003144917363
Si    4.75212  12.89862  12.89862  -0.000004182528869  -0.000000591035700   0.000000849634525
Si    4.75212  15.61413  15.61413   0.000000379142261  -0.000001195333179   0.000005218701442
Si    2.03662  12.89862  15.61413  -0.000007774921576   0.000000261993584  -0.000000071689081
Si    2.03662  15.61413  12.89862  -0.000002713128118  -0.000002727480207  -0.000000527347171
Si    0.67887  16.97188   0.67888  -0.000000758113991   0.000002486047131  -0.000004554198129
Si    3.39438  16.97188   3.39437   0.000002559467777   0.000002276977577   0.000002444474341
Si    0.67887  19.68738   3.39437   0.000003155149954   0.000002868567999   0.000001081626041
Si    3.39438  19.68738   0.67888  -0.000007102181214  -0.000005992241852  -0.000001180797546
Si    4.75212  18.32963   2.03662  -0.000000875470305  -0.000000749680629  -0.000000968168365
Si    4.75212  21.04512   4.75213  -0.000001915502757   0.000000426531891  -0.000003552790382
Si    2.03662  18.32963   4.75213   0.000004586787253   0.000007183920757  -0.000003018505361
Si    2.03662  21.04512   2.03662   0.000002171589700   0.000000878407598   0.000000234032155
Si    0.67887  16.97188   6.10987  -0.000003479837257  -0.000010277208423   0.000000544694142
Si    3.39438  16.97188   8.82537   0.000002905312765   0.000002560145954  -0.000002081475617
Si    0.67887  19.68738   8.82537   0.000004852095876   0.000001223245396  -0.000001542222125
Si    3.39438  19.68738   6.10987   0.000002046379409  -0.000001076116057  -0.000000628097203
Si    4.75212  18.32963   7.46762  -0.000002560163181  -0.000002905312193   0.000002081370055
Si    4.75212  21.04512  10.18313   0.000010277115244   0.000003479836284  -0.000000544831763
Si    2.03662  18.32963  10.18313   0.000001076063012  -0.000002046421673   0.000000627927527
Si    2.03662  21.04512   7.46762  -0.000001223217514  -0.000004852011734   0.000001542148063
Si    0.67887  16.97188  11.54087  -0.000000426579697   0.000001915273992   0.000003552738424
Si    3.39438  16.97188  14.25638   0.000000749757259   0.000000875302513   0.000000968269815
Si    0.67887  19.68738  14.25638  -0.000000878468866  -0.000002171354405  -0.000000233926499
Si    3.39438  19.68738  11.54087  -0.000007183817104  -0.000004586681619   0.000003018362451
Si    4.75212  18.32963  12.89862  -0.000002276839442  -0.000002559508756  -0.000002444336534
Si    4.75212  21.04512  15.61413  -0.000002486120780   0.000000757950658   0.000004554380280
Si    2.03662  18.32963  15.61413   0.000005992266207   0.000007102247229   0.000001180932314
Si    2.03662  21.04512  12.89862  -0.000002868701409  -0.000003154951163  -0.000001081546461
Si    6.10987   0.67887   0.67888   0.000001619753180   0.000003189314632   0.000002412858991
Si    8.82537   0.67887   3.39437   0.000001327223916   0.000002211822599  -0.000002615812107
Si    6.10987   3.39437   3.39437  -0.000005763920319   0.000005636224818   0.000003492608346
Si    8.82537   3.39437   0.67888  -0.000003965413642  -0.000001990348301  -0.000004818300666
Si   10.18313   2.03662   2.03662   0.000001262718413   0.000002104409570  -0.000000436736753
Si   10.18313   4.75212   4.75213  -0.000001001477669  -0.000002105045087  -0.000003115775534
Si    7.46762   2.03662   4.75213  -0.000000697110727   0.000003415431030  -0.000006810113957
Si    7.46762   4.75212   2.03662   0.000002568566429   0.000002007127718   0.000000595894142
Si    6.10987   0.67887   6.10987  -0.000001036745796  -0.000001361099409  -0.000000510813712
Si    8.82537   0.67887   8.82537   0.000001437550963  -0.000000023529294   0.000002426128828
Si    6.10987   3.39437   8.82537  -0.000005288622952   0.000007204112722  -0.000002219636807
Si    8.82537   3.39437   6.10987   0.000004613107417   0.000000597267507  -0.000000323363039
Si   10.18313   2.03662   7.46762   0.000002696231345  -0.000001910716362   0.000001633438365
Si   10.18313   4.75212  10.18313   0.000002671293443   0.000001849206733   0.000000920954744
Si    7.46762   2.03662  10.18313   0.000006386924182  -0.000002055277966  -0.000000249999374
Si    7.46762   4.75212   7.46762   0.000001966158634   0.000001037330991  -0.000002559997570
Si    6.10987   0.67887  11.54087   0.000003407831035   0.000000087453257  -0.000000425771772
Si    8.82537   0.67887  14.25638   0.000001469497355   0.000000138321893   0.000001037331245
Si    6.10987   3.39437  14.25638   0.000002000825878  -0.000002940502915   0.000001110939523
Si    8.82537   3.39437  11.54087  -0.000003445002006   0.000000148138416   0.000003858931502
Si   10.18313   2.03662  12.89862   0.000003473673725  -0.000000043415279   0.000000471545475
Si   10.18313   4.75212  15.61413  -0.000000185022137  -0.000002349212148   0.000002209018543
Si    7.46762   2.03662  15.61413  -0.000001468204582   0.000001688052525   0.000006324309443
Si    7.46762   4.75212  12.89862  -0.000000432352315   0.000001131156088   0.000001687391591
Si    6.10987   6.10987   0.67888   0.000003857432873   0.000003857638362  -0.000000005660883
Si    8.82537   6.10987   3.39437   0.000008578486305   0.000001191887053  -0.000000040095256
Si    6.10987   8.82537   3.39437   0.000001191678843   0.000008578459764  -0.000000040159705
Si    8.82537   8.82537   0.67888   0.000004665186607   0.000004665320462  -0.000003516748479
Si   10.18313   7.46762   2.03662  -0.000007111046645  -0.000002472724839  -0.000000440874330
Si   10.18313  10.18313   4.75213  -0.000001483816127  -0.000001483851098   0.000001029490518
Si    7.46762   7.46762   4.75213  -0.000003672502816  -0.000003672356939   0.000006752965921
Si    7.46762  10.18313   2.03662  -0.000002472877866  -0.000007111230465  -0.000000441045331
Si    6.10987   6.10987   6.10987  -0.000004832544472  -0.000004832383749   0.000001363448084
Si    8.82537   6.10987   8.82537   0.000007651040958  -0.000000065695224   0.000000790649218
Si    6.10987   8.82537   8.82537  -0.000000065898453   0.000007651113768   0.000000790644151
Si    8.82537   8.82537   6.10987   0.000001977145651   0.000001977113739   0.000000890527099
Si   10.18313   7.46762   7.46762   0.000001813650258   0.000006326042572   0.000005756529604
Si   10.18313  10.18313  10.18313  -0.000001979892974  -0.000001979813299  -0.000001682469146
Si    7.46762   7.46762  10.18313  -0.000005643823790  -0.000005643551116   0.000000362272092
Si    7.46762  10.18313   7.46762   0.000006325839504   0.000001813718072   0.000005756556378
Si    6.10987   6.10987  11.54087   0.000002339499502   0.000002339710507  -0.000002180205278
Si    8.82537   6.10987  14.25638  -0.000005182473177   0.000001549950291  -0.000000901636157
Si    6.10987   8.82537  14.25638   0.000001549626718  -0.000005182296407  -0.000000901669564
Si    8.82537   8.82537  11.54087   0.000004016694044   0.000004016899295   0.000003474706842
Si   10.18313   7.46762  12.89862   0.000000633171887   0.000007341450791  -0.000004960543656
Si   10.18313  10.18313  15.61413  -0.000000711232473  -0.000000711189423  -0.000001295450761
Si    7.46762   7.46762  15.61413  -0.000003715354430  -0.000003715254915  -0.000006872308261
Si    7.46762  10.18313  12.89862   0.000007341164802   0.000000633153644  -0.000004960678513
Si    6.10987  11.54087   0.67888  -0.000005766998060   0.000005756360044  -0.000003143650960
Si    8.82537  11.54087   3.39437   0.000001981474729   0.000001509447652   0.000000920587205
Si    6.10987  14.25638   3.39437  -0.000002675695045  -0.000001432662351   0.000005881556656
Si    8.82537  14.25638   0.67888  -0.000000871134709  -0.000001693137006  -0.000002179674369
Si   10.18313  12.89862   2.03662   0.000000763732881  -0.000002179386761  -0.000000870513502
Si   10.18313  15.61413   4.75213  -0.000008467894358   0.000003922890532  -0.000003034457986
Si    7.46762  12.89862   4.75213   0.000001605834209   0.000000755795111  -0.000001764927483
Si    7.46762  15.61413   2.03662  -0.000005439920284  -0.000001761634353  -0.000000042015662
Si    6.10987  11.54087   6.10987   0.000002271720066  -0.000003800214244  -0.000001303022946
Si    8.82537  11.54087   8.82537   0.000001406928416   0.000002892084027  -0.000001136404421
Si    6.10987  14.25638   8.82537  -0.000002345360483  -0.000002605933110  -0.000006273363893
Si    8.82537  14.25638   6.10987   0.000001041885400   0.000002757343158  -0.000000665088272
Si   10.18313  12.89862   7.46762  -0.000002892215274  -0.000001406924918   0.000001136688988
Si   10.18313  15.61413  10.18313   0.000003800092335  -0.000002271677075   0.000001303183626
Si    7.46762  12.89862  10.18313  -0.000002757428304  -0.000001042040817   0.000000665260788
Si    7.46762  15.61413   7.46762   0.000002605894859   0.000002345340934   0.000006273435354
Si    6.10987  11.54087  11.54087  -0.000003922734383   0.000008467864904   0.000003034527111
Si    8.82537  11.54087  14.25638   0.000002179079772  -0.000000763862836   0.000000870591498
Si    6.10987  14.25638  14.25638   0.000001761582344   0.000005439634515   0.000000041846376
Si    8.82537  14.25638  11.54087  -0.000000755887470  -0.000001605876524   0.000001765130627
Si   10.18313  12.89862  12.89862  -0.000001509574836  -0.000001981292954  -0.000000920715963
Si   10.18313  15.61413  15.61413  -0.000005756625493   0.000005767038258   0.000003143461879
Si    7.46762  12.89862  15.61413   0.000001693012565   0.000000870943954   0.000002179452821
Si    7.46762  15.61413  12.89862   0.000001432760408   0.000002675605955  -0.000005881669121
Si    6.10987  16.97188   0.67888   0.000001195249030  -0.000000379150043  -0.000005218762446
Si    8.82537  16.97188   3.39437   0.000000591097626   0.000004182775937  -0.000000849565970
Si    6.10987  19.68738   3.39437   0.000002727309916   0.000002713088065   0.000000527352500
Si    8.82537  19.68738   0.67888  -0.000000261984211   0.000007774924410   0.000000071595994
Si   10.18313  18.32963   2.03662   0.000003176064587  -0.000003808770948   0.000001515689694
Si   10.18313  21.04512   4.75213  -0.000002712661569   0.000006353224362  -0.000004752638034
Si    7.46762  18.32963   4.75213  -0.000000430475294   0.000000235831499  -0.000003144888167
Si    7.46762  21.04512   2.03662   0.000004248246313  -0.000003956091634  -0.000000324480462
Si    6.10987  16.97188   6.10987   0.000001764341317  -0.000007656228375  -0.000000133357059
Si    8.82537  16.97188   8.82537   0.000002011822532   0.000006277479688   0.000002876197560
Si    6.10987  19.68738   8.82537   0.000002365336671   0.000002784520229   0.000000309705890
Si    8.82537  19.68738   6.10987  -0.000005474417044   0.000004023750306  -0.000000748463247
Si   10.18313  18.32963   7.46762   0.000001779518507  -0.000005882160662  -0.000002225954794
Si   10.18313  21.04512  10.18313   0.000003518293877  -0.000001991336418  -0.000000137516827
Si    7.46762  18.32963  10.18313  -0.000005928921313  -0.000007352230039   0.000000202232723
Si    7.46762  21.04512   7.46762  -0.000001261078083   0.000003222221143   0.000005794626381
Si    6.10987  16.97188  11.54087  -0.000000812568754   0.000001424331380   0.000003373575613
Si    8.82537  16.97188  14.25638  -0.000001157196059   0.000000234479909  -0.000000301086794
Si    6.10987  19.68738  14.25638   0.000003982187630  -0.000001510008630   0.000000588956820
Si    8.82537  19.68738  11.54087   0.000000563631392   0.000005668931834  -0.000000869012501
Si   10.18313  18.32963  12.89862   0.000002289129154  -0.000005332652423   0.000003078788160
Si   10.18313  21.04512  15.61413  -0.000006111602379   0.000006918422256   0.000003361635184
Si    7.46762  18.32963  15.61413  -0.000000518243772   0.000000329963743   0.000002631735209
Si    7.46762  21.04512  12.89862  -0.000000711854452   0.000002155303228  -0.000005543921331
Si   11.54087   0.67887   0.67888   0.000006112107624  -0.000006918869527  -0.000003361514140
Si   14.25638   0.67887   3.39437   0.000000711903172  -0.000002155444324   0.000005543781939
Si   11.54087   3.39437   3.39437  -0.000002288820470   0.000005332538941  -0.000003078885909
Si   14.25638   3.39437   0.67888   0.000000518331036  -0.000000330043765  -0.000002631840811
Si   15.61413   2.03662   2.03662  -0.000003982486252   0.000001509847434  -0.000000588994959
Si   15.61413   4.75212   4.75213   0.000000812667472  -0.000001424626644  -0.000003373693539
Si   12.89862   2.03662   4.75213  -0.000000563444528  -0.000005669145890   0.000000868880926
Si   12.89862   4.75212   2.03662   0.000001157372287  -0.000000234470122   0.000000300955045
Si   11.54087   0.67887   6.10987  -0.000003518009167   0.000001991152884   0.000000137437553
Si   14.25638   0.67887   8.82537   0.000001261128612  -0.000003222389495  -0.000005794614012
Si   11.54087   3.39437   8.82537  -0.000001779342340   0.000005882086020   0.000002225831141
Si   14.25638   3.39437   6.10987   0.000005929062384   0.000007352038723  -0.000000202256944
Si   15.61413   2.03662   7.46762  -0.000002365303319  -0.000002784642262  -0.000000309799511
Si   15.61413   4.75212  10.18313  -0.000001764189079   0.000007656261567   0.000000133416064
Si   12.89862   2.03662  10.18313   0.000005474685902  -0.000004024088198   0.000000748387036
Si   12.89862   4.75212   7.46762  -0.000002011704230  -0.000006277638718  -0.000002876206726
Si   11.54087   0.67887  11.54087   0.000002713085530  -0.000006353538734   0.000004752635834
Si   14.25638   0.67887  14.25638  -0.000004248112139   0.000003955906422   0.000000324571689
Si   11.54087   3.39437  14.25638  -0.000003175389166   0.000003808946120  -0.000001515667349
Si   14.25638   3.39437  11.54087   0.000000430624964  -0.000000235952556   0.000003145110160
Si   15.61413   2.03662  12.89862  -0.000002727293511  -0.000002713212888  -0.000000527140241
Si   15.61413   4.75212  15.61413  -0.000001195412955   0.000000379094651   0.000005218600476
Si   12.89862   2.03662  15.61413   0.000000262537570  -0.000007774938938  -0.000000071569618
Si   12.89862   4.75212  12.89862  -0.000000590753711  -0.000004182619160   0.000000849959351
Si   11.54087   6.10987   0.67888   0.000005756720465  -0.000005766763639  -0.000003143529147
Si   14.25638   6.10987   3.39437  -0.000001432715528  -0.000002675802371   0.000005881428714
Si   11.54087   8.82537   3.39437   0.000001509494375   0.000001981372973   0.000000920457626
Si   14.25638   8.82537   0.67888  -0.000001693164483  -0.000000871169623  -0.000002179521855
Si   15.61413   7.46762   2.03662  -0.000001761573346  -0.000005439824413  -0.000000042187716
Si   15.61413  10.18313   4.75213   0.000003922755757  -0.000008468027604  -0.000003034536453
Si   12.89862   7.46762   4.75213   0.000000755701572   0.000001605806126  -0.000001765225360
Si   12.89862  10.18313   2.03662  -0.000002179299022   0.000000763574884  -0.000000870588925
Si   11.54087   6.10987   6.10987  -0.000003800265230   0.000002271820563  -0.000001303250203
Si   14.25638   6.10987   8.82537  -0.000002605665343  -0.000002345364252  -0.000006273372974
Si   11.54087   8.82537   8.82537   0.000002891850466   0.000001406933442  -0.000001136431012
Si   14.25638   8.82537   6.10987   0.000002757370013   0.000001042055921  -0.000000665232937
Si   15.61413   7.46762   7.46762   0.000002345447374   0.000002605770759   0.000006273452990
Si   15.61413  10.18313  10.18313  -0.000002271442373   0.000003800133227   0.000001303073974
Si   12.89862   7.46762  10.18313  -0.000001042086938  -0.000002757285947   0.000000665319359
Si   12.89862  10.18313   7.46762  -0.000001407000455  -0.000002891997292   0.000001136441341
Si   11.54087   6.10987  11.54087   0.000008467899424  -0.000003922551914   0.000003034597277
Si   14.25638   6.10987  14.25638   0.000005439875429   0.000001761422904   0.000000042036999
Si   11.54087   8.82537  14.25638  -0.000000763891741   0.000002179119931   0.000000870579322
Si   14.25638   8.82537  11.54087  -0.000001605868324  -0.000000756011824   0.000001765164153
Si   15.61413   7.46762  12.89862   0.000002675906509   0.000001432483657  -0.000005881475783
Si   15.61413  10.18313  15.61413   0.000005767016032  -0.000005756733835   0.000003143525512
Si   12.89862   7.46762  15.61413   0.000000871057541   0.000001692990070   0.000002179639467
Si   12.89862  10.18313  12.89862  -0.000001981563235  -0.000001509644032  -0.000000920645529
Si   11.54087  11.54087   0.67888   0.000000710973306   0.000000710876164   0.000001295522107
Si   14.25638  11.54087   3.39437  -0.000007341518641  -0.000000633212767   0.000004960583584
Si   11.54087  14.25638   3.39437  -0.000000633201786  -0.000007341347337   0.000004960718462
Si   14.25638  14.25638   0.67888   0.000003715426834   0.000003715516205   0.000006872320458
Si   15.61413  12.89862   2.03662  -0.000001549852162   0.000005182475188   0.000000901626645
Si   15.61413  15.61413   4.75213  -0.000002339599662  -0.000002339406319   0.000002180368792
Si   12.89862  12.89862   4.75213  -0.000004016895112  -0.000004016891847  -0.000003474693338
Si   12.89862  15.61413   2.03662   0.000005182594062  -0.000001549417976   0.000000901610886
Si   11.54087  11.54087   6.10987   0.000001979814222   0.000001979684183   0.000001682402713
Si   14.25638  11.54087   8.82537  -0.000006325951276  -0.000001813694351  -0.000005756682758
Si   11.54087  14.25638   8.82537  -0.000001813769565  -0.000006325872829  -0.000005756445344
Si   14.25638  14.25638   6.10987   0.000005643840445   0.000005643941233  -0.000000361937532
Si   15.61413  12.89862   7.46762   0.000000065756197  -0.000007650894286  -0.000000790597370
Si   15.61413  15.61413  10.18313   0.000004832537495   0.000004832670864  -0.000001363600904
Si   12.89862  12.89862  10.18313  -0.000001977308879  -0.000001977143012  -0.000000890439353
Si   12.89862  15.61413   7.46762  -0.000007650893635   0.000000065852995  -0.000000790637631
Si   11.54087  11.54087  11.54087   0.000001483683843   0.000001483875070  -0.000001029595131
Si   14.25638  11.54087  14.25638   0.000002472847191   0.000007111117264   0.000000440957685
Si   11.54087  14.25638  14.25638   0.000007111083166   0.000002472782610   0.000000440722221
Si   14.25638  14.25638  11.54087   0.000003672335765   0.000003672554283  -0.000006752850228
Si   15.61413  12.89862  12.89862  -0.000001191770094  -0.000008578403466   0.000000040201589
Si   15.61413  15.61413  15.61413  -0.000003857468371  -0.000003857199635   0.000000005713158
Si   12.89862  12.89862  15.61413  -0.000004665297663  -0.000004665265259   0.000003516558172
Si   12.89862  15.61413  12.89862  -0.000008578465984  -0.000001191683407   0.000000040141408
Si   11.54087  16.97188   0.67888   0.000000185306281   0.000002349818621  -0.000002208964421
Si   14.25638  16.97188   3.39437   0.000000432222941  -0.000001130683550  -0.000001687592322
Si   11.54087  19.68738   3.39437  -0.000003473340632   0.000000043172042  -0.000000471701604
Si   14.25638  19.68738   0.67888   0.000001468023011  -0.000001688044211  -0.000006324169340
Si   15.61413  18.32963   2.03662  -0.000002001190588   0.000002940631963  -0.000001111036674
Si   15.61413  21.04512   4.75213  -0.000003407763255  -0.000000087502346   0.000000425740048
Si   12.89862  18.32963   4.75213   0.000003444958690  -0.000000147914809  -0.000003859130892
Si   12.89862  21.04512   2.03662  -0.000001469308450  -0.000000138631974  -0.000001037430113
Si   11.54087  16.97188   6.10987  -0.000002671356338  -0.000001848899627  -0.000000921031558
Si   14.25638  16.97188   8.82537  -0.000001966082862  -0.000001037197937   0.000002559813550
Si   11.54087  19.68738   8.82537  -0.000002695942152   0.000001910599095  -0.000001633429486
Si   14.25638  19.68738   6.10987  -0.000006387035208   0.000002055333880   0.000000250038798
Si   15.61413  18.32963   7.46762   0.000005288558697  -0.000007204067812   0.000002219671916
Si   15.61413  21.04512  10.18313   0.000001036693322   0.000001361000151   0.000000510937974
Si   12.89862  18.32963  10.18313  -0.000004613199008  -0.000000596990398   0.000000323317667
Si   12.89862  21.04512   7.46762  -0.000001437432783   0.000000023241895  -0.000002426173907
Si   11.54087  16.97188  11.54087   0.000001001371580   0.000002105198182   0.000003115739990
Si   14.25638  16.97188  14.25638  -0.000002568591057  -0.000002006635914  -0.000000595846071
Si   11.54087  19.68738  14.25638  -0.000001262278986  -0.000002104614960   0.000000436944926
Si   14.25638  19.68738  11.54087   0.000000697049420  -0.000003415272776   0.000006810275663
Si   15.61413  18.32963  12.89862   0.000005763772194  -0.000005635963542  -0.000003492380987
Si   15.61413  21.04512  15.61413  -0.000001619869428  -0.000003189344227  -0.000002412890851
Si   12.89862  18.32963  15.61413   0.000003965445321   0.000001990649031   0.000004818443267
Si   12.89862  21.04512  12.89862  -0.000001326905658  -0.000002212060787   0.000002615858515
Si   16.97188   0.67887   0.67888   0.000002485825171  -0.000000758219548  -0.000004554484590
Si   19.68738   0.67887   3.39437   0.000002868511829   0.000003154833610   0.000001081741037
Si   16.97188   3.39437   3.39437   0.000002276698739   0.000002559536043   0.000002444380032
Si   19.68738   3.39437   0.67888  -0.000005992017452  -0.000007102186542  -0.000001180992069
Si   21.04512   2.03662   2.03662   0.000000878680207   0.000002171526763   0.000000233775912
Si   21.04512   4.75212   4.75213   0.000000426682343  -0.000001915366269  -0.000003552703253
Si   18.32963   2.03662   4.75213   0.000007183711930   0.000004586565041  -0.000003018307871
Si   18.32963   4.75212   2.03662  -0.000000749834633  -0.000000875280889  -0.000000968235828
Si   16.97188   0.67887   6.10987  -0.000010277123776  -0.000003479971671   0.000000544853821
Si   19.68738   0.67887   8.82537   0.000001223160860   0.000004852281372  -0.000001542146846
Si   16.97188   3.39437   8.82537   0.000002560271595   0.000002905177087  -0.000002081528837
Si   19.68738   3.39437   6.10987  -0.000001076012307   0.000002046413893  -0.000000627829566
Si   21.04512   2.03662   7.46762  -0.000004852165903  -0.000001223102821   0.000001542408790
Si   21.04512   4.75212  10.18313   0.000003479801944   0.000010277206024  -0.000000544694740
Si   18.32963   2.03662  10.18313  -0.000002046159077   0.000001075956498   0.000000627872106
Si   18.32963   4.75212   7.46762  -0.000002905142521  -0.000002560246028   0.000002081453638
Si   16.97188   0.67887  11.54087   0.000001915292120  -0.000000426685333   0.000003552921608
Si   19.68738   0.67887  14.25638  -0.000002171537341  -0.000000878480036  -0.000000233918917
Si   16.97188   3.39437  14.25638   0.000000875127552   0.000000749590249   0.000000968174613
Si   19.68738   3.39437  11.54087  -0.000004586469626  -0.000007183735158   0.000003018273697
Si   21.04512   2.03662  12.89862  -0.000003154981363  -0.000002868562797  -0.000001081704177
Si   21.04512   4.75212  15.61413   0.000000758134901  -0.000002486049537   0.000004554262408
Si   18.32963   2.03662  15.61413   0.000007102121983   0.000005992035879   0.000001180702705
Si   18.32963   4.75212  12.89862  -0.000002559442779  -0.000002276619058  -0.000002444452142
Si   16.97188   6.10987   0.67888  -0.000000379196441   0.000001195369587  -0.000005218843188
Si   19.68738   6.10987   3.39437   0.000002713243440   0.000002727584191   0.000000527343234
Si   16.97188   8.82537   3.39437   0.000004182723631   0.000000590919755  -0.000000849778793
Si   19.68738   8.82537   0.67888   0.000007774935966  -0.000000262336455   0.000000071567471
Si   21.04512   7.46762   2.03662  -0.000003955853007   0.000004248241101  -0.000000324449985
Si   21.04512  10.18313   4.75213   0.000006353342829  -0.000002712890901  -0.000004752573693
Si   18.32963   7.46762   4.75213   0.000000236026278  -0.000000430446753  -0.000003145046609
Si   18.32963  10.18313   2.03662  -0.000003808851140   0.000003175476036   0.000001515711248
Si   16.97188   6.10987   6.10987  -0.000007656210746   0.000001764218149  -0.000000133286981
Si   19.68738   6.10987   8.82537   0.000002784756749   0.000002365412101   0.000000309952281
Si   16.97188   8.82537   8.82537   0.000006277717874   0.000002011796595   0.000002876271442
Si   19.68738   8.82537   6.10987   0.000004024032165  -0.000005474548768  -0.000000748378280
Si   21.04512   7.46762   7.46762   0.000003222395756  -0.000001261091193   0.000005794860830
Si   21.04512  10.18313  10.18313  -0.000001991321500   0.000003518017520  -0.000000137433794
Si   18.32963   7.46762  10.18313  -0.000007351925426  -0.000005928989817   0.000000202524588
Si   18.32963  10.18313   7.46762  -0.000005881983042   0.000001779526858  -0.000002225780314
Si   16.97188   6.10987  11.54087   0.000001424678646  -0.000000812545689   0.000003373804877
Si   19.68738   6.10987  14.25638  -0.000001509912039   0.000003982411277   0.000000588687399
Si   16.97188   8.82537  14.25638   0.000000234568282  -0.000001157418414  -0.000000300995222
Si   19.68738   8.82537  11.54087   0.000005669066482   0.000000563328896  -0.000000868929637
Si   21.04512   7.46762  12.89862   0.000002155258708  -0.000000711929972  -0.000005544072703
Si   21.04512  10.18313  15.61413   0.000006918778437  -0.000006111909251   0.000003361471764
Si   18.32963   7.46762  15.61413   0.000000330014265  -0.000000518328242   0.000002631605062
Si   18.32963  10.18313  12.89862  -0.000005332450966   0.000002288733683   0.000003078730520
Si   16.97188  11.54087   0.67888   0.000002349351723   0.000000185011532  -0.000002209178919
Si   19.68738  11.54087   3.39437   0.000000043381567  -0.000003473697261  -0.000000471394158
Si   16.97188  14.25638   3.39437  -0.000001131056791   0.000000432398304  -0.000001687324577
Si   19.68738  14.25638   0.67888  -0.000001687991496   0.000001468311561  -0.000006324259875
Si   21.04512  12.89862   2.03662  -0.000000138274086  -0.000001469505729  -0.000001037241046
Si   21.04512  15.61413   4.75213  -0.000000087279029  -0.000003407729829   0.000000425719502
Si   18.32963  12.89862   4.75213  -0.000000147944549   0.000003444866367  -0.000003858778291
Si   18.32963  15.61413   2.03662   0.000002940657818  -0.000002000768121  -0.000001111100510
Si   16.97188  11.54087   6.10987  -0.000001848850220  -0.000002671364475  -0.000000920870905
Si   19.68738  11.54087   8.82537   0.000001910581020  -0.000002696199255  -0.000001633390844
Si   16.97188  14.25638   8.82537  -0.000001037257620  -0.000001966029772   0.000002559750446
Si   19.68738  14.25638   6.10987   0.000002055348843  -0.000006387149739   0.000000250088142
Si   21.04512  12.89862   7.46762   0.000000023391866  -0.000001437516920  -0.000002426101146
Si   21.04512  15.61413  10.18313   0.000001361109950   0.000001036513661   0.000000510885879
Si   18.32963  12.89862  10.18313  -0.000000597069142  -0.000004613393253   0.000000323221374
Si   18.32963  15.61413   7.46762  -0.000007204240025   0.000005288598474   0.000002219669322
Si   16.97188  11.54087  11.54087   0.000002105412986   0.000001001285821   0.000003115631896
Si   19.68738  11.54087  14.25638  -0.000002104425572  -0.000001262687899   0.000000436722102
Si   16.97188  14.25638  14.25638  -0.000002006971258  -0.000002568558702  -0.000000595872450
Si   19.68738  14.25638  11.54087  -0.000003415375139   0.000000697106293   0.000006810179863
Si   21.04512  12.89862  12.89862  -0.000002211773977  -0.000001327256529   0.000002615755502
Si   21.04512  15.61413  15.61413  -0.000003189413020  -0.000001619734278  -0.000002412743003
Si   18.32963  12.89862  15.61413   0.000001990470406   0.000003965333102   0.000004818236527
Si   18.32963  15.61413  12.89862  -0.000005636135332   0.000005763874066  -0.000003492582445
Si   16.97188  16.97188   0.67888   0.000001375601109   0.000001376080640  -0.000004813738878
Si   19.68738  16.97188   3.39437   0.000000118267065  -0.000000209499909   0.000000884079843
Si   16.97188  19.68738   3.39437  -0.000000209690980   0.000000118292507   0.000000884072039
Si   19.68738  19.68738   0.67888  -0.000000043577179  -0.000000043407886  -0.000002438951446
Si   21.04512  18.32963   2.03662  -0.000007078960769   0.000000392836049   0.000000029597581
Si   21.04512  21.04512   4.75213  -0.000003757506177  -0.000003757527125  -0.000005236514488
Si   18.32963  18.32963   4.75213  -0.000002718583348  -0.000002718387868  -0.000005988349346
Si   18.32963  21.04512   2.03662   0.000000392748798  -0.000007079174556   0.000000029473189
Si   16.97188  16.97188   6.10987   0.000000895568936   0.000000895730094  -0.000001254802492
Si   19.68738  16.97188   8.82537   0.000000899855450  -0.000001267542834  -0.000001363994814
Si   16.97188  19.68738   8.82537  -0.000001267648044   0.000000900065237  -0.000001363952464
Si   19.68738  19.68738   6.10987  -0.000000066576257  -0.000000066495126  -0.000000225634846
Si   21.04512  18.32963   7.46762   0.000005115036821   0.000002759489934   0.000009135184748
Si   21.04512  21.04512  10.18313   0.000004899057842   0.000004899382476  -0.000000333357913
Si   18.32963  18.32963  10.18313   0.000004152993661   0.000004153238405  -0.000000193763230
Si   18.32963  21.04512   7.46762   0.000002759259960   0.000005115146135   0.000009135212216
Si   16.97188  16.97188  11.54087   0.000002021608488   0.000002021744781   0.000003168488259
Si   19.68738  16.97188  14.25638  -0.000000377999083   0.000000011813000   0.000000871315239
Si   16.97188  19.68738  14.25638   0.000000011621013  -0.000000377809080   0.000000871298537
Si   19.68738  19.68738  11.54087   0.000002167562296   0.000002167856687   0.000003637425530
Si   21.04512  18.32963  12.89862   0.000005614787762   0.000002077389811  -0.000007891951053
Si   21.04512  21.04512  15.61413  -0.000003780094828  -0.000003779887617   0.000004943505604
Si   18.32963  18.32963  15.61413  -0.000002232493406  -0.000002232193135   0.000005445781544
Si   18.32963  21.04512  12.89862   0.000002077127241   0.000005614963416  -0.000007891858894
