384 

Si    0.67887   0.67887   0.67888   0.000003779976641   0.000003780141853  -0.000004943490065
Si    3.39438   0.67887   3.39437  -0.000002077127576  -0.000005614805330   0.000007892178240
Si    0.67887   3.39437   3.39437  -0.000005614864214  -0.000002077172209   0.000007891985685
Si    3.39438   3.39437   0.67888   0.000002232329581   0.000002232344410  -0.000005445896362
Si    4.75212   2.03662   2.03662  -0.000000011510925   0.000000377864239  -0.000000871162183
Si    4.75212   4.75212   4.75213  -0.000002021468602  -0.000002021768754  -0.000003168570189
Si    2.03662   2.03662   4.75213  -0.000002167546097  -0.000002167711009  -0.000003637112443
Si    2.03662   4.75212   2.03662   0.000000377737338  -0.000000011562450  -0.000000871232883
Si    0.67887   0.67887   6.10987  -0.000004898976600  -0.000004899021781   0.000000333416947
Si    3.39438   0.67887   8.82537  -0.000002759400225  -0.000005114752836  -0.000009135336501
Si    0.67887   3.39437   8.82537  -0.000005114872888  -0.000002759297479  -0.000009135481526
Si    3.39438   3.39437   6.10987  -0.000004153402735  -0.000004153599073   0.000000193812243
Si    4.75212   2.03662   7.46762   0.000001267475623  -0.000000900069911   0.000001363876738
Si    4.75212   4.75212  10.18313  -0.000000895737528  -0.000000895722085   0.000001254950217
Si    2.03662   2.03662  10.18313   0.000000066750742   0.000000066547016   0.000000225483931
Si    2.03662   4.75212   7.46762  -0.000000900195426   0.000001267389032   0.000001364091103
Si    0.67887   0.67887  11.54087   0.000003757646168   0.000003757554736   0.000005236494089
Si    3.39438   0.67887  14.25638  -0.000000392672846   0.000007079172803  -0.000000029563403
Si    0.67887   3.39437  14.25638   0.000007079115978  -0.000000392793588  -0.000000029571166
Si    3.39438   3.39437  11.54087   0.000002718562146   0.000002718409525   0.000005988214185
Si    4.75212   2.03662  12.89862   0.000000209571875  -0.000000118192282  -0.000000884188483
Si    4.75212   4.75212  15.61413  -0.000001375890322  -0.000001375922154   0.000004813662388
Si    2.03662   2.03662  15.61413   0.000000043511800   0.000000043554928   0.000002438946259
Si    2.03662   4.75212  12.89862  -0.000000118188443   0.000000209482949  -0.000000884098744
Si    0.67887   6.10987   0.67888   0.000003189433334   0.000001620004205   0.000002412999070
Si    3.39438   6.10987   3.39437   0.000005635931107  -0.000005763646813   0.000003492505157
Si    0.67887   8.82537   3.39437   0.000002211876781   0.000001327054101  -0.000002615929028
Si    3.39438   8.82537   0.67888  -0.000001990818683  -0.000003965420813  -0.000004818165998
Si    4.75212   7.46762   2.03662   0.000002006410035   0.000002568614210   0.000000595949246
Si    4.75212  10.18313   4.75213  -0.000002105468680  -0.000001001284306  -0.000003115791553
Si    2.03662   7.46762   4.75213   0.000003415320291  -0.000000697019204  -0.000006810355270
Si    2.03662  10.18313   2.03662   0.000002104429991   0.000001262325886  -0.000000436825346
Si    0.67887   6.10987   6.10987  -0.000001361198383  -0.000001036720016  -0.000000510904103
Si    3.39438   6.10987   8.82537   0.000007204032250  -0.000005288536003  -0.000002219637381
Si    0.67887   8.82537   8.82537  -0.000000023227059   0.000001437672195   0.000002426134464
Si    3.39438   8.82537   6.10987   0.000000596867646   0.000004613209218  -0.000000323277965
Si    4.75212   7.46762   7.46762   0.000001037148977   0.000001966184859  -0.000002559716122
Si    4.75212  10.18313  10.18313   0.000001848753327   0.000002671360998   0.000000921048490
Si    2.03662   7.46762  10.18313  -0.000002055231158   0.000006387082467  -0.000000250070715
Si    2.03662  10.18313   7.46762  -0.000001910715906   0.000002696143434   0.000001633464058
Si    0.67887   6.10987  11.54087   0.000000087461603   0.000003407834435  -0.000000425919778
Si    3.39438   6.10987  14.25638  -0.000002940631791   0.000002000958398   0.000001111071558
Si    0.67887   8.82537  14.25638   0.000000138318550   0.000001469719443   0.000001037414558
Si    3.39438   8.82537  11.54087   0.000000147940990  -0.000003444721185   0.000003858858838
Si    4.75212   7.46762  12.89862   0.000001130888013  -0.000000432276562   0.000001687247323
Si    4.75212  10.18313  15.61413  -0.000002349556821  -0.000000184830797   0.000002208945616
Si    2.03662   7.46762  15.61413   0.000001688023150  -0.000001468079269   0.000006324490390
Si    2.03662  10.18313  12.89862  -0.000000043442359   0.000003473933383   0.000000471363532
Si    0.67887  11.54087   0.67888  -0.000006918761361   0.000006111841392  -0.000003361717334
Si    3.39438  11.54087   3.39437   0.000005332493135  -0.000002289028798  -0.000003078776787
Si    0.67887  14.25638   3.39437  -0.000002155549826   0.000000711784337   0.000005543819618
Si    3.39438  14.25638   0.67888  -0.000000329889753   0.000000518297172  -0.000002631922944
Si    4.75212  12.89862   2.03662  -0.000000234586034   0.000001157454297   0.000000300883190
Si    4.75212  15.61413   4.75213  -0.000001424438218   0.000000812475148  -0.000003373916856
Si    2.03662  12.89862   4.75213  -0.000005669094356  -0.000000563772124   0.000000868968328
Si    2.03662  15.61413   2.03662   0.000001509971014  -0.000003982567300  -0.000000589033369
Si    0.67887  11.54087   6.10987   0.000001991194054  -0.000003518261380   0.000000137498977
Si    3.39438  11.54087   8.82537   0.000005881956817  -0.000001779540395   0.000002225982096
Si    0.67887  14.25638   8.82537  -0.000003222529388   0.000001260864905  -0.000005794433456
Si    3.39438  14.25638   6.10987   0.000007352119278   0.000005928789833  -0.000000202349052
Si    4.75212  12.89862   7.46762  -0.000006277664419  -0.000002011837025  -0.000002876202198
Si    4.75212  15.61413  10.18313   0.000007656230094  -0.000001764689497   0.000000133490370
Si    2.03662  12.89862  10.18313  -0.000004023990175   0.000005474488197   0.000000748668202
Si    2.03662  15.61413   7.46762  -0.000002784716089  -0.000002365525477  -0.000000309684175
Si    0.67887  11.54087  11.54087  -0.000006353315894   0.000002713045854   0.000004752695463
Si    3.39438  11.54087  14.25638   0.000003808802095  -0.000003175403615  -0.000001515753563
Si    0.67887  14.25638  14.25638   0.000003956085689  -0.000004248495191   0.000000324360030
Si    3.39438  14.25638  11.54087  -0.000000236051553   0.000000430188961   0.000003145182091
Si    4.75212  12.89862  12.89862  -0.000004182867796  -0.000000590792680   0.000000849873621
Si    4.75212  15.61413  15.61413   0.000000379209114  -0.000001195677520   0.000005218687416
Si    2.03662  12.89862  15.61413  -0.000007775025866   0.000000262321070  -0.000000071896137
Si    2.03662  15.61413  12.89862  -0.000002713257842  -0.000002727948557  -0.000000527137156
Si    0.67887  16.97188   0.67888  -0.000000758280170   0.000002485714484  -0.000004554452195
Si    3.39438  16.97188   3.39437   0.000002559779241   0.000002276587558   0.000002444199442
Si    0.67887  19.68738   3.39437   0.000003154891797   0.000002868726570   0.000001081815630
Si    3.39438  19.68738   0.67888  -0.000007102057407  -0.000005992087985  -0.000001180779843
Si    4.75212  18.32963   2.03662  -0.000000875030495  -0.000000749893895  -0.000000968139083
Si    4.75212  21.04512   4.75213  -0.000001915300457   0.000000426978491  -0.000003552796073
Si    2.03662  18.32963   4.75213   0.000004586515056   0.000007183919664  -0.000003018325283
Si    2.03662  21.04512   2.03662   0.000002171593378   0.000000878712422   0.000000234033960
Si    0.67887  16.97188   6.10987  -0.000003480050066  -0.000010277194379   0.000000544901356
Si    3.39438  16.97188   8.82537   0.000002905054114   0.000002559943692  -0.000002081469941
Si    0.67887  19.68738   8.82537   0.000004851773829   0.000001223210650  -0.000001542202035
Si    3.39438  19.68738   6.10987   0.000002046428974  -0.000001075714215  -0.000000628019697
Si    4.75212  18.32963   7.46762  -0.000002559966819  -0.000002905083624   0.000002081306280
Si    4.75212  21.04512  10.18313   0.000010277170616   0.000003480257698  -0.000000544841462
Si    2.03662  18.32963  10.18313   0.000001075676843  -0.000002046484010   0.000000627946977
Si    2.03662  21.04512   7.46762  -0.000001223144765  -0.000004851737292   0.000001542085104
Si    0.67887  16.97188  11.54087  -0.000000426975688   0.000001915152183   0.000003552783475
Si    3.39438  16.97188  14.25638   0.000000749756534   0.000000874847192   0.000000968269134
Si    0.67887  19.68738  14.25638  -0.000000878608591  -0.000002171595702  -0.000000233980782
Si    3.39438  19.68738  11.54087  -0.000007183889210  -0.000004586402681   0.000003018417781
Si    4.75212  18.32963  12.89862  -0.000002276689910  -0.000002559784468  -0.000002444316544
Si    4.75212  21.04512  15.61413  -0.000002485890877   0.000000758341561   0.000004554391022
Si    2.03662  18.32963  15.61413   0.000005992055653   0.000007102007471   0.000001180754412
Si    2.03662  21.04512  12.89862  -0.000002868593622  -0.000003154835226  -0.000001081754115
Si    6.10987   0.67887   0.67888   0.000001620039590   0.000003189508925   0.000002412939477
Si    8.82537   0.67887   3.39437   0.000001327005926   0.000002211805189  -0.000002615913889
Si    6.10987   3.39437   3.39437  -0.000005763693808   0.000005635905474   0.000003492672591
Si    8.82537   3.39437   0.67888  -0.000003965475579  -0.000001990774794  -0.000004818284005
Si   10.18313   2.03662   2.03662   0.000001262377365   0.000002104384863  -0.000000436918589
Si   10.18313   4.75212   4.75213  -0.000001001486082  -0.000002105335416  -0.000003115692725
Si    7.46762   2.03662   4.75213  -0.000000697249812   0.000003415419423  -0.000006810144395
Si    7.46762   4.75212   2.03662   0.000002568601533   0.000002006419396   0.000000595973444
Si    6.10987   0.67887   6.10987  -0.000001036646364  -0.000001360827677  -0.000000510949358
Si    8.82537   0.67887   8.82537   0.000001437690105  -0.000000023268972   0.000002426070378
Si    6.10987   3.39437   8.82537  -0.000005288460913   0.000007203923151  -0.000002219745978
Si    8.82537   3.39437   6.10987   0.000004612973862   0.000000597137595  -0.000000323261844
Si   10.18313   2.03662   7.46762   0.000002696123106  -0.000001910745402   0.000001633594636
Si   10.18313   4.75212  10.18313   0.000002671472775   0.000001848745708   0.000000921022398
Si    7.46762   2.03662  10.18313   0.000006387045188  -0.000002055238487  -0.000000250096893
Si    7.46762   4.75212   7.46762   0.000001966192751   0.000001037065765  -0.000002560022812
Si    6.10987   0.67887  11.54087   0.000003407818619   0.000000087646806  -0.000000425832300
Si    8.82537   0.67887  14.25638   0.000001469483271   0.000000138587488   0.000001037461004
Si    6.10987   3.39437  14.25638   0.000002001000142  -0.000002940649714   0.000001111014325
Si    8.82537   3.39437  11.54087  -0.000003444831104   0.000000147976177   0.000003858933685
Si   10.18313   2.03662  12.89862   0.000003473769889  -0.000000043216297   0.000000471477408
Si   10.18313   4.75212  15.61413  -0.000000184908475  -0.000002349596417   0.000002209013250
Si    7.46762   2.03662  15.61413  -0.000001468033069   0.000001688016336   0.000006324415676
Si    7.46762   4.75212  12.89862  -0.000000432233566   0.000001130752882   0.000001687363629
Si    6.10987   6.10987   0.67888   0.000003857334665   0.000003857144526  -0.000000005693498
Si    8.82537   6.10987   3.39437   0.000008578474599   0.000001191328540  -0.000000039964347
Si    6.10987   8.82537   3.39437   0.000001191434033   0.000008578478944  -0.000000040109624
Si    8.82537   8.82537   0.67888   0.000004665266275   0.000004665186512  -0.000003516762765
Si   10.18313   7.46762   2.03662  -0.000007110834733  -0.000002473056227  -0.000000440947412
Si   10.18313  10.18313   4.75213  -0.000001483823803  -0.000001483685959   0.000001029659093
Si    7.46762   7.46762   4.75213  -0.000003672488239  -0.000003672727124   0.000006753229513
Si    7.46762  10.18313   2.03662  -0.000002473010528  -0.000007110938765  -0.000000440866269
Si    6.10987   6.10987   6.10987  -0.000004832411651  -0.000004832789868   0.000001363486648
Si    8.82537   6.10987   8.82537   0.000007650968049  -0.000000066113003   0.000000790520807
Si    6.10987   8.82537   8.82537  -0.000000066105543   0.000007650870232   0.000000790710564
Si    8.82537   8.82537   6.10987   0.000001977005510   0.000001977002185   0.000000890579635
Si   10.18313   7.46762   7.46762   0.000001813759708   0.000006325534923   0.000005756488378
Si   10.18313  10.18313  10.18313  -0.000001979699541  -0.000001979759808  -0.000001682347297
Si    7.46762   7.46762  10.18313  -0.000005644088953  -0.000005643991897   0.000000362015038
Si    7.46762  10.18313   7.46762   0.000006325786397   0.000001813826445   0.000005756459894
Si    6.10987   6.10987  11.54087   0.000002339456516   0.000002339466742  -0.000002180319006
Si    8.82537   6.10987  14.25638  -0.000005182362988   0.000001549425178  -0.000000901709764
Si    6.10987   8.82537  14.25638   0.000001549573168  -0.000005182265254  -0.000000901797889
Si    8.82537   8.82537  11.54087   0.000004016762799   0.000004016733716   0.000003474768926
Si   10.18313   7.46762  12.89862   0.000000633415407   0.000007341074473  -0.000004960604720
Si   10.18313  10.18313  15.61413  -0.000000710955162  -0.000000711105843  -0.000001295467363
Si    7.46762   7.46762  15.61413  -0.000003715422475  -0.000003715621731  -0.000006872396513
Si    7.46762  10.18313  12.89862   0.000007341034673   0.000000633342015  -0.000004960531489
Si    6.10987  11.54087   0.67888  -0.000005767222710   0.000005756910236  -0.000003143848110
Si    8.82537  11.54087   3.39437   0.000001981353772   0.000001509824037   0.000000920594415
Si    6.10987  14.25638   3.39437  -0.000002675781400  -0.000001432490269   0.000005881332139
Si    8.82537  14.25638   0.67888  -0.000000871388317  -0.000001692877751  -0.000002179369527
Si   10.18313  12.89862   2.03662   0.000000763497708  -0.000002179002326  -0.000000870412956
Si   10.18313  15.61413   4.75213  -0.000008467904063   0.000003922840030  -0.000003034702434
Si    7.46762  12.89862   4.75213   0.000001605732836   0.000000755929812  -0.000001765035301
Si    7.46762  15.61413   2.03662  -0.000005439917653  -0.000001761420722  -0.000000042159451
Si    6.10987  11.54087   6.10987   0.000002271628234  -0.000003800004901  -0.000001303116318
Si    8.82537  11.54087   8.82537   0.000001406778000   0.000002892327513  -0.000001136559222
Si    6.10987  14.25638   8.82537  -0.000002345333512  -0.000002605988297  -0.000006273329111
Si    8.82537  14.25638   6.10987   0.000001041937500   0.000002757293028  -0.000000665232194
Si   10.18313  12.89862   7.46762  -0.000002892196689  -0.000001406831593   0.000001136427765
Si   10.18313  15.61413  10.18313   0.000003800051098  -0.000002271560233   0.000001303167374
Si    7.46762  12.89862  10.18313  -0.000002757479447  -0.000001041861959   0.000000665226146
Si    7.46762  15.61413   7.46762   0.000002605798573   0.000002345202386   0.000006273398129
Si    6.10987  11.54087  11.54087  -0.000003922988785   0.000008468071956   0.000003034623659
Si    8.82537  11.54087  14.25638   0.000002178840622  -0.000000763572053   0.000000870548600
Si    6.10987  14.25638  14.25638   0.000001761328971   0.000005439782783   0.000000042127224
Si    8.82537  14.25638  11.54087  -0.000000756124591  -0.000001605801156   0.000001765156441
Si   10.18313  12.89862  12.89862  -0.000001509792391  -0.000001981220572  -0.000000920642307
Si   10.18313  15.61413  15.61413  -0.000005756715760   0.000005767125005   0.000003143608691
Si    7.46762  12.89862  15.61413   0.000001692633584   0.000000871260899   0.000002179445849
Si    7.46762  15.61413  12.89862   0.000001432418807   0.000002675587823  -0.000005881436638
Si    6.10987  16.97188   0.67888   0.000001195531384  -0.000000379328115  -0.000005218592631
Si    8.82537  16.97188   3.39437   0.000000590933079   0.000004182742848  -0.000000849869673
Si    6.10987  19.68738   3.39437   0.000002727750137   0.000002713262268   0.000000527279878
Si    8.82537  19.68738   0.67888  -0.000000262336097   0.000007775000053   0.000000071841153
Si   10.18313  18.32963   2.03662   0.000003175587816  -0.000003808838647   0.000001515751898
Si   10.18313  21.04512   4.75213  -0.000002712915862   0.000006353289689  -0.000004752609925
Si    7.46762  18.32963   4.75213  -0.000000430406565   0.000000236084392  -0.000003145185223
Si    7.46762  21.04512   2.03662   0.000004248355180  -0.000003955959005  -0.000000324369649
Si    6.10987  16.97188   6.10987   0.000001764402464  -0.000007656213261  -0.000000133417394
Si    8.82537  16.97188   8.82537   0.000002011804096   0.000006277673709   0.000002876209248
Si    6.10987  19.68738   8.82537   0.000002365568265   0.000002784766466   0.000000309668325
Si    8.82537  19.68738   6.10987  -0.000005474511087   0.000004024140002  -0.000000748589515
Si   10.18313  18.32963   7.46762   0.000001779575960  -0.000005881840734  -0.000002225975844
Si   10.18313  21.04512  10.18313   0.000003518267530  -0.000001991030902  -0.000000137629498
Si    7.46762  18.32963  10.18313  -0.000005928752273  -0.000007352026108   0.000000202160081
Si    7.46762  21.04512   7.46762  -0.000001260942270   0.000003222465864   0.000005794504867
Si    6.10987  16.97188  11.54087  -0.000000812608950   0.000001424240919   0.000003373870967
Si    8.82537  16.97188  14.25638  -0.000001157447458   0.000000234461620  -0.000000300893023
Si    6.10987  19.68738  14.25638   0.000003982473816  -0.000001509834270   0.000000589002657
Si    8.82537  19.68738  11.54087   0.000000563624943   0.000005669150189  -0.000000869056747
Si   10.18313  18.32963  12.89862   0.000002288991115  -0.000005332520283   0.000003078780678
Si   10.18313  21.04512  15.61413  -0.000006111876755   0.000006918948162   0.000003361735640
Si    7.46762  18.32963  15.61413  -0.000000518259645   0.000000329888290   0.000002631988672
Si    7.46762  21.04512  12.89862  -0.000000711794455   0.000002155595835  -0.000005543805559
Si   11.54087   0.67887   0.67888   0.000006111808490  -0.000006918692523  -0.000003361609706
Si   14.25638   0.67887   3.39437   0.000000711713520  -0.000002155423094   0.000005543855757
Si   11.54087   3.39437   3.39437  -0.000002288896634   0.000005332578667  -0.000003078767108
Si   14.25638   3.39437   0.67888   0.000000518314451  -0.000000329881441  -0.000002631992691
Si   15.61413   2.03662   2.03662  -0.000003982471874   0.000001510032678  -0.000000589103450
Si   15.61413   4.75212   4.75213   0.000000812551288  -0.000001424354145  -0.000003373881952
Si   12.89862   2.03662   4.75213  -0.000000563737677  -0.000005669070953   0.000000868929894
Si   12.89862   4.75212   2.03662   0.000001157416900  -0.000000234399529   0.000000300935082
Si   11.54087   0.67887   6.10987  -0.000003518274517   0.000001991218608   0.000000137512429
Si   14.25638   0.67887   8.82537   0.000001261068827  -0.000003222318640  -0.000005794523557
Si   11.54087   3.39437   8.82537  -0.000001779493564   0.000005881916757   0.000002226105057
Si   14.25638   3.39437   6.10987   0.000005928841633   0.000007351941645  -0.000000202247349
Si   15.61413   2.03662   7.46762  -0.000002365443991  -0.000002784740112  -0.000000309686555
Si   15.61413   4.75212  10.18313  -0.000001764630292   0.000007656165656   0.000000133656190
Si   12.89862   2.03662  10.18313   0.000005474457204  -0.000004023835474   0.000000748592836
Si   12.89862   4.75212   7.46762  -0.000002011927953  -0.000006277634872  -0.000002876061094
Si   11.54087   0.67887  11.54087   0.000002712940637  -0.000006353088540   0.000004752546900
Si   14.25638   0.67887  14.25638  -0.000004248382867   0.000003956103747   0.000000324483151
Si   11.54087   3.39437  14.25638  -0.000003175543073   0.000003808796446  -0.000001515831692
Si   14.25638   3.39437  11.54087   0.000000430319847  -0.000000235936976   0.000003145068011
Si   15.61413   2.03662  12.89862  -0.000002727655178  -0.000002713160175  -0.000000527319579
Si   15.61413   4.75212  15.61413  -0.000001195684132   0.000000379247548   0.000005218700046
Si   12.89862   2.03662  15.61413   0.000000262341741  -0.000007774882331  -0.000000071801427
Si   12.89862   4.75212  12.89862  -0.000000590880826  -0.000004182805831   0.000000849786403
Si   11.54087   6.10987   0.67888   0.000005756877309  -0.000005767248527  -0.000003143634137
Si   14.25638   6.10987   3.39437  -0.000001432547886  -0.000002675686993   0.000005881231730
Si   11.54087   8.82537   3.39437   0.000001509889963   0.000001981187580   0.000000920613164
Si   14.25638   8.82537   0.67888  -0.000001692828992  -0.000000871374796  -0.000002179407310
Si   15.61413   7.46762   2.03662  -0.000001761598397  -0.000005439902847  -0.000000042063153
Si   15.61413  10.18313   4.75213   0.000003922964085  -0.000008468165520  -0.000003034694325
Si   12.89862   7.46762   4.75213   0.000000756021561   0.000001605812701  -0.000001765325504
Si   12.89862  10.18313   2.03662  -0.000002178922370   0.000000763368307  -0.000000870505278
Si   11.54087   6.10987   6.10987  -0.000003800271423   0.000002271532015  -0.000001303096489
Si   14.25638   6.10987   8.82537  -0.000002606021861  -0.000002345196858  -0.000006273290200
Si   11.54087   8.82537   8.82537   0.000002892351535   0.000001406757646  -0.000001136356481
Si   14.25638   8.82537   6.10987   0.000002757517192   0.000001041856211  -0.000000665263236
Si   15.61413   7.46762   7.46762   0.000002345204425   0.000002605934919   0.000006273422287
Si   15.61413  10.18313  10.18313  -0.000002271604706   0.000003800123530   0.000001303012234
Si   12.89862   7.46762  10.18313  -0.000001041788246  -0.000002757426238   0.000000665244271
Si   12.89862  10.18313   7.46762  -0.000001406649011  -0.000002892208390   0.000001136677596
Si   11.54087   6.10987  11.54087   0.000008468134471  -0.000003923039304   0.000003034679369
Si   14.25638   6.10987  14.25638   0.000005439809649   0.000001761364155   0.000000042097097
Si   11.54087   8.82537  14.25638  -0.000000763506238   0.000002178884852   0.000000870491231
Si   14.25638   8.82537  11.54087  -0.000001605900235  -0.000000756096261   0.000001764956050
Si   15.61413   7.46762  12.89862   0.000002675741890   0.000001432329334  -0.000005881337577
Si   15.61413  10.18313  15.61413   0.000005767152898  -0.000005756741942   0.000003143609863
Si   12.89862   7.46762  15.61413   0.000000871332446   0.000001692650167   0.000002179510197
Si   12.89862  10.18313  12.89862  -0.000001981343923  -0.000001509831458  -0.000000920758821
Si   11.54087  11.54087   0.67888   0.000000711024176   0.000000710925437   0.000001295482147
Si   14.25638  11.54087   3.39437  -0.000007341049654  -0.000000633380617   0.000004960583671
Si   11.54087  14.25638   3.39437  -0.000000633289530  -0.000007341089172   0.000004960744768
Si   14.25638  14.25638   0.67888   0.000003715754166   0.000003715529940   0.000006872454434
Si   15.61413  12.89862   2.03662  -0.000001549431118   0.000005182554665   0.000000901574590
Si   15.61413  15.61413   4.75213  -0.000002339501157  -0.000002339456429   0.000002180418557
Si   12.89862  12.89862   4.75213  -0.000004016801917  -0.000004016578781  -0.000003474615897
Si   12.89862  15.61413   2.03662   0.000005182545446  -0.000001549537834   0.000000901835774
Si   11.54087  11.54087   6.10987   0.000001979743307   0.000001979959107   0.000001682340449
Si   14.25638  11.54087   8.82537  -0.000006325828553  -0.000001813834621  -0.000005756459681
Si   11.54087  14.25638   8.82537  -0.000001813628583  -0.000006325819374  -0.000005756667745
Si   14.25638  14.25638   6.10987   0.000005644037944   0.000005644132303  -0.000000362056852
Si   15.61413  12.89862   7.46762   0.000000066101295  -0.000007650777235  -0.000000790666611
Si   15.61413  15.61413  10.18313   0.000004832704573   0.000004832552286  -0.000001363508779
Si   12.89862  12.89862  10.18313  -0.000001976947408  -0.000001977201142  -0.000000890640634
Si   12.89862  15.61413   7.46762  -0.000007650781727   0.000000065914435  -0.000000790754897
Si   11.54087  11.54087  11.54087   0.000001483922882   0.000001483646070  -0.000001029710500
Si   14.25638  11.54087  14.25638   0.000002473113178   0.000007111106818   0.000000440974833
Si   11.54087  14.25638  14.25638   0.000007111032427   0.000002473023211   0.000000440807430
Si   14.25638  14.25638  11.54087   0.000003672852317   0.000003672695740  -0.000006753079356
Si   15.61413  12.89862  12.89862  -0.000001191364642  -0.000008578372394   0.000000040178668
Si   15.61413  15.61413  15.61413  -0.000003857213561  -0.000003857392480   0.000000005607974
Si   12.89862  12.89862  15.61413  -0.000004665104770  -0.000004665288813   0.000003516617794
Si   12.89862  15.61413  12.89862  -0.000008578314016  -0.000001191518633   0.000000040170131
Si   11.54087  16.97188   0.67888   0.000000185082584   0.000002349594179  -0.000002208925118
Si   14.25638  16.97188   3.39437   0.000000432377380  -0.000001131023381  -0.000001687284718
Si   11.54087  19.68738   3.39437  -0.000003473694990   0.000000043397043  -0.000000471399388
Si   14.25638  19.68738   0.67888   0.000001468094094  -0.000001687831444  -0.000006324353970
Si   15.61413  18.32963   2.03662  -0.000002000907548   0.000002940555976  -0.000001110915274
Si   15.61413  21.04512   4.75213  -0.000003407917449  -0.000000087598755   0.000000425841668
Si   12.89862  18.32963   4.75213   0.000003444963490  -0.000000147904865  -0.000003858839509
Si   12.89862  21.04512   2.03662  -0.000001469514769  -0.000000138317132  -0.000001037343231
Si   11.54087  16.97188   6.10987  -0.000002671233408  -0.000001848806948  -0.000000921064847
Si   14.25638  16.97188   8.82537  -0.000001965943030  -0.000001037142505   0.000002559760053
Si   11.54087  19.68738   8.82537  -0.000002696057263   0.000001910796559  -0.000001633589230
Si   14.25638  19.68738   6.10987  -0.000006387097961   0.000002055237881   0.000000249998211
Si   15.61413  18.32963   7.46762   0.000005288705153  -0.000007204148956   0.000002219673245
Si   15.61413  21.04512  10.18313   0.000001036733907   0.000001360999772   0.000000510894101
Si   12.89862  18.32963  10.18313  -0.000004613000275  -0.000000596969434   0.000000323207136
Si   12.89862  21.04512   7.46762  -0.000001437588114   0.000000023323879  -0.000002426133641
Si   11.54087  16.97188  11.54087   0.000001001480714   0.000002105285492   0.000003115708541
Si   14.25638  16.97188  14.25638  -0.000002568464939  -0.000002006666110  -0.000000596006946
Si   11.54087  19.68738  14.25638  -0.000001262237773  -0.000002104346541   0.000000436845367
Si   14.25638  19.68738  11.54087   0.000000697277834  -0.000003415224392   0.000006810241019
Si   15.61413  18.32963  12.89862   0.000005763877740  -0.000005636007606  -0.000003492507996
Si   15.61413  21.04512  15.61413  -0.000001620066239  -0.000003189335847  -0.000002412934557
Si   12.89862  18.32963  15.61413   0.000003965533925   0.000001990631943   0.000004818294557
Si   12.89862  21.04512  12.89862  -0.000001326933026  -0.000002211750583   0.000002615852016
Si   16.97188   0.67887   0.67888   0.000002485712749  -0.000000758087392  -0.000004554413293
Si   19.68738   0.67887   3.39437   0.000002868653838   0.000003154817172   0.000001081728805
Si   16.97188   3.39437   3.39437   0.000002276516547   0.000002559671180   0.000002444244517
Si   19.68738   3.39437   0.67888  -0.000005992081437  -0.000007102105291  -0.000001180882269
Si   21.04512   2.03662   2.03662   0.000000878727070   0.000002171570005   0.000000233986877
Si   21.04512   4.75212   4.75213   0.000000426939064  -0.000001915161591  -0.000003552740673
Si   18.32963   2.03662   4.75213   0.000007183815707   0.000004586485549  -0.000003018232328
Si   18.32963   4.75212   2.03662  -0.000000749930000  -0.000000875101312  -0.000000968300890
Si   16.97188   0.67887   6.10987  -0.000010277172746  -0.000003480023837   0.000000544942747
Si   19.68738   0.67887   8.82537   0.000001223043736   0.000004851793256  -0.000001542256781
Si   16.97188   3.39437   8.82537   0.000002559963443   0.000002904959267  -0.000002081459026
Si   19.68738   3.39437   6.10987  -0.000001075731190   0.000002046355739  -0.000000627849206
Si   21.04512   2.03662   7.46762  -0.000004851898075  -0.000001223087660   0.000001542171471
Si   21.04512   4.75212  10.18313   0.000003480138511   0.000010277204012  -0.000000544902694
Si   18.32963   2.03662  10.18313  -0.000002046546183   0.000001075665249   0.000000627949970
Si   18.32963   4.75212   7.46762  -0.000002905045328  -0.000002560128296   0.000002081351579
Si   16.97188   0.67887  11.54087   0.000001915200294  -0.000000426852310   0.000003552715363
Si   19.68738   0.67887  14.25638  -0.000002171587284  -0.000000878562405  -0.000000234010068
Si   16.97188   3.39437  14.25638   0.000000875069990   0.000000749797287   0.000000968167138
Si   19.68738   3.39437  11.54087  -0.000004586616039  -0.000007183791442   0.000003018428738
Si   21.04512   2.03662  12.89862  -0.000003154927795  -0.000002868563763  -0.000001081639128
Si   21.04512   4.75212  15.61413   0.000000758196827  -0.000002485890652   0.000004554359828
Si   18.32963   2.03662  15.61413   0.000007102018065   0.000005992210042   0.000001180734818
Si   18.32963   4.75212  12.89862  -0.000002559729152  -0.000002276753455  -0.000002444200166
Si   16.97188   6.10987   0.67888  -0.000000379364865   0.000001195513838  -0.000005218741015
Si   19.68738   6.10987   3.39437   0.000002713382966   0.000002727753450   0.000000527356940
Si   16.97188   8.82537   3.39437   0.000004182702929   0.000000590924825  -0.000000849661524
Si   19.68738   8.82537   0.67888   0.000007774977270  -0.000000262163644   0.000000071674163
Si   21.04512   7.46762   2.03662  -0.000003955901979   0.000004248355619  -0.000000324359845
Si   21.04512  10.18313   4.75213   0.000006353319430  -0.000002712894265  -0.000004752704177
Si   18.32963   7.46762   4.75213   0.000000236012825  -0.000000430253739  -0.000003145089078
Si   18.32963  10.18313   2.03662  -0.000003808723143   0.000003175671536   0.000001515776166
Si   16.97188   6.10987   6.10987  -0.000007656259162   0.000001764441885  -0.000000133551181
Si   19.68738   6.10987   8.82537   0.000002784830470   0.000002365376060   0.000000309672644
Si   16.97188   8.82537   8.82537   0.000006277521442   0.000002011948931   0.000002876249315
Si   19.68738   8.82537   6.10987   0.000004023957985  -0.000005474533277  -0.000000748665496
Si   21.04512   7.46762   7.46762   0.000003222389789  -0.000001261108397   0.000005794453892
Si   21.04512  10.18313  10.18313  -0.000001991188576   0.000003518447248  -0.000000137411869
Si   18.32963   7.46762  10.18313  -0.000007352098062  -0.000005928732664   0.000000202370625
Si   18.32963  10.18313   7.46762  -0.000005882042412   0.000001779717682  -0.000002225953515
Si   16.97188   6.10987  11.54087   0.000001424220743  -0.000000812637902   0.000003373917516
Si   19.68738   6.10987  14.25638  -0.000001510013315   0.000003982445433   0.000000589033590
Si   16.97188   8.82537  14.25638   0.000000234551806  -0.000001157390933  -0.000000300849080
Si   19.68738   8.82537  11.54087   0.000005669059694   0.000000563822312  -0.000000868895619
Si   21.04512   7.46762  12.89862   0.000002155290869  -0.000000711747662  -0.000005543838357
Si   21.04512  10.18313  15.61413   0.000006918735856  -0.000006111739711   0.000003361570557
Si   18.32963   7.46762  15.61413   0.000000329868631  -0.000000518219742   0.000002631796961
Si   18.32963  10.18313  12.89862  -0.000005332448644   0.000002289056652   0.000003078818702
Si   16.97188  11.54087   0.67888   0.000002349581579   0.000000185167768  -0.000002209099442
Si   19.68738  11.54087   3.39437   0.000000043356636  -0.000003473619642  -0.000000471468815
Si   16.97188  14.25638   3.39437  -0.000001130877581   0.000000432358801  -0.000001687438352
Si   19.68738  14.25638   0.67888  -0.000001688079248   0.000001468061239  -0.000006324337907
Si   21.04512  12.89862   2.03662  -0.000000138496287  -0.000001469521896  -0.000001037387830
Si   21.04512  15.61413   4.75213  -0.000000087582959  -0.000003407959183   0.000000425759479
Si   18.32963  12.89862   4.75213  -0.000000147796016   0.000003444892791  -0.000003858796046
Si   18.32963  15.61413   2.03662   0.000002940640192  -0.000002001023495  -0.000001111125903
Si   16.97188  11.54087   6.10987  -0.000001848679826  -0.000002671298837  -0.000000920890577
Si   19.68738  11.54087   8.82537   0.000001910593101  -0.000002695900742  -0.000001633409734
Si   16.97188  14.25638   8.82537  -0.000001037015194  -0.000001965977937   0.000002559733283
Si   19.68738  14.25638   6.10987   0.000002055129717  -0.000006387202968   0.000000250021506
Si   21.04512  12.89862   7.46762   0.000000023302291  -0.000001437564036  -0.000002426037950
Si   21.04512  15.61413  10.18313   0.000001360870673   0.000001036455685   0.000000511020096
Si   18.32963  12.89862  10.18313  -0.000000596912521  -0.000004613178549   0.000000323240778
Si   18.32963  15.61413   7.46762  -0.000007204238948   0.000005288484942   0.000002219771874
Si   16.97188  11.54087  11.54087   0.000002105429332   0.000001001491137   0.000003115748084
Si   19.68738  11.54087  14.25638  -0.000002104397840  -0.000001262451631   0.000000436865243
Si   16.97188  14.25638  14.25638  -0.000002006705253  -0.000002568635352  -0.000000595839276
Si   19.68738  14.25638  11.54087  -0.000003415271956   0.000000697163139   0.000006810059570
Si   21.04512  12.89862  12.89862  -0.000002211677924  -0.000001327070354   0.000002615808506
Si   21.04512  15.61413  15.61413  -0.000003189394990  -0.000001620052135  -0.000002412876894
Si   18.32963  12.89862  15.61413   0.000001990560087   0.000003965463164   0.000004818378106
Si   18.32963  15.61413  12.89862  -0.000005635988847   0.000005763699237  -0.000003492607110
Si   16.97188  16.97188   0.67888   0.000001375941294   0.000001375716353  -0.000004813614522
Si   19.68738  16.97188   3.39437   0.000000118090730  -0.000000209610204   0.000000884004616
Si   16.97188  19.68738   3.39437  -0.000000209477551   0.000000118115323   0.000000884113726
Si   19.68738  19.68738   0.67888  -0.000000043556411  -0.000000043646511  -0.000002438700342
Si   21.04512  18.32963   2.03662  -0.000007079391422   0.000000392742138   0.000000029497515
Si   21.04512  21.04512   4.75213  -0.000003757513695  -0.000003757492724  -0.000005236477608
Si   18.32963  18.32963   4.75213  -0.000002718566132  -0.000002718480755  -0.000005988318479
Si   18.32963  21.04512   2.03662   0.000000392892382  -0.000007079314398   0.000000029614213
Si   16.97188  16.97188   6.10987   0.000000895644848   0.000000895630594  -0.000001254732800
Si   19.68738  16.97188   8.82537   0.000000899880065  -0.000001267546255  -0.000001363850363
Si   16.97188  19.68738   8.82537  -0.000001267405300   0.000000900007853  -0.000001363898698
Si   19.68738  19.68738   6.10987  -0.000000066631728  -0.000000066616645  -0.000000225438723
Si   21.04512  18.32963   7.46762   0.000005114866399   0.000002759506616   0.000009135380955
Si   21.04512  21.04512  10.18313   0.000004898930251   0.000004899015867  -0.000000333639840
Si   18.32963  18.32963  10.18313   0.000004153233948   0.000004153336667  -0.000000193931537
Si   18.32963  21.04512   7.46762   0.000002759353383   0.000005114900305   0.000009135501690
Si   16.97188  16.97188  11.54087   0.000002021691854   0.000002021666118   0.000003168470698
Si   19.68738  16.97188  14.25638  -0.000000377926359   0.000000011558715   0.000000871235242
Si   16.97188  19.68738  14.25638   0.000000011594838  -0.000000377923869   0.000000871098734
Si   19.68738  19.68738  11.54087   0.000002167466726   0.000002167577800   0.000003637242864
Si   21.04512  18.32963  12.89862   0.000005614696901   0.000002077140085  -0.000007892119935
Si   21.04512  21.04512  15.61413  -0.000003780117732  -0.000003779951865   0.000004943549150
Si   18.32963  18.32963  15.61413  -0.000002232313742  -0.000002232415011   0.000005445776906
Si   18.32963  21.04512  12.89862   0.000002077132088   0.000005614716943  -0.000007892132472
