216 

Si    0.67888   0.67888   0.67888   0.000008999706943   0.000008999706908   0.000008981271585
Si    3.39437   0.67888   3.39437  -0.000008999706995   0.000008999706971  -0.000008981271733
Si    0.67888   3.39437   3.39437   0.000008999706930  -0.000008999706953  -0.000008981271650
Si    3.39437   3.39437   0.67888  -0.000008999707019  -0.000008999707036   0.000008981271646
Si    4.75213   2.03662   2.03662   0.000007115123079  -0.000000000000037  -0.000000000000035
Si    4.75213   4.75213   4.75213   0.000008153982297   0.000008153982418   0.000008157473735
Si    2.03662   2.03662   4.75213  -0.000000000000051   0.000000000000067   0.000007121901894
Si    2.03662   4.75213   2.03662  -0.000000000000057   0.000007115123112   0.000000000000046
Si    0.67888   0.67888   6.10987   0.000002866728757   0.000002866728856   0.000000874880795
Si    3.39437   0.67888   8.82538  -0.000008153982393   0.000008153982366   0.000008157473792
Si    0.67888   3.39437   8.82538   0.000008153982266  -0.000008153982303   0.000008157473729
Si    3.39437   3.39437   6.10987  -0.000002866728878  -0.000002866728748   0.000000874880780
Si    4.75213   2.03662   7.46762   0.000002884640379   0.000000879957720  -0.000002880198950
Si    4.75213   4.75213  10.18313   0.000002866728771   0.000002866728835  -0.000000874880792
Si    2.03662   2.03662  10.18313  -0.000000000000058   0.000000000000008   0.000000000000060
Si    2.03662   4.75213   7.46762   0.000000879957608   0.000002884640482  -0.000002880198988
Si    0.67888   0.67888  11.54087   0.000008153982273   0.000008153982283  -0.000008157473649
Si    3.39437   0.67888  14.25638  -0.000002866728874   0.000002866728720  -0.000000874880783
Si    0.67888   3.39437  14.25638   0.000002866728751  -0.000002866728881  -0.000000874880808
Si    3.39437   3.39437  11.54087  -0.000008153982406  -0.000008153982397  -0.000008157473736
Si    4.75213   2.03662  12.89863   0.000002884640364  -0.000000879957741   0.000002880199003
Si    4.75213   4.75213  15.61412   0.000008999706944   0.000008999706989  -0.000008981271641
Si    2.03662   2.03662  15.61412  -0.000000000000051  -0.000000000000094  -0.000007121901934
Si    2.03662   4.75213  12.89863  -0.000000879957737   0.000002884640406   0.000002880198956
Si    0.67888   6.10987   0.67888   0.000002884640342   0.000000879957707   0.000002880198982
Si    3.39437   6.10987   3.39437  -0.000002884640457   0.000000879957713  -0.000002880198934
Si    0.67888   8.82538   3.39437   0.000008153982256   0.000008153982364  -0.000008157473701
Si    3.39437   8.82538   0.67888  -0.000008153982361   0.000008153982437   0.000008157473731
Si    4.75213   7.46762   2.03662   0.000002866728821  -0.000002866728778   0.000000874880798
Si    4.75213  10.18313   4.75213   0.000002884640401  -0.000000879957709   0.000002880198942
Si    2.03662   7.46762   4.75213   0.000000879957637  -0.000002884640426   0.000002880199021
Si    2.03662  10.18313   2.03662  -0.000000000000015   0.000000000000022  -0.000000000000028
Si    0.67888   6.10987   6.10987   0.000007115123011   0.000000000000036   0.000000000000014
Si    3.39437   6.10987   8.82538  -0.000002884640506  -0.000000879957636   0.000002880198953
Si    0.67888   8.82538   8.82538   0.000008999706901   0.000008999706981   0.000008981271659
Si    3.39437   8.82538   6.10987  -0.000002866728876   0.000002866728788  -0.000000874880777
Si    4.75213   7.46762   7.46762   0.000008153982297  -0.000008153982349  -0.000008157473762
Si    4.75213  10.18313  10.18313   0.000007115123064   0.000000000000017   0.000000000000023
Si    2.03662   7.46762  10.18313  -0.000000000000067  -0.000007115123073  -0.000000000000052
Si    2.03662  10.18313   7.46762  -0.000000000000077  -0.000000000000067  -0.000007121901898
Si    0.67888   6.10987  11.54087   0.000002884640323  -0.000000879957654  -0.000002880199021
Si    3.39437   6.10987  14.25638  -0.000007115123165   0.000000000000022  -0.000000000000001
Si    0.67888   8.82538  14.25638   0.000002866728752   0.000002866728922   0.000000874880762
Si    3.39437   8.82538  11.54087  -0.000008999707054   0.000008999707040  -0.000008981271662
Si    4.75213   7.46762  12.89863   0.000008999706946  -0.000008999706926   0.000008981271661
Si    4.75213  10.18313  15.61412   0.000002884640404   0.000000879957739  -0.000002880198964
Si    2.03662   7.46762  15.61412  -0.000000879957722  -0.000002884640358  -0.000002880198969
Si    2.03662  10.18313  12.89863  -0.000000000000079   0.000000000000083   0.000007121901937
Si    0.67888  11.54087   0.67888   0.000008153982272  -0.000008153982322   0.000008157473649
Si    3.39437  11.54087   3.39437  -0.000008153982366  -0.000008153982386  -0.000008157473786
Si    0.67888  14.25638   3.39437   0.000002884640351  -0.000000879957715  -0.000002880199060
Si    3.39437  14.25638   0.67888  -0.000002884640444  -0.000000879957705   0.000002880198879
Si    4.75213  12.89863   2.03662   0.000002866728821   0.000002866728807  -0.000000874880870
Si    4.75213  15.61412   4.75213   0.000008999706947  -0.000008999706998   0.000008981271601
Si    2.03662  12.89863   4.75213  -0.000000879957725   0.000002884640370   0.000002880198924
Si    2.03662  15.61412   2.03662  -0.000000000000042  -0.000007115123138  -0.000000000000114
Si    0.67888  11.54087   6.10987   0.000002866728738  -0.000002866728898  -0.000000874880760
Si    3.39437  11.54087   8.82538  -0.000008999707042  -0.000008999707024   0.000008981271709
Si    0.67888  14.25638   8.82538   0.000002884640348   0.000000879957636   0.000002880199075
Si    3.39437  14.25638   6.10987  -0.000007115123155  -0.000000000000039  -0.000000000000013
Si    4.75213  12.89863   7.46762   0.000008999706936   0.000008999706936  -0.000008981271636
Si    4.75213  15.61412  10.18313   0.000002866728774  -0.000002866728839   0.000000874880880
Si    2.03662  12.89863  10.18313  -0.000000000000089   0.000007115123079   0.000000000000115
Si    2.03662  15.61412   7.46762  -0.000000879957735  -0.000002884640423  -0.000002880198935
Si    0.67888  11.54087  11.54087   0.000008999706916  -0.000008999706956  -0.000008981271597
Si    3.39437  11.54087  14.25638  -0.000002866728859  -0.000002866728752   0.000000874880788
Si    0.67888  14.25638  14.25638   0.000007115123005  -0.000000000000026  -0.000000000000009
Si    3.39437  14.25638  11.54087  -0.000002884640477   0.000000879957648  -0.000002880198870
Si    4.75213  12.89863  12.89863   0.000008153982287   0.000008153982382   0.000008157473803
Si    4.75213  15.61412  15.61412   0.000008153982298  -0.000008153982427  -0.000008157473764
Si    2.03662  12.89863  15.61412   0.000000879957642   0.000002884640452  -0.000002880199033
Si    2.03662  15.61412  12.89863   0.000000879957621  -0.000002884640477   0.000002880199040
Si    6.10987   0.67888   0.67888   0.000000879957662   0.000002884640359   0.000002880198942
Si    8.82538   0.67888   3.39437   0.000008153982291   0.000008153982354  -0.000008157473830
Si    6.10987   3.39437   3.39437   0.000000879957668  -0.000002884640412  -0.000002880199002
Si    8.82538   3.39437   0.67888   0.000008153982306  -0.000008153982395   0.000008157473763
Si   10.18313   2.03662   2.03662  -0.000000000000111  -0.000000000000028  -0.000000000000034
Si   10.18313   4.75213   4.75213  -0.000000879957682   0.000002884640485   0.000002880198994
Si    7.46762   2.03662   4.75213  -0.000002884640457   0.000000879957709   0.000002880198931
Si    7.46762   4.75213   2.03662  -0.000002866728859   0.000002866728845   0.000000874880805
Si    6.10987   0.67888   6.10987  -0.000000000000050   0.000007115123124  -0.000000000000016
Si    8.82538   0.67888   8.82538   0.000008999706943   0.000008999707023   0.000008981271752
Si    6.10987   3.39437   8.82538  -0.000000879957714  -0.000002884640395   0.000002880198985
Si    8.82538   3.39437   6.10987   0.000002866728798  -0.000002866728776  -0.000000874880767
Si   10.18313   2.03662   7.46762  -0.000000000000036   0.000000000000064  -0.000007121901875
Si   10.18313   4.75213  10.18313  -0.000000000000013   0.000007115123082  -0.000000000000033
Si    7.46762   2.03662  10.18313  -0.000007115123125  -0.000000000000008   0.000000000000050
Si    7.46762   4.75213   7.46762  -0.000008153982357   0.000008153982392  -0.000008157473728
Si    6.10987   0.67888  11.54087  -0.000000879957706   0.000002884640371  -0.000002880198933
Si    8.82538   0.67888  14.25638   0.000002866728766   0.000002866728750   0.000000874880774
Si    6.10987   3.39437  14.25638  -0.000000000000041  -0.000007115123168  -0.000000000000011
Si    8.82538   3.39437  11.54087   0.000008999706931  -0.000008999707048  -0.000008981271688
Si   10.18313   2.03662  12.89863  -0.000000000000035  -0.000000000000072   0.000007121901900
Si   10.18313   4.75213  15.61412   0.000000879957633   0.000002884640427  -0.000002880198965
Si    7.46762   2.03662  15.61412  -0.000002884640469  -0.000000879957755  -0.000002880198962
Si    7.46762   4.75213  12.89863  -0.000008999707025   0.000008999706961   0.000008981271642
Si    6.10987   6.10987   0.67888  -0.000000000000025   0.000000000000044   0.000007121901947
Si    8.82538   6.10987   3.39437   0.000002884640390  -0.000000879957594  -0.000002880198972
Si    6.10987   8.82538   3.39437  -0.000000879957677   0.000002884640437  -0.000002880198984
Si    8.82538   8.82538   0.67888   0.000008999706937   0.000008999707085   0.000008981271713
Si   10.18313   7.46762   2.03662  -0.000000000000038  -0.000007115123009   0.000000000000029
Si   10.18313  10.18313   4.75213  -0.000000000000047  -0.000000000000047   0.000007121901862
Si    7.46762   7.46762   4.75213  -0.000008153982353  -0.000008153982301   0.000008157473701
Si    7.46762  10.18313   2.03662  -0.000007115123095   0.000000000000023  -0.000000000000022
Si    6.10987   6.10987   6.10987  -0.000000000000053   0.000000000000045  -0.000000000000004
Si    8.82538   6.10987   8.82538   0.000002884640408   0.000000879957707   0.000002880198963
Si    6.10987   8.82538   8.82538   0.000000879957670   0.000002884640426   0.000002880198979
Si    8.82538   8.82538   6.10987   0.000002866728808   0.000002866728838   0.000000874880745
Si   10.18313   7.46762   7.46762  -0.000000879957668  -0.000002884640400  -0.000002880199003
Si   10.18313  10.18313  10.18313  -0.000000000000056   0.000000000000010   0.000000000000027
Si    7.46762   7.46762  10.18313  -0.000002866728851  -0.000002866728784  -0.000000874880821
Si    7.46762  10.18313   7.46762  -0.000002884640435  -0.000000879957723  -0.000002880198976
Si    6.10987   6.10987  11.54087  -0.000000000000034   0.000000000000024  -0.000007121901945
Si    8.82538   6.10987  14.25638   0.000007115123080   0.000000000000039   0.000000000000019
Si    6.10987   8.82538  14.25638  -0.000000000000008   0.000007115123206   0.000000000000025
Si    8.82538   8.82538  11.54087   0.000008153982338   0.000008153982424  -0.000008157473741
Si   10.18313   7.46762  12.89863   0.000000879957660  -0.000002884640329   0.000002880198975
Si   10.18313  10.18313  15.61412  -0.000000000000040   0.000000000000093  -0.000007121901876
Si    7.46762   7.46762  15.61412  -0.000008999707033  -0.000008999706884  -0.000008981271611
Si    7.46762  10.18313  12.89863  -0.000002884640446   0.000000879957737   0.000002880199018
Si    6.10987  11.54087   0.67888  -0.000000879957688  -0.000002884640389   0.000002880198924
Si    8.82538  11.54087   3.39437   0.000008999706935  -0.000008999707055  -0.000008981271769
Si    6.10987  14.25638   3.39437  -0.000000000000018  -0.000000000000052  -0.000007121902026
Si    8.82538  14.25638   0.67888   0.000002884640380   0.000000879957612   0.000002880198920
Si   10.18313  12.89863   2.03662  -0.000000000000054   0.000007115123027  -0.000000000000093
Si   10.18313  15.61412   4.75213   0.000000879957631  -0.000002884640436   0.000002880198920
Si    7.46762  12.89863   4.75213  -0.000008999707023   0.000008999706901   0.000008981271562
Si    7.46762  15.61412   2.03662  -0.000002866728859  -0.000002866728881  -0.000000874880867
Si    6.10987  11.54087   6.10987  -0.000000000000014  -0.000007115123168  -0.000000000000037
Si    8.82538  11.54087   8.82538   0.000008153982327  -0.000008153982420   0.000008157473795
Si    6.10987  14.25638   8.82538  -0.000000000000031  -0.000000000000038   0.000007121901992
Si    8.82538  14.25638   6.10987   0.000007115123074  -0.000000000000057  -0.000000000000031
Si   10.18313  12.89863   7.46762   0.000000879957642   0.000002884640342  -0.000002880198943
Si   10.18313  15.61412  10.18313  -0.000000000000026  -0.000007115123104   0.000000000000104
Si    7.46762  12.89863  10.18313  -0.000002866728848   0.000002866728787   0.000000874880874
Si    7.46762  15.61412   7.46762  -0.000008999707035  -0.000008999706973  -0.000008981271616
Si    6.10987  11.54087  11.54087   0.000000879957684  -0.000002884640392  -0.000002880198920
Si    8.82538  11.54087  14.25638   0.000002866728788  -0.000002866728801  -0.000000874880729
Si    6.10987  14.25638  14.25638  -0.000000000000057  -0.000000000000038   0.000000000000030
Si    8.82538  14.25638  11.54087   0.000002884640390  -0.000000879957699  -0.000002880198901
Si   10.18313  12.89863  12.89863  -0.000000879957679   0.000002884640415   0.000002880199036
Si   10.18313  15.61412  15.61412  -0.000000879957694  -0.000002884640498  -0.000002880198999
Si    7.46762  12.89863  15.61412  -0.000008153982374   0.000008153982346  -0.000008157473717
Si    7.46762  15.61412  12.89863  -0.000008153982371  -0.000008153982405   0.000008157473770
Si   11.54087   0.67888   0.67888  -0.000008153982412   0.000008153982261   0.000008157473651
Si   14.25638   0.67888   3.39437  -0.000000879957708   0.000002884640381  -0.000002880199020
Si   11.54087   3.39437   3.39437  -0.000008153982410  -0.000008153982290  -0.000008157473696
Si   14.25638   3.39437   0.67888  -0.000000879957705  -0.000002884640437   0.000002880198958
Si   15.61412   2.03662   2.03662  -0.000007115123130  -0.000000000000009  -0.000000000000043
Si   15.61412   4.75213   4.75213  -0.000008999707075   0.000008999707073   0.000008981271730
Si   12.89863   2.03662   4.75213   0.000002884640343  -0.000000879957602   0.000002880198991
Si   12.89863   4.75213   2.03662   0.000002866728737   0.000002866728902  -0.000000874880730
Si   11.54087   0.67888   6.10987  -0.000002866728866   0.000002866728866  -0.000000874880760
Si   14.25638   0.67888   8.82538   0.000000879957618   0.000002884640429   0.000002880199044
Si   11.54087   3.39437   8.82538  -0.000008999707046  -0.000008999706934   0.000008981271677
Si   14.25638   3.39437   6.10987  -0.000000000000066  -0.000007115122978   0.000000000000033
Si   15.61412   2.03662   7.46762  -0.000002884640471  -0.000000879957605  -0.000002880198941
Si   15.61412   4.75213  10.18313  -0.000002866728890   0.000002866728868   0.000000874880744
Si   12.89863   2.03662  10.18313   0.000007115123061   0.000000000000009   0.000000000000036
Si   12.89863   4.75213   7.46762   0.000008999706964   0.000008999707069  -0.000008981271682
Si   11.54087   0.67888  11.54087  -0.000008999707054   0.000008999706936  -0.000008981271611
Si   14.25638   0.67888  14.25638  -0.000000000000047   0.000007115122971  -0.000000000000026
Si   11.54087   3.39437  14.25638  -0.000002866728863  -0.000002866728890   0.000000874880757
Si   14.25638   3.39437  11.54087   0.000000879957615  -0.000002884640431  -0.000002880198991
Si   15.61412   2.03662  12.89863  -0.000002884640473   0.000000879957597   0.000002880198988
Si   15.61412   4.75213  15.61412  -0.000008153982413   0.000008153982358  -0.000008157473753
Si   12.89863   2.03662  15.61412   0.000002884640352   0.000000879957586  -0.000002880199039
Si   12.89863   4.75213  12.89863   0.000008153982330   0.000008153982359   0.000008157473695
Si   11.54087   6.10987   0.67888  -0.000002884640495  -0.000000879957605   0.000002880199017
Si   14.25638   6.10987   3.39437  -0.000000000000081   0.000000000000062  -0.000007121901824
Si   11.54087   8.82538   3.39437  -0.000008999707081   0.000008999707000  -0.000008981271667
Si   14.25638   8.82538   0.67888   0.000000879957559   0.000002884640492   0.000002880198978
Si   15.61412   7.46762   2.03662  -0.000002866728897  -0.000002866728796  -0.000000874880727
Si   15.61412  10.18313   4.75213  -0.000002884640491   0.000000879957616   0.000002880198985
Si   12.89863   7.46762   4.75213   0.000008999706943  -0.000008999706993   0.000008981271715
Si   12.89863  10.18313   2.03662   0.000007115123014   0.000000000000018  -0.000000000000019
Si   11.54087   6.10987   6.10987  -0.000007115123134   0.000000000000067   0.000000000000002
Si   14.25638   6.10987   8.82538  -0.000000000000072   0.000000000000027   0.000007121901853
Si   11.54087   8.82538   8.82538  -0.000008153982389   0.000008153982341   0.000008157473690
Si   14.25638   8.82538   6.10987  -0.000000000000086   0.000007115123034  -0.000000000000004
Si   15.61412   7.46762   7.46762  -0.000008999707074  -0.000008999707016  -0.000008981271694
Si   15.61412  10.18313  10.18313  -0.000007115123152   0.000000000000005   0.000000000000013
Si   12.89863   7.46762  10.18313   0.000002866728767  -0.000002866728826   0.000000874880725
Si   12.89863  10.18313   7.46762   0.000002884640349   0.000000879957601  -0.000002880199003
Si   11.54087   6.10987  11.54087  -0.000002884640431   0.000000879957693  -0.000002880199028
Si   14.25638   6.10987  14.25638  -0.000000000000057   0.000000000000039  -0.000000000000032
Si   11.54087   8.82538  14.25638  -0.000002866728875   0.000002866728927  -0.000000874880763
Si   14.25638   8.82538  11.54087  -0.000000879957715   0.000002884640465  -0.000002880198974
Si   15.61412   7.46762  12.89863  -0.000008153982426  -0.000008153982326   0.000008157473719
Si   15.61412  10.18313  15.61412  -0.000002884640479  -0.000000879957587  -0.000002880199010
Si   12.89863   7.46762  15.61412   0.000008153982294  -0.000008153982291  -0.000008157473710
Si   12.89863  10.18313  12.89863   0.000002884640358  -0.000000879957585   0.000002880199018
Si   11.54087  11.54087   0.67888  -0.000008999707092  -0.000008999706975   0.000008981271622
Si   14.25638  11.54087   3.39437   0.000000879957579  -0.000002884640459  -0.000002880199030
Si   11.54087  14.25638   3.39437  -0.000002884640484   0.000000879957612  -0.000002880199088
Si   14.25638  14.25638   0.67888  -0.000000000000082  -0.000000000000057   0.000007121901786
Si   15.61412  12.89863   2.03662  -0.000002866728896   0.000002866728823   0.000000874880669
Si   15.61412  15.61412   4.75213  -0.000008153982412  -0.000008153982374   0.000008157473684
Si   12.89863  12.89863   4.75213   0.000008153982298   0.000008153982269   0.000008157473674
Si   12.89863  15.61412   2.03662   0.000002866728743  -0.000002866728908   0.000000874880672
Si   11.54087  11.54087   6.10987  -0.000002866728864  -0.000002866728929   0.000000874880754
Si   14.25638  11.54087   8.82538  -0.000000879957715  -0.000002884640464   0.000002880199025
Si   11.54087  14.25638   8.82538  -0.000002884640431  -0.000000879957717   0.000002880199082
Si   14.25638  14.25638   6.10987  -0.000000000000056  -0.000000000000054   0.000000000000004
Si   15.61412  12.89863   7.46762  -0.000008153982424   0.000008153982308  -0.000008157473692
Si   15.61412  15.61412  10.18313  -0.000002866728888  -0.000002866728865  -0.000000874880650
Si   12.89863  12.89863  10.18313   0.000002866728765   0.000002866728833  -0.000000874880666
Si   12.89863  15.61412   7.46762   0.000008153982300  -0.000008153982367  -0.000008157473680
Si   11.54087  11.54087  11.54087  -0.000008153982379  -0.000008153982335  -0.000008157473653
Si   14.25638  11.54087  14.25638  -0.000000000000077  -0.000007115123005  -0.000000000000004
Si   11.54087  14.25638  14.25638  -0.000007115123130  -0.000000000000049   0.000000000000017
Si   14.25638  14.25638  11.54087  -0.000000000000059  -0.000000000000027  -0.000007121901797
Si   15.61412  12.89863  12.89863  -0.000008999707070   0.000008999707015   0.000008981271733
Si   15.61412  15.61412  15.61412  -0.000008999707039  -0.000008999707080  -0.000008981271731
Si   12.89863  12.89863  15.61412   0.000008999706919   0.000008999707005  -0.000008981271722
Si   12.89863  15.61412  12.89863   0.000008999706953  -0.000008999707073   0.000008981271727
