64 

C   -0.00000  -0.00000  -0.00000   0.000000000024351   0.000000000000152   0.000000000000149
C   -0.00000   1.78350   1.78350   0.000000000022581   0.000000000000109   0.000000000000328
C    1.78350  -0.00000   1.78350   0.000000000023807  -0.000000000000109   0.000000000000090
C    1.78350   1.78350  -0.00000   0.000000000023389   0.000000000000670  -0.000000000000197
C    0.89175   0.89175   0.89175   0.000000000023199  -0.000000000000722  -0.000000000001540
C    0.89175   2.67525   2.67525   0.000000000023204   0.000000000000540  -0.000000000000722
C    2.67525   0.89175   2.67525   0.000000000022356  -0.000000000000158  -0.000000000000168
C    2.67525   2.67525   0.89175   0.000000000023469  -0.000000000000767   0.000000000000131
C   -0.00000  -0.00000   3.56700   0.000000000023274  -0.000000000000591   0.000000000000320
C   -0.00000   1.78350   5.35050   0.000000000023942  -0.000000000000830   0.000000000002210
C    1.78350  -0.00000   5.35050   0.000000000023320   0.000000000000795   0.000000000000388
C    1.78350   1.78350   3.56700   0.000000000024749  -0.000000000000419   0.000000000000267
C    0.89175   0.89175   4.45875   0.000000000024837  -0.000000000001246   0.000000000000699
C    0.89175   2.67525   6.24225   0.000000000022820  -0.000000000000813   0.000000000000712
C    2.67525   0.89175   6.24225   0.000000000023529  -0.000000000000302  -0.000000000000124
C    2.67525   2.67525   4.45875   0.000000000023367  -0.000000000000545  -0.000000000000359
C   -0.00000   3.56700  -0.00000   0.000000000023802  -0.000000000000213  -0.000000000000570
C   -0.00000   5.35050   1.78350   0.000000000022619   0.000000000000825   0.000000000000382
C    1.78350   3.56700   1.78350   0.000000000023103   0.000000000000307   0.000000000000280
C    1.78350   5.35050  -0.00000   0.000000000023483   0.000000000000225  -0.000000000000282
C    0.89175   4.45875   0.89175   0.000000000023723  -0.000000000001060  -0.000000000001344
C    0.89175   6.24225   2.67525   0.000000000023496  -0.000000000000332   0.000000000000524
C    2.67525   4.45875   2.67525   0.000000000022901  -0.000000000000667  -0.000000000000508
C    2.67525   6.24225   0.89175   0.000000000022938  -0.000000000000366  -0.000000000000757
C   -0.00000   3.56700   3.56700   0.000000000022765  -0.000000000000290  -0.000000000000345
C   -0.00000   5.35050   5.35050   0.000000000023495   0.000000000000087   0.000000000000077
C    1.78350   3.56700   5.35050   0.000000000023907   0.000000000000014  -0.000000000000231
C    1.78350   5.35050   3.56700   0.000000000023291   0.000000000000047  -0.000000000000646
C    0.89175   4.45875   4.45875   0.000000000023456  -0.000000000000087  -0.000000000000520
C    0.89175   6.24225   6.24225   0.000000000022564   0.000000000000628   0.000000000000249
C    2.67525   4.45875   6.24225   0.000000000024259   0.000000000000034  -0.000000000000228
C    2.67525   6.24225   4.45875   0.000000000024970   0.000000000000491  -0.000000000000141
C    3.56700  -0.00000  -0.00000   0.000000000023403  -0.000000000000081  -0.000000000000426
C    3.56700   1.78350   1.78350   0.000000000022178   0.000000000001166  -0.000000000001334
C    5.35050  -0.00000   1.78350   0.000000000023713  -0.000000000000616  -0.000000000000425
C    5.35050   1.78350  -0.00000   0.000000000023757  -0.000000000000830   0.000000000000401
C    4.45875   0.89175   0.89175   0.000000000023074   0.000000000000533  -0.000000000001209
C    4.45875   2.67525   2.67525   0.000000000022705   0.000000000001518   0.000000000000259
C    6.24225   0.89175   2.67525   0.000000000023642   0.000000000000331   0.000000000000296
C    6.24225   2.67525   0.89175   0.000000000024399   0.000000000000205   0.000000000000020
C    3.56700  -0.00000   3.56700   0.000000000022205   0.000000000000068   0.000000000001098
C    3.56700   1.78350   5.35050   0.000000000022634  -0.000000000000245   0.000000000000155
C    5.35050  -0.00000   5.35050   0.000000000023894  -0.000000000000196  -0.000000000000045
C    5.35050   1.78350   3.56700   0.000000000023818   0.000000000000737   0.000000000000027
C    4.45875   0.89175   4.45875   0.000000000022655  -0.000000000000319  -0.000000000000355
C    4.45875   2.67525   6.24225   0.000000000022637   0.000000000000573   0.000000000000445
C    6.24225   0.89175   6.24225   0.000000000023955  -0.000000000000543   0.000000000000379
C    6.24225   2.67525   4.45875   0.000000000022939   0.000000000000367   0.000000000000139
C    3.56700   3.56700  -0.00000   0.000000000023417   0.000000000000099   0.000000000000451
C    3.56700   5.35050   1.78350   0.000000000023423  -0.000000000000730  -0.000000000000379
C    5.35050   3.56700   1.78350   0.000000000022853  -0.000000000000072   0.000000000000386
C    5.35050   5.35050  -0.00000   0.000000000022795  -0.000000000000984  -0.000000000000296
C    4.45875   4.45875   0.89175   0.000000000022173   0.000000000000028  -0.000000000000047
C    4.45875   6.24225   2.67525   0.000000000023682  -0.000000000000281  -0.000000000000717
C    6.24225   4.45875   2.67525   0.000000000023416   0.000000000000535   0.000000000000008
C    6.24225   6.24225   0.89175   0.000000000024078  -0.000000000000048   0.000000000000435
C    3.56700   3.56700   3.56700   0.000000000024173  -0.000000000000191  -0.000000000000760
C    3.56700   5.35050   5.35050   0.000000000023928   0.000000000000600  -0.000000000000003
C    5.35050   3.56700   5.35050   0.000000000023680  -0.000000000000214  -0.000000000000387
C    5.35050   5.35050   3.56700   0.000000000023708  -0.000000000000670  -0.000000000000481
C    4.45875   4.45875   4.45875   0.000000000023338   0.000000000000011  -0.000000000000136
C    4.45875   6.24225   6.24225   0.000000000022607  -0.000000000000780  -0.000000000000657
C    6.24225   4.45875   6.24225   0.000000000023363  -0.000000000000068   0.000000000000292
C    6.24225   6.24225   4.45875   0.000000000024238   0.000000000000115  -0.000000000000139
