216 

Si    0.72888   0.67888   0.67888   0.013554456208058   0.000001990649300   0.000001990768584
Si    3.39437   0.67888   3.39437  -0.000199991545186   0.000120265704993  -0.000193513130625
Si    0.67888   3.39437   3.39437   0.000422778641662  -0.000114167504884  -0.000114501570865
Si    3.39437   3.39437   0.67888  -0.000200044085469  -0.000193658003757   0.000120665575478
Si    4.75213   2.03662   2.03662   0.000010570014975   0.000025269320293   0.000025400740918
Si    4.75213   4.75213   4.75213   0.000016289911938   0.000007132685891   0.000007123292174
Si    2.03662   2.03662   4.75213   0.000033543114155  -0.000036253896511   0.000033869002447
Si    2.03662   4.75213   2.03662   0.000033457900415   0.000033948391213  -0.000036343074708
Si    0.67888   0.67888   6.10987  -0.000019081233078   0.000002864384695   0.000000654514445
Si    3.39437   0.67888   8.82538  -0.000020012787405   0.000008154452985   0.000008156470443
Si    0.67888   3.39437   8.82538  -0.000003684865499  -0.000008031020272   0.000011480648118
Si    3.39437   3.39437   6.10987  -0.000019404891094   0.000022373287835  -0.000003059001472
Si    4.75213   2.03662   7.46762   0.000001031153854  -0.000009020807663  -0.000000594517281
Si    4.75213   4.75213  10.18313   0.000002564513916  -0.000017225775927  -0.000003757754779
Si    2.03662   2.03662  10.18313   0.000015284753685   0.000001235256614   0.000002270939179
Si    2.03662   4.75213   7.46762   0.000012656311261  -0.000007456216821   0.000008756761071
Si    0.67888   0.67888  11.54087  -0.000013791472612   0.000008178074772  -0.000007935655891
Si    3.39437   0.67888  14.25638  -0.000194040794825  -0.000108275558814   0.000183817527446
Si    0.67888   3.39437  14.25638   0.000422023333514   0.000108391169983  -0.000112502624468
Si    3.39437   3.39437  11.54087  -0.000024784505012   0.000017868995605   0.000003896600683
Si    4.75213   2.03662  12.89863  -0.000016028278943   0.000051357740377   0.000024938656793
Si    4.75213   4.75213  15.61412  -0.000009866509044  -0.000013066277702  -0.000061117738167
Si    2.03662   2.03662  15.61412  -0.003371497174408  -0.002473717107702   0.002466598719917
Si    2.03662   4.75213  12.89863  -0.000177680129054   0.000054528871136  -0.000048807298695
Si    0.67888   6.10987   0.67888  -0.000018920485928   0.000000663958318   0.000002871761913
Si    3.39437   6.10987   3.39437  -0.000019469092880  -0.000003058363255   0.000022348587434
Si    0.67888   8.82538   3.39437  -0.000003740655210   0.000011453908086  -0.000008029924924
Si    3.39437   8.82538   0.67888  -0.000019973536985   0.000008152960030   0.000008157703519
Si    4.75213   7.46762   2.03662   0.000001045283548  -0.000000597604897  -0.000009040180220
Si    4.75213  10.18313   4.75213   0.000002688828542  -0.000003773870231  -0.000017205403301
Si    2.03662   7.46762   4.75213   0.000012644289081   0.000008752043541  -0.000007406440837
Si    2.03662  10.18313   2.03662   0.000015294094427   0.000002250100565   0.000001448055820
Si    0.67888   6.10987   6.10987   0.000108634141453  -0.000020937178495  -0.000020955693478
Si    3.39437   6.10987   8.82538  -0.000007164513053   0.000014917845080   0.000006025142538
Si    0.67888   8.82538   8.82538   0.000118914889185   0.000008999703253   0.000008981289432
Si    3.39437   8.82538   6.10987  -0.000007156506221   0.000006015821978   0.000014922762859
Si    4.75213   7.46762   7.46762   0.000009618825228  -0.000012780456389  -0.000012789378448
Si    4.75213  10.18313  10.18313   0.000008580507138   0.000004627383234   0.000004632822758
Si    2.03662   7.46762  10.18313  -0.000063033014221  -0.000005492722216  -0.000001645937087
Si    2.03662  10.18313   7.46762  -0.000063033120402  -0.000001625408874  -0.000005478855431
Si    0.67888   6.10987  11.54087   0.000106105554569   0.000019953546072  -0.000023735915193
Si    3.39437   6.10987  14.25638  -0.000023727883233  -0.000012045699405  -0.000025913533361
Si    0.67888   8.82538  14.25638  -0.000009025692850  -0.000000432924580   0.000000748214101
Si    3.39437   8.82538  11.54087  -0.000013288043068   0.000005850723661  -0.000024779706040
Si    4.75213   7.46762  12.89863   0.000008800551470  -0.000006106373727   0.000029068470023
Si    4.75213  10.18313  15.61412   0.000001063673675  -0.000001389726748   0.000007033460213
Si    2.03662   7.46762  15.61412   0.000014415194958  -0.000005134955009  -0.000004327348297
Si    2.03662  10.18313  12.89863   0.000011764076179  -0.000011635686639   0.000017409478148
Si    0.67888  11.54087   0.67888  -0.000013660322458  -0.000007936401187   0.000008169784236
Si    3.39437  11.54087   3.39437  -0.000024775026883   0.000003895688568   0.000017750282921
Si    0.67888  14.25638   3.39437   0.000422044920411  -0.000112160955437   0.000108725581814
Si    3.39437  14.25638   0.67888  -0.000194101737798   0.000183939835587  -0.000108680163778
Si    4.75213  12.89863   2.03662  -0.000016002465250   0.000024931058328   0.000051245707129
Si    4.75213  15.61412   4.75213  -0.000009911261018  -0.000061253171368  -0.000013078732538
Si    2.03662  12.89863   4.75213  -0.000177680235023  -0.000048769506826   0.000054556383920
Si    2.03662  15.61412   2.03662  -0.003371494700373   0.002466482635506  -0.002473841176196
Si    0.67888  11.54087   6.10987   0.000106087179277  -0.000023699734602   0.000019981505962
Si    3.39437  11.54087   8.82538  -0.000013278232079  -0.000024798260568   0.000005836418274
Si    0.67888  14.25638   8.82538  -0.000008952282901   0.000000757575265  -0.000000442723668
Si    3.39437  14.25638   6.10987  -0.000023734137332  -0.000026031834225  -0.000012049981090
Si    4.75213  12.89863   7.46762   0.000008694524740   0.000029093475796  -0.000006099065701
Si    4.75213  15.61412  10.18313   0.000001014492597   0.000007032268997  -0.000001411281276
Si    2.03662  12.89863  10.18313   0.000011776140898   0.000017456940021  -0.000011635996977
Si    2.03662  15.61412   7.46762   0.000014405521483  -0.000004119655009  -0.000005151435090
Si    0.67888  11.54087  11.54087   0.000110517506487   0.000011940847112   0.000011977758429
Si    3.39437  11.54087  14.25638  -0.000019441079287   0.000001067147364  -0.000024353247586
Si    0.67888  14.25638  14.25638   0.000420835106836   0.000105074467728   0.000105425423413
Si    3.39437  14.25638  11.54087  -0.000019413480309  -0.000024357259898   0.000001049153302
Si    4.75213  12.89863  12.89863   0.000016290968622   0.000009173477218   0.000009189407146
Si    4.75213  15.61412  15.61412   0.000011536426547  -0.000033386870744  -0.000033522031440
Si    2.03662  12.89863  15.61412   0.000034356650074  -0.000023934612498   0.000033469129705
Si    2.03662  15.61412  12.89863   0.000034439773356   0.000033375619625  -0.000023851457366
Si    6.10987   0.67888   0.67888  -0.000005160252184   0.000002872322468   0.000002868709121
Si    8.82538   0.67888   3.39437   0.000005834823270   0.000004818735285  -0.000008019653810
Si    6.10987   3.39437   3.39437   0.000002261604749  -0.000015117494651  -0.000015111467368
Si    8.82538   3.39437   0.67888   0.000005859379386  -0.000008015705324   0.000004832969979
Si   10.18313   2.03662   2.03662   0.000000019902979   0.000002240477373   0.000002254158895
Si   10.18313   4.75213   4.75213  -0.000001025981749   0.000000063622457   0.000000049625115
Si    7.46762   2.03662   4.75213   0.000000525186582   0.000012655668031   0.000004997975914
Si    7.46762   4.75213   2.03662   0.000000536122789   0.000004987722642   0.000012657937845
Si    6.10987   0.67888   6.10987  -0.000000628274315   0.000028677628742  -0.000012286844131
Si    8.82538   0.67888   8.82538   0.000010654691713   0.000009002688476   0.000008981075391
Si    6.10987   3.39437   8.82538   0.000000206280938   0.000012738166659   0.000001216476304
Si    8.82538   3.39437   6.10987   0.000004797709965  -0.000006099475513   0.000000745922537
Si   10.18313   2.03662   7.46762  -0.000004934913493  -0.000001185451896  -0.000007870707405
Si   10.18313   4.75213  10.18313   0.000002555695039   0.000011796955816  -0.000005328661203
Si    7.46762   2.03662  10.18313  -0.000012409755627   0.000002253437067  -0.000000343335628
Si    7.46762   4.75213   7.46762  -0.000005570581606   0.000003649050229  -0.000013450250015
Si    6.10987   0.67888  11.54087  -0.000001507392175  -0.000018672623864   0.000009405138236
Si    8.82538   0.67888  14.25638   0.000000547353242   0.000006202349261   0.000000736762498
Si    6.10987   3.39437  14.25638   0.000001632030328  -0.000011260393659   0.000004138145884
Si    8.82538   3.39437  11.54087   0.000011111043489  -0.000005885469678  -0.000007354940764
Si   10.18313   2.03662  12.89863   0.000003293281082  -0.000011535945401   0.000009481893414
Si   10.18313   4.75213  15.61412   0.000004165866881   0.000000521534946   0.000008662209247
Si    7.46762   2.03662  15.61412  -0.000002635851213  -0.000003254211557  -0.000000494569937
Si    7.46762   4.75213  12.89863  -0.000009077589383   0.000011937142201   0.000006034550423
Si    6.10987   6.10987   0.67888  -0.000000745216999  -0.000012297784992   0.000028677428692
Si    8.82538   6.10987   3.39437   0.000004816351519   0.000000748117628  -0.000006105465085
Si    6.10987   8.82538   3.39437   0.000000197129753   0.000001220075669   0.000012733765650
Si    8.82538   8.82538   0.67888   0.000010609537502   0.000008999501293   0.000008984188083
Si   10.18313   7.46762   2.03662  -0.000004928644701  -0.000007881761037  -0.000001190310273
Si   10.18313  10.18313   4.75213   0.000002562491912  -0.000005330724572   0.000011808921166
Si    7.46762   7.46762   4.75213  -0.000005563225185  -0.000013447924910   0.000003647548264
Si    7.46762  10.18313   2.03662  -0.000012400132093  -0.000000360544318   0.000002259753284
Si    6.10987   6.10987   6.10987  -0.000002072712640   0.000003406420444   0.000003409648114
Si    8.82538   6.10987   8.82538   0.000001054786644   0.000000859411618   0.000002876924250
Si    6.10987   8.82538   8.82538  -0.000000933916722   0.000002884052876   0.000002879606506
Si    8.82538   8.82538   6.10987   0.000001034929137   0.000002854031830   0.000000854205496
Si   10.18313   7.46762   7.46762  -0.000000948400026  -0.000002693063965  -0.000002704422101
Si   10.18313  10.18313  10.18313  -0.000000068602791  -0.000000191004976  -0.000000175281387
Si    7.46762   7.46762  10.18313  -0.000002916410525  -0.000003042042987  -0.000000715141135
Si    7.46762  10.18313   7.46762  -0.000002934266031  -0.000000704207353  -0.000003039452235
Si    6.10987   6.10987  11.54087  -0.000001925483079   0.000003523690074  -0.000010631579563
Si    8.82538   6.10987  14.25638   0.000009224134438  -0.000001634507602  -0.000003107033941
Si    6.10987   8.82538  14.25638   0.000001077453243   0.000008781060595  -0.000015615126518
Si    8.82538   8.82538  11.54087   0.000006322047241   0.000008166718988  -0.000008137077180
Si   10.18313   7.46762  12.89863   0.000003441753779   0.000002446478858  -0.000001806873131
Si   10.18313  10.18313  15.61412  -0.000004928421728   0.000000766343085  -0.000005936550070
Si    7.46762   7.46762  15.61412  -0.000014288302996  -0.000008640638587  -0.000011244595349
Si    7.46762  10.18313  12.89863  -0.000000293630256   0.000006172650581   0.000007391221583
Si    6.10987  11.54087   0.67888  -0.000001624134414   0.000009411786369  -0.000018670923242
Si    8.82538  11.54087   3.39437   0.000011110302219  -0.000007365972196  -0.000005874056961
Si    6.10987  14.25638   3.39437   0.000001632213013   0.000004145276033  -0.000011259911591
Si    8.82538  14.25638   0.67888   0.000000589742185   0.000000741398096   0.000006205137432
Si   10.18313  12.89863   2.03662   0.000003287129370   0.000009479525066  -0.000011544764780
Si   10.18313  15.61412   4.75213   0.000004172212452   0.000008648934445   0.000000521461570
Si    7.46762  12.89863   4.75213  -0.000009077678220   0.000006061179842   0.000011926917048
Si    7.46762  15.61412   2.03662  -0.000002617811058  -0.000000494854104  -0.000003262792846
Si    6.10987  11.54087   6.10987  -0.000001925378522  -0.000010639107309   0.000003509520502
Si    8.82538  11.54087   8.82538   0.000006323981221  -0.000008133709046   0.000008160778325
Si    6.10987  14.25638   8.82538   0.000001086580695  -0.000015623855339   0.000008787002375
Si    8.82538  14.25638   6.10987   0.000009224854704  -0.000003114021055  -0.000001627106442
Si   10.18313  12.89863   7.46762   0.000003434957404  -0.000001797244587   0.000002448887781
Si   10.18313  15.61412  10.18313  -0.000004934551670  -0.000005934493538   0.000000748556505
Si    7.46762  12.89863  10.18313  -0.000000282990869   0.000007372748614   0.000006166374886
Si    7.46762  15.61412   7.46762  -0.000014297972081  -0.000011256574893  -0.000008639430190
Si    6.10987  11.54087  11.54087  -0.000001193223327  -0.000006290898878  -0.000006289676596
Si    8.82538  11.54087  14.25638   0.000004796811713  -0.000004493884555   0.000002348340141
Si    6.10987  14.25638  14.25638   0.000001390679027   0.000012226960295   0.000012225363505
Si    8.82538  14.25638  11.54087   0.000004813991352   0.000002350691332  -0.000004500073633
Si   10.18313  12.89863  12.89863  -0.000001023152918   0.000005710166953   0.000005715322972
Si   10.18313  15.61412  15.61412  -0.000000858889158  -0.000005124558255  -0.000005133670900
Si    7.46762  12.89863  15.61412  -0.000004750640809   0.000006032831056  -0.000019940941057
Si    7.46762  15.61412  12.89863  -0.000004743809677  -0.000019930149404   0.000006039514757
Si   11.54087   0.67888   0.67888  -0.000013901285247   0.000008144061721   0.000008147521755
Si   14.25638   0.67888   3.39437  -0.000183759721341   0.000108389719512   0.000174873337157
Si   11.54087   3.39437   3.39437  -0.000007173556812  -0.000003904026047  -0.000003913686228
Si   14.25638   3.39437   0.67888  -0.000183806335242   0.000174971900618   0.000108790998508
Si   15.61412   2.03662   2.03662  -0.003224254461522   0.002172627260935   0.002172767694548
Si   15.61412   4.75213   4.75213  -0.000181682306933  -0.000042202415569  -0.000042261501750
Si   12.89863   2.03662   4.75213  -0.000013468832574  -0.000051769410331   0.000022762444856
Si   12.89863   4.75213   2.03662  -0.000013430927323   0.000022749111828  -0.000051651595038
Si   11.54087   0.67888   6.10987  -0.000002780514971   0.000023139010676   0.000010925055199
Si   14.25638   0.67888   8.82538  -0.000011242399137   0.000002885476971   0.000002879379691
Si   11.54087   3.39437   8.82538  -0.000008047178641  -0.000024949842736   0.000007407232190
Si   14.25638   3.39437   6.10987  -0.000016564156674  -0.000032761393593   0.000012369654754
Si   15.61412   2.03662   7.46762   0.000012503864599  -0.000002317451441  -0.000000523894354
Si   15.61412   4.75213  10.18313   0.000008548338115   0.000013134132774   0.000012532320967
Si   12.89863   2.03662  10.18313   0.000005487423480   0.000010584459402   0.000002198370499
Si   12.89863   4.75213   7.46762   0.000008739540305   0.000029204945864  -0.000011878147736
Si   11.54087   0.67888  11.54087  -0.000008911358124  -0.000011267457341  -0.000020777127447
Si   14.25638   0.67888  14.25638  -0.000182935244771  -0.000098282607126  -0.000177790573267
Si   11.54087   3.39437  14.25638  -0.000001406892199   0.000009313791464  -0.000011303980961
Si   14.25638   3.39437  11.54087  -0.000015782290086  -0.000029179651784  -0.000007310195084
Si   15.61412   2.03662  12.89863   0.000028279435524   0.000039290101852   0.000027479539557
Si   15.61412   4.75213  15.61412   0.000022872716157  -0.000016586418401  -0.000046629968918
Si   12.89863   2.03662  15.61412   0.000007073479319  -0.000025093760202   0.000023269006262
Si   12.89863   4.75213  12.89863   0.000016287292555   0.000009340352756   0.000006964442531
Si   11.54087   6.10987   0.67888  -0.000002906321976   0.000010931823938   0.000023145932622
Si   14.25638   6.10987   3.39437  -0.000016553885222   0.000012363925210  -0.000032665885854
Si   11.54087   8.82538   3.39437  -0.000008057062669   0.000007425113408  -0.000024925393868
Si   14.25638   8.82538   0.67888  -0.000011206583934   0.000002883823220   0.000002881077646
Si   15.61412   7.46762   2.03662   0.000012546704691  -0.000000532883322  -0.000002543682035
Si   15.61412  10.18313   4.75213   0.000008516954363   0.000012536610485   0.000013099867835
Si   12.89863   7.46762   4.75213   0.000008843011032  -0.000011908745032   0.000029181665825
Si   12.89863  10.18313   2.03662   0.000005517622733   0.000002180796969   0.000010593839123
Si   11.54087   6.10987   6.10987  -0.000009117223337  -0.000003440806879  -0.000003426152337
Si   14.25638   6.10987   8.82538  -0.000004093753474  -0.000015750570742   0.000010298371568
Si   11.54087   8.82538   8.82538  -0.000009907150381   0.000008153520144   0.000008157020436
Si   14.25638   8.82538   6.10987  -0.000004101780578   0.000010296097216  -0.000015751784593
Si   15.61412   7.46762   7.46762  -0.000071653131602  -0.000010788304282  -0.000010791573520
Si   15.61412  10.18313  10.18313  -0.000069762110590   0.000001785358348   0.000001806998982
Si   12.89863   7.46762  10.18313   0.000004181511918   0.000001696409393  -0.000003695287128
Si   12.89863  10.18313   7.46762   0.000004199411988  -0.000003684650329   0.000001688470767
Si   11.54087   6.10987  11.54087  -0.000004807004560  -0.000002646455133   0.000000648123115
Si   14.25638   6.10987  14.25638  -0.000016706568615   0.000004433839661   0.000026300875354
Si   11.54087   8.82538  14.25638  -0.000001923693660   0.000004441036016   0.000015068161240
Si   14.25638   8.82538  11.54087  -0.000004981566722  -0.000000295244505   0.000012869805364
Si   15.61412   7.46762  12.89863   0.000003247275059  -0.000019810480882  -0.000002062136349
Si   15.61412  10.18313  15.61412   0.000012530023485  -0.000003216093722  -0.000001216118396
Si   12.89863   7.46762  15.61412   0.000006553456923  -0.000010332383555  -0.000018752332378
Si   12.89863  10.18313  12.89863   0.000002735369038   0.000002032952799  -0.000017318506780
Si   11.54087  11.54087   0.67888  -0.000009019073008  -0.000020807432209  -0.000011279319875
Si   14.25638  11.54087   3.39437  -0.000015825355508  -0.000007319412550  -0.000029174510064
Si   11.54087  14.25638   3.39437  -0.000001424856383  -0.000011298702093   0.000009300475836
Si   14.25638  14.25638   0.67888  -0.000182974271970  -0.000177894418027  -0.000098681598024
Si   15.61412  12.89863   2.03662   0.000028150908545   0.000027554785945   0.000039375800132
Si   15.61412  15.61412   4.75213   0.000023018451776  -0.000046541614876  -0.000016494547543
Si   12.89863  12.89863   4.75213   0.000016286890202   0.000006965606756   0.000009348826500
Si   12.89863  15.61412   2.03662   0.000007056296470   0.000023160833920  -0.000025220947237
Si   11.54087  11.54087   6.10987  -0.000004789082380   0.000000658762950  -0.000002654340345
Si   14.25638  11.54087   8.82538  -0.000004973437855   0.000012864160711  -0.000000295180088
Si   11.54087  14.25638   8.82538  -0.000001931736125   0.000015069193738   0.000004453943378
Si   14.25638  14.25638   6.10987  -0.000016665371265   0.000026300805888   0.000004429323156
Si   15.61412  12.89863   7.46762   0.000003260860751  -0.000002113141578  -0.000019814727699
Si   15.61412  15.61412  10.18313   0.000012524393037  -0.000001433838200  -0.000003233445028
Si   12.89863  12.89863  10.18313   0.000002614607061  -0.000017336216925   0.000002026016073
Si   12.89863  15.61412   7.46762   0.000006522779450  -0.000018739523423  -0.000010353568260
Si   11.54087  11.54087  11.54087  -0.000010154032271  -0.000004713823875  -0.000004732014621
Si   14.25638  11.54087  14.25638  -0.000016561443825  -0.000019477406798   0.000025545251110
Si   11.54087  14.25638  14.25638  -0.000006142414473  -0.000004257446450  -0.000004251133830
Si   14.25638  14.25638  11.54087  -0.000016569492346   0.000025649197000  -0.000019490165296
Si   15.61412  12.89863  12.89863  -0.000181686588880   0.000060222155011   0.000060244926576
Si   15.61412  15.61412  15.61412  -0.003226189389360  -0.002181523558652  -0.002181651229471
Si   12.89863  12.89863  15.61412  -0.000007270553003  -0.000010868581082   0.000041758754164
Si   12.89863  15.61412  12.89863  -0.000007326380517   0.000041852627529  -0.000010886599019
