CRYSTAL
PRIMVEC
  16.293000   0.000000   0.000000
   0.000000  16.293000   0.000000
   0.000000   0.000000  16.293000
PRIMCOORD
 216 1
Si     6.789E-01     6.789E-01     6.789E-01     8.061E-15     0.000E+00     4.936E-31
Si     3.394E+00     6.789E-01     3.394E+00     5.450E-15     0.000E+00     3.337E-31
Si     6.789E-01     3.394E+00     3.394E+00     4.630E-15     0.000E+00     2.835E-31
Si     3.394E+00     3.394E+00     6.789E-01     4.694E-15     0.000E+00     2.874E-31
Si     4.752E+00     2.037E+00     2.037E+00     2.068E-15     0.000E+00     1.266E-31
Si     4.752E+00     4.752E+00     4.752E+00     2.575E-15     0.000E+00     1.577E-31
Si     2.037E+00     2.037E+00     4.752E+00     2.068E-15     0.000E+00     1.267E-31
Si     2.037E+00     4.752E+00     2.037E+00     6.722E-15     0.000E+00     4.116E-31
Si     6.789E-01     6.789E-01     6.110E+00     7.877E-15     0.000E+00     4.823E-31
Si     3.394E+00     6.789E-01     8.825E+00     5.973E-15     0.000E+00     3.657E-31
Si     6.789E-01     3.394E+00     8.825E+00     1.710E-15     0.000E+00     1.047E-31
Si     3.394E+00     3.394E+00     6.110E+00     3.188E-15     0.000E+00     1.952E-31
Si     4.752E+00     2.037E+00     7.468E+00     2.438E-15     0.000E+00     1.493E-31
Si     4.752E+00     4.752E+00     1.018E+01     4.272E-15     0.000E+00     2.616E-31
Si     2.037E+00     2.037E+00     1.018E+01     7.142E-15     0.000E+00     4.373E-31
Si     2.037E+00     4.752E+00     7.468E+00     2.288E-15     0.000E+00     1.401E-31
Si     6.789E-01     6.789E-01     1.154E+01     4.964E-15     0.000E+00     3.039E-31
Si     3.394E+00     6.789E-01     1.426E+01     2.744E-15     0.000E+00     1.680E-31
Si     6.789E-01     3.394E+00     1.426E+01     4.255E-15     0.000E+00     2.605E-31
Si     3.394E+00     3.394E+00     1.154E+01     4.412E-15     0.000E+00     2.702E-31
Si     4.752E+00     2.037E+00     1.290E+01     4.671E-15     0.000E+00     2.860E-31
Si     4.752E+00     4.752E+00     1.561E+01     2.236E-15     0.000E+00     1.369E-31
Si     2.037E+00     2.037E+00     1.561E+01     4.093E-15     0.000E+00     2.506E-31
Si     2.037E+00     4.752E+00     1.290E+01     1.636E-15     0.000E+00     1.002E-31
Si     6.789E-01     6.110E+00     6.789E-01     6.293E-15     0.000E+00     3.853E-31
Si     3.394E+00     6.110E+00     3.394E+00     3.334E-15     0.000E+00     2.041E-31
Si     6.789E-01     8.825E+00     3.394E+00     3.880E-15     0.000E+00     2.376E-31
Si     3.394E+00     8.825E+00     6.789E-01     3.409E-15     0.000E+00     2.087E-31
Si     4.752E+00     7.468E+00     2.037E+00     3.671E-15     0.000E+00     2.248E-31
Si     4.752E+00     1.018E+01     4.752E+00     3.495E-15     0.000E+00     2.140E-31
Si     2.037E+00     7.468E+00     4.752E+00     2.799E-15     0.000E+00     1.714E-31
Si     2.037E+00     1.018E+01     2.037E+00     2.221E-15     0.000E+00     1.360E-31
Si     6.789E-01     6.110E+00     6.110E+00     4.082E-15     0.000E+00     2.500E-31
Si     3.394E+00     6.110E+00     8.825E+00     2.171E-15     0.000E+00     1.329E-31
Si     6.789E-01     8.825E+00     8.825E+00     1.671E-15     0.000E+00     1.023E-31
Si     3.394E+00     8.825E+00     6.110E+00     3.697E-15     0.000E+00     2.264E-31
Si     4.752E+00     7.468E+00     7.468E+00     5.454E-15     0.000E+00     3.339E-31
Si     4.752E+00     1.018E+01     1.018E+01     3.951E-15     0.000E+00     2.419E-31
Si     2.037E+00     7.468E+00     1.018E+01     2.093E-15     0.000E+00     1.282E-31
Si     2.037E+00     1.018E+01     7.468E+00     2.309E-15     0.000E+00     1.414E-31
Si     6.789E-01     6.110E+00     1.154E+01     4.473E-15     0.000E+00     2.739E-31
Si     3.394E+00     6.110E+00     1.426E+01     3.217E-15     0.000E+00     1.970E-31
Si     6.789E-01     8.825E+00     1.426E+01     6.235E-15     0.000E+00     3.818E-31
Si     3.394E+00     8.825E+00     1.154E+01     2.270E-15     0.000E+00     1.390E-31
Si     4.752E+00     7.468E+00     1.290E+01     2.742E-15     0.000E+00     1.679E-31
Si     4.752E+00     1.018E+01     1.561E+01     2.368E-15     0.000E+00     1.450E-31
Si     2.037E+00     7.468E+00     1.561E+01     1.909E-15     0.000E+00     1.169E-31
Si     2.037E+00     1.018E+01     1.290E+01     3.824E-15     0.000E+00     2.341E-31
Si     6.789E-01     1.154E+01     6.789E-01     5.408E-15     0.000E+00     3.312E-31
Si     3.394E+00     1.154E+01     3.394E+00     3.440E-15     0.000E+00     2.107E-31
Si     6.789E-01     1.426E+01     3.394E+00     3.105E-15     0.000E+00     1.901E-31
Si     3.394E+00     1.426E+01     6.789E-01     3.483E-15     0.000E+00     2.133E-31
Si     4.752E+00     1.290E+01     2.037E+00     2.645E-15     0.000E+00     1.620E-31
Si     4.752E+00     1.561E+01     4.752E+00     2.403E-15     0.000E+00     1.471E-31
Si     2.037E+00     1.290E+01     4.752E+00     3.041E-15     0.000E+00     1.862E-31
Si     2.037E+00     1.561E+01     2.037E+00     4.964E-15     0.000E+00     3.040E-31
Si     6.789E-01     1.154E+01     6.110E+00     6.632E-15     0.000E+00     4.061E-31
Si     3.394E+00     1.154E+01     8.825E+00     3.114E-15     0.000E+00     1.907E-31
Si     6.789E-01     1.426E+01     8.825E+00     2.746E-15     0.000E+00     1.682E-31
Si     3.394E+00     1.426E+01     6.110E+00     3.689E-15     0.000E+00     2.259E-31
Si     4.752E+00     1.290E+01     7.468E+00     4.546E-15     0.000E+00     2.784E-31
Si     4.752E+00     1.561E+01     1.018E+01     2.280E-15     0.000E+00     1.396E-31
Si     2.037E+00     1.290E+01     1.018E+01     2.833E-15     0.000E+00     1.735E-31
Si     2.037E+00     1.561E+01     7.468E+00     2.585E-15     0.000E+00     1.583E-31
Si     6.789E-01     1.154E+01     1.154E+01     4.443E-15     0.000E+00     2.721E-31
Si     3.394E+00     1.154E+01     1.426E+01     2.197E-15     0.000E+00     1.345E-31
Si     6.789E-01     1.426E+01     1.426E+01     2.691E-15     0.000E+00     1.648E-31
Si     3.394E+00     1.426E+01     1.154E+01     2.951E-15     0.000E+00     1.807E-31
Si     4.752E+00     1.290E+01     1.290E+01     3.466E-15     0.000E+00     2.122E-31
Si     4.752E+00     1.561E+01     1.561E+01     1.973E-15     0.000E+00     1.208E-31
Si     2.037E+00     1.290E+01     1.561E+01     1.530E-15     0.000E+00     9.369E-32
Si     2.037E+00     1.561E+01     1.290E+01     3.211E-15     0.000E+00     1.966E-31
Si     6.110E+00     6.789E-01     6.789E-01     4.100E-15     0.000E+00     2.511E-31
Si     8.825E+00     6.789E-01     3.394E+00     6.787E-16     0.000E+00     4.156E-32
Si     6.110E+00     3.394E+00     3.394E+00     2.698E-15     0.000E+00     1.652E-31
Si     8.825E+00     3.394E+00     6.789E-01     4.122E-15     0.000E+00     2.524E-31
Si     1.018E+01     2.037E+00     2.037E+00     2.780E-15     0.000E+00     1.702E-31
Si     1.018E+01     4.752E+00     4.752E+00     6.010E-15     0.000E+00     3.680E-31
Si     7.468E+00     2.037E+00     4.752E+00     2.901E-15     0.000E+00     1.776E-31
Si     7.468E+00     4.752E+00     2.037E+00     2.532E-15     0.000E+00     1.550E-31
Si     6.110E+00     6.789E-01     6.110E+00     1.925E-15     0.000E+00     1.179E-31
Si     8.825E+00     6.789E-01     8.825E+00     1.878E-15     0.000E+00     1.150E-31
Si     6.110E+00     3.394E+00     8.825E+00     2.350E-15     0.000E+00     1.439E-31
Si     8.825E+00     3.394E+00     6.110E+00     4.774E-15     0.000E+00     2.923E-31
Si     1.018E+01     2.037E+00     7.468E+00     1.891E-15     0.000E+00     1.158E-31
Si     1.018E+01     4.752E+00     1.018E+01     2.450E-15     0.000E+00     1.500E-31
Si     7.468E+00     2.037E+00     1.018E+01     3.588E-15     0.000E+00     2.197E-31
Si     7.468E+00     4.752E+00     7.468E+00     4.019E-15     0.000E+00     2.461E-31
Si     6.110E+00     6.789E-01     1.154E+01     2.712E-15     0.000E+00     1.660E-31
Si     8.825E+00     6.789E-01     1.426E+01     2.828E-15     0.000E+00     1.732E-31
Si     6.110E+00     3.394E+00     1.426E+01     9.900E-16     0.000E+00     6.062E-32
Si     8.825E+00     3.394E+00     1.154E+01     2.560E-15     0.000E+00     1.568E-31
Si     1.018E+01     2.037E+00     1.290E+01     3.788E-15     0.000E+00     2.320E-31
Si     1.018E+01     4.752E+00     1.561E+01     2.504E-15     0.000E+00     1.533E-31
Si     7.468E+00     2.037E+00     1.561E+01     2.371E-15     0.000E+00     1.452E-31
Si     7.468E+00     4.752E+00     1.290E+01     3.136E-15     0.000E+00     1.920E-31
Si     6.110E+00     6.110E+00     6.789E-01     1.916E-15     0.000E+00     1.173E-31
Si     8.825E+00     6.110E+00     3.394E+00     1.841E-15     0.000E+00     1.127E-31
Si     6.110E+00     8.825E+00     3.394E+00     2.265E-15     0.000E+00     1.387E-31
Si     8.825E+00     8.825E+00     6.789E-01     4.913E-15     0.000E+00     3.008E-31
Si     1.018E+01     7.468E+00     2.037E+00     4.417E-15     0.000E+00     2.705E-31
Si     1.018E+01     1.018E+01     4.752E+00     2.388E-15     0.000E+00     1.462E-31
Si     7.468E+00     7.468E+00     4.752E+00     8.891E-16     0.000E+00     5.444E-32
Si     7.468E+00     1.018E+01     2.037E+00     3.237E-15     0.000E+00     1.982E-31
Si     6.110E+00     6.110E+00     6.110E+00     3.391E-15     0.000E+00     2.076E-31
Si     8.825E+00     6.110E+00     8.825E+00     1.771E-15     0.000E+00     1.084E-31
Si     6.110E+00     8.825E+00     8.825E+00     1.790E-15     0.000E+00     1.096E-31
Si     8.825E+00     8.825E+00     6.110E+00     2.118E-15     0.000E+00     1.297E-31
Si     1.018E+01     7.468E+00     7.468E+00     2.730E-15     0.000E+00     1.672E-31
Si     1.018E+01     1.018E+01     1.018E+01     1.724E-15     0.000E+00     1.056E-31
Si     7.468E+00     7.468E+00     1.018E+01     4.081E-15     0.000E+00     2.499E-31
Si     7.468E+00     1.018E+01     7.468E+00     4.678E-15     0.000E+00     2.864E-31
Si     6.110E+00     6.110E+00     1.154E+01     1.420E-15     0.000E+00     8.693E-32
Si     8.825E+00     6.110E+00     1.426E+01     2.215E-15     0.000E+00     1.356E-31
Si     6.110E+00     8.825E+00     1.426E+01     2.305E-15     0.000E+00     1.411E-31
Si     8.825E+00     8.825E+00     1.154E+01     3.861E-15     0.000E+00     2.364E-31
Si     1.018E+01     7.468E+00     1.290E+01     4.530E-15     0.000E+00     2.774E-31
Si     1.018E+01     1.018E+01     1.561E+01     5.735E-15     0.000E+00     3.512E-31
Si     7.468E+00     7.468E+00     1.561E+01     2.690E-15     0.000E+00     1.647E-31
Si     7.468E+00     1.018E+01     1.290E+01     5.284E-16     0.000E+00     3.235E-32
Si     6.110E+00     1.154E+01     6.789E-01     2.088E-15     0.000E+00     1.279E-31
Si     8.825E+00     1.154E+01     3.394E+00     4.322E-15     0.000E+00     2.647E-31
Si     6.110E+00     1.426E+01     3.394E+00     2.429E-15     0.000E+00     1.487E-31
Si     8.825E+00     1.426E+01     6.789E-01     3.694E-15     0.000E+00     2.262E-31
Si     1.018E+01     1.290E+01     2.037E+00     2.994E-15     0.000E+00     1.833E-31
Si     1.018E+01     1.561E+01     4.752E+00     4.061E-15     0.000E+00     2.487E-31
Si     7.468E+00     1.290E+01     4.752E+00     3.827E-15     0.000E+00     2.343E-31
Si     7.468E+00     1.561E+01     2.037E+00     3.097E-15     0.000E+00     1.896E-31
Si     6.110E+00     1.154E+01     6.110E+00     5.280E-15     0.000E+00     3.233E-31
Si     8.825E+00     1.154E+01     8.825E+00     1.815E-15     0.000E+00     1.111E-31
Si     6.110E+00     1.426E+01     8.825E+00     4.378E-15     0.000E+00     2.681E-31
Si     8.825E+00     1.426E+01     6.110E+00     1.791E-15     0.000E+00     1.096E-31
Si     1.018E+01     1.290E+01     7.468E+00     3.234E-15     0.000E+00     1.980E-31
Si     1.018E+01     1.561E+01     1.018E+01     2.296E-15     0.000E+00     1.406E-31
Si     7.468E+00     1.290E+01     1.018E+01     4.469E-15     0.000E+00     2.736E-31
Si     7.468E+00     1.561E+01     7.468E+00     4.433E-15     0.000E+00     2.715E-31
Si     6.110E+00     1.154E+01     1.154E+01     2.795E-15     0.000E+00     1.711E-31
Si     8.825E+00     1.154E+01     1.426E+01     5.629E-15     0.000E+00     3.447E-31
Si     6.110E+00     1.426E+01     1.426E+01     3.926E-15     0.000E+00     2.404E-31
Si     8.825E+00     1.426E+01     1.154E+01     1.154E-15     0.000E+00     7.066E-32
Si     1.018E+01     1.290E+01     1.290E+01     2.400E-15     0.000E+00     1.469E-31
Si     1.018E+01     1.561E+01     1.561E+01     3.008E-15     0.000E+00     1.842E-31
Si     7.468E+00     1.290E+01     1.561E+01     3.740E-15     0.000E+00     2.290E-31
Si     7.468E+00     1.561E+01     1.290E+01     2.224E-15     0.000E+00     1.362E-31
Si     1.154E+01     6.789E-01     6.789E-01     4.034E-15     0.000E+00     2.470E-31
Si     1.426E+01     6.789E-01     3.394E+00     1.774E-15     0.000E+00     1.086E-31
Si     1.154E+01     3.394E+00     3.394E+00     2.579E-15     0.000E+00     1.579E-31
Si     1.426E+01     3.394E+00     6.789E-01     3.362E-15     0.000E+00     2.059E-31
Si     1.561E+01     2.037E+00     2.037E+00     2.600E-15     0.000E+00     1.592E-31
Si     1.561E+01     4.752E+00     4.752E+00     4.261E-15     0.000E+00     2.609E-31
Si     1.290E+01     2.037E+00     4.752E+00     2.118E-15     0.000E+00     1.297E-31
Si     1.290E+01     4.752E+00     2.037E+00     4.193E-15     0.000E+00     2.568E-31
Si     1.154E+01     6.789E-01     6.110E+00     2.054E-15     0.000E+00     1.258E-31
Si     1.426E+01     6.789E-01     8.825E+00     2.040E-15     0.000E+00     1.249E-31
Si     1.154E+01     3.394E+00     8.825E+00     2.859E-15     0.000E+00     1.751E-31
Si     1.426E+01     3.394E+00     6.110E+00     2.165E-15     0.000E+00     1.325E-31
Si     1.561E+01     2.037E+00     7.468E+00     4.650E-15     0.000E+00     2.848E-31
Si     1.561E+01     4.752E+00     1.018E+01     1.427E-15     0.000E+00     8.736E-32
Si     1.290E+01     2.037E+00     1.018E+01     1.932E-15     0.000E+00     1.183E-31
Si     1.290E+01     4.752E+00     7.468E+00     3.529E-15     0.000E+00     2.161E-31
Si     1.154E+01     6.789E-01     1.154E+01     2.518E-15     0.000E+00     1.542E-31
Si     1.426E+01     6.789E-01     1.426E+01     2.342E-15     0.000E+00     1.434E-31
Si     1.154E+01     3.394E+00     1.426E+01     2.952E-15     0.000E+00     1.808E-31
Si     1.426E+01     3.394E+00     1.154E+01     1.624E-15     0.000E+00     9.944E-32
Si     1.561E+01     2.037E+00     1.290E+01     2.588E-15     0.000E+00     1.585E-31
Si     1.561E+01     4.752E+00     1.561E+01     5.263E-15     0.000E+00     3.223E-31
Si     1.290E+01     2.037E+00     1.561E+01     2.486E-15     0.000E+00     1.522E-31
Si     1.290E+01     4.752E+00     1.290E+01     2.267E-15     0.000E+00     1.388E-31
Si     1.154E+01     6.110E+00     6.789E-01     4.277E-15     0.000E+00     2.619E-31
Si     1.426E+01     6.110E+00     3.394E+00     3.585E-15     0.000E+00     2.195E-31
Si     1.154E+01     8.825E+00     3.394E+00     2.480E-15     0.000E+00     1.519E-31
Si     1.426E+01     8.825E+00     6.789E-01     3.841E-15     0.000E+00     2.352E-31
Si     1.561E+01     7.468E+00     2.037E+00     6.748E-15     0.000E+00     4.132E-31
Si     1.561E+01     1.018E+01     4.752E+00     2.400E-15     0.000E+00     1.469E-31
Si     1.290E+01     7.468E+00     4.752E+00     1.964E-15     0.000E+00     1.202E-31
Si     1.290E+01     1.018E+01     2.037E+00     3.279E-15     0.000E+00     2.008E-31
Si     1.154E+01     6.110E+00     6.110E+00     3.434E-15     0.000E+00     2.103E-31
Si     1.426E+01     6.110E+00     8.825E+00     2.348E-15     0.000E+00     1.438E-31
Si     1.154E+01     8.825E+00     8.825E+00     3.076E-15     0.000E+00     1.884E-31
Si     1.426E+01     8.825E+00     6.110E+00     2.753E-15     0.000E+00     1.685E-31
Si     1.561E+01     7.468E+00     7.468E+00     1.022E-15     0.000E+00     6.261E-32
Si     1.561E+01     1.018E+01     1.018E+01     4.177E-15     0.000E+00     2.558E-31
Si     1.290E+01     7.468E+00     1.018E+01     4.320E-15     0.000E+00     2.645E-31
Si     1.290E+01     1.018E+01     7.468E+00     3.438E-15     0.000E+00     2.105E-31
Si     1.154E+01     6.110E+00     1.154E+01     3.679E-15     0.000E+00     2.253E-31
Si     1.426E+01     6.110E+00     1.426E+01     2.163E-15     0.000E+00     1.324E-31
Si     1.154E+01     8.825E+00     1.426E+01     3.735E-15     0.000E+00     2.287E-31
Si     1.426E+01     8.825E+00     1.154E+01     2.951E-15     0.000E+00     1.807E-31
Si     1.561E+01     7.468E+00     1.290E+01     1.569E-15     0.000E+00     9.607E-32
Si     1.561E+01     1.018E+01     1.561E+01     2.874E-15     0.000E+00     1.760E-31
Si     1.290E+01     7.468E+00     1.561E+01     1.447E-15     0.000E+00     8.858E-32
Si     1.290E+01     1.018E+01     1.290E+01     3.134E-15     0.000E+00     1.919E-31
Si     1.154E+01     1.154E+01     6.789E-01     3.391E-15     0.000E+00     2.076E-31
Si     1.426E+01     1.154E+01     3.394E+00     2.100E-15     0.000E+00     1.286E-31
Si     1.154E+01     1.426E+01     3.394E+00     3.211E-15     0.000E+00     1.966E-31
Si     1.426E+01     1.426E+01     6.789E-01     3.761E-15     0.000E+00     2.303E-31
Si     1.561E+01     1.290E+01     2.037E+00     3.622E-15     0.000E+00     2.218E-31
Si     1.561E+01     1.561E+01     4.752E+00     2.377E-15     0.000E+00     1.455E-31
Si     1.290E+01     1.290E+01     4.752E+00     2.836E-15     0.000E+00     1.737E-31
Si     1.290E+01     1.561E+01     2.037E+00     1.503E-15     0.000E+00     9.202E-32
Si     1.154E+01     1.154E+01     6.110E+00     2.329E-15     0.000E+00     1.426E-31
Si     1.426E+01     1.154E+01     8.825E+00     2.336E-15     0.000E+00     1.430E-31
Si     1.154E+01     1.426E+01     8.825E+00     5.176E-15     0.000E+00     3.169E-31
Si     1.426E+01     1.426E+01     6.110E+00     4.961E-15     0.000E+00     3.038E-31
Si     1.561E+01     1.290E+01     7.468E+00     3.189E-15     0.000E+00     1.953E-31
Si     1.561E+01     1.561E+01     1.018E+01     3.451E-15     0.000E+00     2.113E-31
Si     1.290E+01     1.290E+01     1.018E+01     4.069E-15     0.000E+00     2.491E-31
Si     1.290E+01     1.561E+01     7.468E+00     2.587E-15     0.000E+00     1.584E-31
Si     1.154E+01     1.154E+01     1.154E+01     3.841E-15     0.000E+00     2.352E-31
Si     1.426E+01     1.154E+01     1.426E+01     3.214E-15     0.000E+00     1.968E-31
Si     1.154E+01     1.426E+01     1.426E+01     3.070E-15     0.000E+00     1.880E-31
Si     1.426E+01     1.426E+01     1.154E+01     1.173E-15     0.000E+00     7.182E-32
Si     1.561E+01     1.290E+01     1.290E+01     2.596E-15     0.000E+00     1.590E-31
Si     1.561E+01     1.561E+01     1.561E+01     1.748E-15     0.000E+00     1.070E-31
Si     1.290E+01     1.290E+01     1.561E+01     3.343E-15     0.000E+00     2.047E-31
Si     1.290E+01     1.561E+01     1.290E+01     4.441E-15     0.000E+00     2.719E-31
