384 

Si    0.67887   0.67887   0.67888   0.000001281803727   0.000001281803649  -0.000002037202556
Si    3.39437   0.67887   3.39437   0.000002608717006   0.000003587237434  -0.000001083676036
Si    0.67887   3.39437   3.39437   0.000003587237533   0.000002608716983  -0.000001083676029
Si    3.39437   3.39437   0.67888   0.000001900847459   0.000001900847395   0.000002695251791
Si    4.75212   2.03662   2.03662   0.000002394685697   0.000004016284289  -0.000000718654854
Si    4.75212   4.75212   4.75213  -0.000003474442960  -0.000003474442987   0.000007808975530
Si    2.03662   2.03662   4.75213  -0.000003706201544  -0.000003706201599   0.000003985027913
Si    2.03662   4.75212   2.03662   0.000004016284319   0.000002394685657  -0.000000718654863
Si    0.67887   0.67887   6.10987   0.000003757772473   0.000003757772420   0.000001495331223
Si    3.39437   0.67887   8.82538   0.000000730388163   0.000003022019594   0.000001184449403
Si    0.67887   3.39437   8.82538   0.000003022019649   0.000000730388101   0.000001184449373
Si    3.39437   3.39437   6.10987  -0.000010563417847  -0.000010563417894  -0.000001447446892
Si    4.75212   2.03662   7.46762   0.000004119243760  -0.000005162472758  -0.000001917077241
Si    4.75212   4.75212  10.18313   0.000001750504226   0.000001750504165   0.000000441933897
Si    2.03662   2.03662  10.18313   0.000000220388364   0.000000220388292   0.000000614741292
Si    2.03662   4.75212   7.46762  -0.000005162472710   0.000004119243666  -0.000001917077240
Si    0.67887   0.67887  11.54087   0.000002860835208   0.000002860835121  -0.000000495461149
Si    3.39437   0.67887  14.25638  -0.000004492866713   0.000009808162773   0.000001135192943
Si    0.67887   3.39437  14.25638   0.000009808162817  -0.000004492866769   0.000001135192941
Si    3.39437   3.39437  11.54087   0.000001510546618   0.000001510546584  -0.000002296438724
Si    4.75212   2.03662  12.89863   0.000002969646715  -0.000005232351013   0.000002382563370
Si    4.75212   4.75212  15.61412  -0.000003111678217  -0.000003111678269  -0.000009761123034
Si    2.03662   2.03662  15.61412  -0.000003150291030  -0.000003150291099  -0.000004418816178
Si    2.03662   4.75212  12.89863  -0.000005232350953   0.000002969646667   0.000002382563365
Si    0.67887   6.10987   0.67888   0.000003247919610   0.000001598367675   0.000003692460401
Si    3.39437   6.10987   3.39437   0.000003043235930   0.000002632157071  -0.000001196926066
Si    0.67887   8.82537   3.39437  -0.000000521793893   0.000001316672933  -0.000003861820865
Si    3.39437   8.82537   0.67888   0.000001759998064   0.000003557303138  -0.000000677555500
Si    4.75212   7.46762   2.03662   0.000000726135212   0.000000836658499   0.000000482956475
Si    4.75212  10.18313   4.75213  -0.000003439772965  -0.000001314958141   0.000005274478289
Si    2.03662   7.46762   4.75213  -0.000000257481375   0.000004586512441   0.000000839763085
Si    2.03662  10.18313   2.03662  -0.000002062053376   0.000003961269917   0.000000656899795
Si    0.67887   6.10987   6.10987   0.000003405097448  -0.000001279693270  -0.000002810570974
Si    3.39437   6.10987   8.82538   0.000004268721752   0.000002504535368   0.000001442608210
Si    0.67887   8.82537   8.82538   0.000000745702830   0.000002521275375   0.000003462385206
Si    3.39437   8.82537   6.10987  -0.000009600910937  -0.000000526160431   0.000000085787575
Si    4.75212   7.46762   7.46762   0.000000032518775   0.000002878614825   0.000003684124836
Si    4.75212  10.18313  10.18313   0.000005523956409   0.000001952468723   0.000000269303990
Si    2.03662   7.46762  10.18313  -0.000000529027945   0.000003107750666  -0.000000338215846
Si    2.03662  10.18313   7.46762  -0.000001420461246  -0.000001124527856  -0.000001265556965
Si    0.67887   6.10987  11.54087   0.000003363345291   0.000002310416562  -0.000001375414823
Si    3.39437   6.10987  14.25638  -0.000004699654953   0.000004823934085  -0.000000573782647
Si    0.67887   8.82537  14.25638  -0.000000996930740  -0.000001398237325   0.000001354075062
Si    3.39437   8.82537  11.54087   0.000003258737713   0.000003255581291  -0.000000015153827
Si    4.75212   7.46762  12.89863  -0.000000521261531   0.000003898748333  -0.000002402691472
Si    4.75212  10.18313  15.61412  -0.000004604459653  -0.000000598707566  -0.000004199084799
Si    2.03662   7.46762  15.61412  -0.000000159490681   0.000004791661744  -0.000001169194231
Si    2.03662  10.18313  12.89863  -0.000000597169634  -0.000001105424720   0.000001802574410
Si    0.67887  11.54087   0.67888   0.000003666918298   0.000001916087113   0.000002164993705
Si    3.39437  11.54087   3.39437  -0.000000858853625  -0.000006929130493  -0.000000191970913
Si    0.67887  14.25638   3.39437   0.000007884581960   0.000000063610842  -0.000003129422564
Si    3.39437  14.25638   0.67888  -0.000002714137290   0.000000906146635   0.000001457388861
Si    4.75212  12.89862   2.03662  -0.000001111531523   0.000002947406318   0.000001644185504
Si    4.75212  15.61412   4.75213   0.000001320239423   0.000001466071008   0.000007782928293
Si    2.03662  12.89862   4.75213   0.000003666956753  -0.000002046977027   0.000000756339431
Si    2.03662  15.61412   2.03662  -0.000002016566460   0.000003654734549   0.000002009530236
Si    0.67887  11.54087   6.10987  -0.000001184008858   0.000001112746453  -0.000001851280213
Si    3.39437  11.54087   8.82538  -0.000001656162991  -0.000006554722760  -0.000001413102149
Si    0.67887  14.25638   8.82538   0.000008845351599   0.000001885187196   0.000004989196842
Si    3.39437  14.25638   6.10987  -0.000003938340416   0.000005515272918  -0.000000072566097
Si    4.75212  12.89862   7.46762   0.000005902474407  -0.000002114014804  -0.000003602201704
Si    4.75212  15.61412  10.18313  -0.000001518792053  -0.000003689372430  -0.000001825965423
Si    2.03662  12.89862  10.18313  -0.000004907363054   0.000004907682457  -0.000001286698279
Si    2.03662  15.61412   7.46762   0.000004459237074   0.000002931577173  -0.000002112065465
Si    0.67887  11.54087  11.54087   0.000003427136070   0.000000686270605  -0.000002685080498
Si    3.39437  11.54087  14.25638   0.000004752632809  -0.000013573640557   0.000002268719822
Si    0.67887  14.25638  14.25638   0.000005156075649   0.000007420733692  -0.000000605930703
Si    3.39437  14.25638  11.54087  -0.000004307688463  -0.000000503940524  -0.000001534866593
Si    4.75212  12.89862  12.89863   0.000007064933417  -0.000002148921144   0.000003793918176
Si    4.75212  15.61412  15.61412   0.000001655619885  -0.000000001847981  -0.000007840399928
Si    2.03662  12.89862  15.61412   0.000002719327597  -0.000003002629261  -0.000000018593593
Si    2.03662  15.61412  12.89863   0.000004663329326   0.000003060356953   0.000002574529684
Si    0.67887  16.97187   0.67888  -0.000003722532989   0.000000979397862  -0.000004443158906
Si    3.39437  16.97187   3.39437  -0.000003170480166   0.000004328093551  -0.000001258307608
Si    0.67887  19.68738   3.39437  -0.000003991316545   0.000005373420846  -0.000007751248543
Si    3.39437  19.68738   0.67888  -0.000000659038248   0.000004593996881   0.000002373932219
Si    4.75212  18.32963   2.03662   0.000011993033378  -0.000003246804932   0.000000146402705
Si    4.75212  21.04512   4.75213  -0.000000426983949   0.000003412750588  -0.000004597001704
Si    2.03662  18.32963   4.75213  -0.000005132298866   0.000002094694770   0.000001679073394
Si    2.03662  21.04512   2.03662   0.000000693710931   0.000001857699095  -0.000000876848900
Si    0.67887  16.97187   6.10987   0.000001617495543   0.000000528508661  -0.000000202160217
Si    3.39437  16.97187   8.82538  -0.000003406096546   0.000003354058588   0.000001781361871
Si    0.67887  19.68738   8.82538  -0.000004440768098   0.000005170607996   0.000006936105243
Si    3.39437  19.68738   6.10987   0.000001520750035  -0.000001617447497  -0.000000045891145
Si    4.75212  18.32963   7.46762  -0.000003354058554   0.000003406096563  -0.000001781361860
Si    4.75212  21.04512  10.18313  -0.000000528508615  -0.000001617495478   0.000000202160183
Si    2.03662  18.32963  10.18313   0.000001617447546  -0.000001520749968   0.000000045891169
Si    2.03662  21.04512   7.46762  -0.000005170607949   0.000004440768149  -0.000006936105222
Si    0.67887  16.97187  11.54087  -0.000003412750591   0.000000426984019   0.000004597001710
Si    3.39437  16.97187  14.25638   0.000003246804984  -0.000011993033322  -0.000000146402717
Si    0.67887  19.68738  14.25638  -0.000001857699065  -0.000000693710878   0.000000876848890
Si    3.39437  19.68738  11.54087  -0.000002094694729   0.000005132298923  -0.000001679073400
Si    4.75212  18.32963  12.89863  -0.000004328093479   0.000003170480209   0.000001258307623
Si    4.75212  21.04512  15.61412  -0.000000979397844   0.000003722533062   0.000004443158929
Si    2.03662  18.32963  15.61412  -0.000004593996833   0.000000659038268  -0.000002373932208
Si    2.03662  21.04512  12.89863  -0.000005373420789   0.000003991316582   0.000007751248529
Si    6.10987   0.67887   0.67888   0.000001598367731   0.000003247919523   0.000003692460406
Si    8.82537   0.67887   3.39437   0.000001316672997  -0.000000521793946  -0.000003861820871
Si    6.10987   3.39437   3.39437   0.000002632157106   0.000003043235906  -0.000001196926069
Si    8.82537   3.39437   0.67888   0.000003557303155   0.000001759998010  -0.000000677555495
Si   10.18313   2.03662   2.03662   0.000003961270015  -0.000002062053443   0.000000656899810
Si   10.18313   4.75212   4.75213  -0.000001314958102  -0.000003439772964   0.000005274478330
Si    7.46762   2.03662   4.75213   0.000004586512519  -0.000000257481421   0.000000839763083
Si    7.46762   4.75212   2.03662   0.000000836658553   0.000000726135158   0.000000482956454
Si    6.10987   0.67887   6.10987  -0.000001279693243   0.000003405097417  -0.000002810571011
Si    8.82537   0.67887   8.82538   0.000002521275437   0.000000745702781   0.000003462385184
Si    6.10987   3.39437   8.82538   0.000002504535381   0.000004268721680   0.000001442608218
Si    8.82537   3.39437   6.10987  -0.000000526160372  -0.000009600910972   0.000000085787588
Si   10.18313   2.03662   7.46762  -0.000001124527764  -0.000001420461289  -0.000001265556974
Si   10.18313   4.75212  10.18313   0.000001952468795   0.000005523956368   0.000000269303989
Si    7.46762   2.03662  10.18313   0.000003107750708  -0.000000529028005  -0.000000338215817
Si    7.46762   4.75212   7.46762   0.000002878614877   0.000000032518727   0.000003684124854
Si    6.10987   0.67887  11.54087   0.000002310416624   0.000003363345223  -0.000001375414812
Si    8.82537   0.67887  14.25638  -0.000001398237276  -0.000000996930786   0.000001354075078
Si    6.10987   3.39437  14.25638   0.000004823934127  -0.000004699655013  -0.000000573782679
Si    8.82537   3.39437  11.54087   0.000003255581352   0.000003258737680  -0.000000015153832
Si   10.18313   2.03662  12.89863  -0.000001105424695  -0.000000597169671   0.000001802574422
Si   10.18313   4.75212  15.61412  -0.000000598707499  -0.000004604459672  -0.000004199084763
Si    7.46762   2.03662  15.61412   0.000004791661801  -0.000000159490739  -0.000001169194234
Si    7.46762   4.75212  12.89863   0.000003898748419  -0.000000521261586  -0.000002402691441
Si    6.10987   6.10987   0.67888   0.000003352518145   0.000003352518098   0.000002699763036
Si    8.82537   6.10987   3.39437   0.000000367405338   0.000003579162553  -0.000000297367282
Si    6.10987   8.82537   3.39437   0.000003579162604   0.000000367405232  -0.000000297367270
Si    8.82537   8.82537   0.67888   0.000000708512627   0.000000708512558   0.000004726566012
Si   10.18313   7.46762   2.03662  -0.000003321726107   0.000003980435038  -0.000001227665117
Si   10.18313  10.18313   4.75213  -0.000001111223974  -0.000001111224025   0.000003572624569
Si    7.46762   7.46762   4.75213  -0.000003007393528  -0.000003007393588   0.000002069044502
Si    7.46762  10.18313   2.03662   0.000003980435071  -0.000003321726162  -0.000001227665089
Si    6.10987   6.10987   6.10987   0.000004516991849   0.000004516991795   0.000002831017620
Si    8.82537   6.10987   8.82538  -0.000000431650413   0.000003474082789  -0.000000418971324
Si    6.10987   8.82537   8.82538   0.000003474082841  -0.000000431650453  -0.000000418971291
Si    8.82537   8.82537   6.10987   0.000001958445382   0.000001958445357  -0.000001002886055
Si   10.18313   7.46762   7.46762  -0.000003008568440  -0.000003539825805   0.000000434677340
Si   10.18313  10.18313  10.18313   0.000002747558816   0.000002747558745   0.000001985227536
Si    7.46762   7.46762  10.18313  -0.000013154276910  -0.000013154276949  -0.000000486241093
Si    7.46762  10.18313   7.46762  -0.000003539825746  -0.000003008568519   0.000000434677364
Si    6.10987   6.10987  11.54087   0.000003755318602   0.000003755318532  -0.000002392234963
Si    8.82537   6.10987  14.25638   0.000001555359561   0.000005058331185  -0.000000269682381
Si    6.10987   8.82537  14.25638   0.000005058331269   0.000001555359490  -0.000000269682405
Si    8.82537   8.82537  11.54087   0.000001044014540   0.000001044014484  -0.000004087308616
Si   10.18313   7.46762  12.89863  -0.000003898664001  -0.000005466659435  -0.000000553112725
Si   10.18313  10.18313  15.61412  -0.000001482018323  -0.000001482018409  -0.000007141368393
Si    7.46762   7.46762  15.61412  -0.000001540117065  -0.000001540117093  -0.000001454778114
Si    7.46762  10.18313  12.89863  -0.000005466659360  -0.000003898664032  -0.000000553112744
Si    6.10987  11.54087   0.67888   0.000002110898903  -0.000001456597783   0.000005144408177
Si    8.82537  11.54087   3.39437   0.000002473456946   0.000000600745353  -0.000002728836790
Si    6.10987  14.25638   3.39437  -0.000001678659124   0.000004618735267   0.000000172792430
Si    8.82537  14.25638   0.67888  -0.000002204169779   0.000000886955065   0.000002204530023
Si   10.18313  12.89862   2.03662   0.000007662074235   0.000006395653233  -0.000000720754284
Si   10.18313  15.61412   4.75213   0.000000872253073  -0.000001752112759   0.000005116140467
Si    7.46762  12.89862   4.75213  -0.000001299152801   0.000001773589088   0.000001933603443
Si    7.46762  15.61412   2.03662  -0.000007768234323  -0.000001801589804  -0.000000711402192
Si    6.10987  11.54087   6.10987   0.000000590030368  -0.000000774368342   0.000000513507503
Si    8.82537  11.54087   8.82538   0.000001395194732   0.000000466817271   0.000003714062674
Si    6.10987  14.25638   8.82538  -0.000001237380209   0.000004705410881  -0.000001351151194
Si    8.82537  14.25638   6.10987  -0.000004178038777  -0.000001195139717  -0.000000771561100
Si   10.18313  12.89862   7.46762  -0.000000466817229  -0.000001395194657  -0.000003714062700
Si   10.18313  15.61412  10.18313   0.000000774368402  -0.000000590030299  -0.000000513507480
Si    7.46762  12.89862  10.18313   0.000001195139765   0.000004178038812   0.000000771561095
Si    7.46762  15.61412   7.46762  -0.000004705410815   0.000001237380275   0.000001351151190
Si    6.10987  11.54087  11.54087   0.000001752112789  -0.000000872252989  -0.000005116140460
Si    8.82537  11.54087  14.25638  -0.000006395653207  -0.000007662074172   0.000000720754258
Si    6.10987  14.25638  14.25638   0.000001801589846   0.000007768234359   0.000000711402215
Si    8.82537  14.25638  11.54087  -0.000001773589025   0.000001299152843  -0.000001933603440
Si   10.18313  12.89862  12.89863  -0.000000600745305  -0.000002473456898   0.000002728836789
Si   10.18313  15.61412  15.61412   0.000001456597828  -0.000002110898842  -0.000005144408174
Si    7.46762  12.89862  15.61412  -0.000000886955004   0.000002204169850  -0.000002204530003
Si    7.46762  15.61412  12.89863  -0.000004618735225   0.000001678659179  -0.000000172792449
Si    6.10987  16.97187   0.67888   0.000000001848058  -0.000001655619847   0.000007840399941
Si    8.82537  16.97187   3.39437   0.000002148921180  -0.000007064933335  -0.000003793918171
Si    6.10987  19.68738   3.39437  -0.000003060356945  -0.000004663329256  -0.000002574529701
Si    8.82537  19.68738   0.67888   0.000003002629320  -0.000002719327530   0.000000018593589
Si   10.18313  18.32963   2.03662   0.000013573640650  -0.000004752632763  -0.000002268719801
Si   10.18313  21.04512   4.75213  -0.000000686270537  -0.000003427136037   0.000002685080504
Si    7.46762  18.32963   4.75213   0.000000503940574   0.000004307688540   0.000001534866590
Si    7.46762  21.04512   2.03662  -0.000007420733658  -0.000005156075637   0.000000605930720
Si    6.10987  16.97187   6.10987   0.000003689372463   0.000001518792108   0.000001825965419
Si    8.82537  16.97187   8.82538   0.000002114014865  -0.000005902474380   0.000003602201723
Si    6.10987  19.68738   8.82538  -0.000002931577127  -0.000004459237035   0.000002112065457
Si    8.82537  19.68738   6.10987  -0.000004907682412   0.000004907363137   0.000001286698251
Si   10.18313  18.32963   7.46762   0.000006554722802   0.000001656163038   0.000001413102163
Si   10.18313  21.04512  10.18313  -0.000001112746388   0.000001184008914   0.000001851280229
Si    7.46762  18.32963  10.18313  -0.000005515272849   0.000003938340484   0.000000072566083
Si    7.46762  21.04512   7.46762  -0.000001885187118  -0.000008845351524  -0.000004989196839
Si    6.10987  16.97187  11.54087  -0.000001466070980  -0.000001320239383  -0.000007782928286
Si    8.82537  16.97187  14.25638  -0.000002947406310   0.000001111531589  -0.000001644185544
Si    6.10987  19.68738  14.25638  -0.000003654734511   0.000002016566499  -0.000002009530187
Si    8.82537  19.68738  11.54087   0.000002046977101  -0.000003666956677  -0.000000756339419
Si   10.18313  18.32963  12.89863   0.000006929130560   0.000000858853698   0.000000191970875
Si   10.18313  21.04512  15.61412  -0.000001916087078  -0.000003666918237  -0.000002164993685
Si    7.46762  18.32963  15.61412  -0.000000906146575   0.000002714137302  -0.000001457388881
Si    7.46762  21.04512  12.89863  -0.000000063610782  -0.000007884581922   0.000003129422588
Si   11.54087   0.67887   0.67888   0.000001916087164   0.000003666918246   0.000002164993715
Si   14.25638   0.67887   3.39437   0.000000063610900   0.000007884581867  -0.000003129422577
Si   11.54087   3.39437   3.39437  -0.000006929130472  -0.000000858853666  -0.000000191970879
Si   14.25638   3.39437   0.67888   0.000000906146670  -0.000002714137323   0.000001457388870
Si   15.61412   2.03662   2.03662   0.000003654734608  -0.000002016566505   0.000002009530218
Si   15.61412   4.75212   4.75213   0.000001466071057   0.000001320239416   0.000007782928317
Si   12.89862   2.03662   4.75213  -0.000002046976983   0.000003666956683   0.000000756339432
Si   12.89862   4.75212   2.03662   0.000002947406400  -0.000001111531571   0.000001644185514
Si   11.54087   0.67887   6.10987   0.000001112746489  -0.000001184008931  -0.000001851280237
Si   14.25638   0.67887   8.82538   0.000001885187255   0.000008845351553   0.000004989196841
Si   11.54087   3.39437   8.82538  -0.000006554722707  -0.000001656163064  -0.000001413102144
Si   14.25638   3.39437   6.10987   0.000005515272956  -0.000003938340499  -0.000000072566090
Si   15.61412   2.03662   7.46762   0.000002931577228   0.000004459237020  -0.000002112065479
Si   15.61412   4.75212  10.18313  -0.000003689372366  -0.000001518792106  -0.000001825965451
Si   12.89862   2.03662  10.18313   0.000004907682520  -0.000004907363092  -0.000001286698226
Si   12.89862   4.75212   7.46762  -0.000002114014764   0.000005902474354  -0.000003602201707
Si   11.54087   0.67887  11.54087   0.000000686270641   0.000003427136004  -0.000002685080483
Si   14.25638   0.67887  14.25638   0.000007420733766   0.000005156075598  -0.000000605930745
Si   11.54087   3.39437  14.25638  -0.000013573640510   0.000004752632791   0.000002268719794
Si   14.25638   3.39437  11.54087  -0.000000503940490  -0.000004307688486  -0.000001534866591
Si   15.61412   2.03662  12.89863   0.000003060357034   0.000004663329263   0.000002574529680
Si   15.61412   4.75212  15.61412  -0.000000001847922   0.000001655619823  -0.000007840399933
Si   12.89862   2.03662  15.61412  -0.000003002629200   0.000002719327541  -0.000000018593613
Si   12.89862   4.75212  12.89863  -0.000002148921072   0.000007064933332   0.000003793918187
Si   11.54087   6.10987   0.67888  -0.000001456597754   0.000002110898854   0.000005144408164
Si   14.25638   6.10987   3.39437   0.000004618735331  -0.000001678659190   0.000000172792435
Si   11.54087   8.82537   3.39437   0.000000600745379   0.000002473456850  -0.000002728836759
Si   14.25638   8.82537   0.67888   0.000000886955107  -0.000002204169832   0.000002204530050
Si   15.61412   7.46762   2.03662  -0.000001801589737  -0.000007768234358  -0.000000711402199
Si   15.61412  10.18313   4.75213  -0.000001752112682   0.000000872253042   0.000005116140444
Si   12.89862   7.46762   4.75213   0.000001773589120  -0.000001299152865   0.000001933603456
Si   12.89862  10.18313   2.03662   0.000006395653316   0.000007662074177  -0.000000720754288
Si   11.54087   6.10987   6.10987  -0.000000774368317   0.000000590030334   0.000000513507506
Si   14.25638   6.10987   8.82538   0.000004705410927  -0.000001237380253  -0.000001351151203
Si   11.54087   8.82537   8.82538   0.000000466817345   0.000001395194661   0.000003714062690
Si   14.25638   8.82537   6.10987  -0.000001195139654  -0.000004178038809  -0.000000771561142
Si   15.61412   7.46762   7.46762   0.000001237380301  -0.000004705410855   0.000001351151208
Si   15.61412  10.18313  10.18313  -0.000000590030258   0.000000774368350  -0.000000513507494
Si   12.89862   7.46762  10.18313   0.000004178038885   0.000001195139704   0.000000771561114
Si   12.89862  10.18313   7.46762  -0.000001395194622  -0.000000466817315  -0.000003714062709
Si   11.54087   6.10987  11.54087  -0.000000872252988   0.000001752112721  -0.000005116140480
Si   14.25638   6.10987  14.25638   0.000007768234412   0.000001801589802   0.000000711402244
Si   11.54087   8.82537  14.25638  -0.000007662074137  -0.000006395653232   0.000000720754261
Si   14.25638   8.82537  11.54087   0.000001299152925  -0.000001773589089  -0.000001933603434
Si   15.61412   7.46762  12.89863   0.000001678659264  -0.000004618735274  -0.000000172792432
Si   15.61412  10.18313  15.61412  -0.000002110898789   0.000001456597737  -0.000005144408175
Si   12.89862   7.46762  15.61412   0.000002204169886  -0.000000886955032  -0.000002204530030
Si   12.89862  10.18313  12.89863  -0.000002473456804  -0.000000600745352   0.000002728836779
Si   11.54087  11.54087   0.67888   0.000001482018415   0.000001482018381   0.000007141368395
Si   14.25638  11.54087   3.39437   0.000005466659482   0.000003898664049   0.000000553112727
Si   11.54087  14.25638   3.39437   0.000003898664065   0.000005466659400   0.000000553112726
Si   14.25638  14.25638   0.67888   0.000001540117177   0.000001540117135   0.000001454778110
Si   15.61412  12.89862   2.03662  -0.000005058331146  -0.000001555359490   0.000000269682383
Si   15.61412  15.61412   4.75213  -0.000003755318469  -0.000003755318556   0.000002392234938
Si   12.89862  12.89862   4.75213  -0.000001044014448  -0.000001044014500   0.000004087308640
Si   12.89862  15.61412   2.03662  -0.000001555359405  -0.000005058331189   0.000000269682408
Si   11.54087  11.54087   6.10987  -0.000002747558703  -0.000002747558772  -0.000001985227521
Si   14.25638  11.54087   8.82538   0.000003539825866   0.000003008568466  -0.000000434677383
Si   11.54087  14.25638   8.82538   0.000003008568540   0.000003539825819  -0.000000434677377
Si   14.25638  14.25638   6.10987   0.000013154277017   0.000013154276968   0.000000486241109
Si   15.61412  12.89862   7.46762  -0.000003474082712   0.000000431650458   0.000000418971325
Si   15.61412  15.61412  10.18313  -0.000004516991733  -0.000004516991775  -0.000002831017573
Si   12.89862  12.89862  10.18313  -0.000001958445288  -0.000001958445364   0.000001002886012
Si   12.89862  15.61412   7.46762   0.000000431650507  -0.000003474082771   0.000000418971308
Si   11.54087  11.54087  11.54087   0.000001111224075   0.000001111224054  -0.000003572624591
Si   14.25638  11.54087  14.25638  -0.000003980434981   0.000003321726190   0.000001227665097
Si   11.54087  14.25638  14.25638   0.000003321726220  -0.000003980435030   0.000001227665113
Si   14.25638  14.25638  11.54087   0.000003007393656   0.000003007393568  -0.000002069044511
Si   15.61412  12.89862  12.89863  -0.000003579162494  -0.000000367405270   0.000000297367289
Si   15.61412  15.61412  15.61412  -0.000003352518015  -0.000003352518054  -0.000002699763051
Si   12.89862  12.89862  15.61412  -0.000000708512510  -0.000000708512574  -0.000004726566004
Si   12.89862  15.61412  12.89863  -0.000000367405213  -0.000003579162580   0.000000297367276
Si   11.54087  16.97187   0.67888   0.000000598707609   0.000004604459693   0.000004199084805
Si   14.25638  16.97187   3.39437  -0.000003898748282   0.000000521261605   0.000002402691447
Si   11.54087  19.68738   3.39437   0.000001105424796   0.000000597169683  -0.000001802574422
Si   14.25638  19.68738   0.67888  -0.000004791661689   0.000000159490751   0.000001169194222
Si   15.61412  18.32963   2.03662  -0.000004823934032   0.000004699655004   0.000000573782685
Si   15.61412  21.04512   4.75213  -0.000002310416528  -0.000003363345278   0.000001375414828
Si   12.89862  18.32963   4.75213  -0.000003255581212  -0.000003258737612   0.000000015153844
Si   12.89862  21.04512   2.03662   0.000001398237408   0.000000996930793  -0.000001354075097
Si   11.54087  16.97187   6.10987  -0.000001952468682  -0.000005523956374  -0.000000269304004
Si   14.25638  16.97187   8.82538  -0.000002878614766  -0.000000032518755  -0.000003684124836
Si   11.54087  19.68738   8.82538   0.000001124527884   0.000001420461313   0.000001265556966
Si   14.25638  19.68738   6.10987  -0.000003107750586   0.000000529028035   0.000000338215840
Si   15.61412  18.32963   7.46762  -0.000002504535300  -0.000004268721725  -0.000001442608206
Si   15.61412  21.04512  10.18313   0.000001279693339  -0.000003405097434   0.000002810570981
Si   12.89862  18.32963  10.18313   0.000000526160459   0.000009600910979  -0.000000085787577
Si   12.89862  21.04512   7.46762  -0.000002521275331  -0.000000745702756  -0.000003462385188
Si   11.54087  16.97187  11.54087   0.000001314958188   0.000003439773038  -0.000005274478277
Si   14.25638  16.97187  14.25638  -0.000000836658430  -0.000000726135160  -0.000000482956484
Si   11.54087  19.68738  14.25638  -0.000003961269889   0.000002062053457  -0.000000656899771
Si   14.25638  19.68738  11.54087  -0.000004586512390   0.000000257481450  -0.000000839763075
Si   15.61412  18.32963  12.89863  -0.000002632157012  -0.000003043235873   0.000001196926074
Si   15.61412  21.04512  15.61412  -0.000001598367616  -0.000003247919513  -0.000003692460377
Si   12.89862  18.32963  15.61412  -0.000003557303043  -0.000001759998025   0.000000677555502
Si   12.89862  21.04512  12.89863  -0.000001316672885   0.000000521793912   0.000003861820883
Si   16.97187   0.67887   0.67888   0.000000979397924  -0.000003722533034  -0.000004443158926
Si   19.68738   0.67887   3.39437   0.000005373420873  -0.000003991316631  -0.000007751248513
Si   16.97187   3.39437   3.39437   0.000004328093573  -0.000003170480190  -0.000001258307601
Si   19.68738   3.39437   0.67888   0.000004593996931  -0.000000659038270   0.000002373932218
Si   21.04512   2.03662   2.03662   0.000001857699187   0.000000693710874  -0.000000876848861
Si   21.04512   4.75212   4.75213   0.000003412750683  -0.000000426983956  -0.000004597001692
Si   18.32963   2.03662   4.75213   0.000002094694808  -0.000005132298907   0.000001679073413
Si   18.32963   4.75212   2.03662  -0.000003246804888   0.000011993033344   0.000000146402678
Si   16.97187   0.67887   6.10987   0.000000528508701   0.000001617495492  -0.000000202160203
Si   19.68738   0.67887   8.82538   0.000005170608059  -0.000004440768157   0.000006936105249
Si   16.97187   3.39437   8.82538   0.000003354058646  -0.000003406096585   0.000001781361871
Si   19.68738   3.39437   6.10987  -0.000001617447439   0.000001520749974  -0.000000045891156
Si   21.04512   2.03662   7.46762   0.000004440768226  -0.000005170607974  -0.000006936105226
Si   21.04512   4.75212  10.18313  -0.000001617495420  -0.000000528508681   0.000000202160184
Si   18.32963   2.03662  10.18313  -0.000001520749919   0.000001617447494   0.000000045891156
Si   18.32963   4.75212   7.46762   0.000003406096653  -0.000003354058619  -0.000001781361864
Si   16.97187   0.67887  11.54087   0.000000426984048  -0.000003412750638   0.000004597001733
Si   19.68738   0.67887  14.25638  -0.000000693710806  -0.000001857699145   0.000000876848848
Si   16.97187   3.39437  14.25638  -0.000011993033307   0.000003246804913  -0.000000146402694
Si   19.68738   3.39437  11.54087   0.000005132298990  -0.000002094694773  -0.000001679073389
Si   21.04512   2.03662  12.89863   0.000003991316640  -0.000005373420853   0.000007751248524
Si   21.04512   4.75212  15.61412   0.000003722533115  -0.000000979397869   0.000004443158929
Si   18.32963   2.03662  15.61412   0.000000659038310  -0.000004593996881  -0.000002373932221
Si   18.32963   4.75212  12.89863   0.000003170480261  -0.000004328093518   0.000001258307621
Si   16.97187   6.10987   0.67888  -0.000001655619784   0.000000001847992   0.000007840399936
Si   19.68738   6.10987   3.39437  -0.000004663329223  -0.000003060356969  -0.000002574529688
Si   16.97187   8.82537   3.39437  -0.000007064933302   0.000002148921124  -0.000003793918166
Si   19.68738   8.82537   0.67888  -0.000002719327473   0.000003002629272   0.000000018593608
Si   21.04512   7.46762   2.03662  -0.000005156075564  -0.000007420733676   0.000000605930744
Si   21.04512  10.18313   4.75213  -0.000003427135953  -0.000000686270586   0.000002685080476
Si   18.32963   7.46762   4.75213   0.000004307688548   0.000000503940493   0.000001534866585
Si   18.32963  10.18313   2.03662  -0.000004752632704   0.000013573640554  -0.000002268719796
Si   16.97187   6.10987   6.10987   0.000001518792150   0.000003689372417   0.000001825965438
Si   19.68738   6.10987   8.82538  -0.000004459236984  -0.000002931577168   0.000002112065456
Si   16.97187   8.82537   8.82538  -0.000005902474331   0.000002114014841   0.000003602201715
Si   19.68738   8.82537   6.10987   0.000004907363173  -0.000004907682469   0.000001286698232
Si   21.04512   7.46762   7.46762  -0.000008845351491  -0.000001885187183  -0.000004989196867
Si   21.04512  10.18313  10.18313   0.000001184008945  -0.000001112746429   0.000001851280237
Si   18.32963   7.46762  10.18313   0.000003938340541  -0.000005515272903   0.000000072566093
Si   18.32963  10.18313   7.46762   0.000001656163071   0.000006554722737   0.000001413102130
Si   16.97187   6.10987  11.54087  -0.000001320239345  -0.000001466071008  -0.000007782928316
Si   19.68738   6.10987  14.25638   0.000002016566565  -0.000003654734562  -0.000002009530181
Si   16.97187   8.82537  14.25638   0.000001111531625  -0.000002947406341  -0.000001644185548
Si   19.68738   8.82537  11.54087  -0.000003666956628   0.000002046977038  -0.000000756339411
Si   21.04512   7.46762  12.89863  -0.000007884581846  -0.000000063610855   0.000003129422574
Si   21.04512  10.18313  15.61412  -0.000003666918193  -0.000001916087164  -0.000002164993731
Si   18.32963   7.46762  15.61412   0.000002714137351  -0.000000906146593  -0.000001457388894
Si   18.32963  10.18313  12.89863   0.000000858853739   0.000006929130559   0.000000191970894
Si   16.97187  11.54087   0.67888   0.000004604459756   0.000000598707534   0.000004199084771
Si   19.68738  11.54087   3.39437   0.000000597169729   0.000001105424750  -0.000001802574426
Si   16.97187  14.25638   3.39437   0.000000521261661  -0.000003898748339   0.000002402691448
Si   19.68738  14.25638   0.67888   0.000000159490807  -0.000004791661721   0.000001169194219
Si   21.04512  12.89862   2.03662   0.000000996930837   0.000001398237340  -0.000001354075127
Si   21.04512  15.61412   4.75213  -0.000003363345191  -0.000002310416578   0.000001375414817
Si   18.32963  12.89862   4.75213  -0.000003258737640  -0.000003255581289   0.000000015153823
Si   18.32963  15.61412   2.03662   0.000004699655039  -0.000004823934071   0.000000573782693
Si   16.97187  11.54087   6.10987  -0.000005523956313  -0.000001952468751  -0.000000269303978
Si   19.68738  11.54087   8.82538   0.000001420461366   0.000001124527828   0.000001265556969
Si   16.97187  14.25638   8.82538  -0.000000032518672  -0.000002878614797  -0.000003684124847
Si   19.68738  14.25638   6.10987   0.000000529028070  -0.000003107750643   0.000000338215855
Si   21.04512  12.89862   7.46762  -0.000000745702716  -0.000002521275378  -0.000003462385187
Si   21.04512  15.61412  10.18313  -0.000003405097375   0.000001279693276   0.000002810571039
Si   18.32963  12.89862  10.18313   0.000009600911033   0.000000526160413  -0.000000085787592
Si   18.32963  15.61412   7.46762  -0.000004268721667  -0.000002504535331  -0.000001442608231
Si   16.97187  11.54087  11.54087   0.000003439773057   0.000001314958148  -0.000005274478280
Si   19.68738  11.54087  14.25638   0.000002062053494  -0.000003961269954  -0.000000656899780
Si   16.97187  14.25638  14.25638  -0.000000726135107  -0.000000836658508  -0.000000482956471
Si   19.68738  14.25638  11.54087   0.000000257481506  -0.000004586512464  -0.000000839763076
Si   21.04512  12.89862  12.89863   0.000000521794007  -0.000001316672961   0.000003861820881
Si   21.04512  15.61412  15.61412  -0.000003247919460  -0.000001598367632  -0.000003692460402
Si   18.32963  12.89862  15.61412  -0.000001759997979  -0.000003557303111   0.000000677555503
Si   18.32963  15.61412  12.89863  -0.000003043235841  -0.000002632157073   0.000001196926062
Si   16.97187  16.97187   0.67888   0.000003111678313   0.000003111678248   0.000009761123030
Si   19.68738  16.97187   3.39437   0.000005232351067  -0.000002969646656  -0.000002382563374
Si   16.97187  19.68738   3.39437  -0.000002969646640   0.000005232351008  -0.000002382563360
Si   19.68738  19.68738   0.67888   0.000003150291150   0.000003150291087   0.000004418816167
Si   21.04512  18.32963   2.03662  -0.000009808162743   0.000004492866776  -0.000001135192963
Si   21.04512  21.04512   4.75213  -0.000002860835124  -0.000002860835190   0.000000495461155
Si   18.32963  18.32963   4.75213  -0.000001510546537  -0.000001510546579   0.000002296438704
Si   18.32963  21.04512   2.03662   0.000004492866832  -0.000009808162813  -0.000001135192968
Si   16.97187  16.97187   6.10987  -0.000001750504083  -0.000001750504179  -0.000000441933911
Si   19.68738  16.97187   8.82538   0.000005162472816  -0.000004119243723   0.000001917077254
Si   16.97187  19.68738   8.82538  -0.000004119243645   0.000005162472753   0.000001917077237
Si   19.68738  19.68738   6.10987  -0.000000220388260  -0.000000220388327  -0.000000614741237
Si   21.04512  18.32963   7.46762  -0.000003022019537  -0.000000730388120  -0.000001184449379
Si   21.04512  21.04512  10.18313  -0.000003757772370  -0.000003757772407  -0.000001495331260
Si   18.32963  18.32963  10.18313   0.000010563417956   0.000010563417912   0.000001447446880
Si   18.32963  21.04512   7.46762  -0.000000730388060  -0.000003022019580  -0.000001184449374
Si   16.97187  16.97187  11.54087   0.000003474443050   0.000003474442996  -0.000007808975508
Si   19.68738  16.97187  14.25638  -0.000004016284217  -0.000002394685659   0.000000718654841
Si   16.97187  19.68738  14.25638  -0.000002394685578  -0.000004016284294   0.000000718654866
Si   19.68738  19.68738  11.54087   0.000003706201680   0.000003706201624  -0.000003985027902
Si   21.04512  18.32963  12.89863  -0.000003587237398  -0.000002608716929   0.000001083676031
Si   21.04512  21.04512  15.61412  -0.000001281803579  -0.000001281803654   0.000002037202569
Si   18.32963  18.32963  15.61412  -0.000001900847396  -0.000001900847447  -0.000002695251757
Si   18.32963  21.04512  12.89863  -0.000002608716897  -0.000003587237459   0.000001083676044
