5832

Si -15.61412 -15.61412 -15.61412
Si -12.89863 -15.61412 -12.89863
Si -15.61412 -12.89863 -12.89863
Si -12.89863 -12.89863 -15.61412
Si -11.54087 -14.25638 -14.25638
Si -11.54087 -11.54087 -11.54087
Si -14.25638 -14.25638 -11.54087
Si -14.25638 -11.54087 -14.25638
Si -15.61412 -15.61412 -10.18313
Si -12.89863 -15.61412 -7.46762
Si -15.61412 -12.89863 -7.46762
Si -12.89863 -12.89863 -10.18313
Si -11.54087 -14.25638 -8.82538
Si -11.54087 -11.54087 -6.10987
Si -14.25638 -14.25638 -6.10987
Si -14.25638 -11.54087 -8.82538
Si -15.61412 -15.61412 -4.75213
Si -12.89863 -15.61412 -2.03662
Si -15.61412 -12.89863 -2.03662
Si -12.89863 -12.89863 -4.75213
Si -11.54087 -14.25638 -3.39437
Si -11.54087 -11.54087 -0.67888
Si -14.25638 -14.25638 -0.67888
Si -14.25638 -11.54087 -3.39437
Si -15.61412 -10.18313 -15.61412
Si -12.89863 -10.18313 -12.89863
Si -15.61412 -7.46762 -12.89863
Si -12.89863 -7.46762 -15.61412
Si -11.54087 -8.82538 -14.25638
Si -11.54087 -6.10987 -11.54087
Si -14.25638 -8.82538 -11.54087
Si -14.25638 -6.10987 -14.25638
Si -15.61412 -10.18313 -10.18313
Si -12.89863 -10.18313 -7.46762
Si -15.61412 -7.46762 -7.46762
Si -12.89863 -7.46762 -10.18313
Si -11.54087 -8.82538 -8.82538
Si -11.54087 -6.10987 -6.10987
Si -14.25638 -8.82538 -6.10987
Si -14.25638 -6.10987 -8.82538
Si -15.61412 -10.18313 -4.75213
Si -12.89863 -10.18313 -2.03662
Si -15.61412 -7.46762 -2.03662
Si -12.89863 -7.46762 -4.75213
Si -11.54087 -8.82538 -3.39437
Si -11.54087 -6.10987 -0.67888
Si -14.25638 -8.82538 -0.67888
Si -14.25638 -6.10987 -3.39437
Si -15.61412 -4.75213 -15.61412
Si -12.89863 -4.75213 -12.89863
Si -15.61412 -2.03662 -12.89863
Si -12.89863 -2.03662 -15.61412
Si -11.54087 -3.39437 -14.25638
Si -11.54087 -0.67888 -11.54087
Si -14.25638 -3.39437 -11.54087
Si -14.25638 -0.67888 -14.25638
Si -15.61412 -4.75213 -10.18313
Si -12.89863 -4.75213 -7.46762
Si -15.61412 -2.03662 -7.46762
Si -12.89863 -2.03662 -10.18313
Si -11.54087 -3.39437 -8.82538
Si -11.54087 -0.67888 -6.10987
Si -14.25638 -3.39437 -6.10987
Si -14.25638 -0.67888 -8.82538
Si -15.61412 -4.75213 -4.75213
Si -12.89863 -4.75213 -2.03662
Si -15.61412 -2.03662 -2.03662
Si -12.89863 -2.03662 -4.75213
Si -11.54087 -3.39437 -3.39437
Si -11.54087 -0.67888 -0.67888
Si -14.25638 -3.39437 -0.67888
Si -14.25638 -0.67888 -3.39437
Si -10.18313 -15.61412 -15.61412
Si -7.46762 -15.61412 -12.89863
Si -10.18313 -12.89863 -12.89863
Si -7.46762 -12.89863 -15.61412
Si -6.10987 -14.25638 -14.25638
Si -6.10987 -11.54087 -11.54087
Si -8.82538 -14.25638 -11.54087
Si -8.82538 -11.54087 -14.25638
Si -10.18313 -15.61412 -10.18313
Si -7.46762 -15.61412 -7.46762
Si -10.18313 -12.89863 -7.46762
Si -7.46762 -12.89863 -10.18313
Si -6.10987 -14.25638 -8.82538
Si -6.10987 -11.54087 -6.10987
Si -8.82538 -14.25638 -6.10987
Si -8.82538 -11.54087 -8.82538
Si -10.18313 -15.61412 -4.75213
Si -7.46762 -15.61412 -2.03662
Si -10.18313 -12.89863 -2.03662
Si -7.46762 -12.89863 -4.75213
Si -6.10987 -14.25638 -3.39437
Si -6.10987 -11.54087 -0.67888
Si -8.82538 -14.25638 -0.67888
Si -8.82538 -11.54087 -3.39437
Si -10.18313 -10.18313 -15.61412
Si -7.46762 -10.18313 -12.89863
Si -10.18313 -7.46762 -12.89863
Si -7.46762 -7.46762 -15.61412
Si -6.10987 -8.82538 -14.25638
Si -6.10987 -6.10987 -11.54087
Si -8.82538 -8.82538 -11.54087
Si -8.82538 -6.10987 -14.25638
Si -10.18313 -10.18313 -10.18313
Si -7.46762 -10.18313 -7.46762
Si -10.18313 -7.46762 -7.46762
Si -7.46762 -7.46762 -10.18313
Si -6.10987 -8.82538 -8.82538
Si -6.10987 -6.10987 -6.10987
Si -8.82538 -8.82538 -6.10987
Si -8.82538 -6.10987 -8.82538
Si -10.18313 -10.18313 -4.75213
Si -7.46762 -10.18313 -2.03662
Si -10.18313 -7.46762 -2.03662
Si -7.46762 -7.46762 -4.75213
Si -6.10987 -8.82538 -3.39437
Si -6.10987 -6.10987 -0.67888
Si -8.82538 -8.82538 -0.67888
Si -8.82538 -6.10987 -3.39437
Si -10.18313 -4.75213 -15.61412
Si -7.46762 -4.75213 -12.89863
Si -10.18313 -2.03662 -12.89863
Si -7.46762 -2.03662 -15.61412
Si -6.10987 -3.39437 -14.25638
Si -6.10987 -0.67888 -11.54087
Si -8.82538 -3.39437 -11.54087
Si -8.82538 -0.67888 -14.25638
Si -10.18313 -4.75213 -10.18313
Si -7.46762 -4.75213 -7.46762
Si -10.18313 -2.03662 -7.46762
Si -7.46762 -2.03662 -10.18313
Si -6.10987 -3.39437 -8.82538
Si -6.10987 -0.67888 -6.10987
Si -8.82538 -3.39437 -6.10987
Si -8.82538 -0.67888 -8.82538
Si -10.18313 -4.75213 -4.75213
Si -7.46762 -4.75213 -2.03662
Si -10.18313 -2.03662 -2.03662
Si -7.46762 -2.03662 -4.75213
Si -6.10987 -3.39437 -3.39437
Si -6.10987 -0.67888 -0.67888
Si -8.82538 -3.39437 -0.67888
Si -8.82538 -0.67888 -3.39437
Si -4.75213 -15.61412 -15.61412
Si -2.03662 -15.61412 -12.89863
Si -4.75213 -12.89863 -12.89863
Si -2.03662 -12.89863 -15.61412
Si -0.67888 -14.25638 -14.25638
Si -0.67888 -11.54087 -11.54087
Si -3.39437 -14.25638 -11.54087
Si -3.39437 -11.54087 -14.25638
Si -4.75213 -15.61412 -10.18313
Si -2.03662 -15.61412 -7.46762
Si -4.75213 -12.89863 -7.46762
Si -2.03662 -12.89863 -10.18313
Si -0.67888 -14.25638 -8.82538
Si -0.67888 -11.54087 -6.10987
Si -3.39437 -14.25638 -6.10987
Si -3.39437 -11.54087 -8.82538
Si -4.75213 -15.61412 -4.75213
Si -2.03662 -15.61412 -2.03662
Si -4.75213 -12.89863 -2.03662
Si -2.03662 -12.89863 -4.75213
Si -0.67888 -14.25638 -3.39437
Si -0.67888 -11.54087 -0.67888
Si -3.39437 -14.25638 -0.67888
Si -3.39437 -11.54087 -3.39437
Si -4.75213 -10.18313 -15.61412
Si -2.03662 -10.18313 -12.89863
Si -4.75213 -7.46762 -12.89863
Si -2.03662 -7.46762 -15.61412
Si -0.67888 -8.82538 -14.25638
Si -0.67888 -6.10987 -11.54087
Si -3.39437 -8.82538 -11.54087
Si -3.39437 -6.10987 -14.25638
Si -4.75213 -10.18313 -10.18313
Si -2.03662 -10.18313 -7.46762
Si -4.75213 -7.46762 -7.46762
Si -2.03662 -7.46762 -10.18313
Si -0.67888 -8.82538 -8.82538
Si -0.67888 -6.10987 -6.10987
Si -3.39437 -8.82538 -6.10987
Si -3.39437 -6.10987 -8.82538
Si -4.75213 -10.18313 -4.75213
Si -2.03662 -10.18313 -2.03662
Si -4.75213 -7.46762 -2.03662
Si -2.03662 -7.46762 -4.75213
Si -0.67888 -8.82538 -3.39437
Si -0.67888 -6.10987 -0.67888
Si -3.39437 -8.82538 -0.67888
Si -3.39437 -6.10987 -3.39437
Si -4.75213 -4.75213 -15.61412
Si -2.03662 -4.75213 -12.89863
Si -4.75213 -2.03662 -12.89863
Si -2.03662 -2.03662 -15.61412
Si -0.67888 -3.39437 -14.25638
Si -0.67888 -0.67888 -11.54087
Si -3.39437 -3.39437 -11.54087
Si -3.39437 -0.67888 -14.25638
Si -4.75213 -4.75213 -10.18313
Si -2.03662 -4.75213 -7.46762
Si -4.75213 -2.03662 -7.46762
Si -2.03662 -2.03662 -10.18313
Si -0.67888 -3.39437 -8.82538
Si -0.67888 -0.67888 -6.10987
Si -3.39437 -3.39437 -6.10987
Si -3.39437 -0.67888 -8.82538
Si -4.75213 -4.75213 -4.75213
Si -2.03662 -4.75213 -2.03662
Si -4.75213 -2.03662 -2.03662
Si -2.03662 -2.03662 -4.75213
Si -0.67888 -3.39437 -3.39437
Si -0.67888 -0.67888 -0.67888
Si -3.39437 -3.39437 -0.67888
Si -3.39437 -0.67888 -3.39437
Si -15.61412 -15.61412  0.67888
Si -12.89863 -15.61412  3.39437
Si -15.61412 -12.89863  3.39437
Si -12.89863 -12.89863  0.67888
Si -11.54087 -14.25638  2.03662
Si -11.54087 -11.54087  4.75213
Si -14.25638 -14.25638  4.75213
Si -14.25638 -11.54087  2.03662
Si -15.61412 -15.61412  6.10987
Si -12.89863 -15.61412  8.82538
Si -15.61412 -12.89863  8.82538
Si -12.89863 -12.89863  6.10987
Si -11.54087 -14.25638  7.46762
Si -11.54087 -11.54087 10.18313
Si -14.25638 -14.25638 10.18313
Si -14.25638 -11.54087  7.46762
Si -15.61412 -15.61412 11.54087
Si -12.89863 -15.61412 14.25638
Si -15.61412 -12.89863 14.25638
Si -12.89863 -12.89863 11.54087
Si -11.54087 -14.25638 12.89863
Si -11.54087 -11.54087 15.61412
Si -14.25638 -14.25638 15.61412
Si -14.25638 -11.54087 12.89863
Si -15.61412 -10.18313  0.67888
Si -12.89863 -10.18313  3.39437
Si -15.61412 -7.46762  3.39437
Si -12.89863 -7.46762  0.67888
Si -11.54087 -8.82538  2.03662
Si -11.54087 -6.10987  4.75213
Si -14.25638 -8.82538  4.75213
Si -14.25638 -6.10987  2.03662
Si -15.61412 -10.18313  6.10987
Si -12.89863 -10.18313  8.82538
Si -15.61412 -7.46762  8.82538
Si -12.89863 -7.46762  6.10987
Si -11.54087 -8.82538  7.46762
Si -11.54087 -6.10987 10.18313
Si -14.25638 -8.82538 10.18313
Si -14.25638 -6.10987  7.46762
Si -15.61412 -10.18313 11.54087
Si -12.89863 -10.18313 14.25638
Si -15.61412 -7.46762 14.25638
Si -12.89863 -7.46762 11.54087
Si -11.54087 -8.82538 12.89863
Si -11.54087 -6.10987 15.61412
Si -14.25638 -8.82538 15.61412
Si -14.25638 -6.10987 12.89863
Si -15.61412 -4.75213  0.67888
Si -12.89863 -4.75213  3.39437
Si -15.61412 -2.03662  3.39437
Si -12.89863 -2.03662  0.67888
Si -11.54087 -3.39437  2.03662
Si -11.54087 -0.67888  4.75213
Si -14.25638 -3.39437  4.75213
Si -14.25638 -0.67888  2.03662
Si -15.61412 -4.75213  6.10987
Si -12.89863 -4.75213  8.82538
Si -15.61412 -2.03662  8.82538
Si -12.89863 -2.03662  6.10987
Si -11.54087 -3.39437  7.46762
Si -11.54087 -0.67888 10.18313
Si -14.25638 -3.39437 10.18313
Si -14.25638 -0.67888  7.46762
Si -15.61412 -4.75213 11.54087
Si -12.89863 -4.75213 14.25638
Si -15.61412 -2.03662 14.25638
Si -12.89863 -2.03662 11.54087
Si -11.54087 -3.39437 12.89863
Si -11.54087 -0.67888 15.61412
Si -14.25638 -3.39437 15.61412
Si -14.25638 -0.67888 12.89863
Si -10.18313 -15.61412  0.67888
Si -7.46762 -15.61412  3.39437
Si -10.18313 -12.89863  3.39437
Si -7.46762 -12.89863  0.67888
Si -6.10987 -14.25638  2.03662
Si -6.10987 -11.54087  4.75213
Si -8.82538 -14.25638  4.75213
Si -8.82538 -11.54087  2.03662
Si -10.18313 -15.61412  6.10987
Si -7.46762 -15.61412  8.82538
Si -10.18313 -12.89863  8.82538
Si -7.46762 -12.89863  6.10987
Si -6.10987 -14.25638  7.46762
Si -6.10987 -11.54087 10.18313
Si -8.82538 -14.25638 10.18313
Si -8.82538 -11.54087  7.46762
Si -10.18313 -15.61412 11.54087
Si -7.46762 -15.61412 14.25638
Si -10.18313 -12.89863 14.25638
Si -7.46762 -12.89863 11.54087
Si -6.10987 -14.25638 12.89863
Si -6.10987 -11.54087 15.61412
Si -8.82538 -14.25638 15.61412
Si -8.82538 -11.54087 12.89863
Si -10.18313 -10.18313  0.67888
Si -7.46762 -10.18313  3.39437
Si -10.18313 -7.46762  3.39437
Si -7.46762 -7.46762  0.67888
Si -6.10987 -8.82538  2.03662
Si -6.10987 -6.10987  4.75213
Si -8.82538 -8.82538  4.75213
Si -8.82538 -6.10987  2.03662
Si -10.18313 -10.18313  6.10987
Si -7.46762 -10.18313  8.82538
Si -10.18313 -7.46762  8.82538
Si -7.46762 -7.46762  6.10987
Si -6.10987 -8.82538  7.46762
Si -6.10987 -6.10987 10.18313
Si -8.82538 -8.82538 10.18313
Si -8.82538 -6.10987  7.46762
Si -10.18313 -10.18313 11.54087
Si -7.46762 -10.18313 14.25638
Si -10.18313 -7.46762 14.25638
Si -7.46762 -7.46762 11.54087
Si -6.10987 -8.82538 12.89863
Si -6.10987 -6.10987 15.61412
Si -8.82538 -8.82538 15.61412
Si -8.82538 -6.10987 12.89863
Si -10.18313 -4.75213  0.67888
Si -7.46762 -4.75213  3.39437
Si -10.18313 -2.03662  3.39437
Si -7.46762 -2.03662  0.67888
Si -6.10987 -3.39437  2.03662
Si -6.10987 -0.67888  4.75213
Si -8.82538 -3.39437  4.75213
Si -8.82538 -0.67888  2.03662
Si -10.18313 -4.75213  6.10987
Si -7.46762 -4.75213  8.82538
Si -10.18313 -2.03662  8.82538
Si -7.46762 -2.03662  6.10987
Si -6.10987 -3.39437  7.46762
Si -6.10987 -0.67888 10.18313
Si -8.82538 -3.39437 10.18313
Si -8.82538 -0.67888  7.46762
Si -10.18313 -4.75213 11.54087
Si -7.46762 -4.75213 14.25638
Si -10.18313 -2.03662 14.25638
Si -7.46762 -2.03662 11.54087
Si -6.10987 -3.39437 12.89863
Si -6.10987 -0.67888 15.61412
Si -8.82538 -3.39437 15.61412
Si -8.82538 -0.67888 12.89863
Si -4.75213 -15.61412  0.67888
Si -2.03662 -15.61412  3.39437
Si -4.75213 -12.89863  3.39437
Si -2.03662 -12.89863  0.67888
Si -0.67888 -14.25638  2.03662
Si -0.67888 -11.54087  4.75213
Si -3.39437 -14.25638  4.75213
Si -3.39437 -11.54087  2.03662
Si -4.75213 -15.61412  6.10987
Si -2.03662 -15.61412  8.82538
Si -4.75213 -12.89863  8.82538
Si -2.03662 -12.89863  6.10987
Si -0.67888 -14.25638  7.46762
Si -0.67888 -11.54087 10.18313
Si -3.39437 -14.25638 10.18313
Si -3.39437 -11.54087  7.46762
Si -4.75213 -15.61412 11.54087
Si -2.03662 -15.61412 14.25638
Si -4.75213 -12.89863 14.25638
Si -2.03662 -12.89863 11.54087
Si -0.67888 -14.25638 12.89863
Si -0.67888 -11.54087 15.61412
Si -3.39437 -14.25638 15.61412
Si -3.39437 -11.54087 12.89863
Si -4.75213 -10.18313  0.67888
Si -2.03662 -10.18313  3.39437
Si -4.75213 -7.46762  3.39437
Si -2.03662 -7.46762  0.67888
Si -0.67888 -8.82538  2.03662
Si -0.67888 -6.10987  4.75213
Si -3.39437 -8.82538  4.75213
Si -3.39437 -6.10987  2.03662
Si -4.75213 -10.18313  6.10987
Si -2.03662 -10.18313  8.82538
Si -4.75213 -7.46762  8.82538
Si -2.03662 -7.46762  6.10987
Si -0.67888 -8.82538  7.46762
Si -0.67888 -6.10987 10.18313
Si -3.39437 -8.82538 10.18313
Si -3.39437 -6.10987  7.46762
Si -4.75213 -10.18313 11.54087
Si -2.03662 -10.18313 14.25638
Si -4.75213 -7.46762 14.25638
Si -2.03662 -7.46762 11.54087
Si -0.67888 -8.82538 12.89863
Si -0.67888 -6.10987 15.61412
Si -3.39437 -8.82538 15.61412
Si -3.39437 -6.10987 12.89863
Si -4.75213 -4.75213  0.67888
Si -2.03662 -4.75213  3.39437
Si -4.75213 -2.03662  3.39437
Si -2.03662 -2.03662  0.67888
Si -0.67888 -3.39437  2.03662
Si -0.67888 -0.67888  4.75213
Si -3.39437 -3.39437  4.75213
Si -3.39437 -0.67888  2.03662
Si -4.75213 -4.75213  6.10987
Si -2.03662 -4.75213  8.82538
Si -4.75213 -2.03662  8.82538
Si -2.03662 -2.03662  6.10987
Si -0.67888 -3.39437  7.46762
Si -0.67888 -0.67888 10.18313
Si -3.39437 -3.39437 10.18313
Si -3.39437 -0.67888  7.46762
Si -4.75213 -4.75213 11.54087
Si -2.03662 -4.75213 14.25638
Si -4.75213 -2.03662 14.25638
Si -2.03662 -2.03662 11.54087
Si -0.67888 -3.39437 12.89863
Si -0.67888 -0.67888 15.61412
Si -3.39437 -3.39437 15.61412
Si -3.39437 -0.67888 12.89863
Si -15.61412 -15.61412 16.97188
Si -12.89863 -15.61412 19.68737
Si -15.61412 -12.89863 19.68737
Si -12.89863 -12.89863 16.97188
Si -11.54087 -14.25638 18.32963
Si -11.54087 -11.54087 21.04513
Si -14.25638 -14.25638 21.04513
Si -14.25638 -11.54087 18.32963
Si -15.61412 -15.61412 22.40287
Si -12.89863 -15.61412 25.11838
Si -15.61412 -12.89863 25.11838
Si -12.89863 -12.89863 22.40287
Si -11.54087 -14.25638 23.76062
Si -11.54087 -11.54087 26.47612
Si -14.25638 -14.25638 26.47612
Si -14.25638 -11.54087 23.76062
Si -15.61412 -15.61412 27.83387
Si -12.89863 -15.61412 30.54938
Si -15.61412 -12.89863 30.54938
Si -12.89863 -12.89863 27.83387
Si -11.54087 -14.25638 29.19163
Si -11.54087 -11.54087 31.90712
Si -14.25638 -14.25638 31.90712
Si -14.25638 -11.54087 29.19163
Si -15.61412 -10.18313 16.97188
Si -12.89863 -10.18313 19.68737
Si -15.61412 -7.46762 19.68737
Si -12.89863 -7.46762 16.97188
Si -11.54087 -8.82538 18.32963
Si -11.54087 -6.10987 21.04513
Si -14.25638 -8.82538 21.04513
Si -14.25638 -6.10987 18.32963
Si -15.61412 -10.18313 22.40287
Si -12.89863 -10.18313 25.11838
Si -15.61412 -7.46762 25.11838
Si -12.89863 -7.46762 22.40287
Si -11.54087 -8.82538 23.76062
Si -11.54087 -6.10987 26.47612
Si -14.25638 -8.82538 26.47612
Si -14.25638 -6.10987 23.76062
Si -15.61412 -10.18313 27.83387
Si -12.89863 -10.18313 30.54938
Si -15.61412 -7.46762 30.54938
Si -12.89863 -7.46762 27.83387
Si -11.54087 -8.82538 29.19163
Si -11.54087 -6.10987 31.90712
Si -14.25638 -8.82538 31.90712
Si -14.25638 -6.10987 29.19163
Si -15.61412 -4.75213 16.97188
Si -12.89863 -4.75213 19.68737
Si -15.61412 -2.03662 19.68737
Si -12.89863 -2.03662 16.97188
Si -11.54087 -3.39437 18.32963
Si -11.54087 -0.67888 21.04513
Si -14.25638 -3.39437 21.04513
Si -14.25638 -0.67888 18.32963
Si -15.61412 -4.75213 22.40287
Si -12.89863 -4.75213 25.11838
Si -15.61412 -2.03662 25.11838
Si -12.89863 -2.03662 22.40287
Si -11.54087 -3.39437 23.76062
Si -11.54087 -0.67888 26.47612
Si -14.25638 -3.39437 26.47612
Si -14.25638 -0.67888 23.76062
Si -15.61412 -4.75213 27.83387
Si -12.89863 -4.75213 30.54938
Si -15.61412 -2.03662 30.54938
Si -12.89863 -2.03662 27.83387
Si -11.54087 -3.39437 29.19163
Si -11.54087 -0.67888 31.90712
Si -14.25638 -3.39437 31.90712
Si -14.25638 -0.67888 29.19163
Si -10.18313 -15.61412 16.97188
Si -7.46762 -15.61412 19.68737
Si -10.18313 -12.89863 19.68737
Si -7.46762 -12.89863 16.97188
Si -6.10987 -14.25638 18.32963
Si -6.10987 -11.54087 21.04513
Si -8.82538 -14.25638 21.04513
Si -8.82538 -11.54087 18.32963
Si -10.18313 -15.61412 22.40287
Si -7.46762 -15.61412 25.11838
Si -10.18313 -12.89863 25.11838
Si -7.46762 -12.89863 22.40287
Si -6.10987 -14.25638 23.76062
Si -6.10987 -11.54087 26.47612
Si -8.82538 -14.25638 26.47612
Si -8.82538 -11.54087 23.76062
Si -10.18313 -15.61412 27.83387
Si -7.46762 -15.61412 30.54938
Si -10.18313 -12.89863 30.54938
Si -7.46762 -12.89863 27.83387
Si -6.10987 -14.25638 29.19163
Si -6.10987 -11.54087 31.90712
Si -8.82538 -14.25638 31.90712
Si -8.82538 -11.54087 29.19163
Si -10.18313 -10.18313 16.97188
Si -7.46762 -10.18313 19.68737
Si -10.18313 -7.46762 19.68737
Si -7.46762 -7.46762 16.97188
Si -6.10987 -8.82538 18.32963
Si -6.10987 -6.10987 21.04513
Si -8.82538 -8.82538 21.04513
Si -8.82538 -6.10987 18.32963
Si -10.18313 -10.18313 22.40287
Si -7.46762 -10.18313 25.11838
Si -10.18313 -7.46762 25.11838
Si -7.46762 -7.46762 22.40287
Si -6.10987 -8.82538 23.76062
Si -6.10987 -6.10987 26.47612
Si -8.82538 -8.82538 26.47612
Si -8.82538 -6.10987 23.76062
Si -10.18313 -10.18313 27.83387
Si -7.46762 -10.18313 30.54938
Si -10.18313 -7.46762 30.54938
Si -7.46762 -7.46762 27.83387
Si -6.10987 -8.82538 29.19163
Si -6.10987 -6.10987 31.90712
Si -8.82538 -8.82538 31.90712
Si -8.82538 -6.10987 29.19163
Si -10.18313 -4.75213 16.97188
Si -7.46762 -4.75213 19.68737
Si -10.18313 -2.03662 19.68737
Si -7.46762 -2.03662 16.97188
Si -6.10987 -3.39437 18.32963
Si -6.10987 -0.67888 21.04513
Si -8.82538 -3.39437 21.04513
Si -8.82538 -0.67888 18.32963
Si -10.18313 -4.75213 22.40287
Si -7.46762 -4.75213 25.11838
Si -10.18313 -2.03662 25.11838
Si -7.46762 -2.03662 22.40287
Si -6.10987 -3.39437 23.76062
Si -6.10987 -0.67888 26.47612
Si -8.82538 -3.39437 26.47612
Si -8.82538 -0.67888 23.76062
Si -10.18313 -4.75213 27.83387
Si -7.46762 -4.75213 30.54938
Si -10.18313 -2.03662 30.54938
Si -7.46762 -2.03662 27.83387
Si -6.10987 -3.39437 29.19163
Si -6.10987 -0.67888 31.90712
Si -8.82538 -3.39437 31.90712
Si -8.82538 -0.67888 29.19163
Si -4.75213 -15.61412 16.97188
Si -2.03662 -15.61412 19.68737
Si -4.75213 -12.89863 19.68737
Si -2.03662 -12.89863 16.97188
Si -0.67888 -14.25638 18.32963
Si -0.67888 -11.54087 21.04513
Si -3.39437 -14.25638 21.04513
Si -3.39437 -11.54087 18.32963
Si -4.75213 -15.61412 22.40287
Si -2.03662 -15.61412 25.11838
Si -4.75213 -12.89863 25.11838
Si -2.03662 -12.89863 22.40287
Si -0.67888 -14.25638 23.76062
Si -0.67888 -11.54087 26.47612
Si -3.39437 -14.25638 26.47612
Si -3.39437 -11.54087 23.76062
Si -4.75213 -15.61412 27.83387
Si -2.03662 -15.61412 30.54938
Si -4.75213 -12.89863 30.54938
Si -2.03662 -12.89863 27.83387
Si -0.67888 -14.25638 29.19163
Si -0.67888 -11.54087 31.90712
Si -3.39437 -14.25638 31.90712
Si -3.39437 -11.54087 29.19163
Si -4.75213 -10.18313 16.97188
Si -2.03662 -10.18313 19.68737
Si -4.75213 -7.46762 19.68737
Si -2.03662 -7.46762 16.97188
Si -0.67888 -8.82538 18.32963
Si -0.67888 -6.10987 21.04513
Si -3.39437 -8.82538 21.04513
Si -3.39437 -6.10987 18.32963
Si -4.75213 -10.18313 22.40287
Si -2.03662 -10.18313 25.11838
Si -4.75213 -7.46762 25.11838
Si -2.03662 -7.46762 22.40287
Si -0.67888 -8.82538 23.76062
Si -0.67888 -6.10987 26.47612
Si -3.39437 -8.82538 26.47612
Si -3.39437 -6.10987 23.76062
Si -4.75213 -10.18313 27.83387
Si -2.03662 -10.18313 30.54938
Si -4.75213 -7.46762 30.54938
Si -2.03662 -7.46762 27.83387
Si -0.67888 -8.82538 29.19163
Si -0.67888 -6.10987 31.90712
Si -3.39437 -8.82538 31.90712
Si -3.39437 -6.10987 29.19163
Si -4.75213 -4.75213 16.97188
Si -2.03662 -4.75213 19.68737
Si -4.75213 -2.03662 19.68737
Si -2.03662 -2.03662 16.97188
Si -0.67888 -3.39437 18.32963
Si -0.67888 -0.67888 21.04513
Si -3.39437 -3.39437 21.04513
Si -3.39437 -0.67888 18.32963
Si -4.75213 -4.75213 22.40287
Si -2.03662 -4.75213 25.11838
Si -4.75213 -2.03662 25.11838
Si -2.03662 -2.03662 22.40287
Si -0.67888 -3.39437 23.76062
Si -0.67888 -0.67888 26.47612
Si -3.39437 -3.39437 26.47612
Si -3.39437 -0.67888 23.76062
Si -4.75213 -4.75213 27.83387
Si -2.03662 -4.75213 30.54938
Si -4.75213 -2.03662 30.54938
Si -2.03662 -2.03662 27.83387
Si -0.67888 -3.39437 29.19163
Si -0.67888 -0.67888 31.90712
Si -3.39437 -3.39437 31.90712
Si -3.39437 -0.67888 29.19163
Si -15.61412  0.67888 -15.61412
Si -12.89863  0.67888 -12.89863
Si -15.61412  3.39437 -12.89863
Si -12.89863  3.39437 -15.61412
Si -11.54087  2.03662 -14.25638
Si -11.54087  4.75213 -11.54087
Si -14.25638  2.03662 -11.54087
Si -14.25638  4.75213 -14.25638
Si -15.61412  0.67888 -10.18313
Si -12.89863  0.67888 -7.46762
Si -15.61412  3.39437 -7.46762
Si -12.89863  3.39437 -10.18313
Si -11.54087  2.03662 -8.82538
Si -11.54087  4.75213 -6.10987
Si -14.25638  2.03662 -6.10987
Si -14.25638  4.75213 -8.82538
Si -15.61412  0.67888 -4.75213
Si -12.89863  0.67888 -2.03662
Si -15.61412  3.39437 -2.03662
Si -12.89863  3.39437 -4.75213
Si -11.54087  2.03662 -3.39437
Si -11.54087  4.75213 -0.67888
Si -14.25638  2.03662 -0.67888
Si -14.25638  4.75213 -3.39437
Si -15.61412  6.10987 -15.61412
Si -12.89863  6.10987 -12.89863
Si -15.61412  8.82538 -12.89863
Si -12.89863  8.82538 -15.61412
Si -11.54087  7.46762 -14.25638
Si -11.54087 10.18313 -11.54087
Si -14.25638  7.46762 -11.54087
Si -14.25638 10.18313 -14.25638
Si -15.61412  6.10987 -10.18313
Si -12.89863  6.10987 -7.46762
Si -15.61412  8.82538 -7.46762
Si -12.89863  8.82538 -10.18313
Si -11.54087  7.46762 -8.82538
Si -11.54087 10.18313 -6.10987
Si -14.25638  7.46762 -6.10987
Si -14.25638 10.18313 -8.82538
Si -15.61412  6.10987 -4.75213
Si -12.89863  6.10987 -2.03662
Si -15.61412  8.82538 -2.03662
Si -12.89863  8.82538 -4.75213
Si -11.54087  7.46762 -3.39437
Si -11.54087 10.18313 -0.67888
Si -14.25638  7.46762 -0.67888
Si -14.25638 10.18313 -3.39437
Si -15.61412 11.54087 -15.61412
Si -12.89863 11.54087 -12.89863
Si -15.61412 14.25638 -12.89863
Si -12.89863 14.25638 -15.61412
Si -11.54087 12.89863 -14.25638
Si -11.54087 15.61412 -11.54087
Si -14.25638 12.89863 -11.54087
Si -14.25638 15.61412 -14.25638
Si -15.61412 11.54087 -10.18313
Si -12.89863 11.54087 -7.46762
Si -15.61412 14.25638 -7.46762
Si -12.89863 14.25638 -10.18313
Si -11.54087 12.89863 -8.82538
Si -11.54087 15.61412 -6.10987
Si -14.25638 12.89863 -6.10987
Si -14.25638 15.61412 -8.82538
Si -15.61412 11.54087 -4.75213
Si -12.89863 11.54087 -2.03662
Si -15.61412 14.25638 -2.03662
Si -12.89863 14.25638 -4.75213
Si -11.54087 12.89863 -3.39437
Si -11.54087 15.61412 -0.67888
Si -14.25638 12.89863 -0.67888
Si -14.25638 15.61412 -3.39437
Si -10.18313  0.67888 -15.61412
Si -7.46762  0.67888 -12.89863
Si -10.18313  3.39437 -12.89863
Si -7.46762  3.39437 -15.61412
Si -6.10987  2.03662 -14.25638
Si -6.10987  4.75213 -11.54087
Si -8.82538  2.03662 -11.54087
Si -8.82538  4.75213 -14.25638
Si -10.18313  0.67888 -10.18313
Si -7.46762  0.67888 -7.46762
Si -10.18313  3.39437 -7.46762
Si -7.46762  3.39437 -10.18313
Si -6.10987  2.03662 -8.82538
Si -6.10987  4.75213 -6.10987
Si -8.82538  2.03662 -6.10987
Si -8.82538  4.75213 -8.82538
Si -10.18313  0.67888 -4.75213
Si -7.46762  0.67888 -2.03662
Si -10.18313  3.39437 -2.03662
Si -7.46762  3.39437 -4.75213
Si -6.10987  2.03662 -3.39437
Si -6.10987  4.75213 -0.67888
Si -8.82538  2.03662 -0.67888
Si -8.82538  4.75213 -3.39437
Si -10.18313  6.10987 -15.61412
Si -7.46762  6.10987 -12.89863
Si -10.18313  8.82538 -12.89863
Si -7.46762  8.82538 -15.61412
Si -6.10987  7.46762 -14.25638
Si -6.10987 10.18313 -11.54087
Si -8.82538  7.46762 -11.54087
Si -8.82538 10.18313 -14.25638
Si -10.18313  6.10987 -10.18313
Si -7.46762  6.10987 -7.46762
Si -10.18313  8.82538 -7.46762
Si -7.46762  8.82538 -10.18313
Si -6.10987  7.46762 -8.82538
Si -6.10987 10.18313 -6.10987
Si -8.82538  7.46762 -6.10987
Si -8.82538 10.18313 -8.82538
Si -10.18313  6.10987 -4.75213
Si -7.46762  6.10987 -2.03662
Si -10.18313  8.82538 -2.03662
Si -7.46762  8.82538 -4.75213
Si -6.10987  7.46762 -3.39437
Si -6.10987 10.18313 -0.67888
Si -8.82538  7.46762 -0.67888
Si -8.82538 10.18313 -3.39437
Si -10.18313 11.54087 -15.61412
Si -7.46762 11.54087 -12.89863
Si -10.18313 14.25638 -12.89863
Si -7.46762 14.25638 -15.61412
Si -6.10987 12.89863 -14.25638
Si -6.10987 15.61412 -11.54087
Si -8.82538 12.89863 -11.54087
Si -8.82538 15.61412 -14.25638
Si -10.18313 11.54087 -10.18313
Si -7.46762 11.54087 -7.46762
Si -10.18313 14.25638 -7.46762
Si -7.46762 14.25638 -10.18313
Si -6.10987 12.89863 -8.82538
Si -6.10987 15.61412 -6.10987
Si -8.82538 12.89863 -6.10987
Si -8.82538 15.61412 -8.82538
Si -10.18313 11.54087 -4.75213
Si -7.46762 11.54087 -2.03662
Si -10.18313 14.25638 -2.03662
Si -7.46762 14.25638 -4.75213
Si -6.10987 12.89863 -3.39437
Si -6.10987 15.61412 -0.67888
Si -8.82538 12.89863 -0.67888
Si -8.82538 15.61412 -3.39437
Si -4.75213  0.67888 -15.61412
Si -2.03662  0.67888 -12.89863
Si -4.75213  3.39437 -12.89863
Si -2.03662  3.39437 -15.61412
Si -0.67888  2.03662 -14.25638
Si -0.67888  4.75213 -11.54087
Si -3.39437  2.03662 -11.54087
Si -3.39437  4.75213 -14.25638
Si -4.75213  0.67888 -10.18313
Si -2.03662  0.67888 -7.46762
Si -4.75213  3.39437 -7.46762
Si -2.03662  3.39437 -10.18313
Si -0.67888  2.03662 -8.82538
Si -0.67888  4.75213 -6.10987
Si -3.39437  2.03662 -6.10987
Si -3.39437  4.75213 -8.82538
Si -4.75213  0.67888 -4.75213
Si -2.03662  0.67888 -2.03662
Si -4.75213  3.39437 -2.03662
Si -2.03662  3.39437 -4.75213
Si -0.67888  2.03662 -3.39437
Si -0.67888  4.75213 -0.67888
Si -3.39437  2.03662 -0.67888
Si -3.39437  4.75213 -3.39437
Si -4.75213  6.10987 -15.61412
Si -2.03662  6.10987 -12.89863
Si -4.75213  8.82538 -12.89863
Si -2.03662  8.82538 -15.61412
Si -0.67888  7.46762 -14.25638
Si -0.67888 10.18313 -11.54087
Si -3.39437  7.46762 -11.54087
Si -3.39437 10.18313 -14.25638
Si -4.75213  6.10987 -10.18313
Si -2.03662  6.10987 -7.46762
Si -4.75213  8.82538 -7.46762
Si -2.03662  8.82538 -10.18313
Si -0.67888  7.46762 -8.82538
Si -0.67888 10.18313 -6.10987
Si -3.39437  7.46762 -6.10987
Si -3.39437 10.18313 -8.82538
Si -4.75213  6.10987 -4.75213
Si -2.03662  6.10987 -2.03662
Si -4.75213  8.82538 -2.03662
Si -2.03662  8.82538 -4.75213
Si -0.67888  7.46762 -3.39437
Si -0.67888 10.18313 -0.67888
Si -3.39437  7.46762 -0.67888
Si -3.39437 10.18313 -3.39437
Si -4.75213 11.54087 -15.61412
Si -2.03662 11.54087 -12.89863
Si -4.75213 14.25638 -12.89863
Si -2.03662 14.25638 -15.61412
Si -0.67888 12.89863 -14.25638
Si -0.67888 15.61412 -11.54087
Si -3.39437 12.89863 -11.54087
Si -3.39437 15.61412 -14.25638
Si -4.75213 11.54087 -10.18313
Si -2.03662 11.54087 -7.46762
Si -4.75213 14.25638 -7.46762
Si -2.03662 14.25638 -10.18313
Si -0.67888 12.89863 -8.82538
Si -0.67888 15.61412 -6.10987
Si -3.39437 12.89863 -6.10987
Si -3.39437 15.61412 -8.82538
Si -4.75213 11.54087 -4.75213
Si -2.03662 11.54087 -2.03662
Si -4.75213 14.25638 -2.03662
Si -2.03662 14.25638 -4.75213
Si -0.67888 12.89863 -3.39437
Si -0.67888 15.61412 -0.67888
Si -3.39437 12.89863 -0.67888
Si -3.39437 15.61412 -3.39437
Si -15.61412  0.67888  0.67888
Si -12.89863  0.67888  3.39437
Si -15.61412  3.39437  3.39437
Si -12.89863  3.39437  0.67888
Si -11.54087  2.03662  2.03662
Si -11.54087  4.75213  4.75213
Si -14.25638  2.03662  4.75213
Si -14.25638  4.75213  2.03662
Si -15.61412  0.67888  6.10987
Si -12.89863  0.67888  8.82538
Si -15.61412  3.39437  8.82538
Si -12.89863  3.39437  6.10987
Si -11.54087  2.03662  7.46762
Si -11.54087  4.75213 10.18313
Si -14.25638  2.03662 10.18313
Si -14.25638  4.75213  7.46762
Si -15.61412  0.67888 11.54087
Si -12.89863  0.67888 14.25638
Si -15.61412  3.39437 14.25638
Si -12.89863  3.39437 11.54087
Si -11.54087  2.03662 12.89863
Si -11.54087  4.75213 15.61412
Si -14.25638  2.03662 15.61412
Si -14.25638  4.75213 12.89863
Si -15.61412  6.10987  0.67888
Si -12.89863  6.10987  3.39437
Si -15.61412  8.82538  3.39437
Si -12.89863  8.82538  0.67888
Si -11.54087  7.46762  2.03662
Si -11.54087 10.18313  4.75213
Si -14.25638  7.46762  4.75213
Si -14.25638 10.18313  2.03662
Si -15.61412  6.10987  6.10987
Si -12.89863  6.10987  8.82538
Si -15.61412  8.82538  8.82538
Si -12.89863  8.82538  6.10987
Si -11.54087  7.46762  7.46762
Si -11.54087 10.18313 10.18313
Si -14.25638  7.46762 10.18313
Si -14.25638 10.18313  7.46762
Si -15.61412  6.10987 11.54087
Si -12.89863  6.10987 14.25638
Si -15.61412  8.82538 14.25638
Si -12.89863  8.82538 11.54087
Si -11.54087  7.46762 12.89863
Si -11.54087 10.18313 15.61412
Si -14.25638  7.46762 15.61412
Si -14.25638 10.18313 12.89863
Si -15.61412 11.54087  0.67888
Si -12.89863 11.54087  3.39437
Si -15.61412 14.25638  3.39437
Si -12.89863 14.25638  0.67888
Si -11.54087 12.89863  2.03662
Si -11.54087 15.61412  4.75213
Si -14.25638 12.89863  4.75213
Si -14.25638 15.61412  2.03662
Si -15.61412 11.54087  6.10987
Si -12.89863 11.54087  8.82538
Si -15.61412 14.25638  8.82538
Si -12.89863 14.25638  6.10987
Si -11.54087 12.89863  7.46762
Si -11.54087 15.61412 10.18313
Si -14.25638 12.89863 10.18313
Si -14.25638 15.61412  7.46762
Si -15.61412 11.54087 11.54087
Si -12.89863 11.54087 14.25638
Si -15.61412 14.25638 14.25638
Si -12.89863 14.25638 11.54087
Si -11.54087 12.89863 12.89863
Si -11.54087 15.61412 15.61412
Si -14.25638 12.89863 15.61412
Si -14.25638 15.61412 12.89863
Si -10.18313  0.67888  0.67888
Si -7.46762  0.67888  3.39437
Si -10.18313  3.39437  3.39437
Si -7.46762  3.39437  0.67888
Si -6.10987  2.03662  2.03662
Si -6.10987  4.75213  4.75213
Si -8.82538  2.03662  4.75213
Si -8.82538  4.75213  2.03662
Si -10.18313  0.67888  6.10987
Si -7.46762  0.67888  8.82538
Si -10.18313  3.39437  8.82538
Si -7.46762  3.39437  6.10987
Si -6.10987  2.03662  7.46762
Si -6.10987  4.75213 10.18313
Si -8.82538  2.03662 10.18313
Si -8.82538  4.75213  7.46762
Si -10.18313  0.67888 11.54087
Si -7.46762  0.67888 14.25638
Si -10.18313  3.39437 14.25638
Si -7.46762  3.39437 11.54087
Si -6.10987  2.03662 12.89863
Si -6.10987  4.75213 15.61412
Si -8.82538  2.03662 15.61412
Si -8.82538  4.75213 12.89863
Si -10.18313  6.10987  0.67888
Si -7.46762  6.10987  3.39437
Si -10.18313  8.82538  3.39437
Si -7.46762  8.82538  0.67888
Si -6.10987  7.46762  2.03662
Si -6.10987 10.18313  4.75213
Si -8.82538  7.46762  4.75213
Si -8.82538 10.18313  2.03662
Si -10.18313  6.10987  6.10987
Si -7.46762  6.10987  8.82538
Si -10.18313  8.82538  8.82538
Si -7.46762  8.82538  6.10987
Si -6.10987  7.46762  7.46762
Si -6.10987 10.18313 10.18313
Si -8.82538  7.46762 10.18313
Si -8.82538 10.18313  7.46762
Si -10.18313  6.10987 11.54087
Si -7.46762  6.10987 14.25638
Si -10.18313  8.82538 14.25638
Si -7.46762  8.82538 11.54087
Si -6.10987  7.46762 12.89863
Si -6.10987 10.18313 15.61412
Si -8.82538  7.46762 15.61412
Si -8.82538 10.18313 12.89863
Si -10.18313 11.54087  0.67888
Si -7.46762 11.54087  3.39437
Si -10.18313 14.25638  3.39437
Si -7.46762 14.25638  0.67888
Si -6.10987 12.89863  2.03662
Si -6.10987 15.61412  4.75213
Si -8.82538 12.89863  4.75213
Si -8.82538 15.61412  2.03662
Si -10.18313 11.54087  6.10987
Si -7.46762 11.54087  8.82538
Si -10.18313 14.25638  8.82538
Si -7.46762 14.25638  6.10987
Si -6.10987 12.89863  7.46762
Si -6.10987 15.61412 10.18313
Si -8.82538 12.89863 10.18313
Si -8.82538 15.61412  7.46762
Si -10.18313 11.54087 11.54087
Si -7.46762 11.54087 14.25638
Si -10.18313 14.25638 14.25638
Si -7.46762 14.25638 11.54087
Si -6.10987 12.89863 12.89863
Si -6.10987 15.61412 15.61412
Si -8.82538 12.89863 15.61412
Si -8.82538 15.61412 12.89863
Si -4.75213  0.67888  0.67888
Si -2.03662  0.67888  3.39437
Si -4.75213  3.39437  3.39437
Si -2.03662  3.39437  0.67888
Si -0.67888  2.03662  2.03662
Si -0.67888  4.75213  4.75213
Si -3.39437  2.03662  4.75213
Si -3.39437  4.75213  2.03662
Si -4.75213  0.67888  6.10987
Si -2.03662  0.67888  8.82538
Si -4.75213  3.39437  8.82538
Si -2.03662  3.39437  6.10987
Si -0.67888  2.03662  7.46762
Si -0.67888  4.75213 10.18313
Si -3.39437  2.03662 10.18313
Si -3.39437  4.75213  7.46762
Si -4.75213  0.67888 11.54087
Si -2.03662  0.67888 14.25638
Si -4.75213  3.39437 14.25638
Si -2.03662  3.39437 11.54087
Si -0.67888  2.03662 12.89863
Si -0.67888  4.75213 15.61412
Si -3.39437  2.03662 15.61412
Si -3.39437  4.75213 12.89863
Si -4.75213  6.10987  0.67888
Si -2.03662  6.10987  3.39437
Si -4.75213  8.82538  3.39437
Si -2.03662  8.82538  0.67888
Si -0.67888  7.46762  2.03662
Si -0.67888 10.18313  4.75213
Si -3.39437  7.46762  4.75213
Si -3.39437 10.18313  2.03662
Si -4.75213  6.10987  6.10987
Si -2.03662  6.10987  8.82538
Si -4.75213  8.82538  8.82538
Si -2.03662  8.82538  6.10987
Si -0.67888  7.46762  7.46762
Si -0.67888 10.18313 10.18313
Si -3.39437  7.46762 10.18313
Si -3.39437 10.18313  7.46762
Si -4.75213  6.10987 11.54087
Si -2.03662  6.10987 14.25638
Si -4.75213  8.82538 14.25638
Si -2.03662  8.82538 11.54087
Si -0.67888  7.46762 12.89863
Si -0.67888 10.18313 15.61412
Si -3.39437  7.46762 15.61412
Si -3.39437 10.18313 12.89863
Si -4.75213 11.54087  0.67888
Si -2.03662 11.54087  3.39437
Si -4.75213 14.25638  3.39437
Si -2.03662 14.25638  0.67888
Si -0.67888 12.89863  2.03662
Si -0.67888 15.61412  4.75213
Si -3.39437 12.89863  4.75213
Si -3.39437 15.61412  2.03662
Si -4.75213 11.54087  6.10987
Si -2.03662 11.54087  8.82538
Si -4.75213 14.25638  8.82538
Si -2.03662 14.25638  6.10987
Si -0.67888 12.89863  7.46762
Si -0.67888 15.61412 10.18313
Si -3.39437 12.89863 10.18313
Si -3.39437 15.61412  7.46762
Si -4.75213 11.54087 11.54087
Si -2.03662 11.54087 14.25638
Si -4.75213 14.25638 14.25638
Si -2.03662 14.25638 11.54087
Si -0.67888 12.89863 12.89863
Si -0.67888 15.61412 15.61412
Si -3.39437 12.89863 15.61412
Si -3.39437 15.61412 12.89863
Si -15.61412  0.67888 16.97188
Si -12.89863  0.67888 19.68737
Si -15.61412  3.39437 19.68737
Si -12.89863  3.39437 16.97188
Si -11.54087  2.03662 18.32963
Si -11.54087  4.75213 21.04513
Si -14.25638  2.03662 21.04513
Si -14.25638  4.75213 18.32963
Si -15.61412  0.67888 22.40287
Si -12.89863  0.67888 25.11838
Si -15.61412  3.39437 25.11838
Si -12.89863  3.39437 22.40287
Si -11.54087  2.03662 23.76062
Si -11.54087  4.75213 26.47612
Si -14.25638  2.03662 26.47612
Si -14.25638  4.75213 23.76062
Si -15.61412  0.67888 27.83387
Si -12.89863  0.67888 30.54938
Si -15.61412  3.39437 30.54938
Si -12.89863  3.39437 27.83387
Si -11.54087  2.03662 29.19163
Si -11.54087  4.75213 31.90712
Si -14.25638  2.03662 31.90712
Si -14.25638  4.75213 29.19163
Si -15.61412  6.10987 16.97188
Si -12.89863  6.10987 19.68737
Si -15.61412  8.82538 19.68737
Si -12.89863  8.82538 16.97188
Si -11.54087  7.46762 18.32963
Si -11.54087 10.18313 21.04513
Si -14.25638  7.46762 21.04513
Si -14.25638 10.18313 18.32963
Si -15.61412  6.10987 22.40287
Si -12.89863  6.10987 25.11838
Si -15.61412  8.82538 25.11838
Si -12.89863  8.82538 22.40287
Si -11.54087  7.46762 23.76062
Si -11.54087 10.18313 26.47612
Si -14.25638  7.46762 26.47612
Si -14.25638 10.18313 23.76062
Si -15.61412  6.10987 27.83387
Si -12.89863  6.10987 30.54938
Si -15.61412  8.82538 30.54938
Si -12.89863  8.82538 27.83387
Si -11.54087  7.46762 29.19163
Si -11.54087 10.18313 31.90712
Si -14.25638  7.46762 31.90712
Si -14.25638 10.18313 29.19163
Si -15.61412 11.54087 16.97188
Si -12.89863 11.54087 19.68737
Si -15.61412 14.25638 19.68737
Si -12.89863 14.25638 16.97188
Si -11.54087 12.89863 18.32963
Si -11.54087 15.61412 21.04513
Si -14.25638 12.89863 21.04513
Si -14.25638 15.61412 18.32963
Si -15.61412 11.54087 22.40287
Si -12.89863 11.54087 25.11838
Si -15.61412 14.25638 25.11838
Si -12.89863 14.25638 22.40287
Si -11.54087 12.89863 23.76062
Si -11.54087 15.61412 26.47612
Si -14.25638 12.89863 26.47612
Si -14.25638 15.61412 23.76062
Si -15.61412 11.54087 27.83387
Si -12.89863 11.54087 30.54938
Si -15.61412 14.25638 30.54938
Si -12.89863 14.25638 27.83387
Si -11.54087 12.89863 29.19163
Si -11.54087 15.61412 31.90712
Si -14.25638 12.89863 31.90712
Si -14.25638 15.61412 29.19163
Si -10.18313  0.67888 16.97188
Si -7.46762  0.67888 19.68737
Si -10.18313  3.39437 19.68737
Si -7.46762  3.39437 16.97188
Si -6.10987  2.03662 18.32963
Si -6.10987  4.75213 21.04513
Si -8.82538  2.03662 21.04513
Si -8.82538  4.75213 18.32963
Si -10.18313  0.67888 22.40287
Si -7.46762  0.67888 25.11838
Si -10.18313  3.39437 25.11838
Si -7.46762  3.39437 22.40287
Si -6.10987  2.03662 23.76062
Si -6.10987  4.75213 26.47612
Si -8.82538  2.03662 26.47612
Si -8.82538  4.75213 23.76062
Si -10.18313  0.67888 27.83387
Si -7.46762  0.67888 30.54938
Si -10.18313  3.39437 30.54938
Si -7.46762  3.39437 27.83387
Si -6.10987  2.03662 29.19163
Si -6.10987  4.75213 31.90712
Si -8.82538  2.03662 31.90712
Si -8.82538  4.75213 29.19163
Si -10.18313  6.10987 16.97188
Si -7.46762  6.10987 19.68737
Si -10.18313  8.82538 19.68737
Si -7.46762  8.82538 16.97188
Si -6.10987  7.46762 18.32963
Si -6.10987 10.18313 21.04513
Si -8.82538  7.46762 21.04513
Si -8.82538 10.18313 18.32963
Si -10.18313  6.10987 22.40287
Si -7.46762  6.10987 25.11838
Si -10.18313  8.82538 25.11838
Si -7.46762  8.82538 22.40287
Si -6.10987  7.46762 23.76062
Si -6.10987 10.18313 26.47612
Si -8.82538  7.46762 26.47612
Si -8.82538 10.18313 23.76062
Si -10.18313  6.10987 27.83387
Si -7.46762  6.10987 30.54938
Si -10.18313  8.82538 30.54938
Si -7.46762  8.82538 27.83387
Si -6.10987  7.46762 29.19163
Si -6.10987 10.18313 31.90712
Si -8.82538  7.46762 31.90712
Si -8.82538 10.18313 29.19163
Si -10.18313 11.54087 16.97188
Si -7.46762 11.54087 19.68737
Si -10.18313 14.25638 19.68737
Si -7.46762 14.25638 16.97188
Si -6.10987 12.89863 18.32963
Si -6.10987 15.61412 21.04513
Si -8.82538 12.89863 21.04513
Si -8.82538 15.61412 18.32963
Si -10.18313 11.54087 22.40287
Si -7.46762 11.54087 25.11838
Si -10.18313 14.25638 25.11838
Si -7.46762 14.25638 22.40287
Si -6.10987 12.89863 23.76062
Si -6.10987 15.61412 26.47612
Si -8.82538 12.89863 26.47612
Si -8.82538 15.61412 23.76062
Si -10.18313 11.54087 27.83387
Si -7.46762 11.54087 30.54938
Si -10.18313 14.25638 30.54938
Si -7.46762 14.25638 27.83387
Si -6.10987 12.89863 29.19163
Si -6.10987 15.61412 31.90712
Si -8.82538 12.89863 31.90712
Si -8.82538 15.61412 29.19163
Si -4.75213  0.67888 16.97188
Si -2.03662  0.67888 19.68737
Si -4.75213  3.39437 19.68737
Si -2.03662  3.39437 16.97188
Si -0.67888  2.03662 18.32963
Si -0.67888  4.75213 21.04513
Si -3.39437  2.03662 21.04513
Si -3.39437  4.75213 18.32963
Si -4.75213  0.67888 22.40287
Si -2.03662  0.67888 25.11838
Si -4.75213  3.39437 25.11838
Si -2.03662  3.39437 22.40287
Si -0.67888  2.03662 23.76062
Si -0.67888  4.75213 26.47612
Si -3.39437  2.03662 26.47612
Si -3.39437  4.75213 23.76062
Si -4.75213  0.67888 27.83387
Si -2.03662  0.67888 30.54938
Si -4.75213  3.39437 30.54938
Si -2.03662  3.39437 27.83387
Si -0.67888  2.03662 29.19163
Si -0.67888  4.75213 31.90712
Si -3.39437  2.03662 31.90712
Si -3.39437  4.75213 29.19163
Si -4.75213  6.10987 16.97188
Si -2.03662  6.10987 19.68737
Si -4.75213  8.82538 19.68737
Si -2.03662  8.82538 16.97188
Si -0.67888  7.46762 18.32963
Si -0.67888 10.18313 21.04513
Si -3.39437  7.46762 21.04513
Si -3.39437 10.18313 18.32963
Si -4.75213  6.10987 22.40287
Si -2.03662  6.10987 25.11838
Si -4.75213  8.82538 25.11838
Si -2.03662  8.82538 22.40287
Si -0.67888  7.46762 23.76062
Si -0.67888 10.18313 26.47612
Si -3.39437  7.46762 26.47612
Si -3.39437 10.18313 23.76062
Si -4.75213  6.10987 27.83387
Si -2.03662  6.10987 30.54938
Si -4.75213  8.82538 30.54938
Si -2.03662  8.82538 27.83387
Si -0.67888  7.46762 29.19163
Si -0.67888 10.18313 31.90712
Si -3.39437  7.46762 31.90712
Si -3.39437 10.18313 29.19163
Si -4.75213 11.54087 16.97188
Si -2.03662 11.54087 19.68737
Si -4.75213 14.25638 19.68737
Si -2.03662 14.25638 16.97188
Si -0.67888 12.89863 18.32963
Si -0.67888 15.61412 21.04513
Si -3.39437 12.89863 21.04513
Si -3.39437 15.61412 18.32963
Si -4.75213 11.54087 22.40287
Si -2.03662 11.54087 25.11838
Si -4.75213 14.25638 25.11838
Si -2.03662 14.25638 22.40287
Si -0.67888 12.89863 23.76062
Si -0.67888 15.61412 26.47612
Si -3.39437 12.89863 26.47612
Si -3.39437 15.61412 23.76062
Si -4.75213 11.54087 27.83387
Si -2.03662 11.54087 30.54938
Si -4.75213 14.25638 30.54938
Si -2.03662 14.25638 27.83387
Si -0.67888 12.89863 29.19163
Si -0.67888 15.61412 31.90712
Si -3.39437 12.89863 31.90712
Si -3.39437 15.61412 29.19163
Si -15.61412 16.97188 -15.61412
Si -12.89863 16.97188 -12.89863
Si -15.61412 19.68737 -12.89863
Si -12.89863 19.68737 -15.61412
Si -11.54087 18.32963 -14.25638
Si -11.54087 21.04513 -11.54087
Si -14.25638 18.32963 -11.54087
Si -14.25638 21.04513 -14.25638
Si -15.61412 16.97188 -10.18313
Si -12.89863 16.97188 -7.46762
Si -15.61412 19.68737 -7.46762
Si -12.89863 19.68737 -10.18313
Si -11.54087 18.32963 -8.82538
Si -11.54087 21.04513 -6.10987
Si -14.25638 18.32963 -6.10987
Si -14.25638 21.04513 -8.82538
Si -15.61412 16.97188 -4.75213
Si -12.89863 16.97188 -2.03662
Si -15.61412 19.68737 -2.03662
Si -12.89863 19.68737 -4.75213
Si -11.54087 18.32963 -3.39437
Si -11.54087 21.04513 -0.67888
Si -14.25638 18.32963 -0.67888
Si -14.25638 21.04513 -3.39437
Si -15.61412 22.40287 -15.61412
Si -12.89863 22.40287 -12.89863
Si -15.61412 25.11838 -12.89863
Si -12.89863 25.11838 -15.61412
Si -11.54087 23.76062 -14.25638
Si -11.54087 26.47612 -11.54087
Si -14.25638 23.76062 -11.54087
Si -14.25638 26.47612 -14.25638
Si -15.61412 22.40287 -10.18313
Si -12.89863 22.40287 -7.46762
Si -15.61412 25.11838 -7.46762
Si -12.89863 25.11838 -10.18313
Si -11.54087 23.76062 -8.82538
Si -11.54087 26.47612 -6.10987
Si -14.25638 23.76062 -6.10987
Si -14.25638 26.47612 -8.82538
Si -15.61412 22.40287 -4.75213
Si -12.89863 22.40287 -2.03662
Si -15.61412 25.11838 -2.03662
Si -12.89863 25.11838 -4.75213
Si -11.54087 23.76062 -3.39437
Si -11.54087 26.47612 -0.67888
Si -14.25638 23.76062 -0.67888
Si -14.25638 26.47612 -3.39437
Si -15.61412 27.83387 -15.61412
Si -12.89863 27.83387 -12.89863
Si -15.61412 30.54938 -12.89863
Si -12.89863 30.54938 -15.61412
Si -11.54087 29.19163 -14.25638
Si -11.54087 31.90712 -11.54087
Si -14.25638 29.19163 -11.54087
Si -14.25638 31.90712 -14.25638
Si -15.61412 27.83387 -10.18313
Si -12.89863 27.83387 -7.46762
Si -15.61412 30.54938 -7.46762
Si -12.89863 30.54938 -10.18313
Si -11.54087 29.19163 -8.82538
Si -11.54087 31.90712 -6.10987
Si -14.25638 29.19163 -6.10987
Si -14.25638 31.90712 -8.82538
Si -15.61412 27.83387 -4.75213
Si -12.89863 27.83387 -2.03662
Si -15.61412 30.54938 -2.03662
Si -12.89863 30.54938 -4.75213
Si -11.54087 29.19163 -3.39437
Si -11.54087 31.90712 -0.67888
Si -14.25638 29.19163 -0.67888
Si -14.25638 31.90712 -3.39437
Si -10.18313 16.97188 -15.61412
Si -7.46762 16.97188 -12.89863
Si -10.18313 19.68737 -12.89863
Si -7.46762 19.68737 -15.61412
Si -6.10987 18.32963 -14.25638
Si -6.10987 21.04513 -11.54087
Si -8.82538 18.32963 -11.54087
Si -8.82538 21.04513 -14.25638
Si -10.18313 16.97188 -10.18313
Si -7.46762 16.97188 -7.46762
Si -10.18313 19.68737 -7.46762
Si -7.46762 19.68737 -10.18313
Si -6.10987 18.32963 -8.82538
Si -6.10987 21.04513 -6.10987
Si -8.82538 18.32963 -6.10987
Si -8.82538 21.04513 -8.82538
Si -10.18313 16.97188 -4.75213
Si -7.46762 16.97188 -2.03662
Si -10.18313 19.68737 -2.03662
Si -7.46762 19.68737 -4.75213
Si -6.10987 18.32963 -3.39437
Si -6.10987 21.04513 -0.67888
Si -8.82538 18.32963 -0.67888
Si -8.82538 21.04513 -3.39437
Si -10.18313 22.40287 -15.61412
Si -7.46762 22.40287 -12.89863
Si -10.18313 25.11838 -12.89863
Si -7.46762 25.11838 -15.61412
Si -6.10987 23.76062 -14.25638
Si -6.10987 26.47612 -11.54087
Si -8.82538 23.76062 -11.54087
Si -8.82538 26.47612 -14.25638
Si -10.18313 22.40287 -10.18313
Si -7.46762 22.40287 -7.46762
Si -10.18313 25.11838 -7.46762
Si -7.46762 25.11838 -10.18313
Si -6.10987 23.76062 -8.82538
Si -6.10987 26.47612 -6.10987
Si -8.82538 23.76062 -6.10987
Si -8.82538 26.47612 -8.82538
Si -10.18313 22.40287 -4.75213
Si -7.46762 22.40287 -2.03662
Si -10.18313 25.11838 -2.03662
Si -7.46762 25.11838 -4.75213
Si -6.10987 23.76062 -3.39437
Si -6.10987 26.47612 -0.67888
Si -8.82538 23.76062 -0.67888
Si -8.82538 26.47612 -3.39437
Si -10.18313 27.83387 -15.61412
Si -7.46762 27.83387 -12.89863
Si -10.18313 30.54938 -12.89863
Si -7.46762 30.54938 -15.61412
Si -6.10987 29.19163 -14.25638
Si -6.10987 31.90712 -11.54087
Si -8.82538 29.19163 -11.54087
Si -8.82538 31.90712 -14.25638
Si -10.18313 27.83387 -10.18313
Si -7.46762 27.83387 -7.46762
Si -10.18313 30.54938 -7.46762
Si -7.46762 30.54938 -10.18313
Si -6.10987 29.19163 -8.82538
Si -6.10987 31.90712 -6.10987
Si -8.82538 29.19163 -6.10987
Si -8.82538 31.90712 -8.82538
Si -10.18313 27.83387 -4.75213
Si -7.46762 27.83387 -2.03662
Si -10.18313 30.54938 -2.03662
Si -7.46762 30.54938 -4.75213
Si -6.10987 29.19163 -3.39437
Si -6.10987 31.90712 -0.67888
Si -8.82538 29.19163 -0.67888
Si -8.82538 31.90712 -3.39437
Si -4.75213 16.97188 -15.61412
Si -2.03662 16.97188 -12.89863
Si -4.75213 19.68737 -12.89863
Si -2.03662 19.68737 -15.61412
Si -0.67888 18.32963 -14.25638
Si -0.67888 21.04513 -11.54087
Si -3.39437 18.32963 -11.54087
Si -3.39437 21.04513 -14.25638
Si -4.75213 16.97188 -10.18313
Si -2.03662 16.97188 -7.46762
Si -4.75213 19.68737 -7.46762
Si -2.03662 19.68737 -10.18313
Si -0.67888 18.32963 -8.82538
Si -0.67888 21.04513 -6.10987
Si -3.39437 18.32963 -6.10987
Si -3.39437 21.04513 -8.82538
Si -4.75213 16.97188 -4.75213
Si -2.03662 16.97188 -2.03662
Si -4.75213 19.68737 -2.03662
Si -2.03662 19.68737 -4.75213
Si -0.67888 18.32963 -3.39437
Si -0.67888 21.04513 -0.67888
Si -3.39437 18.32963 -0.67888
Si -3.39437 21.04513 -3.39437
Si -4.75213 22.40287 -15.61412
Si -2.03662 22.40287 -12.89863
Si -4.75213 25.11838 -12.89863
Si -2.03662 25.11838 -15.61412
Si -0.67888 23.76062 -14.25638
Si -0.67888 26.47612 -11.54087
Si -3.39437 23.76062 -11.54087
Si -3.39437 26.47612 -14.25638
Si -4.75213 22.40287 -10.18313
Si -2.03662 22.40287 -7.46762
Si -4.75213 25.11838 -7.46762
Si -2.03662 25.11838 -10.18313
Si -0.67888 23.76062 -8.82538
Si -0.67888 26.47612 -6.10987
Si -3.39437 23.76062 -6.10987
Si -3.39437 26.47612 -8.82538
Si -4.75213 22.40287 -4.75213
Si -2.03662 22.40287 -2.03662
Si -4.75213 25.11838 -2.03662
Si -2.03662 25.11838 -4.75213
Si -0.67888 23.76062 -3.39437
Si -0.67888 26.47612 -0.67888
Si -3.39437 23.76062 -0.67888
Si -3.39437 26.47612 -3.39437
Si -4.75213 27.83387 -15.61412
Si -2.03662 27.83387 -12.89863
Si -4.75213 30.54938 -12.89863
Si -2.03662 30.54938 -15.61412
Si -0.67888 29.19163 -14.25638
Si -0.67888 31.90712 -11.54087
Si -3.39437 29.19163 -11.54087
Si -3.39437 31.90712 -14.25638
Si -4.75213 27.83387 -10.18313
Si -2.03662 27.83387 -7.46762
Si -4.75213 30.54938 -7.46762
Si -2.03662 30.54938 -10.18313
Si -0.67888 29.19163 -8.82538
Si -0.67888 31.90712 -6.10987
Si -3.39437 29.19163 -6.10987
Si -3.39437 31.90712 -8.82538
Si -4.75213 27.83387 -4.75213
Si -2.03662 27.83387 -2.03662
Si -4.75213 30.54938 -2.03662
Si -2.03662 30.54938 -4.75213
Si -0.67888 29.19163 -3.39437
Si -0.67888 31.90712 -0.67888
Si -3.39437 29.19163 -0.67888
Si -3.39437 31.90712 -3.39437
Si -15.61412 16.97188  0.67888
Si -12.89863 16.97188  3.39437
Si -15.61412 19.68737  3.39437
Si -12.89863 19.68737  0.67888
Si -11.54087 18.32963  2.03662
Si -11.54087 21.04513  4.75213
Si -14.25638 18.32963  4.75213
Si -14.25638 21.04513  2.03662
Si -15.61412 16.97188  6.10987
Si -12.89863 16.97188  8.82538
Si -15.61412 19.68737  8.82538
Si -12.89863 19.68737  6.10987
Si -11.54087 18.32963  7.46762
Si -11.54087 21.04513 10.18313
Si -14.25638 18.32963 10.18313
Si -14.25638 21.04513  7.46762
Si -15.61412 16.97188 11.54087
Si -12.89863 16.97188 14.25638
Si -15.61412 19.68737 14.25638
Si -12.89863 19.68737 11.54087
Si -11.54087 18.32963 12.89863
Si -11.54087 21.04513 15.61412
Si -14.25638 18.32963 15.61412
Si -14.25638 21.04513 12.89863
Si -15.61412 22.40287  0.67888
Si -12.89863 22.40287  3.39437
Si -15.61412 25.11838  3.39437
Si -12.89863 25.11838  0.67888
Si -11.54087 23.76062  2.03662
Si -11.54087 26.47612  4.75213
Si -14.25638 23.76062  4.75213
Si -14.25638 26.47612  2.03662
Si -15.61412 22.40287  6.10987
Si -12.89863 22.40287  8.82538
Si -15.61412 25.11838  8.82538
Si -12.89863 25.11838  6.10987
Si -11.54087 23.76062  7.46762
Si -11.54087 26.47612 10.18313
Si -14.25638 23.76062 10.18313
Si -14.25638 26.47612  7.46762
Si -15.61412 22.40287 11.54087
Si -12.89863 22.40287 14.25638
Si -15.61412 25.11838 14.25638
Si -12.89863 25.11838 11.54087
Si -11.54087 23.76062 12.89863
Si -11.54087 26.47612 15.61412
Si -14.25638 23.76062 15.61412
Si -14.25638 26.47612 12.89863
Si -15.61412 27.83387  0.67888
Si -12.89863 27.83387  3.39437
Si -15.61412 30.54938  3.39437
Si -12.89863 30.54938  0.67888
Si -11.54087 29.19163  2.03662
Si -11.54087 31.90712  4.75213
Si -14.25638 29.19163  4.75213
Si -14.25638 31.90712  2.03662
Si -15.61412 27.83387  6.10987
Si -12.89863 27.83387  8.82538
Si -15.61412 30.54938  8.82538
Si -12.89863 30.54938  6.10987
Si -11.54087 29.19163  7.46762
Si -11.54087 31.90712 10.18313
Si -14.25638 29.19163 10.18313
Si -14.25638 31.90712  7.46762
Si -15.61412 27.83387 11.54087
Si -12.89863 27.83387 14.25638
Si -15.61412 30.54938 14.25638
Si -12.89863 30.54938 11.54087
Si -11.54087 29.19163 12.89863
Si -11.54087 31.90712 15.61412
Si -14.25638 29.19163 15.61412
Si -14.25638 31.90712 12.89863
Si -10.18313 16.97188  0.67888
Si -7.46762 16.97188  3.39437
Si -10.18313 19.68737  3.39437
Si -7.46762 19.68737  0.67888
Si -6.10987 18.32963  2.03662
Si -6.10987 21.04513  4.75213
Si -8.82538 18.32963  4.75213
Si -8.82538 21.04513  2.03662
Si -10.18313 16.97188  6.10987
Si -7.46762 16.97188  8.82538
Si -10.18313 19.68737  8.82538
Si -7.46762 19.68737  6.10987
Si -6.10987 18.32963  7.46762
Si -6.10987 21.04513 10.18313
Si -8.82538 18.32963 10.18313
Si -8.82538 21.04513  7.46762
Si -10.18313 16.97188 11.54087
Si -7.46762 16.97188 14.25638
Si -10.18313 19.68737 14.25638
Si -7.46762 19.68737 11.54087
Si -6.10987 18.32963 12.89863
Si -6.10987 21.04513 15.61412
Si -8.82538 18.32963 15.61412
Si -8.82538 21.04513 12.89863
Si -10.18313 22.40287  0.67888
Si -7.46762 22.40287  3.39437
Si -10.18313 25.11838  3.39437
Si -7.46762 25.11838  0.67888
Si -6.10987 23.76062  2.03662
Si -6.10987 26.47612  4.75213
Si -8.82538 23.76062  4.75213
Si -8.82538 26.47612  2.03662
Si -10.18313 22.40287  6.10987
Si -7.46762 22.40287  8.82538
Si -10.18313 25.11838  8.82538
Si -7.46762 25.11838  6.10987
Si -6.10987 23.76062  7.46762
Si -6.10987 26.47612 10.18313
Si -8.82538 23.76062 10.18313
Si -8.82538 26.47612  7.46762
Si -10.18313 22.40287 11.54087
Si -7.46762 22.40287 14.25638
Si -10.18313 25.11838 14.25638
Si -7.46762 25.11838 11.54087
Si -6.10987 23.76062 12.89863
Si -6.10987 26.47612 15.61412
Si -8.82538 23.76062 15.61412
Si -8.82538 26.47612 12.89863
Si -10.18313 27.83387  0.67888
Si -7.46762 27.83387  3.39437
Si -10.18313 30.54938  3.39437
Si -7.46762 30.54938  0.67888
Si -6.10987 29.19163  2.03662
Si -6.10987 31.90712  4.75213
Si -8.82538 29.19163  4.75213
Si -8.82538 31.90712  2.03662
Si -10.18313 27.83387  6.10987
Si -7.46762 27.83387  8.82538
Si -10.18313 30.54938  8.82538
Si -7.46762 30.54938  6.10987
Si -6.10987 29.19163  7.46762
Si -6.10987 31.90712 10.18313
Si -8.82538 29.19163 10.18313
Si -8.82538 31.90712  7.46762
Si -10.18313 27.83387 11.54087
Si -7.46762 27.83387 14.25638
Si -10.18313 30.54938 14.25638
Si -7.46762 30.54938 11.54087
Si -6.10987 29.19163 12.89863
Si -6.10987 31.90712 15.61412
Si -8.82538 29.19163 15.61412
Si -8.82538 31.90712 12.89863
Si -4.75213 16.97188  0.67888
Si -2.03662 16.97188  3.39437
Si -4.75213 19.68737  3.39437
Si -2.03662 19.68737  0.67888
Si -0.67888 18.32963  2.03662
Si -0.67888 21.04513  4.75213
Si -3.39437 18.32963  4.75213
Si -3.39437 21.04513  2.03662
Si -4.75213 16.97188  6.10987
Si -2.03662 16.97188  8.82538
Si -4.75213 19.68737  8.82538
Si -2.03662 19.68737  6.10987
Si -0.67888 18.32963  7.46762
Si -0.67888 21.04513 10.18313
Si -3.39437 18.32963 10.18313
Si -3.39437 21.04513  7.46762
Si -4.75213 16.97188 11.54087
Si -2.03662 16.97188 14.25638
Si -4.75213 19.68737 14.25638
Si -2.03662 19.68737 11.54087
Si -0.67888 18.32963 12.89863
Si -0.67888 21.04513 15.61412
Si -3.39437 18.32963 15.61412
Si -3.39437 21.04513 12.89863
Si -4.75213 22.40287  0.67888
Si -2.03662 22.40287  3.39437
Si -4.75213 25.11838  3.39437
Si -2.03662 25.11838  0.67888
Si -0.67888 23.76062  2.03662
Si -0.67888 26.47612  4.75213
Si -3.39437 23.76062  4.75213
Si -3.39437 26.47612  2.03662
Si -4.75213 22.40287  6.10987
Si -2.03662 22.40287  8.82538
Si -4.75213 25.11838  8.82538
Si -2.03662 25.11838  6.10987
Si -0.67888 23.76062  7.46762
Si -0.67888 26.47612 10.18313
Si -3.39437 23.76062 10.18313
Si -3.39437 26.47612  7.46762
Si -4.75213 22.40287 11.54087
Si -2.03662 22.40287 14.25638
Si -4.75213 25.11838 14.25638
Si -2.03662 25.11838 11.54087
Si -0.67888 23.76062 12.89863
Si -0.67888 26.47612 15.61412
Si -3.39437 23.76062 15.61412
Si -3.39437 26.47612 12.89863
Si -4.75213 27.83387  0.67888
Si -2.03662 27.83387  3.39437
Si -4.75213 30.54938  3.39437
Si -2.03662 30.54938  0.67888
Si -0.67888 29.19163  2.03662
Si -0.67888 31.90712  4.75213
Si -3.39437 29.19163  4.75213
Si -3.39437 31.90712  2.03662
Si -4.75213 27.83387  6.10987
Si -2.03662 27.83387  8.82538
Si -4.75213 30.54938  8.82538
Si -2.03662 30.54938  6.10987
Si -0.67888 29.19163  7.46762
Si -0.67888 31.90712 10.18313
Si -3.39437 29.19163 10.18313
Si -3.39437 31.90712  7.46762
Si -4.75213 27.83387 11.54087
Si -2.03662 27.83387 14.25638
Si -4.75213 30.54938 14.25638
Si -2.03662 30.54938 11.54087
Si -0.67888 29.19163 12.89863
Si -0.67888 31.90712 15.61412
Si -3.39437 29.19163 15.61412
Si -3.39437 31.90712 12.89863
Si -15.61412 16.97188 16.97188
Si -12.89863 16.97188 19.68737
Si -15.61412 19.68737 19.68737
Si -12.89863 19.68737 16.97188
Si -11.54087 18.32963 18.32963
Si -11.54087 21.04513 21.04513
Si -14.25638 18.32963 21.04513
Si -14.25638 21.04513 18.32963
Si -15.61412 16.97188 22.40287
Si -12.89863 16.97188 25.11838
Si -15.61412 19.68737 25.11838
Si -12.89863 19.68737 22.40287
Si -11.54087 18.32963 23.76062
Si -11.54087 21.04513 26.47612
Si -14.25638 18.32963 26.47612
Si -14.25638 21.04513 23.76062
Si -15.61412 16.97188 27.83387
Si -12.89863 16.97188 30.54938
Si -15.61412 19.68737 30.54938
Si -12.89863 19.68737 27.83387
Si -11.54087 18.32963 29.19163
Si -11.54087 21.04513 31.90712
Si -14.25638 18.32963 31.90712
Si -14.25638 21.04513 29.19163
Si -15.61412 22.40287 16.97188
Si -12.89863 22.40287 19.68737
Si -15.61412 25.11838 19.68737
Si -12.89863 25.11838 16.97188
Si -11.54087 23.76062 18.32963
Si -11.54087 26.47612 21.04513
Si -14.25638 23.76062 21.04513
Si -14.25638 26.47612 18.32963
Si -15.61412 22.40287 22.40287
Si -12.89863 22.40287 25.11838
Si -15.61412 25.11838 25.11838
Si -12.89863 25.11838 22.40287
Si -11.54087 23.76062 23.76062
Si -11.54087 26.47612 26.47612
Si -14.25638 23.76062 26.47612
Si -14.25638 26.47612 23.76062
Si -15.61412 22.40287 27.83387
Si -12.89863 22.40287 30.54938
Si -15.61412 25.11838 30.54938
Si -12.89863 25.11838 27.83387
Si -11.54087 23.76062 29.19163
Si -11.54087 26.47612 31.90712
Si -14.25638 23.76062 31.90712
Si -14.25638 26.47612 29.19163
Si -15.61412 27.83387 16.97188
Si -12.89863 27.83387 19.68737
Si -15.61412 30.54938 19.68737
Si -12.89863 30.54938 16.97188
Si -11.54087 29.19163 18.32963
Si -11.54087 31.90712 21.04513
Si -14.25638 29.19163 21.04513
Si -14.25638 31.90712 18.32963
Si -15.61412 27.83387 22.40287
Si -12.89863 27.83387 25.11838
Si -15.61412 30.54938 25.11838
Si -12.89863 30.54938 22.40287
Si -11.54087 29.19163 23.76062
Si -11.54087 31.90712 26.47612
Si -14.25638 29.19163 26.47612
Si -14.25638 31.90712 23.76062
Si -15.61412 27.83387 27.83387
Si -12.89863 27.83387 30.54938
Si -15.61412 30.54938 30.54938
Si -12.89863 30.54938 27.83387
Si -11.54087 29.19163 29.19163
Si -11.54087 31.90712 31.90712
Si -14.25638 29.19163 31.90712
Si -14.25638 31.90712 29.19163
Si -10.18313 16.97188 16.97188
Si -7.46762 16.97188 19.68737
Si -10.18313 19.68737 19.68737
Si -7.46762 19.68737 16.97188
Si -6.10987 18.32963 18.32963
Si -6.10987 21.04513 21.04513
Si -8.82538 18.32963 21.04513
Si -8.82538 21.04513 18.32963
Si -10.18313 16.97188 22.40287
Si -7.46762 16.97188 25.11838
Si -10.18313 19.68737 25.11838
Si -7.46762 19.68737 22.40287
Si -6.10987 18.32963 23.76062
Si -6.10987 21.04513 26.47612
Si -8.82538 18.32963 26.47612
Si -8.82538 21.04513 23.76062
Si -10.18313 16.97188 27.83387
Si -7.46762 16.97188 30.54938
Si -10.18313 19.68737 30.54938
Si -7.46762 19.68737 27.83387
Si -6.10987 18.32963 29.19163
Si -6.10987 21.04513 31.90712
Si -8.82538 18.32963 31.90712
Si -8.82538 21.04513 29.19163
Si -10.18313 22.40287 16.97188
Si -7.46762 22.40287 19.68737
Si -10.18313 25.11838 19.68737
Si -7.46762 25.11838 16.97188
Si -6.10987 23.76062 18.32963
Si -6.10987 26.47612 21.04513
Si -8.82538 23.76062 21.04513
Si -8.82538 26.47612 18.32963
Si -10.18313 22.40287 22.40287
Si -7.46762 22.40287 25.11838
Si -10.18313 25.11838 25.11838
Si -7.46762 25.11838 22.40287
Si -6.10987 23.76062 23.76062
Si -6.10987 26.47612 26.47612
Si -8.82538 23.76062 26.47612
Si -8.82538 26.47612 23.76062
Si -10.18313 22.40287 27.83387
Si -7.46762 22.40287 30.54938
Si -10.18313 25.11838 30.54938
Si -7.46762 25.11838 27.83387
Si -6.10987 23.76062 29.19163
Si -6.10987 26.47612 31.90712
Si -8.82538 23.76062 31.90712
Si -8.82538 26.47612 29.19163
Si -10.18313 27.83387 16.97188
Si -7.46762 27.83387 19.68737
Si -10.18313 30.54938 19.68737
Si -7.46762 30.54938 16.97188
Si -6.10987 29.19163 18.32963
Si -6.10987 31.90712 21.04513
Si -8.82538 29.19163 21.04513
Si -8.82538 31.90712 18.32963
Si -10.18313 27.83387 22.40287
Si -7.46762 27.83387 25.11838
Si -10.18313 30.54938 25.11838
Si -7.46762 30.54938 22.40287
Si -6.10987 29.19163 23.76062
Si -6.10987 31.90712 26.47612
Si -8.82538 29.19163 26.47612
Si -8.82538 31.90712 23.76062
Si -10.18313 27.83387 27.83387
Si -7.46762 27.83387 30.54938
Si -10.18313 30.54938 30.54938
Si -7.46762 30.54938 27.83387
Si -6.10987 29.19163 29.19163
Si -6.10987 31.90712 31.90712
Si -8.82538 29.19163 31.90712
Si -8.82538 31.90712 29.19163
Si -4.75213 16.97188 16.97188
Si -2.03662 16.97188 19.68737
Si -4.75213 19.68737 19.68737
Si -2.03662 19.68737 16.97188
Si -0.67888 18.32963 18.32963
Si -0.67888 21.04513 21.04513
Si -3.39437 18.32963 21.04513
Si -3.39437 21.04513 18.32963
Si -4.75213 16.97188 22.40287
Si -2.03662 16.97188 25.11838
Si -4.75213 19.68737 25.11838
Si -2.03662 19.68737 22.40287
Si -0.67888 18.32963 23.76062
Si -0.67888 21.04513 26.47612
Si -3.39437 18.32963 26.47612
Si -3.39437 21.04513 23.76062
Si -4.75213 16.97188 27.83387
Si -2.03662 16.97188 30.54938
Si -4.75213 19.68737 30.54938
Si -2.03662 19.68737 27.83387
Si -0.67888 18.32963 29.19163
Si -0.67888 21.04513 31.90712
Si -3.39437 18.32963 31.90712
Si -3.39437 21.04513 29.19163
Si -4.75213 22.40287 16.97188
Si -2.03662 22.40287 19.68737
Si -4.75213 25.11838 19.68737
Si -2.03662 25.11838 16.97188
Si -0.67888 23.76062 18.32963
Si -0.67888 26.47612 21.04513
Si -3.39437 23.76062 21.04513
Si -3.39437 26.47612 18.32963
Si -4.75213 22.40287 22.40287
Si -2.03662 22.40287 25.11838
Si -4.75213 25.11838 25.11838
Si -2.03662 25.11838 22.40287
Si -0.67888 23.76062 23.76062
Si -0.67888 26.47612 26.47612
Si -3.39437 23.76062 26.47612
Si -3.39437 26.47612 23.76062
Si -4.75213 22.40287 27.83387
Si -2.03662 22.40287 30.54938
Si -4.75213 25.11838 30.54938
Si -2.03662 25.11838 27.83387
Si -0.67888 23.76062 29.19163
Si -0.67888 26.47612 31.90712
Si -3.39437 23.76062 31.90712
Si -3.39437 26.47612 29.19163
Si -4.75213 27.83387 16.97188
Si -2.03662 27.83387 19.68737
Si -4.75213 30.54938 19.68737
Si -2.03662 30.54938 16.97188
Si -0.67888 29.19163 18.32963
Si -0.67888 31.90712 21.04513
Si -3.39437 29.19163 21.04513
Si -3.39437 31.90712 18.32963
Si -4.75213 27.83387 22.40287
Si -2.03662 27.83387 25.11838
Si -4.75213 30.54938 25.11838
Si -2.03662 30.54938 22.40287
Si -0.67888 29.19163 23.76062
Si -0.67888 31.90712 26.47612
Si -3.39437 29.19163 26.47612
Si -3.39437 31.90712 23.76062
Si -4.75213 27.83387 27.83387
Si -2.03662 27.83387 30.54938
Si -4.75213 30.54938 30.54938
Si -2.03662 30.54938 27.83387
Si -0.67888 29.19163 29.19163
Si -0.67888 31.90712 31.90712
Si -3.39437 29.19163 31.90712
Si -3.39437 31.90712 29.19163
Si  0.67888 -15.61412 -15.61412
Si  3.39437 -15.61412 -12.89863
Si  0.67888 -12.89863 -12.89863
Si  3.39437 -12.89863 -15.61412
Si  4.75213 -14.25638 -14.25638
Si  4.75213 -11.54087 -11.54087
Si  2.03662 -14.25638 -11.54087
Si  2.03662 -11.54087 -14.25638
Si  0.67888 -15.61412 -10.18313
Si  3.39437 -15.61412 -7.46762
Si  0.67888 -12.89863 -7.46762
Si  3.39437 -12.89863 -10.18313
Si  4.75213 -14.25638 -8.82538
Si  4.75213 -11.54087 -6.10987
Si  2.03662 -14.25638 -6.10987
Si  2.03662 -11.54087 -8.82538
Si  0.67888 -15.61412 -4.75213
Si  3.39437 -15.61412 -2.03662
Si  0.67888 -12.89863 -2.03662
Si  3.39437 -12.89863 -4.75213
Si  4.75213 -14.25638 -3.39437
Si  4.75213 -11.54087 -0.67888
Si  2.03662 -14.25638 -0.67888
Si  2.03662 -11.54087 -3.39437
Si  0.67888 -10.18313 -15.61412
Si  3.39437 -10.18313 -12.89863
Si  0.67888 -7.46762 -12.89863
Si  3.39437 -7.46762 -15.61412
Si  4.75213 -8.82538 -14.25638
Si  4.75213 -6.10987 -11.54087
Si  2.03662 -8.82538 -11.54087
Si  2.03662 -6.10987 -14.25638
Si  0.67888 -10.18313 -10.18313
Si  3.39437 -10.18313 -7.46762
Si  0.67888 -7.46762 -7.46762
Si  3.39437 -7.46762 -10.18313
Si  4.75213 -8.82538 -8.82538
Si  4.75213 -6.10987 -6.10987
Si  2.03662 -8.82538 -6.10987
Si  2.03662 -6.10987 -8.82538
Si  0.67888 -10.18313 -4.75213
Si  3.39437 -10.18313 -2.03662
Si  0.67888 -7.46762 -2.03662
Si  3.39437 -7.46762 -4.75213
Si  4.75213 -8.82538 -3.39437
Si  4.75213 -6.10987 -0.67888
Si  2.03662 -8.82538 -0.67888
Si  2.03662 -6.10987 -3.39437
Si  0.67888 -4.75213 -15.61412
Si  3.39437 -4.75213 -12.89863
Si  0.67888 -2.03662 -12.89863
Si  3.39437 -2.03662 -15.61412
Si  4.75213 -3.39437 -14.25638
Si  4.75213 -0.67888 -11.54087
Si  2.03662 -3.39437 -11.54087
Si  2.03662 -0.67888 -14.25638
Si  0.67888 -4.75213 -10.18313
Si  3.39437 -4.75213 -7.46762
Si  0.67888 -2.03662 -7.46762
Si  3.39437 -2.03662 -10.18313
Si  4.75213 -3.39437 -8.82538
Si  4.75213 -0.67888 -6.10987
Si  2.03662 -3.39437 -6.10987
Si  2.03662 -0.67888 -8.82538
Si  0.67888 -4.75213 -4.75213
Si  3.39437 -4.75213 -2.03662
Si  0.67888 -2.03662 -2.03662
Si  3.39437 -2.03662 -4.75213
Si  4.75213 -3.39437 -3.39437
Si  4.75213 -0.67888 -0.67888
Si  2.03662 -3.39437 -0.67888
Si  2.03662 -0.67888 -3.39437
Si  6.10987 -15.61412 -15.61412
Si  8.82538 -15.61412 -12.89863
Si  6.10987 -12.89863 -12.89863
Si  8.82538 -12.89863 -15.61412
Si 10.18313 -14.25638 -14.25638
Si 10.18313 -11.54087 -11.54087
Si  7.46762 -14.25638 -11.54087
Si  7.46762 -11.54087 -14.25638
Si  6.10987 -15.61412 -10.18313
Si  8.82538 -15.61412 -7.46762
Si  6.10987 -12.89863 -7.46762
Si  8.82538 -12.89863 -10.18313
Si 10.18313 -14.25638 -8.82538
Si 10.18313 -11.54087 -6.10987
Si  7.46762 -14.25638 -6.10987
Si  7.46762 -11.54087 -8.82538
Si  6.10987 -15.61412 -4.75213
Si  8.82538 -15.61412 -2.03662
Si  6.10987 -12.89863 -2.03662
Si  8.82538 -12.89863 -4.75213
Si 10.18313 -14.25638 -3.39437
Si 10.18313 -11.54087 -0.67888
Si  7.46762 -14.25638 -0.67888
Si  7.46762 -11.54087 -3.39437
Si  6.10987 -10.18313 -15.61412
Si  8.82538 -10.18313 -12.89863
Si  6.10987 -7.46762 -12.89863
Si  8.82538 -7.46762 -15.61412
Si 10.18313 -8.82538 -14.25638
Si 10.18313 -6.10987 -11.54087
Si  7.46762 -8.82538 -11.54087
Si  7.46762 -6.10987 -14.25638
Si  6.10987 -10.18313 -10.18313
Si  8.82538 -10.18313 -7.46762
Si  6.10987 -7.46762 -7.46762
Si  8.82538 -7.46762 -10.18313
Si 10.18313 -8.82538 -8.82538
Si 10.18313 -6.10987 -6.10987
Si  7.46762 -8.82538 -6.10987
Si  7.46762 -6.10987 -8.82538
Si  6.10987 -10.18313 -4.75213
Si  8.82538 -10.18313 -2.03662
Si  6.10987 -7.46762 -2.03662
Si  8.82538 -7.46762 -4.75213
Si 10.18313 -8.82538 -3.39437
Si 10.18313 -6.10987 -0.67888
Si  7.46762 -8.82538 -0.67888
Si  7.46762 -6.10987 -3.39437
Si  6.10987 -4.75213 -15.61412
Si  8.82538 -4.75213 -12.89863
Si  6.10987 -2.03662 -12.89863
Si  8.82538 -2.03662 -15.61412
Si 10.18313 -3.39437 -14.25638
Si 10.18313 -0.67888 -11.54087
Si  7.46762 -3.39437 -11.54087
Si  7.46762 -0.67888 -14.25638
Si  6.10987 -4.75213 -10.18313
Si  8.82538 -4.75213 -7.46762
Si  6.10987 -2.03662 -7.46762
Si  8.82538 -2.03662 -10.18313
Si 10.18313 -3.39437 -8.82538
Si 10.18313 -0.67888 -6.10987
Si  7.46762 -3.39437 -6.10987
Si  7.46762 -0.67888 -8.82538
Si  6.10987 -4.75213 -4.75213
Si  8.82538 -4.75213 -2.03662
Si  6.10987 -2.03662 -2.03662
Si  8.82538 -2.03662 -4.75213
Si 10.18313 -3.39437 -3.39437
Si 10.18313 -0.67888 -0.67888
Si  7.46762 -3.39437 -0.67888
Si  7.46762 -0.67888 -3.39437
Si 11.54087 -15.61412 -15.61412
Si 14.25638 -15.61412 -12.89863
Si 11.54087 -12.89863 -12.89863
Si 14.25638 -12.89863 -15.61412
Si 15.61412 -14.25638 -14.25638
Si 15.61412 -11.54087 -11.54087
Si 12.89863 -14.25638 -11.54087
Si 12.89863 -11.54087 -14.25638
Si 11.54087 -15.61412 -10.18313
Si 14.25638 -15.61412 -7.46762
Si 11.54087 -12.89863 -7.46762
Si 14.25638 -12.89863 -10.18313
Si 15.61412 -14.25638 -8.82538
Si 15.61412 -11.54087 -6.10987
Si 12.89863 -14.25638 -6.10987
Si 12.89863 -11.54087 -8.82538
Si 11.54087 -15.61412 -4.75213
Si 14.25638 -15.61412 -2.03662
Si 11.54087 -12.89863 -2.03662
Si 14.25638 -12.89863 -4.75213
Si 15.61412 -14.25638 -3.39437
Si 15.61412 -11.54087 -0.67888
Si 12.89863 -14.25638 -0.67888
Si 12.89863 -11.54087 -3.39437
Si 11.54087 -10.18313 -15.61412
Si 14.25638 -10.18313 -12.89863
Si 11.54087 -7.46762 -12.89863
Si 14.25638 -7.46762 -15.61412
Si 15.61412 -8.82538 -14.25638
Si 15.61412 -6.10987 -11.54087
Si 12.89863 -8.82538 -11.54087
Si 12.89863 -6.10987 -14.25638
Si 11.54087 -10.18313 -10.18313
Si 14.25638 -10.18313 -7.46762
Si 11.54087 -7.46762 -7.46762
Si 14.25638 -7.46762 -10.18313
Si 15.61412 -8.82538 -8.82538
Si 15.61412 -6.10987 -6.10987
Si 12.89863 -8.82538 -6.10987
Si 12.89863 -6.10987 -8.82538
Si 11.54087 -10.18313 -4.75213
Si 14.25638 -10.18313 -2.03662
Si 11.54087 -7.46762 -2.03662
Si 14.25638 -7.46762 -4.75213
Si 15.61412 -8.82538 -3.39437
Si 15.61412 -6.10987 -0.67888
Si 12.89863 -8.82538 -0.67888
Si 12.89863 -6.10987 -3.39437
Si 11.54087 -4.75213 -15.61412
Si 14.25638 -4.75213 -12.89863
Si 11.54087 -2.03662 -12.89863
Si 14.25638 -2.03662 -15.61412
Si 15.61412 -3.39437 -14.25638
Si 15.61412 -0.67888 -11.54087
Si 12.89863 -3.39437 -11.54087
Si 12.89863 -0.67888 -14.25638
Si 11.54087 -4.75213 -10.18313
Si 14.25638 -4.75213 -7.46762
Si 11.54087 -2.03662 -7.46762
Si 14.25638 -2.03662 -10.18313
Si 15.61412 -3.39437 -8.82538
Si 15.61412 -0.67888 -6.10987
Si 12.89863 -3.39437 -6.10987
Si 12.89863 -0.67888 -8.82538
Si 11.54087 -4.75213 -4.75213
Si 14.25638 -4.75213 -2.03662
Si 11.54087 -2.03662 -2.03662
Si 14.25638 -2.03662 -4.75213
Si 15.61412 -3.39437 -3.39437
Si 15.61412 -0.67888 -0.67888
Si 12.89863 -3.39437 -0.67888
Si 12.89863 -0.67888 -3.39437
Si  0.67888 -15.61412  0.67888
Si  3.39437 -15.61412  3.39437
Si  0.67888 -12.89863  3.39437
Si  3.39437 -12.89863  0.67888
Si  4.75213 -14.25638  2.03662
Si  4.75213 -11.54087  4.75213
Si  2.03662 -14.25638  4.75213
Si  2.03662 -11.54087  2.03662
Si  0.67888 -15.61412  6.10987
Si  3.39437 -15.61412  8.82538
Si  0.67888 -12.89863  8.82538
Si  3.39437 -12.89863  6.10987
Si  4.75213 -14.25638  7.46762
Si  4.75213 -11.54087 10.18313
Si  2.03662 -14.25638 10.18313
Si  2.03662 -11.54087  7.46762
Si  0.67888 -15.61412 11.54087
Si  3.39437 -15.61412 14.25638
Si  0.67888 -12.89863 14.25638
Si  3.39437 -12.89863 11.54087
Si  4.75213 -14.25638 12.89863
Si  4.75213 -11.54087 15.61412
Si  2.03662 -14.25638 15.61412
Si  2.03662 -11.54087 12.89863
Si  0.67888 -10.18313  0.67888
Si  3.39437 -10.18313  3.39437
Si  0.67888 -7.46762  3.39437
Si  3.39437 -7.46762  0.67888
Si  4.75213 -8.82538  2.03662
Si  4.75213 -6.10987  4.75213
Si  2.03662 -8.82538  4.75213
Si  2.03662 -6.10987  2.03662
Si  0.67888 -10.18313  6.10987
Si  3.39437 -10.18313  8.82538
Si  0.67888 -7.46762  8.82538
Si  3.39437 -7.46762  6.10987
Si  4.75213 -8.82538  7.46762
Si  4.75213 -6.10987 10.18313
Si  2.03662 -8.82538 10.18313
Si  2.03662 -6.10987  7.46762
Si  0.67888 -10.18313 11.54087
Si  3.39437 -10.18313 14.25638
Si  0.67888 -7.46762 14.25638
Si  3.39437 -7.46762 11.54087
Si  4.75213 -8.82538 12.89863
Si  4.75213 -6.10987 15.61412
Si  2.03662 -8.82538 15.61412
Si  2.03662 -6.10987 12.89863
Si  0.67888 -4.75213  0.67888
Si  3.39437 -4.75213  3.39437
Si  0.67888 -2.03662  3.39437
Si  3.39437 -2.03662  0.67888
Si  4.75213 -3.39437  2.03662
Si  4.75213 -0.67888  4.75213
Si  2.03662 -3.39437  4.75213
Si  2.03662 -0.67888  2.03662
Si  0.67888 -4.75213  6.10987
Si  3.39437 -4.75213  8.82538
Si  0.67888 -2.03662  8.82538
Si  3.39437 -2.03662  6.10987
Si  4.75213 -3.39437  7.46762
Si  4.75213 -0.67888 10.18313
Si  2.03662 -3.39437 10.18313
Si  2.03662 -0.67888  7.46762
Si  0.67888 -4.75213 11.54087
Si  3.39437 -4.75213 14.25638
Si  0.67888 -2.03662 14.25638
Si  3.39437 -2.03662 11.54087
Si  4.75213 -3.39437 12.89863
Si  4.75213 -0.67888 15.61412
Si  2.03662 -3.39437 15.61412
Si  2.03662 -0.67888 12.89863
Si  6.10987 -15.61412  0.67888
Si  8.82538 -15.61412  3.39437
Si  6.10987 -12.89863  3.39437
Si  8.82538 -12.89863  0.67888
Si 10.18313 -14.25638  2.03662
Si 10.18313 -11.54087  4.75213
Si  7.46762 -14.25638  4.75213
Si  7.46762 -11.54087  2.03662
Si  6.10987 -15.61412  6.10987
Si  8.82538 -15.61412  8.82538
Si  6.10987 -12.89863  8.82538
Si  8.82538 -12.89863  6.10987
Si 10.18313 -14.25638  7.46762
Si 10.18313 -11.54087 10.18313
Si  7.46762 -14.25638 10.18313
Si  7.46762 -11.54087  7.46762
Si  6.10987 -15.61412 11.54087
Si  8.82538 -15.61412 14.25638
Si  6.10987 -12.89863 14.25638
Si  8.82538 -12.89863 11.54087
Si 10.18313 -14.25638 12.89863
Si 10.18313 -11.54087 15.61412
Si  7.46762 -14.25638 15.61412
Si  7.46762 -11.54087 12.89863
Si  6.10987 -10.18313  0.67888
Si  8.82538 -10.18313  3.39437
Si  6.10987 -7.46762  3.39437
Si  8.82538 -7.46762  0.67888
Si 10.18313 -8.82538  2.03662
Si 10.18313 -6.10987  4.75213
Si  7.46762 -8.82538  4.75213
Si  7.46762 -6.10987  2.03662
Si  6.10987 -10.18313  6.10987
Si  8.82538 -10.18313  8.82538
Si  6.10987 -7.46762  8.82538
Si  8.82538 -7.46762  6.10987
Si 10.18313 -8.82538  7.46762
Si 10.18313 -6.10987 10.18313
Si  7.46762 -8.82538 10.18313
Si  7.46762 -6.10987  7.46762
Si  6.10987 -10.18313 11.54087
Si  8.82538 -10.18313 14.25638
Si  6.10987 -7.46762 14.25638
Si  8.82538 -7.46762 11.54087
Si 10.18313 -8.82538 12.89863
Si 10.18313 -6.10987 15.61412
Si  7.46762 -8.82538 15.61412
Si  7.46762 -6.10987 12.89863
Si  6.10987 -4.75213  0.67888
Si  8.82538 -4.75213  3.39437
Si  6.10987 -2.03662  3.39437
Si  8.82538 -2.03662  0.67888
Si 10.18313 -3.39437  2.03662
Si 10.18313 -0.67888  4.75213
Si  7.46762 -3.39437  4.75213
Si  7.46762 -0.67888  2.03662
Si  6.10987 -4.75213  6.10987
Si  8.82538 -4.75213  8.82538
Si  6.10987 -2.03662  8.82538
Si  8.82538 -2.03662  6.10987
Si 10.18313 -3.39437  7.46762
Si 10.18313 -0.67888 10.18313
Si  7.46762 -3.39437 10.18313
Si  7.46762 -0.67888  7.46762
Si  6.10987 -4.75213 11.54087
Si  8.82538 -4.75213 14.25638
Si  6.10987 -2.03662 14.25638
Si  8.82538 -2.03662 11.54087
Si 10.18313 -3.39437 12.89863
Si 10.18313 -0.67888 15.61412
Si  7.46762 -3.39437 15.61412
Si  7.46762 -0.67888 12.89863
Si 11.54087 -15.61412  0.67888
Si 14.25638 -15.61412  3.39437
Si 11.54087 -12.89863  3.39437
Si 14.25638 -12.89863  0.67888
Si 15.61412 -14.25638  2.03662
Si 15.61412 -11.54087  4.75213
Si 12.89863 -14.25638  4.75213
Si 12.89863 -11.54087  2.03662
Si 11.54087 -15.61412  6.10987
Si 14.25638 -15.61412  8.82538
Si 11.54087 -12.89863  8.82538
Si 14.25638 -12.89863  6.10987
Si 15.61412 -14.25638  7.46762
Si 15.61412 -11.54087 10.18313
Si 12.89863 -14.25638 10.18313
Si 12.89863 -11.54087  7.46762
Si 11.54087 -15.61412 11.54087
Si 14.25638 -15.61412 14.25638
Si 11.54087 -12.89863 14.25638
Si 14.25638 -12.89863 11.54087
Si 15.61412 -14.25638 12.89863
Si 15.61412 -11.54087 15.61412
Si 12.89863 -14.25638 15.61412
Si 12.89863 -11.54087 12.89863
Si 11.54087 -10.18313  0.67888
Si 14.25638 -10.18313  3.39437
Si 11.54087 -7.46762  3.39437
Si 14.25638 -7.46762  0.67888
Si 15.61412 -8.82538  2.03662
Si 15.61412 -6.10987  4.75213
Si 12.89863 -8.82538  4.75213
Si 12.89863 -6.10987  2.03662
Si 11.54087 -10.18313  6.10987
Si 14.25638 -10.18313  8.82538
Si 11.54087 -7.46762  8.82538
Si 14.25638 -7.46762  6.10987
Si 15.61412 -8.82538  7.46762
Si 15.61412 -6.10987 10.18313
Si 12.89863 -8.82538 10.18313
Si 12.89863 -6.10987  7.46762
Si 11.54087 -10.18313 11.54087
Si 14.25638 -10.18313 14.25638
Si 11.54087 -7.46762 14.25638
Si 14.25638 -7.46762 11.54087
Si 15.61412 -8.82538 12.89863
Si 15.61412 -6.10987 15.61412
Si 12.89863 -8.82538 15.61412
Si 12.89863 -6.10987 12.89863
Si 11.54087 -4.75213  0.67888
Si 14.25638 -4.75213  3.39437
Si 11.54087 -2.03662  3.39437
Si 14.25638 -2.03662  0.67888
Si 15.61412 -3.39437  2.03662
Si 15.61412 -0.67888  4.75213
Si 12.89863 -3.39437  4.75213
Si 12.89863 -0.67888  2.03662
Si 11.54087 -4.75213  6.10987
Si 14.25638 -4.75213  8.82538
Si 11.54087 -2.03662  8.82538
Si 14.25638 -2.03662  6.10987
Si 15.61412 -3.39437  7.46762
Si 15.61412 -0.67888 10.18313
Si 12.89863 -3.39437 10.18313
Si 12.89863 -0.67888  7.46762
Si 11.54087 -4.75213 11.54087
Si 14.25638 -4.75213 14.25638
Si 11.54087 -2.03662 14.25638
Si 14.25638 -2.03662 11.54087
Si 15.61412 -3.39437 12.89863
Si 15.61412 -0.67888 15.61412
Si 12.89863 -3.39437 15.61412
Si 12.89863 -0.67888 12.89863
Si  0.67888 -15.61412 16.97188
Si  3.39437 -15.61412 19.68737
Si  0.67888 -12.89863 19.68737
Si  3.39437 -12.89863 16.97188
Si  4.75213 -14.25638 18.32963
Si  4.75213 -11.54087 21.04513
Si  2.03662 -14.25638 21.04513
Si  2.03662 -11.54087 18.32963
Si  0.67888 -15.61412 22.40287
Si  3.39437 -15.61412 25.11838
Si  0.67888 -12.89863 25.11838
Si  3.39437 -12.89863 22.40287
Si  4.75213 -14.25638 23.76062
Si  4.75213 -11.54087 26.47612
Si  2.03662 -14.25638 26.47612
Si  2.03662 -11.54087 23.76062
Si  0.67888 -15.61412 27.83387
Si  3.39437 -15.61412 30.54938
Si  0.67888 -12.89863 30.54938
Si  3.39437 -12.89863 27.83387
Si  4.75213 -14.25638 29.19163
Si  4.75213 -11.54087 31.90712
Si  2.03662 -14.25638 31.90712
Si  2.03662 -11.54087 29.19163
Si  0.67888 -10.18313 16.97188
Si  3.39437 -10.18313 19.68737
Si  0.67888 -7.46762 19.68737
Si  3.39437 -7.46762 16.97188
Si  4.75213 -8.82538 18.32963
Si  4.75213 -6.10987 21.04513
Si  2.03662 -8.82538 21.04513
Si  2.03662 -6.10987 18.32963
Si  0.67888 -10.18313 22.40287
Si  3.39437 -10.18313 25.11838
Si  0.67888 -7.46762 25.11838
Si  3.39437 -7.46762 22.40287
Si  4.75213 -8.82538 23.76062
Si  4.75213 -6.10987 26.47612
Si  2.03662 -8.82538 26.47612
Si  2.03662 -6.10987 23.76062
Si  0.67888 -10.18313 27.83387
Si  3.39437 -10.18313 30.54938
Si  0.67888 -7.46762 30.54938
Si  3.39437 -7.46762 27.83387
Si  4.75213 -8.82538 29.19163
Si  4.75213 -6.10987 31.90712
Si  2.03662 -8.82538 31.90712
Si  2.03662 -6.10987 29.19163
Si  0.67888 -4.75213 16.97188
Si  3.39437 -4.75213 19.68737
Si  0.67888 -2.03662 19.68737
Si  3.39437 -2.03662 16.97188
Si  4.75213 -3.39437 18.32963
Si  4.75213 -0.67888 21.04513
Si  2.03662 -3.39437 21.04513
Si  2.03662 -0.67888 18.32963
Si  0.67888 -4.75213 22.40287
Si  3.39437 -4.75213 25.11838
Si  0.67888 -2.03662 25.11838
Si  3.39437 -2.03662 22.40287
Si  4.75213 -3.39437 23.76062
Si  4.75213 -0.67888 26.47612
Si  2.03662 -3.39437 26.47612
Si  2.03662 -0.67888 23.76062
Si  0.67888 -4.75213 27.83387
Si  3.39437 -4.75213 30.54938
Si  0.67888 -2.03662 30.54938
Si  3.39437 -2.03662 27.83387
Si  4.75213 -3.39437 29.19163
Si  4.75213 -0.67888 31.90712
Si  2.03662 -3.39437 31.90712
Si  2.03662 -0.67888 29.19163
Si  6.10987 -15.61412 16.97188
Si  8.82538 -15.61412 19.68737
Si  6.10987 -12.89863 19.68737
Si  8.82538 -12.89863 16.97188
Si 10.18313 -14.25638 18.32963
Si 10.18313 -11.54087 21.04513
Si  7.46762 -14.25638 21.04513
Si  7.46762 -11.54087 18.32963
Si  6.10987 -15.61412 22.40287
Si  8.82538 -15.61412 25.11838
Si  6.10987 -12.89863 25.11838
Si  8.82538 -12.89863 22.40287
Si 10.18313 -14.25638 23.76062
Si 10.18313 -11.54087 26.47612
Si  7.46762 -14.25638 26.47612
Si  7.46762 -11.54087 23.76062
Si  6.10987 -15.61412 27.83387
Si  8.82538 -15.61412 30.54938
Si  6.10987 -12.89863 30.54938
Si  8.82538 -12.89863 27.83387
Si 10.18313 -14.25638 29.19163
Si 10.18313 -11.54087 31.90712
Si  7.46762 -14.25638 31.90712
Si  7.46762 -11.54087 29.19163
Si  6.10987 -10.18313 16.97188
Si  8.82538 -10.18313 19.68737
Si  6.10987 -7.46762 19.68737
Si  8.82538 -7.46762 16.97188
Si 10.18313 -8.82538 18.32963
Si 10.18313 -6.10987 21.04513
Si  7.46762 -8.82538 21.04513
Si  7.46762 -6.10987 18.32963
Si  6.10987 -10.18313 22.40287
Si  8.82538 -10.18313 25.11838
Si  6.10987 -7.46762 25.11838
Si  8.82538 -7.46762 22.40287
Si 10.18313 -8.82538 23.76062
Si 10.18313 -6.10987 26.47612
Si  7.46762 -8.82538 26.47612
Si  7.46762 -6.10987 23.76062
Si  6.10987 -10.18313 27.83387
Si  8.82538 -10.18313 30.54938
Si  6.10987 -7.46762 30.54938
Si  8.82538 -7.46762 27.83387
Si 10.18313 -8.82538 29.19163
Si 10.18313 -6.10987 31.90712
Si  7.46762 -8.82538 31.90712
Si  7.46762 -6.10987 29.19163
Si  6.10987 -4.75213 16.97188
Si  8.82538 -4.75213 19.68737
Si  6.10987 -2.03662 19.68737
Si  8.82538 -2.03662 16.97188
Si 10.18313 -3.39437 18.32963
Si 10.18313 -0.67888 21.04513
Si  7.46762 -3.39437 21.04513
Si  7.46762 -0.67888 18.32963
Si  6.10987 -4.75213 22.40287
Si  8.82538 -4.75213 25.11838
Si  6.10987 -2.03662 25.11838
Si  8.82538 -2.03662 22.40287
Si 10.18313 -3.39437 23.76062
Si 10.18313 -0.67888 26.47612
Si  7.46762 -3.39437 26.47612
Si  7.46762 -0.67888 23.76062
Si  6.10987 -4.75213 27.83387
Si  8.82538 -4.75213 30.54938
Si  6.10987 -2.03662 30.54938
Si  8.82538 -2.03662 27.83387
Si 10.18313 -3.39437 29.19163
Si 10.18313 -0.67888 31.90712
Si  7.46762 -3.39437 31.90712
Si  7.46762 -0.67888 29.19163
Si 11.54087 -15.61412 16.97188
Si 14.25638 -15.61412 19.68737
Si 11.54087 -12.89863 19.68737
Si 14.25638 -12.89863 16.97188
Si 15.61412 -14.25638 18.32963
Si 15.61412 -11.54087 21.04513
Si 12.89863 -14.25638 21.04513
Si 12.89863 -11.54087 18.32963
Si 11.54087 -15.61412 22.40287
Si 14.25638 -15.61412 25.11838
Si 11.54087 -12.89863 25.11838
Si 14.25638 -12.89863 22.40287
Si 15.61412 -14.25638 23.76062
Si 15.61412 -11.54087 26.47612
Si 12.89863 -14.25638 26.47612
Si 12.89863 -11.54087 23.76062
Si 11.54087 -15.61412 27.83387
Si 14.25638 -15.61412 30.54938
Si 11.54087 -12.89863 30.54938
Si 14.25638 -12.89863 27.83387
Si 15.61412 -14.25638 29.19163
Si 15.61412 -11.54087 31.90712
Si 12.89863 -14.25638 31.90712
Si 12.89863 -11.54087 29.19163
Si 11.54087 -10.18313 16.97188
Si 14.25638 -10.18313 19.68737
Si 11.54087 -7.46762 19.68737
Si 14.25638 -7.46762 16.97188
Si 15.61412 -8.82538 18.32963
Si 15.61412 -6.10987 21.04513
Si 12.89863 -8.82538 21.04513
Si 12.89863 -6.10987 18.32963
Si 11.54087 -10.18313 22.40287
Si 14.25638 -10.18313 25.11838
Si 11.54087 -7.46762 25.11838
Si 14.25638 -7.46762 22.40287
Si 15.61412 -8.82538 23.76062
Si 15.61412 -6.10987 26.47612
Si 12.89863 -8.82538 26.47612
Si 12.89863 -6.10987 23.76062
Si 11.54087 -10.18313 27.83387
Si 14.25638 -10.18313 30.54938
Si 11.54087 -7.46762 30.54938
Si 14.25638 -7.46762 27.83387
Si 15.61412 -8.82538 29.19163
Si 15.61412 -6.10987 31.90712
Si 12.89863 -8.82538 31.90712
Si 12.89863 -6.10987 29.19163
Si 11.54087 -4.75213 16.97188
Si 14.25638 -4.75213 19.68737
Si 11.54087 -2.03662 19.68737
Si 14.25638 -2.03662 16.97188
Si 15.61412 -3.39437 18.32963
Si 15.61412 -0.67888 21.04513
Si 12.89863 -3.39437 21.04513
Si 12.89863 -0.67888 18.32963
Si 11.54087 -4.75213 22.40287
Si 14.25638 -4.75213 25.11838
Si 11.54087 -2.03662 25.11838
Si 14.25638 -2.03662 22.40287
Si 15.61412 -3.39437 23.76062
Si 15.61412 -0.67888 26.47612
Si 12.89863 -3.39437 26.47612
Si 12.89863 -0.67888 23.76062
Si 11.54087 -4.75213 27.83387
Si 14.25638 -4.75213 30.54938
Si 11.54087 -2.03662 30.54938
Si 14.25638 -2.03662 27.83387
Si 15.61412 -3.39437 29.19163
Si 15.61412 -0.67888 31.90712
Si 12.89863 -3.39437 31.90712
Si 12.89863 -0.67888 29.19163
Si  0.67888  0.67888 -15.61412
Si  3.39437  0.67888 -12.89863
Si  0.67888  3.39437 -12.89863
Si  3.39437  3.39437 -15.61412
Si  4.75213  2.03662 -14.25638
Si  4.75213  4.75213 -11.54087
Si  2.03662  2.03662 -11.54087
Si  2.03662  4.75213 -14.25638
Si  0.67888  0.67888 -10.18313
Si  3.39437  0.67888 -7.46762
Si  0.67888  3.39437 -7.46762
Si  3.39437  3.39437 -10.18313
Si  4.75213  2.03662 -8.82538
Si  4.75213  4.75213 -6.10987
Si  2.03662  2.03662 -6.10987
Si  2.03662  4.75213 -8.82538
Si  0.67888  0.67888 -4.75213
Si  3.39437  0.67888 -2.03662
Si  0.67888  3.39437 -2.03662
Si  3.39437  3.39437 -4.75213
Si  4.75213  2.03662 -3.39437
Si  4.75213  4.75213 -0.67888
Si  2.03662  2.03662 -0.67888
Si  2.03662  4.75213 -3.39437
Si  0.67888  6.10987 -15.61412
Si  3.39437  6.10987 -12.89863
Si  0.67888  8.82538 -12.89863
Si  3.39437  8.82538 -15.61412
Si  4.75213  7.46762 -14.25638
Si  4.75213 10.18313 -11.54087
Si  2.03662  7.46762 -11.54087
Si  2.03662 10.18313 -14.25638
Si  0.67888  6.10987 -10.18313
Si  3.39437  6.10987 -7.46762
Si  0.67888  8.82538 -7.46762
Si  3.39437  8.82538 -10.18313
Si  4.75213  7.46762 -8.82538
Si  4.75213 10.18313 -6.10987
Si  2.03662  7.46762 -6.10987
Si  2.03662 10.18313 -8.82538
Si  0.67888  6.10987 -4.75213
Si  3.39437  6.10987 -2.03662
Si  0.67888  8.82538 -2.03662
Si  3.39437  8.82538 -4.75213
Si  4.75213  7.46762 -3.39437
Si  4.75213 10.18313 -0.67888
Si  2.03662  7.46762 -0.67888
Si  2.03662 10.18313 -3.39437
Si  0.67888 11.54087 -15.61412
Si  3.39437 11.54087 -12.89863
Si  0.67888 14.25638 -12.89863
Si  3.39437 14.25638 -15.61412
Si  4.75213 12.89863 -14.25638
Si  4.75213 15.61412 -11.54087
Si  2.03662 12.89863 -11.54087
Si  2.03662 15.61412 -14.25638
Si  0.67888 11.54087 -10.18313
Si  3.39437 11.54087 -7.46762
Si  0.67888 14.25638 -7.46762
Si  3.39437 14.25638 -10.18313
Si  4.75213 12.89863 -8.82538
Si  4.75213 15.61412 -6.10987
Si  2.03662 12.89863 -6.10987
Si  2.03662 15.61412 -8.82538
Si  0.67888 11.54087 -4.75213
Si  3.39437 11.54087 -2.03662
Si  0.67888 14.25638 -2.03662
Si  3.39437 14.25638 -4.75213
Si  4.75213 12.89863 -3.39437
Si  4.75213 15.61412 -0.67888
Si  2.03662 12.89863 -0.67888
Si  2.03662 15.61412 -3.39437
Si  6.10987  0.67888 -15.61412
Si  8.82538  0.67888 -12.89863
Si  6.10987  3.39437 -12.89863
Si  8.82538  3.39437 -15.61412
Si 10.18313  2.03662 -14.25638
Si 10.18313  4.75213 -11.54087
Si  7.46762  2.03662 -11.54087
Si  7.46762  4.75213 -14.25638
Si  6.10987  0.67888 -10.18313
Si  8.82538  0.67888 -7.46762
Si  6.10987  3.39437 -7.46762
Si  8.82538  3.39437 -10.18313
Si 10.18313  2.03662 -8.82538
Si 10.18313  4.75213 -6.10987
Si  7.46762  2.03662 -6.10987
Si  7.46762  4.75213 -8.82538
Si  6.10987  0.67888 -4.75213
Si  8.82538  0.67888 -2.03662
Si  6.10987  3.39437 -2.03662
Si  8.82538  3.39437 -4.75213
Si 10.18313  2.03662 -3.39437
Si 10.18313  4.75213 -0.67888
Si  7.46762  2.03662 -0.67888
Si  7.46762  4.75213 -3.39437
Si  6.10987  6.10987 -15.61412
Si  8.82538  6.10987 -12.89863
Si  6.10987  8.82538 -12.89863
Si  8.82538  8.82538 -15.61412
Si 10.18313  7.46762 -14.25638
Si 10.18313 10.18313 -11.54087
Si  7.46762  7.46762 -11.54087
Si  7.46762 10.18313 -14.25638
Si  6.10987  6.10987 -10.18313
Si  8.82538  6.10987 -7.46762
Si  6.10987  8.82538 -7.46762
Si  8.82538  8.82538 -10.18313
Si 10.18313  7.46762 -8.82538
Si 10.18313 10.18313 -6.10987
Si  7.46762  7.46762 -6.10987
Si  7.46762 10.18313 -8.82538
Si  6.10987  6.10987 -4.75213
Si  8.82538  6.10987 -2.03662
Si  6.10987  8.82538 -2.03662
Si  8.82538  8.82538 -4.75213
Si 10.18313  7.46762 -3.39437
Si 10.18313 10.18313 -0.67888
Si  7.46762  7.46762 -0.67888
Si  7.46762 10.18313 -3.39437
Si  6.10987 11.54087 -15.61412
Si  8.82538 11.54087 -12.89863
Si  6.10987 14.25638 -12.89863
Si  8.82538 14.25638 -15.61412
Si 10.18313 12.89863 -14.25638
Si 10.18313 15.61412 -11.54087
Si  7.46762 12.89863 -11.54087
Si  7.46762 15.61412 -14.25638
Si  6.10987 11.54087 -10.18313
Si  8.82538 11.54087 -7.46762
Si  6.10987 14.25638 -7.46762
Si  8.82538 14.25638 -10.18313
Si 10.18313 12.89863 -8.82538
Si 10.18313 15.61412 -6.10987
Si  7.46762 12.89863 -6.10987
Si  7.46762 15.61412 -8.82538
Si  6.10987 11.54087 -4.75213
Si  8.82538 11.54087 -2.03662
Si  6.10987 14.25638 -2.03662
Si  8.82538 14.25638 -4.75213
Si 10.18313 12.89863 -3.39437
Si 10.18313 15.61412 -0.67888
Si  7.46762 12.89863 -0.67888
Si  7.46762 15.61412 -3.39437
Si 11.54087  0.67888 -15.61412
Si 14.25638  0.67888 -12.89863
Si 11.54087  3.39437 -12.89863
Si 14.25638  3.39437 -15.61412
Si 15.61412  2.03662 -14.25638
Si 15.61412  4.75213 -11.54087
Si 12.89863  2.03662 -11.54087
Si 12.89863  4.75213 -14.25638
Si 11.54087  0.67888 -10.18313
Si 14.25638  0.67888 -7.46762
Si 11.54087  3.39437 -7.46762
Si 14.25638  3.39437 -10.18313
Si 15.61412  2.03662 -8.82538
Si 15.61412  4.75213 -6.10987
Si 12.89863  2.03662 -6.10987
Si 12.89863  4.75213 -8.82538
Si 11.54087  0.67888 -4.75213
Si 14.25638  0.67888 -2.03662
Si 11.54087  3.39437 -2.03662
Si 14.25638  3.39437 -4.75213
Si 15.61412  2.03662 -3.39437
Si 15.61412  4.75213 -0.67888
Si 12.89863  2.03662 -0.67888
Si 12.89863  4.75213 -3.39437
Si 11.54087  6.10987 -15.61412
Si 14.25638  6.10987 -12.89863
Si 11.54087  8.82538 -12.89863
Si 14.25638  8.82538 -15.61412
Si 15.61412  7.46762 -14.25638
Si 15.61412 10.18313 -11.54087
Si 12.89863  7.46762 -11.54087
Si 12.89863 10.18313 -14.25638
Si 11.54087  6.10987 -10.18313
Si 14.25638  6.10987 -7.46762
Si 11.54087  8.82538 -7.46762
Si 14.25638  8.82538 -10.18313
Si 15.61412  7.46762 -8.82538
Si 15.61412 10.18313 -6.10987
Si 12.89863  7.46762 -6.10987
Si 12.89863 10.18313 -8.82538
Si 11.54087  6.10987 -4.75213
Si 14.25638  6.10987 -2.03662
Si 11.54087  8.82538 -2.03662
Si 14.25638  8.82538 -4.75213
Si 15.61412  7.46762 -3.39437
Si 15.61412 10.18313 -0.67888
Si 12.89863  7.46762 -0.67888
Si 12.89863 10.18313 -3.39437
Si 11.54087 11.54087 -15.61412
Si 14.25638 11.54087 -12.89863
Si 11.54087 14.25638 -12.89863
Si 14.25638 14.25638 -15.61412
Si 15.61412 12.89863 -14.25638
Si 15.61412 15.61412 -11.54087
Si 12.89863 12.89863 -11.54087
Si 12.89863 15.61412 -14.25638
Si 11.54087 11.54087 -10.18313
Si 14.25638 11.54087 -7.46762
Si 11.54087 14.25638 -7.46762
Si 14.25638 14.25638 -10.18313
Si 15.61412 12.89863 -8.82538
Si 15.61412 15.61412 -6.10987
Si 12.89863 12.89863 -6.10987
Si 12.89863 15.61412 -8.82538
Si 11.54087 11.54087 -4.75213
Si 14.25638 11.54087 -2.03662
Si 11.54087 14.25638 -2.03662
Si 14.25638 14.25638 -4.75213
Si 15.61412 12.89863 -3.39437
Si 15.61412 15.61412 -0.67888
Si 12.89863 12.89863 -0.67888
Si 12.89863 15.61412 -3.39437
Si  0.67888  0.67888  0.67888
Si  3.39437  0.67888  3.39437
Si  0.67888  3.39437  3.39437
Si  3.39437  3.39437  0.67888
Si  4.75213  2.03662  2.03662
Si  4.75213  4.75213  4.75213
Si  2.03662  2.03662  4.75213
Si  2.03662  4.75213  2.03662
Si  0.67888  0.67888  6.10987
Si  3.39437  0.67888  8.82538
Si  0.67888  3.39437  8.82538
Si  3.39437  3.39437  6.10987
Si  4.75213  2.03662  7.46762
Si  4.75213  4.75213 10.18313
Si  2.03662  2.03662 10.18313
Si  2.03662  4.75213  7.46762
Si  0.67888  0.67888 11.54087
Si  3.39437  0.67888 14.25638
Si  0.67888  3.39437 14.25638
Si  3.39437  3.39437 11.54087
Si  4.75213  2.03662 12.89863
Si  4.75213  4.75213 15.61412
Si  2.03662  2.03662 15.61412
Si  2.03662  4.75213 12.89863
Si  0.67888  6.10987  0.67888
Si  3.39437  6.10987  3.39437
Si  0.67888  8.82538  3.39437
Si  3.39437  8.82538  0.67888
Si  4.75213  7.46762  2.03662
Si  4.75213 10.18313  4.75213
Si  2.03662  7.46762  4.75213
Si  2.03662 10.18313  2.03662
Si  0.67888  6.10987  6.10987
Si  3.39437  6.10987  8.82538
Si  0.67888  8.82538  8.82538
Si  3.39437  8.82538  6.10987
Si  4.75213  7.46762  7.46762
Si  4.75213 10.18313 10.18313
Si  2.03662  7.46762 10.18313
Si  2.03662 10.18313  7.46762
Si  0.67888  6.10987 11.54087
Si  3.39437  6.10987 14.25638
Si  0.67888  8.82538 14.25638
Si  3.39437  8.82538 11.54087
Si  4.75213  7.46762 12.89863
Si  4.75213 10.18313 15.61412
Si  2.03662  7.46762 15.61412
Si  2.03662 10.18313 12.89863
Si  0.67888 11.54087  0.67888
Si  3.39437 11.54087  3.39437
Si  0.67888 14.25638  3.39437
Si  3.39437 14.25638  0.67888
Si  4.75213 12.89863  2.03662
Si  4.75213 15.61412  4.75213
Si  2.03662 12.89863  4.75213
Si  2.03662 15.61412  2.03662
Si  0.67888 11.54087  6.10987
Si  3.39437 11.54087  8.82538
Si  0.67888 14.25638  8.82538
Si  3.39437 14.25638  6.10987
Si  4.75213 12.89863  7.46762
Si  4.75213 15.61412 10.18313
Si  2.03662 12.89863 10.18313
Si  2.03662 15.61412  7.46762
Si  0.67888 11.54087 11.54087
Si  3.39437 11.54087 14.25638
Si  0.67888 14.25638 14.25638
Si  3.39437 14.25638 11.54087
Si  4.75213 12.89863 12.89863
Si  4.75213 15.61412 15.61412
Si  2.03662 12.89863 15.61412
Si  2.03662 15.61412 12.89863
Si  6.10987  0.67888  0.67888
Si  8.82538  0.67888  3.39437
Si  6.10987  3.39437  3.39437
Si  8.82538  3.39437  0.67888
Si 10.18313  2.03662  2.03662
Si 10.18313  4.75213  4.75213
Si  7.46762  2.03662  4.75213
Si  7.46762  4.75213  2.03662
Si  6.10987  0.67888  6.10987
Si  8.82538  0.67888  8.82538
Si  6.10987  3.39437  8.82538
Si  8.82538  3.39437  6.10987
Si 10.18313  2.03662  7.46762
Si 10.18313  4.75213 10.18313
Si  7.46762  2.03662 10.18313
Si  7.46762  4.75213  7.46762
Si  6.10987  0.67888 11.54087
Si  8.82538  0.67888 14.25638
Si  6.10987  3.39437 14.25638
Si  8.82538  3.39437 11.54087
Si 10.18313  2.03662 12.89863
Si 10.18313  4.75213 15.61412
Si  7.46762  2.03662 15.61412
Si  7.46762  4.75213 12.89863
Si  6.10987  6.10987  0.67888
Si  8.82538  6.10987  3.39437
Si  6.10987  8.82538  3.39437
Si  8.82538  8.82538  0.67888
Si 10.18313  7.46762  2.03662
Si 10.18313 10.18313  4.75213
Si  7.46762  7.46762  4.75213
Si  7.46762 10.18313  2.03662
Si  6.10987  6.10987  6.10987
Si  8.82538  6.10987  8.82538
Si  6.10987  8.82538  8.82538
Si  8.82538  8.82538  6.10987
Si 10.18313  7.46762  7.46762
Si 10.18313 10.18313 10.18313
Si  7.46762  7.46762 10.18313
Si  7.46762 10.18313  7.46762
Si  6.10987  6.10987 11.54087
Si  8.82538  6.10987 14.25638
Si  6.10987  8.82538 14.25638
Si  8.82538  8.82538 11.54087
Si 10.18313  7.46762 12.89863
Si 10.18313 10.18313 15.61412
Si  7.46762  7.46762 15.61412
Si  7.46762 10.18313 12.89863
Si  6.10987 11.54087  0.67888
Si  8.82538 11.54087  3.39437
Si  6.10987 14.25638  3.39437
Si  8.82538 14.25638  0.67888
Si 10.18313 12.89863  2.03662
Si 10.18313 15.61412  4.75213
Si  7.46762 12.89863  4.75213
Si  7.46762 15.61412  2.03662
Si  6.10987 11.54087  6.10987
Si  8.82538 11.54087  8.82538
Si  6.10987 14.25638  8.82538
Si  8.82538 14.25638  6.10987
Si 10.18313 12.89863  7.46762
Si 10.18313 15.61412 10.18313
Si  7.46762 12.89863 10.18313
Si  7.46762 15.61412  7.46762
Si  6.10987 11.54087 11.54087
Si  8.82538 11.54087 14.25638
Si  6.10987 14.25638 14.25638
Si  8.82538 14.25638 11.54087
Si 10.18313 12.89863 12.89863
Si 10.18313 15.61412 15.61412
Si  7.46762 12.89863 15.61412
Si  7.46762 15.61412 12.89863
Si 11.54087  0.67888  0.67888
Si 14.25638  0.67888  3.39437
Si 11.54087  3.39437  3.39437
Si 14.25638  3.39437  0.67888
Si 15.61412  2.03662  2.03662
Si 15.61412  4.75213  4.75213
Si 12.89863  2.03662  4.75213
Si 12.89863  4.75213  2.03662
Si 11.54087  0.67888  6.10987
Si 14.25638  0.67888  8.82538
Si 11.54087  3.39437  8.82538
Si 14.25638  3.39437  6.10987
Si 15.61412  2.03662  7.46762
Si 15.61412  4.75213 10.18313
Si 12.89863  2.03662 10.18313
Si 12.89863  4.75213  7.46762
Si 11.54087  0.67888 11.54087
Si 14.25638  0.67888 14.25638
Si 11.54087  3.39437 14.25638
Si 14.25638  3.39437 11.54087
Si 15.61412  2.03662 12.89863
Si 15.61412  4.75213 15.61412
Si 12.89863  2.03662 15.61412
Si 12.89863  4.75213 12.89863
Si 11.54087  6.10987  0.67888
Si 14.25638  6.10987  3.39437
Si 11.54087  8.82538  3.39437
Si 14.25638  8.82538  0.67888
Si 15.61412  7.46762  2.03662
Si 15.61412 10.18313  4.75213
Si 12.89863  7.46762  4.75213
Si 12.89863 10.18313  2.03662
Si 11.54087  6.10987  6.10987
Si 14.25638  6.10987  8.82538
Si 11.54087  8.82538  8.82538
Si 14.25638  8.82538  6.10987
Si 15.61412  7.46762  7.46762
Si 15.61412 10.18313 10.18313
Si 12.89863  7.46762 10.18313
Si 12.89863 10.18313  7.46762
Si 11.54087  6.10987 11.54087
Si 14.25638  6.10987 14.25638
Si 11.54087  8.82538 14.25638
Si 14.25638  8.82538 11.54087
Si 15.61412  7.46762 12.89863
Si 15.61412 10.18313 15.61412
Si 12.89863  7.46762 15.61412
Si 12.89863 10.18313 12.89863
Si 11.54087 11.54087  0.67888
Si 14.25638 11.54087  3.39437
Si 11.54087 14.25638  3.39437
Si 14.25638 14.25638  0.67888
Si 15.61412 12.89863  2.03662
Si 15.61412 15.61412  4.75213
Si 12.89863 12.89863  4.75213
Si 12.89863 15.61412  2.03662
Si 11.54087 11.54087  6.10987
Si 14.25638 11.54087  8.82538
Si 11.54087 14.25638  8.82538
Si 14.25638 14.25638  6.10987
Si 15.61412 12.89863  7.46762
Si 15.61412 15.61412 10.18313
Si 12.89863 12.89863 10.18313
Si 12.89863 15.61412  7.46762
Si 11.54087 11.54087 11.54087
Si 14.25638 11.54087 14.25638
Si 11.54087 14.25638 14.25638
Si 14.25638 14.25638 11.54087
Si 15.61412 12.89863 12.89863
Si 15.61412 15.61412 15.61412
Si 12.89863 12.89863 15.61412
Si 12.89863 15.61412 12.89863
Si  0.67888  0.67888 16.97188
Si  3.39437  0.67888 19.68737
Si  0.67888  3.39437 19.68737
Si  3.39437  3.39437 16.97188
Si  4.75213  2.03662 18.32963
Si  4.75213  4.75213 21.04513
Si  2.03662  2.03662 21.04513
Si  2.03662  4.75213 18.32963
Si  0.67888  0.67888 22.40287
Si  3.39437  0.67888 25.11838
Si  0.67888  3.39437 25.11838
Si  3.39437  3.39437 22.40287
Si  4.75213  2.03662 23.76062
Si  4.75213  4.75213 26.47612
Si  2.03662  2.03662 26.47612
Si  2.03662  4.75213 23.76062
Si  0.67888  0.67888 27.83387
Si  3.39437  0.67888 30.54938
Si  0.67888  3.39437 30.54938
Si  3.39437  3.39437 27.83387
Si  4.75213  2.03662 29.19163
Si  4.75213  4.75213 31.90712
Si  2.03662  2.03662 31.90712
Si  2.03662  4.75213 29.19163
Si  0.67888  6.10987 16.97188
Si  3.39437  6.10987 19.68737
Si  0.67888  8.82538 19.68737
Si  3.39437  8.82538 16.97188
Si  4.75213  7.46762 18.32963
Si  4.75213 10.18313 21.04513
Si  2.03662  7.46762 21.04513
Si  2.03662 10.18313 18.32963
Si  0.67888  6.10987 22.40287
Si  3.39437  6.10987 25.11838
Si  0.67888  8.82538 25.11838
Si  3.39437  8.82538 22.40287
Si  4.75213  7.46762 23.76062
Si  4.75213 10.18313 26.47612
Si  2.03662  7.46762 26.47612
Si  2.03662 10.18313 23.76062
Si  0.67888  6.10987 27.83387
Si  3.39437  6.10987 30.54938
Si  0.67888  8.82538 30.54938
Si  3.39437  8.82538 27.83387
Si  4.75213  7.46762 29.19163
Si  4.75213 10.18313 31.90712
Si  2.03662  7.46762 31.90712
Si  2.03662 10.18313 29.19163
Si  0.67888 11.54087 16.97188
Si  3.39437 11.54087 19.68737
Si  0.67888 14.25638 19.68737
Si  3.39437 14.25638 16.97188
Si  4.75213 12.89863 18.32963
Si  4.75213 15.61412 21.04513
Si  2.03662 12.89863 21.04513
Si  2.03662 15.61412 18.32963
Si  0.67888 11.54087 22.40287
Si  3.39437 11.54087 25.11838
Si  0.67888 14.25638 25.11838
Si  3.39437 14.25638 22.40287
Si  4.75213 12.89863 23.76062
Si  4.75213 15.61412 26.47612
Si  2.03662 12.89863 26.47612
Si  2.03662 15.61412 23.76062
Si  0.67888 11.54087 27.83387
Si  3.39437 11.54087 30.54938
Si  0.67888 14.25638 30.54938
Si  3.39437 14.25638 27.83387
Si  4.75213 12.89863 29.19163
Si  4.75213 15.61412 31.90712
Si  2.03662 12.89863 31.90712
Si  2.03662 15.61412 29.19163
Si  6.10987  0.67888 16.97188
Si  8.82538  0.67888 19.68737
Si  6.10987  3.39437 19.68737
Si  8.82538  3.39437 16.97188
Si 10.18313  2.03662 18.32963
Si 10.18313  4.75213 21.04513
Si  7.46762  2.03662 21.04513
Si  7.46762  4.75213 18.32963
Si  6.10987  0.67888 22.40287
Si  8.82538  0.67888 25.11838
Si  6.10987  3.39437 25.11838
Si  8.82538  3.39437 22.40287
Si 10.18313  2.03662 23.76062
Si 10.18313  4.75213 26.47612
Si  7.46762  2.03662 26.47612
Si  7.46762  4.75213 23.76062
Si  6.10987  0.67888 27.83387
Si  8.82538  0.67888 30.54938
Si  6.10987  3.39437 30.54938
Si  8.82538  3.39437 27.83387
Si 10.18313  2.03662 29.19163
Si 10.18313  4.75213 31.90712
Si  7.46762  2.03662 31.90712
Si  7.46762  4.75213 29.19163
Si  6.10987  6.10987 16.97188
Si  8.82538  6.10987 19.68737
Si  6.10987  8.82538 19.68737
Si  8.82538  8.82538 16.97188
Si 10.18313  7.46762 18.32963
Si 10.18313 10.18313 21.04513
Si  7.46762  7.46762 21.04513
Si  7.46762 10.18313 18.32963
Si  6.10987  6.10987 22.40287
Si  8.82538  6.10987 25.11838
Si  6.10987  8.82538 25.11838
Si  8.82538  8.82538 22.40287
Si 10.18313  7.46762 23.76062
Si 10.18313 10.18313 26.47612
Si  7.46762  7.46762 26.47612
Si  7.46762 10.18313 23.76062
Si  6.10987  6.10987 27.83387
Si  8.82538  6.10987 30.54938
Si  6.10987  8.82538 30.54938
Si  8.82538  8.82538 27.83387
Si 10.18313  7.46762 29.19163
Si 10.18313 10.18313 31.90712
Si  7.46762  7.46762 31.90712
Si  7.46762 10.18313 29.19163
Si  6.10987 11.54087 16.97188
Si  8.82538 11.54087 19.68737
Si  6.10987 14.25638 19.68737
Si  8.82538 14.25638 16.97188
Si 10.18313 12.89863 18.32963
Si 10.18313 15.61412 21.04513
Si  7.46762 12.89863 21.04513
Si  7.46762 15.61412 18.32963
Si  6.10987 11.54087 22.40287
Si  8.82538 11.54087 25.11838
Si  6.10987 14.25638 25.11838
Si  8.82538 14.25638 22.40287
Si 10.18313 12.89863 23.76062
Si 10.18313 15.61412 26.47612
Si  7.46762 12.89863 26.47612
Si  7.46762 15.61412 23.76062
Si  6.10987 11.54087 27.83387
Si  8.82538 11.54087 30.54938
Si  6.10987 14.25638 30.54938
Si  8.82538 14.25638 27.83387
Si 10.18313 12.89863 29.19163
Si 10.18313 15.61412 31.90712
Si  7.46762 12.89863 31.90712
Si  7.46762 15.61412 29.19163
Si 11.54087  0.67888 16.97188
Si 14.25638  0.67888 19.68737
Si 11.54087  3.39437 19.68737
Si 14.25638  3.39437 16.97188
Si 15.61412  2.03662 18.32963
Si 15.61412  4.75213 21.04513
Si 12.89863  2.03662 21.04513
Si 12.89863  4.75213 18.32963
Si 11.54087  0.67888 22.40287
Si 14.25638  0.67888 25.11838
Si 11.54087  3.39437 25.11838
Si 14.25638  3.39437 22.40287
Si 15.61412  2.03662 23.76062
Si 15.61412  4.75213 26.47612
Si 12.89863  2.03662 26.47612
Si 12.89863  4.75213 23.76062
Si 11.54087  0.67888 27.83387
Si 14.25638  0.67888 30.54938
Si 11.54087  3.39437 30.54938
Si 14.25638  3.39437 27.83387
Si 15.61412  2.03662 29.19163
Si 15.61412  4.75213 31.90712
Si 12.89863  2.03662 31.90712
Si 12.89863  4.75213 29.19163
Si 11.54087  6.10987 16.97188
Si 14.25638  6.10987 19.68737
Si 11.54087  8.82538 19.68737
Si 14.25638  8.82538 16.97188
Si 15.61412  7.46762 18.32963
Si 15.61412 10.18313 21.04513
Si 12.89863  7.46762 21.04513
Si 12.89863 10.18313 18.32963
Si 11.54087  6.10987 22.40287
Si 14.25638  6.10987 25.11838
Si 11.54087  8.82538 25.11838
Si 14.25638  8.82538 22.40287
Si 15.61412  7.46762 23.76062
Si 15.61412 10.18313 26.47612
Si 12.89863  7.46762 26.47612
Si 12.89863 10.18313 23.76062
Si 11.54087  6.10987 27.83387
Si 14.25638  6.10987 30.54938
Si 11.54087  8.82538 30.54938
Si 14.25638  8.82538 27.83387
Si 15.61412  7.46762 29.19163
Si 15.61412 10.18313 31.90712
Si 12.89863  7.46762 31.90712
Si 12.89863 10.18313 29.19163
Si 11.54087 11.54087 16.97188
Si 14.25638 11.54087 19.68737
Si 11.54087 14.25638 19.68737
Si 14.25638 14.25638 16.97188
Si 15.61412 12.89863 18.32963
Si 15.61412 15.61412 21.04513
Si 12.89863 12.89863 21.04513
Si 12.89863 15.61412 18.32963
Si 11.54087 11.54087 22.40287
Si 14.25638 11.54087 25.11838
Si 11.54087 14.25638 25.11838
Si 14.25638 14.25638 22.40287
Si 15.61412 12.89863 23.76062
Si 15.61412 15.61412 26.47612
Si 12.89863 12.89863 26.47612
Si 12.89863 15.61412 23.76062
Si 11.54087 11.54087 27.83387
Si 14.25638 11.54087 30.54938
Si 11.54087 14.25638 30.54938
Si 14.25638 14.25638 27.83387
Si 15.61412 12.89863 29.19163
Si 15.61412 15.61412 31.90712
Si 12.89863 12.89863 31.90712
Si 12.89863 15.61412 29.19163
Si  0.67888 16.97188 -15.61412
Si  3.39437 16.97188 -12.89863
Si  0.67888 19.68737 -12.89863
Si  3.39437 19.68737 -15.61412
Si  4.75213 18.32963 -14.25638
Si  4.75213 21.04513 -11.54087
Si  2.03662 18.32963 -11.54087
Si  2.03662 21.04513 -14.25638
Si  0.67888 16.97188 -10.18313
Si  3.39437 16.97188 -7.46762
Si  0.67888 19.68737 -7.46762
Si  3.39437 19.68737 -10.18313
Si  4.75213 18.32963 -8.82538
Si  4.75213 21.04513 -6.10987
Si  2.03662 18.32963 -6.10987
Si  2.03662 21.04513 -8.82538
Si  0.67888 16.97188 -4.75213
Si  3.39437 16.97188 -2.03662
Si  0.67888 19.68737 -2.03662
Si  3.39437 19.68737 -4.75213
Si  4.75213 18.32963 -3.39437
Si  4.75213 21.04513 -0.67888
Si  2.03662 18.32963 -0.67888
Si  2.03662 21.04513 -3.39437
Si  0.67888 22.40287 -15.61412
Si  3.39437 22.40287 -12.89863
Si  0.67888 25.11838 -12.89863
Si  3.39437 25.11838 -15.61412
Si  4.75213 23.76062 -14.25638
Si  4.75213 26.47612 -11.54087
Si  2.03662 23.76062 -11.54087
Si  2.03662 26.47612 -14.25638
Si  0.67888 22.40287 -10.18313
Si  3.39437 22.40287 -7.46762
Si  0.67888 25.11838 -7.46762
Si  3.39437 25.11838 -10.18313
Si  4.75213 23.76062 -8.82538
Si  4.75213 26.47612 -6.10987
Si  2.03662 23.76062 -6.10987
Si  2.03662 26.47612 -8.82538
Si  0.67888 22.40287 -4.75213
Si  3.39437 22.40287 -2.03662
Si  0.67888 25.11838 -2.03662
Si  3.39437 25.11838 -4.75213
Si  4.75213 23.76062 -3.39437
Si  4.75213 26.47612 -0.67888
Si  2.03662 23.76062 -0.67888
Si  2.03662 26.47612 -3.39437
Si  0.67888 27.83387 -15.61412
Si  3.39437 27.83387 -12.89863
Si  0.67888 30.54938 -12.89863
Si  3.39437 30.54938 -15.61412
Si  4.75213 29.19163 -14.25638
Si  4.75213 31.90712 -11.54087
Si  2.03662 29.19163 -11.54087
Si  2.03662 31.90712 -14.25638
Si  0.67888 27.83387 -10.18313
Si  3.39437 27.83387 -7.46762
Si  0.67888 30.54938 -7.46762
Si  3.39437 30.54938 -10.18313
Si  4.75213 29.19163 -8.82538
Si  4.75213 31.90712 -6.10987
Si  2.03662 29.19163 -6.10987
Si  2.03662 31.90712 -8.82538
Si  0.67888 27.83387 -4.75213
Si  3.39437 27.83387 -2.03662
Si  0.67888 30.54938 -2.03662
Si  3.39437 30.54938 -4.75213
Si  4.75213 29.19163 -3.39437
Si  4.75213 31.90712 -0.67888
Si  2.03662 29.19163 -0.67888
Si  2.03662 31.90712 -3.39437
Si  6.10987 16.97188 -15.61412
Si  8.82538 16.97188 -12.89863
Si  6.10987 19.68737 -12.89863
Si  8.82538 19.68737 -15.61412
Si 10.18313 18.32963 -14.25638
Si 10.18313 21.04513 -11.54087
Si  7.46762 18.32963 -11.54087
Si  7.46762 21.04513 -14.25638
Si  6.10987 16.97188 -10.18313
Si  8.82538 16.97188 -7.46762
Si  6.10987 19.68737 -7.46762
Si  8.82538 19.68737 -10.18313
Si 10.18313 18.32963 -8.82538
Si 10.18313 21.04513 -6.10987
Si  7.46762 18.32963 -6.10987
Si  7.46762 21.04513 -8.82538
Si  6.10987 16.97188 -4.75213
Si  8.82538 16.97188 -2.03662
Si  6.10987 19.68737 -2.03662
Si  8.82538 19.68737 -4.75213
Si 10.18313 18.32963 -3.39437
Si 10.18313 21.04513 -0.67888
Si  7.46762 18.32963 -0.67888
Si  7.46762 21.04513 -3.39437
Si  6.10987 22.40287 -15.61412
Si  8.82538 22.40287 -12.89863
Si  6.10987 25.11838 -12.89863
Si  8.82538 25.11838 -15.61412
Si 10.18313 23.76062 -14.25638
Si 10.18313 26.47612 -11.54087
Si  7.46762 23.76062 -11.54087
Si  7.46762 26.47612 -14.25638
Si  6.10987 22.40287 -10.18313
Si  8.82538 22.40287 -7.46762
Si  6.10987 25.11838 -7.46762
Si  8.82538 25.11838 -10.18313
Si 10.18313 23.76062 -8.82538
Si 10.18313 26.47612 -6.10987
Si  7.46762 23.76062 -6.10987
Si  7.46762 26.47612 -8.82538
Si  6.10987 22.40287 -4.75213
Si  8.82538 22.40287 -2.03662
Si  6.10987 25.11838 -2.03662
Si  8.82538 25.11838 -4.75213
Si 10.18313 23.76062 -3.39437
Si 10.18313 26.47612 -0.67888
Si  7.46762 23.76062 -0.67888
Si  7.46762 26.47612 -3.39437
Si  6.10987 27.83387 -15.61412
Si  8.82538 27.83387 -12.89863
Si  6.10987 30.54938 -12.89863
Si  8.82538 30.54938 -15.61412
Si 10.18313 29.19163 -14.25638
Si 10.18313 31.90712 -11.54087
Si  7.46762 29.19163 -11.54087
Si  7.46762 31.90712 -14.25638
Si  6.10987 27.83387 -10.18313
Si  8.82538 27.83387 -7.46762
Si  6.10987 30.54938 -7.46762
Si  8.82538 30.54938 -10.18313
Si 10.18313 29.19163 -8.82538
Si 10.18313 31.90712 -6.10987
Si  7.46762 29.19163 -6.10987
Si  7.46762 31.90712 -8.82538
Si  6.10987 27.83387 -4.75213
Si  8.82538 27.83387 -2.03662
Si  6.10987 30.54938 -2.03662
Si  8.82538 30.54938 -4.75213
Si 10.18313 29.19163 -3.39437
Si 10.18313 31.90712 -0.67888
Si  7.46762 29.19163 -0.67888
Si  7.46762 31.90712 -3.39437
Si 11.54087 16.97188 -15.61412
Si 14.25638 16.97188 -12.89863
Si 11.54087 19.68737 -12.89863
Si 14.25638 19.68737 -15.61412
Si 15.61412 18.32963 -14.25638
Si 15.61412 21.04513 -11.54087
Si 12.89863 18.32963 -11.54087
Si 12.89863 21.04513 -14.25638
Si 11.54087 16.97188 -10.18313
Si 14.25638 16.97188 -7.46762
Si 11.54087 19.68737 -7.46762
Si 14.25638 19.68737 -10.18313
Si 15.61412 18.32963 -8.82538
Si 15.61412 21.04513 -6.10987
Si 12.89863 18.32963 -6.10987
Si 12.89863 21.04513 -8.82538
Si 11.54087 16.97188 -4.75213
Si 14.25638 16.97188 -2.03662
Si 11.54087 19.68737 -2.03662
Si 14.25638 19.68737 -4.75213
Si 15.61412 18.32963 -3.39437
Si 15.61412 21.04513 -0.67888
Si 12.89863 18.32963 -0.67888
Si 12.89863 21.04513 -3.39437
Si 11.54087 22.40287 -15.61412
Si 14.25638 22.40287 -12.89863
Si 11.54087 25.11838 -12.89863
Si 14.25638 25.11838 -15.61412
Si 15.61412 23.76062 -14.25638
Si 15.61412 26.47612 -11.54087
Si 12.89863 23.76062 -11.54087
Si 12.89863 26.47612 -14.25638
Si 11.54087 22.40287 -10.18313
Si 14.25638 22.40287 -7.46762
Si 11.54087 25.11838 -7.46762
Si 14.25638 25.11838 -10.18313
Si 15.61412 23.76062 -8.82538
Si 15.61412 26.47612 -6.10987
Si 12.89863 23.76062 -6.10987
Si 12.89863 26.47612 -8.82538
Si 11.54087 22.40287 -4.75213
Si 14.25638 22.40287 -2.03662
Si 11.54087 25.11838 -2.03662
Si 14.25638 25.11838 -4.75213
Si 15.61412 23.76062 -3.39437
Si 15.61412 26.47612 -0.67888
Si 12.89863 23.76062 -0.67888
Si 12.89863 26.47612 -3.39437
Si 11.54087 27.83387 -15.61412
Si 14.25638 27.83387 -12.89863
Si 11.54087 30.54938 -12.89863
Si 14.25638 30.54938 -15.61412
Si 15.61412 29.19163 -14.25638
Si 15.61412 31.90712 -11.54087
Si 12.89863 29.19163 -11.54087
Si 12.89863 31.90712 -14.25638
Si 11.54087 27.83387 -10.18313
Si 14.25638 27.83387 -7.46762
Si 11.54087 30.54938 -7.46762
Si 14.25638 30.54938 -10.18313
Si 15.61412 29.19163 -8.82538
Si 15.61412 31.90712 -6.10987
Si 12.89863 29.19163 -6.10987
Si 12.89863 31.90712 -8.82538
Si 11.54087 27.83387 -4.75213
Si 14.25638 27.83387 -2.03662
Si 11.54087 30.54938 -2.03662
Si 14.25638 30.54938 -4.75213
Si 15.61412 29.19163 -3.39437
Si 15.61412 31.90712 -0.67888
Si 12.89863 29.19163 -0.67888
Si 12.89863 31.90712 -3.39437
Si  0.67888 16.97188  0.67888
Si  3.39437 16.97188  3.39437
Si  0.67888 19.68737  3.39437
Si  3.39437 19.68737  0.67888
Si  4.75213 18.32963  2.03662
Si  4.75213 21.04513  4.75213
Si  2.03662 18.32963  4.75213
Si  2.03662 21.04513  2.03662
Si  0.67888 16.97188  6.10987
Si  3.39437 16.97188  8.82538
Si  0.67888 19.68737  8.82538
Si  3.39437 19.68737  6.10987
Si  4.75213 18.32963  7.46762
Si  4.75213 21.04513 10.18313
Si  2.03662 18.32963 10.18313
Si  2.03662 21.04513  7.46762
Si  0.67888 16.97188 11.54087
Si  3.39437 16.97188 14.25638
Si  0.67888 19.68737 14.25638
Si  3.39437 19.68737 11.54087
Si  4.75213 18.32963 12.89863
Si  4.75213 21.04513 15.61412
Si  2.03662 18.32963 15.61412
Si  2.03662 21.04513 12.89863
Si  0.67888 22.40287  0.67888
Si  3.39437 22.40287  3.39437
Si  0.67888 25.11838  3.39437
Si  3.39437 25.11838  0.67888
Si  4.75213 23.76062  2.03662
Si  4.75213 26.47612  4.75213
Si  2.03662 23.76062  4.75213
Si  2.03662 26.47612  2.03662
Si  0.67888 22.40287  6.10987
Si  3.39437 22.40287  8.82538
Si  0.67888 25.11838  8.82538
Si  3.39437 25.11838  6.10987
Si  4.75213 23.76062  7.46762
Si  4.75213 26.47612 10.18313
Si  2.03662 23.76062 10.18313
Si  2.03662 26.47612  7.46762
Si  0.67888 22.40287 11.54087
Si  3.39437 22.40287 14.25638
Si  0.67888 25.11838 14.25638
Si  3.39437 25.11838 11.54087
Si  4.75213 23.76062 12.89863
Si  4.75213 26.47612 15.61412
Si  2.03662 23.76062 15.61412
Si  2.03662 26.47612 12.89863
Si  0.67888 27.83387  0.67888
Si  3.39437 27.83387  3.39437
Si  0.67888 30.54938  3.39437
Si  3.39437 30.54938  0.67888
Si  4.75213 29.19163  2.03662
Si  4.75213 31.90712  4.75213
Si  2.03662 29.19163  4.75213
Si  2.03662 31.90712  2.03662
Si  0.67888 27.83387  6.10987
Si  3.39437 27.83387  8.82538
Si  0.67888 30.54938  8.82538
Si  3.39437 30.54938  6.10987
Si  4.75213 29.19163  7.46762
Si  4.75213 31.90712 10.18313
Si  2.03662 29.19163 10.18313
Si  2.03662 31.90712  7.46762
Si  0.67888 27.83387 11.54087
Si  3.39437 27.83387 14.25638
Si  0.67888 30.54938 14.25638
Si  3.39437 30.54938 11.54087
Si  4.75213 29.19163 12.89863
Si  4.75213 31.90712 15.61412
Si  2.03662 29.19163 15.61412
Si  2.03662 31.90712 12.89863
Si  6.10987 16.97188  0.67888
Si  8.82538 16.97188  3.39437
Si  6.10987 19.68737  3.39437
Si  8.82538 19.68737  0.67888
Si 10.18313 18.32963  2.03662
Si 10.18313 21.04513  4.75213
Si  7.46762 18.32963  4.75213
Si  7.46762 21.04513  2.03662
Si  6.10987 16.97188  6.10987
Si  8.82538 16.97188  8.82538
Si  6.10987 19.68737  8.82538
Si  8.82538 19.68737  6.10987
Si 10.18313 18.32963  7.46762
Si 10.18313 21.04513 10.18313
Si  7.46762 18.32963 10.18313
Si  7.46762 21.04513  7.46762
Si  6.10987 16.97188 11.54087
Si  8.82538 16.97188 14.25638
Si  6.10987 19.68737 14.25638
Si  8.82538 19.68737 11.54087
Si 10.18313 18.32963 12.89863
Si 10.18313 21.04513 15.61412
Si  7.46762 18.32963 15.61412
Si  7.46762 21.04513 12.89863
Si  6.10987 22.40287  0.67888
Si  8.82538 22.40287  3.39437
Si  6.10987 25.11838  3.39437
Si  8.82538 25.11838  0.67888
Si 10.18313 23.76062  2.03662
Si 10.18313 26.47612  4.75213
Si  7.46762 23.76062  4.75213
Si  7.46762 26.47612  2.03662
Si  6.10987 22.40287  6.10987
Si  8.82538 22.40287  8.82538
Si  6.10987 25.11838  8.82538
Si  8.82538 25.11838  6.10987
Si 10.18313 23.76062  7.46762
Si 10.18313 26.47612 10.18313
Si  7.46762 23.76062 10.18313
Si  7.46762 26.47612  7.46762
Si  6.10987 22.40287 11.54087
Si  8.82538 22.40287 14.25638
Si  6.10987 25.11838 14.25638
Si  8.82538 25.11838 11.54087
Si 10.18313 23.76062 12.89863
Si 10.18313 26.47612 15.61412
Si  7.46762 23.76062 15.61412
Si  7.46762 26.47612 12.89863
Si  6.10987 27.83387  0.67888
Si  8.82538 27.83387  3.39437
Si  6.10987 30.54938  3.39437
Si  8.82538 30.54938  0.67888
Si 10.18313 29.19163  2.03662
Si 10.18313 31.90712  4.75213
Si  7.46762 29.19163  4.75213
Si  7.46762 31.90712  2.03662
Si  6.10987 27.83387  6.10987
Si  8.82538 27.83387  8.82538
Si  6.10987 30.54938  8.82538
Si  8.82538 30.54938  6.10987
Si 10.18313 29.19163  7.46762
Si 10.18313 31.90712 10.18313
Si  7.46762 29.19163 10.18313
Si  7.46762 31.90712  7.46762
Si  6.10987 27.83387 11.54087
Si  8.82538 27.83387 14.25638
Si  6.10987 30.54938 14.25638
Si  8.82538 30.54938 11.54087
Si 10.18313 29.19163 12.89863
Si 10.18313 31.90712 15.61412
Si  7.46762 29.19163 15.61412
Si  7.46762 31.90712 12.89863
Si 11.54087 16.97188  0.67888
Si 14.25638 16.97188  3.39437
Si 11.54087 19.68737  3.39437
Si 14.25638 19.68737  0.67888
Si 15.61412 18.32963  2.03662
Si 15.61412 21.04513  4.75213
Si 12.89863 18.32963  4.75213
Si 12.89863 21.04513  2.03662
Si 11.54087 16.97188  6.10987
Si 14.25638 16.97188  8.82538
Si 11.54087 19.68737  8.82538
Si 14.25638 19.68737  6.10987
Si 15.61412 18.32963  7.46762
Si 15.61412 21.04513 10.18313
Si 12.89863 18.32963 10.18313
Si 12.89863 21.04513  7.46762
Si 11.54087 16.97188 11.54087
Si 14.25638 16.97188 14.25638
Si 11.54087 19.68737 14.25638
Si 14.25638 19.68737 11.54087
Si 15.61412 18.32963 12.89863
Si 15.61412 21.04513 15.61412
Si 12.89863 18.32963 15.61412
Si 12.89863 21.04513 12.89863
Si 11.54087 22.40287  0.67888
Si 14.25638 22.40287  3.39437
Si 11.54087 25.11838  3.39437
Si 14.25638 25.11838  0.67888
Si 15.61412 23.76062  2.03662
Si 15.61412 26.47612  4.75213
Si 12.89863 23.76062  4.75213
Si 12.89863 26.47612  2.03662
Si 11.54087 22.40287  6.10987
Si 14.25638 22.40287  8.82538
Si 11.54087 25.11838  8.82538
Si 14.25638 25.11838  6.10987
Si 15.61412 23.76062  7.46762
Si 15.61412 26.47612 10.18313
Si 12.89863 23.76062 10.18313
Si 12.89863 26.47612  7.46762
Si 11.54087 22.40287 11.54087
Si 14.25638 22.40287 14.25638
Si 11.54087 25.11838 14.25638
Si 14.25638 25.11838 11.54087
Si 15.61412 23.76062 12.89863
Si 15.61412 26.47612 15.61412
Si 12.89863 23.76062 15.61412
Si 12.89863 26.47612 12.89863
Si 11.54087 27.83387  0.67888
Si 14.25638 27.83387  3.39437
Si 11.54087 30.54938  3.39437
Si 14.25638 30.54938  0.67888
Si 15.61412 29.19163  2.03662
Si 15.61412 31.90712  4.75213
Si 12.89863 29.19163  4.75213
Si 12.89863 31.90712  2.03662
Si 11.54087 27.83387  6.10987
Si 14.25638 27.83387  8.82538
Si 11.54087 30.54938  8.82538
Si 14.25638 30.54938  6.10987
Si 15.61412 29.19163  7.46762
Si 15.61412 31.90712 10.18313
Si 12.89863 29.19163 10.18313
Si 12.89863 31.90712  7.46762
Si 11.54087 27.83387 11.54087
Si 14.25638 27.83387 14.25638
Si 11.54087 30.54938 14.25638
Si 14.25638 30.54938 11.54087
Si 15.61412 29.19163 12.89863
Si 15.61412 31.90712 15.61412
Si 12.89863 29.19163 15.61412
Si 12.89863 31.90712 12.89863
Si  0.67888 16.97188 16.97188
Si  3.39437 16.97188 19.68737
Si  0.67888 19.68737 19.68737
Si  3.39437 19.68737 16.97188
Si  4.75213 18.32963 18.32963
Si  4.75213 21.04513 21.04513
Si  2.03662 18.32963 21.04513
Si  2.03662 21.04513 18.32963
Si  0.67888 16.97188 22.40287
Si  3.39437 16.97188 25.11838
Si  0.67888 19.68737 25.11838
Si  3.39437 19.68737 22.40287
Si  4.75213 18.32963 23.76062
Si  4.75213 21.04513 26.47612
Si  2.03662 18.32963 26.47612
Si  2.03662 21.04513 23.76062
Si  0.67888 16.97188 27.83387
Si  3.39437 16.97188 30.54938
Si  0.67888 19.68737 30.54938
Si  3.39437 19.68737 27.83387
Si  4.75213 18.32963 29.19163
Si  4.75213 21.04513 31.90712
Si  2.03662 18.32963 31.90712
Si  2.03662 21.04513 29.19163
Si  0.67888 22.40287 16.97188
Si  3.39437 22.40287 19.68737
Si  0.67888 25.11838 19.68737
Si  3.39437 25.11838 16.97188
Si  4.75213 23.76062 18.32963
Si  4.75213 26.47612 21.04513
Si  2.03662 23.76062 21.04513
Si  2.03662 26.47612 18.32963
Si  0.67888 22.40287 22.40287
Si  3.39437 22.40287 25.11838
Si  0.67888 25.11838 25.11838
Si  3.39437 25.11838 22.40287
Si  4.75213 23.76062 23.76062
Si  4.75213 26.47612 26.47612
Si  2.03662 23.76062 26.47612
Si  2.03662 26.47612 23.76062
Si  0.67888 22.40287 27.83387
Si  3.39437 22.40287 30.54938
Si  0.67888 25.11838 30.54938
Si  3.39437 25.11838 27.83387
Si  4.75213 23.76062 29.19163
Si  4.75213 26.47612 31.90712
Si  2.03662 23.76062 31.90712
Si  2.03662 26.47612 29.19163
Si  0.67888 27.83387 16.97188
Si  3.39437 27.83387 19.68737
Si  0.67888 30.54938 19.68737
Si  3.39437 30.54938 16.97188
Si  4.75213 29.19163 18.32963
Si  4.75213 31.90712 21.04513
Si  2.03662 29.19163 21.04513
Si  2.03662 31.90712 18.32963
Si  0.67888 27.83387 22.40287
Si  3.39437 27.83387 25.11838
Si  0.67888 30.54938 25.11838
Si  3.39437 30.54938 22.40287
Si  4.75213 29.19163 23.76062
Si  4.75213 31.90712 26.47612
Si  2.03662 29.19163 26.47612
Si  2.03662 31.90712 23.76062
Si  0.67888 27.83387 27.83387
Si  3.39437 27.83387 30.54938
Si  0.67888 30.54938 30.54938
Si  3.39437 30.54938 27.83387
Si  4.75213 29.19163 29.19163
Si  4.75213 31.90712 31.90712
Si  2.03662 29.19163 31.90712
Si  2.03662 31.90712 29.19163
Si  6.10987 16.97188 16.97188
Si  8.82538 16.97188 19.68737
Si  6.10987 19.68737 19.68737
Si  8.82538 19.68737 16.97188
Si 10.18313 18.32963 18.32963
Si 10.18313 21.04513 21.04513
Si  7.46762 18.32963 21.04513
Si  7.46762 21.04513 18.32963
Si  6.10987 16.97188 22.40287
Si  8.82538 16.97188 25.11838
Si  6.10987 19.68737 25.11838
Si  8.82538 19.68737 22.40287
Si 10.18313 18.32963 23.76062
Si 10.18313 21.04513 26.47612
Si  7.46762 18.32963 26.47612
Si  7.46762 21.04513 23.76062
Si  6.10987 16.97188 27.83387
Si  8.82538 16.97188 30.54938
Si  6.10987 19.68737 30.54938
Si  8.82538 19.68737 27.83387
Si 10.18313 18.32963 29.19163
Si 10.18313 21.04513 31.90712
Si  7.46762 18.32963 31.90712
Si  7.46762 21.04513 29.19163
Si  6.10987 22.40287 16.97188
Si  8.82538 22.40287 19.68737
Si  6.10987 25.11838 19.68737
Si  8.82538 25.11838 16.97188
Si 10.18313 23.76062 18.32963
Si 10.18313 26.47612 21.04513
Si  7.46762 23.76062 21.04513
Si  7.46762 26.47612 18.32963
Si  6.10987 22.40287 22.40287
Si  8.82538 22.40287 25.11838
Si  6.10987 25.11838 25.11838
Si  8.82538 25.11838 22.40287
Si 10.18313 23.76062 23.76062
Si 10.18313 26.47612 26.47612
Si  7.46762 23.76062 26.47612
Si  7.46762 26.47612 23.76062
Si  6.10987 22.40287 27.83387
Si  8.82538 22.40287 30.54938
Si  6.10987 25.11838 30.54938
Si  8.82538 25.11838 27.83387
Si 10.18313 23.76062 29.19163
Si 10.18313 26.47612 31.90712
Si  7.46762 23.76062 31.90712
Si  7.46762 26.47612 29.19163
Si  6.10987 27.83387 16.97188
Si  8.82538 27.83387 19.68737
Si  6.10987 30.54938 19.68737
Si  8.82538 30.54938 16.97188
Si 10.18313 29.19163 18.32963
Si 10.18313 31.90712 21.04513
Si  7.46762 29.19163 21.04513
Si  7.46762 31.90712 18.32963
Si  6.10987 27.83387 22.40287
Si  8.82538 27.83387 25.11838
Si  6.10987 30.54938 25.11838
Si  8.82538 30.54938 22.40287
Si 10.18313 29.19163 23.76062
Si 10.18313 31.90712 26.47612
Si  7.46762 29.19163 26.47612
Si  7.46762 31.90712 23.76062
Si  6.10987 27.83387 27.83387
Si  8.82538 27.83387 30.54938
Si  6.10987 30.54938 30.54938
Si  8.82538 30.54938 27.83387
Si 10.18313 29.19163 29.19163
Si 10.18313 31.90712 31.90712
Si  7.46762 29.19163 31.90712
Si  7.46762 31.90712 29.19163
Si 11.54087 16.97188 16.97188
Si 14.25638 16.97188 19.68737
Si 11.54087 19.68737 19.68737
Si 14.25638 19.68737 16.97188
Si 15.61412 18.32963 18.32963
Si 15.61412 21.04513 21.04513
Si 12.89863 18.32963 21.04513
Si 12.89863 21.04513 18.32963
Si 11.54087 16.97188 22.40287
Si 14.25638 16.97188 25.11838
Si 11.54087 19.68737 25.11838
Si 14.25638 19.68737 22.40287
Si 15.61412 18.32963 23.76062
Si 15.61412 21.04513 26.47612
Si 12.89863 18.32963 26.47612
Si 12.89863 21.04513 23.76062
Si 11.54087 16.97188 27.83387
Si 14.25638 16.97188 30.54938
Si 11.54087 19.68737 30.54938
Si 14.25638 19.68737 27.83387
Si 15.61412 18.32963 29.19163
Si 15.61412 21.04513 31.90712
Si 12.89863 18.32963 31.90712
Si 12.89863 21.04513 29.19163
Si 11.54087 22.40287 16.97188
Si 14.25638 22.40287 19.68737
Si 11.54087 25.11838 19.68737
Si 14.25638 25.11838 16.97188
Si 15.61412 23.76062 18.32963
Si 15.61412 26.47612 21.04513
Si 12.89863 23.76062 21.04513
Si 12.89863 26.47612 18.32963
Si 11.54087 22.40287 22.40287
Si 14.25638 22.40287 25.11838
Si 11.54087 25.11838 25.11838
Si 14.25638 25.11838 22.40287
Si 15.61412 23.76062 23.76062
Si 15.61412 26.47612 26.47612
Si 12.89863 23.76062 26.47612
Si 12.89863 26.47612 23.76062
Si 11.54087 22.40287 27.83387
Si 14.25638 22.40287 30.54938
Si 11.54087 25.11838 30.54938
Si 14.25638 25.11838 27.83387
Si 15.61412 23.76062 29.19163
Si 15.61412 26.47612 31.90712
Si 12.89863 23.76062 31.90712
Si 12.89863 26.47612 29.19163
Si 11.54087 27.83387 16.97188
Si 14.25638 27.83387 19.68737
Si 11.54087 30.54938 19.68737
Si 14.25638 30.54938 16.97188
Si 15.61412 29.19163 18.32963
Si 15.61412 31.90712 21.04513
Si 12.89863 29.19163 21.04513
Si 12.89863 31.90712 18.32963
Si 11.54087 27.83387 22.40287
Si 14.25638 27.83387 25.11838
Si 11.54087 30.54938 25.11838
Si 14.25638 30.54938 22.40287
Si 15.61412 29.19163 23.76062
Si 15.61412 31.90712 26.47612
Si 12.89863 29.19163 26.47612
Si 12.89863 31.90712 23.76062
Si 11.54087 27.83387 27.83387
Si 14.25638 27.83387 30.54938
Si 11.54087 30.54938 30.54938
Si 14.25638 30.54938 27.83387
Si 15.61412 29.19163 29.19163
Si 15.61412 31.90712 31.90712
Si 12.89863 29.19163 31.90712
Si 12.89863 31.90712 29.19163
Si 16.97188 -15.61412 -15.61412
Si 19.68737 -15.61412 -12.89863
Si 16.97188 -12.89863 -12.89863
Si 19.68737 -12.89863 -15.61412
Si 21.04513 -14.25638 -14.25638
Si 21.04513 -11.54087 -11.54087
Si 18.32963 -14.25638 -11.54087
Si 18.32963 -11.54087 -14.25638
Si 16.97188 -15.61412 -10.18313
Si 19.68737 -15.61412 -7.46762
Si 16.97188 -12.89863 -7.46762
Si 19.68737 -12.89863 -10.18313
Si 21.04513 -14.25638 -8.82538
Si 21.04513 -11.54087 -6.10987
Si 18.32963 -14.25638 -6.10987
Si 18.32963 -11.54087 -8.82538
Si 16.97188 -15.61412 -4.75213
Si 19.68737 -15.61412 -2.03662
Si 16.97188 -12.89863 -2.03662
Si 19.68737 -12.89863 -4.75213
Si 21.04513 -14.25638 -3.39437
Si 21.04513 -11.54087 -0.67888
Si 18.32963 -14.25638 -0.67888
Si 18.32963 -11.54087 -3.39437
Si 16.97188 -10.18313 -15.61412
Si 19.68737 -10.18313 -12.89863
Si 16.97188 -7.46762 -12.89863
Si 19.68737 -7.46762 -15.61412
Si 21.04513 -8.82538 -14.25638
Si 21.04513 -6.10987 -11.54087
Si 18.32963 -8.82538 -11.54087
Si 18.32963 -6.10987 -14.25638
Si 16.97188 -10.18313 -10.18313
Si 19.68737 -10.18313 -7.46762
Si 16.97188 -7.46762 -7.46762
Si 19.68737 -7.46762 -10.18313
Si 21.04513 -8.82538 -8.82538
Si 21.04513 -6.10987 -6.10987
Si 18.32963 -8.82538 -6.10987
Si 18.32963 -6.10987 -8.82538
Si 16.97188 -10.18313 -4.75213
Si 19.68737 -10.18313 -2.03662
Si 16.97188 -7.46762 -2.03662
Si 19.68737 -7.46762 -4.75213
Si 21.04513 -8.82538 -3.39437
Si 21.04513 -6.10987 -0.67888
Si 18.32963 -8.82538 -0.67888
Si 18.32963 -6.10987 -3.39437
Si 16.97188 -4.75213 -15.61412
Si 19.68737 -4.75213 -12.89863
Si 16.97188 -2.03662 -12.89863
Si 19.68737 -2.03662 -15.61412
Si 21.04513 -3.39437 -14.25638
Si 21.04513 -0.67888 -11.54087
Si 18.32963 -3.39437 -11.54087
Si 18.32963 -0.67888 -14.25638
Si 16.97188 -4.75213 -10.18313
Si 19.68737 -4.75213 -7.46762
Si 16.97188 -2.03662 -7.46762
Si 19.68737 -2.03662 -10.18313
Si 21.04513 -3.39437 -8.82538
Si 21.04513 -0.67888 -6.10987
Si 18.32963 -3.39437 -6.10987
Si 18.32963 -0.67888 -8.82538
Si 16.97188 -4.75213 -4.75213
Si 19.68737 -4.75213 -2.03662
Si 16.97188 -2.03662 -2.03662
Si 19.68737 -2.03662 -4.75213
Si 21.04513 -3.39437 -3.39437
Si 21.04513 -0.67888 -0.67888
Si 18.32963 -3.39437 -0.67888
Si 18.32963 -0.67888 -3.39437
Si 22.40287 -15.61412 -15.61412
Si 25.11838 -15.61412 -12.89863
Si 22.40287 -12.89863 -12.89863
Si 25.11838 -12.89863 -15.61412
Si 26.47612 -14.25638 -14.25638
Si 26.47612 -11.54087 -11.54087
Si 23.76062 -14.25638 -11.54087
Si 23.76062 -11.54087 -14.25638
Si 22.40287 -15.61412 -10.18313
Si 25.11838 -15.61412 -7.46762
Si 22.40287 -12.89863 -7.46762
Si 25.11838 -12.89863 -10.18313
Si 26.47612 -14.25638 -8.82538
Si 26.47612 -11.54087 -6.10987
Si 23.76062 -14.25638 -6.10987
Si 23.76062 -11.54087 -8.82538
Si 22.40287 -15.61412 -4.75213
Si 25.11838 -15.61412 -2.03662
Si 22.40287 -12.89863 -2.03662
Si 25.11838 -12.89863 -4.75213
Si 26.47612 -14.25638 -3.39437
Si 26.47612 -11.54087 -0.67888
Si 23.76062 -14.25638 -0.67888
Si 23.76062 -11.54087 -3.39437
Si 22.40287 -10.18313 -15.61412
Si 25.11838 -10.18313 -12.89863
Si 22.40287 -7.46762 -12.89863
Si 25.11838 -7.46762 -15.61412
Si 26.47612 -8.82538 -14.25638
Si 26.47612 -6.10987 -11.54087
Si 23.76062 -8.82538 -11.54087
Si 23.76062 -6.10987 -14.25638
Si 22.40287 -10.18313 -10.18313
Si 25.11838 -10.18313 -7.46762
Si 22.40287 -7.46762 -7.46762
Si 25.11838 -7.46762 -10.18313
Si 26.47612 -8.82538 -8.82538
Si 26.47612 -6.10987 -6.10987
Si 23.76062 -8.82538 -6.10987
Si 23.76062 -6.10987 -8.82538
Si 22.40287 -10.18313 -4.75213
Si 25.11838 -10.18313 -2.03662
Si 22.40287 -7.46762 -2.03662
Si 25.11838 -7.46762 -4.75213
Si 26.47612 -8.82538 -3.39437
Si 26.47612 -6.10987 -0.67888
Si 23.76062 -8.82538 -0.67888
Si 23.76062 -6.10987 -3.39437
Si 22.40287 -4.75213 -15.61412
Si 25.11838 -4.75213 -12.89863
Si 22.40287 -2.03662 -12.89863
Si 25.11838 -2.03662 -15.61412
Si 26.47612 -3.39437 -14.25638
Si 26.47612 -0.67888 -11.54087
Si 23.76062 -3.39437 -11.54087
Si 23.76062 -0.67888 -14.25638
Si 22.40287 -4.75213 -10.18313
Si 25.11838 -4.75213 -7.46762
Si 22.40287 -2.03662 -7.46762
Si 25.11838 -2.03662 -10.18313
Si 26.47612 -3.39437 -8.82538
Si 26.47612 -0.67888 -6.10987
Si 23.76062 -3.39437 -6.10987
Si 23.76062 -0.67888 -8.82538
Si 22.40287 -4.75213 -4.75213
Si 25.11838 -4.75213 -2.03662
Si 22.40287 -2.03662 -2.03662
Si 25.11838 -2.03662 -4.75213
Si 26.47612 -3.39437 -3.39437
Si 26.47612 -0.67888 -0.67888
Si 23.76062 -3.39437 -0.67888
Si 23.76062 -0.67888 -3.39437
Si 27.83387 -15.61412 -15.61412
Si 30.54938 -15.61412 -12.89863
Si 27.83387 -12.89863 -12.89863
Si 30.54938 -12.89863 -15.61412
Si 31.90712 -14.25638 -14.25638
Si 31.90712 -11.54087 -11.54087
Si 29.19163 -14.25638 -11.54087
Si 29.19163 -11.54087 -14.25638
Si 27.83387 -15.61412 -10.18313
Si 30.54938 -15.61412 -7.46762
Si 27.83387 -12.89863 -7.46762
Si 30.54938 -12.89863 -10.18313
Si 31.90712 -14.25638 -8.82538
Si 31.90712 -11.54087 -6.10987
Si 29.19163 -14.25638 -6.10987
Si 29.19163 -11.54087 -8.82538
Si 27.83387 -15.61412 -4.75213
Si 30.54938 -15.61412 -2.03662
Si 27.83387 -12.89863 -2.03662
Si 30.54938 -12.89863 -4.75213
Si 31.90712 -14.25638 -3.39437
Si 31.90712 -11.54087 -0.67888
Si 29.19163 -14.25638 -0.67888
Si 29.19163 -11.54087 -3.39437
Si 27.83387 -10.18313 -15.61412
Si 30.54938 -10.18313 -12.89863
Si 27.83387 -7.46762 -12.89863
Si 30.54938 -7.46762 -15.61412
Si 31.90712 -8.82538 -14.25638
Si 31.90712 -6.10987 -11.54087
Si 29.19163 -8.82538 -11.54087
Si 29.19163 -6.10987 -14.25638
Si 27.83387 -10.18313 -10.18313
Si 30.54938 -10.18313 -7.46762
Si 27.83387 -7.46762 -7.46762
Si 30.54938 -7.46762 -10.18313
Si 31.90712 -8.82538 -8.82538
Si 31.90712 -6.10987 -6.10987
Si 29.19163 -8.82538 -6.10987
Si 29.19163 -6.10987 -8.82538
Si 27.83387 -10.18313 -4.75213
Si 30.54938 -10.18313 -2.03662
Si 27.83387 -7.46762 -2.03662
Si 30.54938 -7.46762 -4.75213
Si 31.90712 -8.82538 -3.39437
Si 31.90712 -6.10987 -0.67888
Si 29.19163 -8.82538 -0.67888
Si 29.19163 -6.10987 -3.39437
Si 27.83387 -4.75213 -15.61412
Si 30.54938 -4.75213 -12.89863
Si 27.83387 -2.03662 -12.89863
Si 30.54938 -2.03662 -15.61412
Si 31.90712 -3.39437 -14.25638
Si 31.90712 -0.67888 -11.54087
Si 29.19163 -3.39437 -11.54087
Si 29.19163 -0.67888 -14.25638
Si 27.83387 -4.75213 -10.18313
Si 30.54938 -4.75213 -7.46762
Si 27.83387 -2.03662 -7.46762
Si 30.54938 -2.03662 -10.18313
Si 31.90712 -3.39437 -8.82538
Si 31.90712 -0.67888 -6.10987
Si 29.19163 -3.39437 -6.10987
Si 29.19163 -0.67888 -8.82538
Si 27.83387 -4.75213 -4.75213
Si 30.54938 -4.75213 -2.03662
Si 27.83387 -2.03662 -2.03662
Si 30.54938 -2.03662 -4.75213
Si 31.90712 -3.39437 -3.39437
Si 31.90712 -0.67888 -0.67888
Si 29.19163 -3.39437 -0.67888
Si 29.19163 -0.67888 -3.39437
Si 16.97188 -15.61412  0.67888
Si 19.68737 -15.61412  3.39437
Si 16.97188 -12.89863  3.39437
Si 19.68737 -12.89863  0.67888
Si 21.04513 -14.25638  2.03662
Si 21.04513 -11.54087  4.75213
Si 18.32963 -14.25638  4.75213
Si 18.32963 -11.54087  2.03662
Si 16.97188 -15.61412  6.10987
Si 19.68737 -15.61412  8.82538
Si 16.97188 -12.89863  8.82538
Si 19.68737 -12.89863  6.10987
Si 21.04513 -14.25638  7.46762
Si 21.04513 -11.54087 10.18313
Si 18.32963 -14.25638 10.18313
Si 18.32963 -11.54087  7.46762
Si 16.97188 -15.61412 11.54087
Si 19.68737 -15.61412 14.25638
Si 16.97188 -12.89863 14.25638
Si 19.68737 -12.89863 11.54087
Si 21.04513 -14.25638 12.89863
Si 21.04513 -11.54087 15.61412
Si 18.32963 -14.25638 15.61412
Si 18.32963 -11.54087 12.89863
Si 16.97188 -10.18313  0.67888
Si 19.68737 -10.18313  3.39437
Si 16.97188 -7.46762  3.39437
Si 19.68737 -7.46762  0.67888
Si 21.04513 -8.82538  2.03662
Si 21.04513 -6.10987  4.75213
Si 18.32963 -8.82538  4.75213
Si 18.32963 -6.10987  2.03662
Si 16.97188 -10.18313  6.10987
Si 19.68737 -10.18313  8.82538
Si 16.97188 -7.46762  8.82538
Si 19.68737 -7.46762  6.10987
Si 21.04513 -8.82538  7.46762
Si 21.04513 -6.10987 10.18313
Si 18.32963 -8.82538 10.18313
Si 18.32963 -6.10987  7.46762
Si 16.97188 -10.18313 11.54087
Si 19.68737 -10.18313 14.25638
Si 16.97188 -7.46762 14.25638
Si 19.68737 -7.46762 11.54087
Si 21.04513 -8.82538 12.89863
Si 21.04513 -6.10987 15.61412
Si 18.32963 -8.82538 15.61412
Si 18.32963 -6.10987 12.89863
Si 16.97188 -4.75213  0.67888
Si 19.68737 -4.75213  3.39437
Si 16.97188 -2.03662  3.39437
Si 19.68737 -2.03662  0.67888
Si 21.04513 -3.39437  2.03662
Si 21.04513 -0.67888  4.75213
Si 18.32963 -3.39437  4.75213
Si 18.32963 -0.67888  2.03662
Si 16.97188 -4.75213  6.10987
Si 19.68737 -4.75213  8.82538
Si 16.97188 -2.03662  8.82538
Si 19.68737 -2.03662  6.10987
Si 21.04513 -3.39437  7.46762
Si 21.04513 -0.67888 10.18313
Si 18.32963 -3.39437 10.18313
Si 18.32963 -0.67888  7.46762
Si 16.97188 -4.75213 11.54087
Si 19.68737 -4.75213 14.25638
Si 16.97188 -2.03662 14.25638
Si 19.68737 -2.03662 11.54087
Si 21.04513 -3.39437 12.89863
Si 21.04513 -0.67888 15.61412
Si 18.32963 -3.39437 15.61412
Si 18.32963 -0.67888 12.89863
Si 22.40287 -15.61412  0.67888
Si 25.11838 -15.61412  3.39437
Si 22.40287 -12.89863  3.39437
Si 25.11838 -12.89863  0.67888
Si 26.47612 -14.25638  2.03662
Si 26.47612 -11.54087  4.75213
Si 23.76062 -14.25638  4.75213
Si 23.76062 -11.54087  2.03662
Si 22.40287 -15.61412  6.10987
Si 25.11838 -15.61412  8.82538
Si 22.40287 -12.89863  8.82538
Si 25.11838 -12.89863  6.10987
Si 26.47612 -14.25638  7.46762
Si 26.47612 -11.54087 10.18313
Si 23.76062 -14.25638 10.18313
Si 23.76062 -11.54087  7.46762
Si 22.40287 -15.61412 11.54087
Si 25.11838 -15.61412 14.25638
Si 22.40287 -12.89863 14.25638
Si 25.11838 -12.89863 11.54087
Si 26.47612 -14.25638 12.89863
Si 26.47612 -11.54087 15.61412
Si 23.76062 -14.25638 15.61412
Si 23.76062 -11.54087 12.89863
Si 22.40287 -10.18313  0.67888
Si 25.11838 -10.18313  3.39437
Si 22.40287 -7.46762  3.39437
Si 25.11838 -7.46762  0.67888
Si 26.47612 -8.82538  2.03662
Si 26.47612 -6.10987  4.75213
Si 23.76062 -8.82538  4.75213
Si 23.76062 -6.10987  2.03662
Si 22.40287 -10.18313  6.10987
Si 25.11838 -10.18313  8.82538
Si 22.40287 -7.46762  8.82538
Si 25.11838 -7.46762  6.10987
Si 26.47612 -8.82538  7.46762
Si 26.47612 -6.10987 10.18313
Si 23.76062 -8.82538 10.18313
Si 23.76062 -6.10987  7.46762
Si 22.40287 -10.18313 11.54087
Si 25.11838 -10.18313 14.25638
Si 22.40287 -7.46762 14.25638
Si 25.11838 -7.46762 11.54087
Si 26.47612 -8.82538 12.89863
Si 26.47612 -6.10987 15.61412
Si 23.76062 -8.82538 15.61412
Si 23.76062 -6.10987 12.89863
Si 22.40287 -4.75213  0.67888
Si 25.11838 -4.75213  3.39437
Si 22.40287 -2.03662  3.39437
Si 25.11838 -2.03662  0.67888
Si 26.47612 -3.39437  2.03662
Si 26.47612 -0.67888  4.75213
Si 23.76062 -3.39437  4.75213
Si 23.76062 -0.67888  2.03662
Si 22.40287 -4.75213  6.10987
Si 25.11838 -4.75213  8.82538
Si 22.40287 -2.03662  8.82538
Si 25.11838 -2.03662  6.10987
Si 26.47612 -3.39437  7.46762
Si 26.47612 -0.67888 10.18313
Si 23.76062 -3.39437 10.18313
Si 23.76062 -0.67888  7.46762
Si 22.40287 -4.75213 11.54087
Si 25.11838 -4.75213 14.25638
Si 22.40287 -2.03662 14.25638
Si 25.11838 -2.03662 11.54087
Si 26.47612 -3.39437 12.89863
Si 26.47612 -0.67888 15.61412
Si 23.76062 -3.39437 15.61412
Si 23.76062 -0.67888 12.89863
Si 27.83387 -15.61412  0.67888
Si 30.54938 -15.61412  3.39437
Si 27.83387 -12.89863  3.39437
Si 30.54938 -12.89863  0.67888
Si 31.90712 -14.25638  2.03662
Si 31.90712 -11.54087  4.75213
Si 29.19163 -14.25638  4.75213
Si 29.19163 -11.54087  2.03662
Si 27.83387 -15.61412  6.10987
Si 30.54938 -15.61412  8.82538
Si 27.83387 -12.89863  8.82538
Si 30.54938 -12.89863  6.10987
Si 31.90712 -14.25638  7.46762
Si 31.90712 -11.54087 10.18313
Si 29.19163 -14.25638 10.18313
Si 29.19163 -11.54087  7.46762
Si 27.83387 -15.61412 11.54087
Si 30.54938 -15.61412 14.25638
Si 27.83387 -12.89863 14.25638
Si 30.54938 -12.89863 11.54087
Si 31.90712 -14.25638 12.89863
Si 31.90712 -11.54087 15.61412
Si 29.19163 -14.25638 15.61412
Si 29.19163 -11.54087 12.89863
Si 27.83387 -10.18313  0.67888
Si 30.54938 -10.18313  3.39437
Si 27.83387 -7.46762  3.39437
Si 30.54938 -7.46762  0.67888
Si 31.90712 -8.82538  2.03662
Si 31.90712 -6.10987  4.75213
Si 29.19163 -8.82538  4.75213
Si 29.19163 -6.10987  2.03662
Si 27.83387 -10.18313  6.10987
Si 30.54938 -10.18313  8.82538
Si 27.83387 -7.46762  8.82538
Si 30.54938 -7.46762  6.10987
Si 31.90712 -8.82538  7.46762
Si 31.90712 -6.10987 10.18313
Si 29.19163 -8.82538 10.18313
Si 29.19163 -6.10987  7.46762
Si 27.83387 -10.18313 11.54087
Si 30.54938 -10.18313 14.25638
Si 27.83387 -7.46762 14.25638
Si 30.54938 -7.46762 11.54087
Si 31.90712 -8.82538 12.89863
Si 31.90712 -6.10987 15.61412
Si 29.19163 -8.82538 15.61412
Si 29.19163 -6.10987 12.89863
Si 27.83387 -4.75213  0.67888
Si 30.54938 -4.75213  3.39437
Si 27.83387 -2.03662  3.39437
Si 30.54938 -2.03662  0.67888
Si 31.90712 -3.39437  2.03662
Si 31.90712 -0.67888  4.75213
Si 29.19163 -3.39437  4.75213
Si 29.19163 -0.67888  2.03662
Si 27.83387 -4.75213  6.10987
Si 30.54938 -4.75213  8.82538
Si 27.83387 -2.03662  8.82538
Si 30.54938 -2.03662  6.10987
Si 31.90712 -3.39437  7.46762
Si 31.90712 -0.67888 10.18313
Si 29.19163 -3.39437 10.18313
Si 29.19163 -0.67888  7.46762
Si 27.83387 -4.75213 11.54087
Si 30.54938 -4.75213 14.25638
Si 27.83387 -2.03662 14.25638
Si 30.54938 -2.03662 11.54087
Si 31.90712 -3.39437 12.89863
Si 31.90712 -0.67888 15.61412
Si 29.19163 -3.39437 15.61412
Si 29.19163 -0.67888 12.89863
Si 16.97188 -15.61412 16.97188
Si 19.68737 -15.61412 19.68737
Si 16.97188 -12.89863 19.68737
Si 19.68737 -12.89863 16.97188
Si 21.04513 -14.25638 18.32963
Si 21.04513 -11.54087 21.04513
Si 18.32963 -14.25638 21.04513
Si 18.32963 -11.54087 18.32963
Si 16.97188 -15.61412 22.40287
Si 19.68737 -15.61412 25.11838
Si 16.97188 -12.89863 25.11838
Si 19.68737 -12.89863 22.40287
Si 21.04513 -14.25638 23.76062
Si 21.04513 -11.54087 26.47612
Si 18.32963 -14.25638 26.47612
Si 18.32963 -11.54087 23.76062
Si 16.97188 -15.61412 27.83387
Si 19.68737 -15.61412 30.54938
Si 16.97188 -12.89863 30.54938
Si 19.68737 -12.89863 27.83387
Si 21.04513 -14.25638 29.19163
Si 21.04513 -11.54087 31.90712
Si 18.32963 -14.25638 31.90712
Si 18.32963 -11.54087 29.19163
Si 16.97188 -10.18313 16.97188
Si 19.68737 -10.18313 19.68737
Si 16.97188 -7.46762 19.68737
Si 19.68737 -7.46762 16.97188
Si 21.04513 -8.82538 18.32963
Si 21.04513 -6.10987 21.04513
Si 18.32963 -8.82538 21.04513
Si 18.32963 -6.10987 18.32963
Si 16.97188 -10.18313 22.40287
Si 19.68737 -10.18313 25.11838
Si 16.97188 -7.46762 25.11838
Si 19.68737 -7.46762 22.40287
Si 21.04513 -8.82538 23.76062
Si 21.04513 -6.10987 26.47612
Si 18.32963 -8.82538 26.47612
Si 18.32963 -6.10987 23.76062
Si 16.97188 -10.18313 27.83387
Si 19.68737 -10.18313 30.54938
Si 16.97188 -7.46762 30.54938
Si 19.68737 -7.46762 27.83387
Si 21.04513 -8.82538 29.19163
Si 21.04513 -6.10987 31.90712
Si 18.32963 -8.82538 31.90712
Si 18.32963 -6.10987 29.19163
Si 16.97188 -4.75213 16.97188
Si 19.68737 -4.75213 19.68737
Si 16.97188 -2.03662 19.68737
Si 19.68737 -2.03662 16.97188
Si 21.04513 -3.39437 18.32963
Si 21.04513 -0.67888 21.04513
Si 18.32963 -3.39437 21.04513
Si 18.32963 -0.67888 18.32963
Si 16.97188 -4.75213 22.40287
Si 19.68737 -4.75213 25.11838
Si 16.97188 -2.03662 25.11838
Si 19.68737 -2.03662 22.40287
Si 21.04513 -3.39437 23.76062
Si 21.04513 -0.67888 26.47612
Si 18.32963 -3.39437 26.47612
Si 18.32963 -0.67888 23.76062
Si 16.97188 -4.75213 27.83387
Si 19.68737 -4.75213 30.54938
Si 16.97188 -2.03662 30.54938
Si 19.68737 -2.03662 27.83387
Si 21.04513 -3.39437 29.19163
Si 21.04513 -0.67888 31.90712
Si 18.32963 -3.39437 31.90712
Si 18.32963 -0.67888 29.19163
Si 22.40287 -15.61412 16.97188
Si 25.11838 -15.61412 19.68737
Si 22.40287 -12.89863 19.68737
Si 25.11838 -12.89863 16.97188
Si 26.47612 -14.25638 18.32963
Si 26.47612 -11.54087 21.04513
Si 23.76062 -14.25638 21.04513
Si 23.76062 -11.54087 18.32963
Si 22.40287 -15.61412 22.40287
Si 25.11838 -15.61412 25.11838
Si 22.40287 -12.89863 25.11838
Si 25.11838 -12.89863 22.40287
Si 26.47612 -14.25638 23.76062
Si 26.47612 -11.54087 26.47612
Si 23.76062 -14.25638 26.47612
Si 23.76062 -11.54087 23.76062
Si 22.40287 -15.61412 27.83387
Si 25.11838 -15.61412 30.54938
Si 22.40287 -12.89863 30.54938
Si 25.11838 -12.89863 27.83387
Si 26.47612 -14.25638 29.19163
Si 26.47612 -11.54087 31.90712
Si 23.76062 -14.25638 31.90712
Si 23.76062 -11.54087 29.19163
Si 22.40287 -10.18313 16.97188
Si 25.11838 -10.18313 19.68737
Si 22.40287 -7.46762 19.68737
Si 25.11838 -7.46762 16.97188
Si 26.47612 -8.82538 18.32963
Si 26.47612 -6.10987 21.04513
Si 23.76062 -8.82538 21.04513
Si 23.76062 -6.10987 18.32963
Si 22.40287 -10.18313 22.40287
Si 25.11838 -10.18313 25.11838
Si 22.40287 -7.46762 25.11838
Si 25.11838 -7.46762 22.40287
Si 26.47612 -8.82538 23.76062
Si 26.47612 -6.10987 26.47612
Si 23.76062 -8.82538 26.47612
Si 23.76062 -6.10987 23.76062
Si 22.40287 -10.18313 27.83387
Si 25.11838 -10.18313 30.54938
Si 22.40287 -7.46762 30.54938
Si 25.11838 -7.46762 27.83387
Si 26.47612 -8.82538 29.19163
Si 26.47612 -6.10987 31.90712
Si 23.76062 -8.82538 31.90712
Si 23.76062 -6.10987 29.19163
Si 22.40287 -4.75213 16.97188
Si 25.11838 -4.75213 19.68737
Si 22.40287 -2.03662 19.68737
Si 25.11838 -2.03662 16.97188
Si 26.47612 -3.39437 18.32963
Si 26.47612 -0.67888 21.04513
Si 23.76062 -3.39437 21.04513
Si 23.76062 -0.67888 18.32963
Si 22.40287 -4.75213 22.40287
Si 25.11838 -4.75213 25.11838
Si 22.40287 -2.03662 25.11838
Si 25.11838 -2.03662 22.40287
Si 26.47612 -3.39437 23.76062
Si 26.47612 -0.67888 26.47612
Si 23.76062 -3.39437 26.47612
Si 23.76062 -0.67888 23.76062
Si 22.40287 -4.75213 27.83387
Si 25.11838 -4.75213 30.54938
Si 22.40287 -2.03662 30.54938
Si 25.11838 -2.03662 27.83387
Si 26.47612 -3.39437 29.19163
Si 26.47612 -0.67888 31.90712
Si 23.76062 -3.39437 31.90712
Si 23.76062 -0.67888 29.19163
Si 27.83387 -15.61412 16.97188
Si 30.54938 -15.61412 19.68737
Si 27.83387 -12.89863 19.68737
Si 30.54938 -12.89863 16.97188
Si 31.90712 -14.25638 18.32963
Si 31.90712 -11.54087 21.04513
Si 29.19163 -14.25638 21.04513
Si 29.19163 -11.54087 18.32963
Si 27.83387 -15.61412 22.40287
Si 30.54938 -15.61412 25.11838
Si 27.83387 -12.89863 25.11838
Si 30.54938 -12.89863 22.40287
Si 31.90712 -14.25638 23.76062
Si 31.90712 -11.54087 26.47612
Si 29.19163 -14.25638 26.47612
Si 29.19163 -11.54087 23.76062
Si 27.83387 -15.61412 27.83387
Si 30.54938 -15.61412 30.54938
Si 27.83387 -12.89863 30.54938
Si 30.54938 -12.89863 27.83387
Si 31.90712 -14.25638 29.19163
Si 31.90712 -11.54087 31.90712
Si 29.19163 -14.25638 31.90712
Si 29.19163 -11.54087 29.19163
Si 27.83387 -10.18313 16.97188
Si 30.54938 -10.18313 19.68737
Si 27.83387 -7.46762 19.68737
Si 30.54938 -7.46762 16.97188
Si 31.90712 -8.82538 18.32963
Si 31.90712 -6.10987 21.04513
Si 29.19163 -8.82538 21.04513
Si 29.19163 -6.10987 18.32963
Si 27.83387 -10.18313 22.40287
Si 30.54938 -10.18313 25.11838
Si 27.83387 -7.46762 25.11838
Si 30.54938 -7.46762 22.40287
Si 31.90712 -8.82538 23.76062
Si 31.90712 -6.10987 26.47612
Si 29.19163 -8.82538 26.47612
Si 29.19163 -6.10987 23.76062
Si 27.83387 -10.18313 27.83387
Si 30.54938 -10.18313 30.54938
Si 27.83387 -7.46762 30.54938
Si 30.54938 -7.46762 27.83387
Si 31.90712 -8.82538 29.19163
Si 31.90712 -6.10987 31.90712
Si 29.19163 -8.82538 31.90712
Si 29.19163 -6.10987 29.19163
Si 27.83387 -4.75213 16.97188
Si 30.54938 -4.75213 19.68737
Si 27.83387 -2.03662 19.68737
Si 30.54938 -2.03662 16.97188
Si 31.90712 -3.39437 18.32963
Si 31.90712 -0.67888 21.04513
Si 29.19163 -3.39437 21.04513
Si 29.19163 -0.67888 18.32963
Si 27.83387 -4.75213 22.40287
Si 30.54938 -4.75213 25.11838
Si 27.83387 -2.03662 25.11838
Si 30.54938 -2.03662 22.40287
Si 31.90712 -3.39437 23.76062
Si 31.90712 -0.67888 26.47612
Si 29.19163 -3.39437 26.47612
Si 29.19163 -0.67888 23.76062
Si 27.83387 -4.75213 27.83387
Si 30.54938 -4.75213 30.54938
Si 27.83387 -2.03662 30.54938
Si 30.54938 -2.03662 27.83387
Si 31.90712 -3.39437 29.19163
Si 31.90712 -0.67888 31.90712
Si 29.19163 -3.39437 31.90712
Si 29.19163 -0.67888 29.19163
Si 16.97188  0.67888 -15.61412
Si 19.68737  0.67888 -12.89863
Si 16.97188  3.39437 -12.89863
Si 19.68737  3.39437 -15.61412
Si 21.04513  2.03662 -14.25638
Si 21.04513  4.75213 -11.54087
Si 18.32963  2.03662 -11.54087
Si 18.32963  4.75213 -14.25638
Si 16.97188  0.67888 -10.18313
Si 19.68737  0.67888 -7.46762
Si 16.97188  3.39437 -7.46762
Si 19.68737  3.39437 -10.18313
Si 21.04513  2.03662 -8.82538
Si 21.04513  4.75213 -6.10987
Si 18.32963  2.03662 -6.10987
Si 18.32963  4.75213 -8.82538
Si 16.97188  0.67888 -4.75213
Si 19.68737  0.67888 -2.03662
Si 16.97188  3.39437 -2.03662
Si 19.68737  3.39437 -4.75213
Si 21.04513  2.03662 -3.39437
Si 21.04513  4.75213 -0.67888
Si 18.32963  2.03662 -0.67888
Si 18.32963  4.75213 -3.39437
Si 16.97188  6.10987 -15.61412
Si 19.68737  6.10987 -12.89863
Si 16.97188  8.82538 -12.89863
Si 19.68737  8.82538 -15.61412
Si 21.04513  7.46762 -14.25638
Si 21.04513 10.18313 -11.54087
Si 18.32963  7.46762 -11.54087
Si 18.32963 10.18313 -14.25638
Si 16.97188  6.10987 -10.18313
Si 19.68737  6.10987 -7.46762
Si 16.97188  8.82538 -7.46762
Si 19.68737  8.82538 -10.18313
Si 21.04513  7.46762 -8.82538
Si 21.04513 10.18313 -6.10987
Si 18.32963  7.46762 -6.10987
Si 18.32963 10.18313 -8.82538
Si 16.97188  6.10987 -4.75213
Si 19.68737  6.10987 -2.03662
Si 16.97188  8.82538 -2.03662
Si 19.68737  8.82538 -4.75213
Si 21.04513  7.46762 -3.39437
Si 21.04513 10.18313 -0.67888
Si 18.32963  7.46762 -0.67888
Si 18.32963 10.18313 -3.39437
Si 16.97188 11.54087 -15.61412
Si 19.68737 11.54087 -12.89863
Si 16.97188 14.25638 -12.89863
Si 19.68737 14.25638 -15.61412
Si 21.04513 12.89863 -14.25638
Si 21.04513 15.61412 -11.54087
Si 18.32963 12.89863 -11.54087
Si 18.32963 15.61412 -14.25638
Si 16.97188 11.54087 -10.18313
Si 19.68737 11.54087 -7.46762
Si 16.97188 14.25638 -7.46762
Si 19.68737 14.25638 -10.18313
Si 21.04513 12.89863 -8.82538
Si 21.04513 15.61412 -6.10987
Si 18.32963 12.89863 -6.10987
Si 18.32963 15.61412 -8.82538
Si 16.97188 11.54087 -4.75213
Si 19.68737 11.54087 -2.03662
Si 16.97188 14.25638 -2.03662
Si 19.68737 14.25638 -4.75213
Si 21.04513 12.89863 -3.39437
Si 21.04513 15.61412 -0.67888
Si 18.32963 12.89863 -0.67888
Si 18.32963 15.61412 -3.39437
Si 22.40287  0.67888 -15.61412
Si 25.11838  0.67888 -12.89863
Si 22.40287  3.39437 -12.89863
Si 25.11838  3.39437 -15.61412
Si 26.47612  2.03662 -14.25638
Si 26.47612  4.75213 -11.54087
Si 23.76062  2.03662 -11.54087
Si 23.76062  4.75213 -14.25638
Si 22.40287  0.67888 -10.18313
Si 25.11838  0.67888 -7.46762
Si 22.40287  3.39437 -7.46762
Si 25.11838  3.39437 -10.18313
Si 26.47612  2.03662 -8.82538
Si 26.47612  4.75213 -6.10987
Si 23.76062  2.03662 -6.10987
Si 23.76062  4.75213 -8.82538
Si 22.40287  0.67888 -4.75213
Si 25.11838  0.67888 -2.03662
Si 22.40287  3.39437 -2.03662
Si 25.11838  3.39437 -4.75213
Si 26.47612  2.03662 -3.39437
Si 26.47612  4.75213 -0.67888
Si 23.76062  2.03662 -0.67888
Si 23.76062  4.75213 -3.39437
Si 22.40287  6.10987 -15.61412
Si 25.11838  6.10987 -12.89863
Si 22.40287  8.82538 -12.89863
Si 25.11838  8.82538 -15.61412
Si 26.47612  7.46762 -14.25638
Si 26.47612 10.18313 -11.54087
Si 23.76062  7.46762 -11.54087
Si 23.76062 10.18313 -14.25638
Si 22.40287  6.10987 -10.18313
Si 25.11838  6.10987 -7.46762
Si 22.40287  8.82538 -7.46762
Si 25.11838  8.82538 -10.18313
Si 26.47612  7.46762 -8.82538
Si 26.47612 10.18313 -6.10987
Si 23.76062  7.46762 -6.10987
Si 23.76062 10.18313 -8.82538
Si 22.40287  6.10987 -4.75213
Si 25.11838  6.10987 -2.03662
Si 22.40287  8.82538 -2.03662
Si 25.11838  8.82538 -4.75213
Si 26.47612  7.46762 -3.39437
Si 26.47612 10.18313 -0.67888
Si 23.76062  7.46762 -0.67888
Si 23.76062 10.18313 -3.39437
Si 22.40287 11.54087 -15.61412
Si 25.11838 11.54087 -12.89863
Si 22.40287 14.25638 -12.89863
Si 25.11838 14.25638 -15.61412
Si 26.47612 12.89863 -14.25638
Si 26.47612 15.61412 -11.54087
Si 23.76062 12.89863 -11.54087
Si 23.76062 15.61412 -14.25638
Si 22.40287 11.54087 -10.18313
Si 25.11838 11.54087 -7.46762
Si 22.40287 14.25638 -7.46762
Si 25.11838 14.25638 -10.18313
Si 26.47612 12.89863 -8.82538
Si 26.47612 15.61412 -6.10987
Si 23.76062 12.89863 -6.10987
Si 23.76062 15.61412 -8.82538
Si 22.40287 11.54087 -4.75213
Si 25.11838 11.54087 -2.03662
Si 22.40287 14.25638 -2.03662
Si 25.11838 14.25638 -4.75213
Si 26.47612 12.89863 -3.39437
Si 26.47612 15.61412 -0.67888
Si 23.76062 12.89863 -0.67888
Si 23.76062 15.61412 -3.39437
Si 27.83387  0.67888 -15.61412
Si 30.54938  0.67888 -12.89863
Si 27.83387  3.39437 -12.89863
Si 30.54938  3.39437 -15.61412
Si 31.90712  2.03662 -14.25638
Si 31.90712  4.75213 -11.54087
Si 29.19163  2.03662 -11.54087
Si 29.19163  4.75213 -14.25638
Si 27.83387  0.67888 -10.18313
Si 30.54938  0.67888 -7.46762
Si 27.83387  3.39437 -7.46762
Si 30.54938  3.39437 -10.18313
Si 31.90712  2.03662 -8.82538
Si 31.90712  4.75213 -6.10987
Si 29.19163  2.03662 -6.10987
Si 29.19163  4.75213 -8.82538
Si 27.83387  0.67888 -4.75213
Si 30.54938  0.67888 -2.03662
Si 27.83387  3.39437 -2.03662
Si 30.54938  3.39437 -4.75213
Si 31.90712  2.03662 -3.39437
Si 31.90712  4.75213 -0.67888
Si 29.19163  2.03662 -0.67888
Si 29.19163  4.75213 -3.39437
Si 27.83387  6.10987 -15.61412
Si 30.54938  6.10987 -12.89863
Si 27.83387  8.82538 -12.89863
Si 30.54938  8.82538 -15.61412
Si 31.90712  7.46762 -14.25638
Si 31.90712 10.18313 -11.54087
Si 29.19163  7.46762 -11.54087
Si 29.19163 10.18313 -14.25638
Si 27.83387  6.10987 -10.18313
Si 30.54938  6.10987 -7.46762
Si 27.83387  8.82538 -7.46762
Si 30.54938  8.82538 -10.18313
Si 31.90712  7.46762 -8.82538
Si 31.90712 10.18313 -6.10987
Si 29.19163  7.46762 -6.10987
Si 29.19163 10.18313 -8.82538
Si 27.83387  6.10987 -4.75213
Si 30.54938  6.10987 -2.03662
Si 27.83387  8.82538 -2.03662
Si 30.54938  8.82538 -4.75213
Si 31.90712  7.46762 -3.39437
Si 31.90712 10.18313 -0.67888
Si 29.19163  7.46762 -0.67888
Si 29.19163 10.18313 -3.39437
Si 27.83387 11.54087 -15.61412
Si 30.54938 11.54087 -12.89863
Si 27.83387 14.25638 -12.89863
Si 30.54938 14.25638 -15.61412
Si 31.90712 12.89863 -14.25638
Si 31.90712 15.61412 -11.54087
Si 29.19163 12.89863 -11.54087
Si 29.19163 15.61412 -14.25638
Si 27.83387 11.54087 -10.18313
Si 30.54938 11.54087 -7.46762
Si 27.83387 14.25638 -7.46762
Si 30.54938 14.25638 -10.18313
Si 31.90712 12.89863 -8.82538
Si 31.90712 15.61412 -6.10987
Si 29.19163 12.89863 -6.10987
Si 29.19163 15.61412 -8.82538
Si 27.83387 11.54087 -4.75213
Si 30.54938 11.54087 -2.03662
Si 27.83387 14.25638 -2.03662
Si 30.54938 14.25638 -4.75213
Si 31.90712 12.89863 -3.39437
Si 31.90712 15.61412 -0.67888
Si 29.19163 12.89863 -0.67888
Si 29.19163 15.61412 -3.39437
Si 16.97188  0.67888  0.67888
Si 19.68737  0.67888  3.39437
Si 16.97188  3.39437  3.39437
Si 19.68737  3.39437  0.67888
Si 21.04513  2.03662  2.03662
Si 21.04513  4.75213  4.75213
Si 18.32963  2.03662  4.75213
Si 18.32963  4.75213  2.03662
Si 16.97188  0.67888  6.10987
Si 19.68737  0.67888  8.82538
Si 16.97188  3.39437  8.82538
Si 19.68737  3.39437  6.10987
Si 21.04513  2.03662  7.46762
Si 21.04513  4.75213 10.18313
Si 18.32963  2.03662 10.18313
Si 18.32963  4.75213  7.46762
Si 16.97188  0.67888 11.54087
Si 19.68737  0.67888 14.25638
Si 16.97188  3.39437 14.25638
Si 19.68737  3.39437 11.54087
Si 21.04513  2.03662 12.89863
Si 21.04513  4.75213 15.61412
Si 18.32963  2.03662 15.61412
Si 18.32963  4.75213 12.89863
Si 16.97188  6.10987  0.67888
Si 19.68737  6.10987  3.39437
Si 16.97188  8.82538  3.39437
Si 19.68737  8.82538  0.67888
Si 21.04513  7.46762  2.03662
Si 21.04513 10.18313  4.75213
Si 18.32963  7.46762  4.75213
Si 18.32963 10.18313  2.03662
Si 16.97188  6.10987  6.10987
Si 19.68737  6.10987  8.82538
Si 16.97188  8.82538  8.82538
Si 19.68737  8.82538  6.10987
Si 21.04513  7.46762  7.46762
Si 21.04513 10.18313 10.18313
Si 18.32963  7.46762 10.18313
Si 18.32963 10.18313  7.46762
Si 16.97188  6.10987 11.54087
Si 19.68737  6.10987 14.25638
Si 16.97188  8.82538 14.25638
Si 19.68737  8.82538 11.54087
Si 21.04513  7.46762 12.89863
Si 21.04513 10.18313 15.61412
Si 18.32963  7.46762 15.61412
Si 18.32963 10.18313 12.89863
Si 16.97188 11.54087  0.67888
Si 19.68737 11.54087  3.39437
Si 16.97188 14.25638  3.39437
Si 19.68737 14.25638  0.67888
Si 21.04513 12.89863  2.03662
Si 21.04513 15.61412  4.75213
Si 18.32963 12.89863  4.75213
Si 18.32963 15.61412  2.03662
Si 16.97188 11.54087  6.10987
Si 19.68737 11.54087  8.82538
Si 16.97188 14.25638  8.82538
Si 19.68737 14.25638  6.10987
Si 21.04513 12.89863  7.46762
Si 21.04513 15.61412 10.18313
Si 18.32963 12.89863 10.18313
Si 18.32963 15.61412  7.46762
Si 16.97188 11.54087 11.54087
Si 19.68737 11.54087 14.25638
Si 16.97188 14.25638 14.25638
Si 19.68737 14.25638 11.54087
Si 21.04513 12.89863 12.89863
Si 21.04513 15.61412 15.61412
Si 18.32963 12.89863 15.61412
Si 18.32963 15.61412 12.89863
Si 22.40287  0.67888  0.67888
Si 25.11838  0.67888  3.39437
Si 22.40287  3.39437  3.39437
Si 25.11838  3.39437  0.67888
Si 26.47612  2.03662  2.03662
Si 26.47612  4.75213  4.75213
Si 23.76062  2.03662  4.75213
Si 23.76062  4.75213  2.03662
Si 22.40287  0.67888  6.10987
Si 25.11838  0.67888  8.82538
Si 22.40287  3.39437  8.82538
Si 25.11838  3.39437  6.10987
Si 26.47612  2.03662  7.46762
Si 26.47612  4.75213 10.18313
Si 23.76062  2.03662 10.18313
Si 23.76062  4.75213  7.46762
Si 22.40287  0.67888 11.54087
Si 25.11838  0.67888 14.25638
Si 22.40287  3.39437 14.25638
Si 25.11838  3.39437 11.54087
Si 26.47612  2.03662 12.89863
Si 26.47612  4.75213 15.61412
Si 23.76062  2.03662 15.61412
Si 23.76062  4.75213 12.89863
Si 22.40287  6.10987  0.67888
Si 25.11838  6.10987  3.39437
Si 22.40287  8.82538  3.39437
Si 25.11838  8.82538  0.67888
Si 26.47612  7.46762  2.03662
Si 26.47612 10.18313  4.75213
Si 23.76062  7.46762  4.75213
Si 23.76062 10.18313  2.03662
Si 22.40287  6.10987  6.10987
Si 25.11838  6.10987  8.82538
Si 22.40287  8.82538  8.82538
Si 25.11838  8.82538  6.10987
Si 26.47612  7.46762  7.46762
Si 26.47612 10.18313 10.18313
Si 23.76062  7.46762 10.18313
Si 23.76062 10.18313  7.46762
Si 22.40287  6.10987 11.54087
Si 25.11838  6.10987 14.25638
Si 22.40287  8.82538 14.25638
Si 25.11838  8.82538 11.54087
Si 26.47612  7.46762 12.89863
Si 26.47612 10.18313 15.61412
Si 23.76062  7.46762 15.61412
Si 23.76062 10.18313 12.89863
Si 22.40287 11.54087  0.67888
Si 25.11838 11.54087  3.39437
Si 22.40287 14.25638  3.39437
Si 25.11838 14.25638  0.67888
Si 26.47612 12.89863  2.03662
Si 26.47612 15.61412  4.75213
Si 23.76062 12.89863  4.75213
Si 23.76062 15.61412  2.03662
Si 22.40287 11.54087  6.10987
Si 25.11838 11.54087  8.82538
Si 22.40287 14.25638  8.82538
Si 25.11838 14.25638  6.10987
Si 26.47612 12.89863  7.46762
Si 26.47612 15.61412 10.18313
Si 23.76062 12.89863 10.18313
Si 23.76062 15.61412  7.46762
Si 22.40287 11.54087 11.54087
Si 25.11838 11.54087 14.25638
Si 22.40287 14.25638 14.25638
Si 25.11838 14.25638 11.54087
Si 26.47612 12.89863 12.89863
Si 26.47612 15.61412 15.61412
Si 23.76062 12.89863 15.61412
Si 23.76062 15.61412 12.89863
Si 27.83387  0.67888  0.67888
Si 30.54938  0.67888  3.39437
Si 27.83387  3.39437  3.39437
Si 30.54938  3.39437  0.67888
Si 31.90712  2.03662  2.03662
Si 31.90712  4.75213  4.75213
Si 29.19163  2.03662  4.75213
Si 29.19163  4.75213  2.03662
Si 27.83387  0.67888  6.10987
Si 30.54938  0.67888  8.82538
Si 27.83387  3.39437  8.82538
Si 30.54938  3.39437  6.10987
Si 31.90712  2.03662  7.46762
Si 31.90712  4.75213 10.18313
Si 29.19163  2.03662 10.18313
Si 29.19163  4.75213  7.46762
Si 27.83387  0.67888 11.54087
Si 30.54938  0.67888 14.25638
Si 27.83387  3.39437 14.25638
Si 30.54938  3.39437 11.54087
Si 31.90712  2.03662 12.89863
Si 31.90712  4.75213 15.61412
Si 29.19163  2.03662 15.61412
Si 29.19163  4.75213 12.89863
Si 27.83387  6.10987  0.67888
Si 30.54938  6.10987  3.39437
Si 27.83387  8.82538  3.39437
Si 30.54938  8.82538  0.67888
Si 31.90712  7.46762  2.03662
Si 31.90712 10.18313  4.75213
Si 29.19163  7.46762  4.75213
Si 29.19163 10.18313  2.03662
Si 27.83387  6.10987  6.10987
Si 30.54938  6.10987  8.82538
Si 27.83387  8.82538  8.82538
Si 30.54938  8.82538  6.10987
Si 31.90712  7.46762  7.46762
Si 31.90712 10.18313 10.18313
Si 29.19163  7.46762 10.18313
Si 29.19163 10.18313  7.46762
Si 27.83387  6.10987 11.54087
Si 30.54938  6.10987 14.25638
Si 27.83387  8.82538 14.25638
Si 30.54938  8.82538 11.54087
Si 31.90712  7.46762 12.89863
Si 31.90712 10.18313 15.61412
Si 29.19163  7.46762 15.61412
Si 29.19163 10.18313 12.89863
Si 27.83387 11.54087  0.67888
Si 30.54938 11.54087  3.39437
Si 27.83387 14.25638  3.39437
Si 30.54938 14.25638  0.67888
Si 31.90712 12.89863  2.03662
Si 31.90712 15.61412  4.75213
Si 29.19163 12.89863  4.75213
Si 29.19163 15.61412  2.03662
Si 27.83387 11.54087  6.10987
Si 30.54938 11.54087  8.82538
Si 27.83387 14.25638  8.82538
Si 30.54938 14.25638  6.10987
Si 31.90712 12.89863  7.46762
Si 31.90712 15.61412 10.18313
Si 29.19163 12.89863 10.18313
Si 29.19163 15.61412  7.46762
Si 27.83387 11.54087 11.54087
Si 30.54938 11.54087 14.25638
Si 27.83387 14.25638 14.25638
Si 30.54938 14.25638 11.54087
Si 31.90712 12.89863 12.89863
Si 31.90712 15.61412 15.61412
Si 29.19163 12.89863 15.61412
Si 29.19163 15.61412 12.89863
Si 16.97188  0.67888 16.97188
Si 19.68737  0.67888 19.68737
Si 16.97188  3.39437 19.68737
Si 19.68737  3.39437 16.97188
Si 21.04513  2.03662 18.32963
Si 21.04513  4.75213 21.04513
Si 18.32963  2.03662 21.04513
Si 18.32963  4.75213 18.32963
Si 16.97188  0.67888 22.40287
Si 19.68737  0.67888 25.11838
Si 16.97188  3.39437 25.11838
Si 19.68737  3.39437 22.40287
Si 21.04513  2.03662 23.76062
Si 21.04513  4.75213 26.47612
Si 18.32963  2.03662 26.47612
Si 18.32963  4.75213 23.76062
Si 16.97188  0.67888 27.83387
Si 19.68737  0.67888 30.54938
Si 16.97188  3.39437 30.54938
Si 19.68737  3.39437 27.83387
Si 21.04513  2.03662 29.19163
Si 21.04513  4.75213 31.90712
Si 18.32963  2.03662 31.90712
Si 18.32963  4.75213 29.19163
Si 16.97188  6.10987 16.97188
Si 19.68737  6.10987 19.68737
Si 16.97188  8.82538 19.68737
Si 19.68737  8.82538 16.97188
Si 21.04513  7.46762 18.32963
Si 21.04513 10.18313 21.04513
Si 18.32963  7.46762 21.04513
Si 18.32963 10.18313 18.32963
Si 16.97188  6.10987 22.40287
Si 19.68737  6.10987 25.11838
Si 16.97188  8.82538 25.11838
Si 19.68737  8.82538 22.40287
Si 21.04513  7.46762 23.76062
Si 21.04513 10.18313 26.47612
Si 18.32963  7.46762 26.47612
Si 18.32963 10.18313 23.76062
Si 16.97188  6.10987 27.83387
Si 19.68737  6.10987 30.54938
Si 16.97188  8.82538 30.54938
Si 19.68737  8.82538 27.83387
Si 21.04513  7.46762 29.19163
Si 21.04513 10.18313 31.90712
Si 18.32963  7.46762 31.90712
Si 18.32963 10.18313 29.19163
Si 16.97188 11.54087 16.97188
Si 19.68737 11.54087 19.68737
Si 16.97188 14.25638 19.68737
Si 19.68737 14.25638 16.97188
Si 21.04513 12.89863 18.32963
Si 21.04513 15.61412 21.04513
Si 18.32963 12.89863 21.04513
Si 18.32963 15.61412 18.32963
Si 16.97188 11.54087 22.40287
Si 19.68737 11.54087 25.11838
Si 16.97188 14.25638 25.11838
Si 19.68737 14.25638 22.40287
Si 21.04513 12.89863 23.76062
Si 21.04513 15.61412 26.47612
Si 18.32963 12.89863 26.47612
Si 18.32963 15.61412 23.76062
Si 16.97188 11.54087 27.83387
Si 19.68737 11.54087 30.54938
Si 16.97188 14.25638 30.54938
Si 19.68737 14.25638 27.83387
Si 21.04513 12.89863 29.19163
Si 21.04513 15.61412 31.90712
Si 18.32963 12.89863 31.90712
Si 18.32963 15.61412 29.19163
Si 22.40287  0.67888 16.97188
Si 25.11838  0.67888 19.68737
Si 22.40287  3.39437 19.68737
Si 25.11838  3.39437 16.97188
Si 26.47612  2.03662 18.32963
Si 26.47612  4.75213 21.04513
Si 23.76062  2.03662 21.04513
Si 23.76062  4.75213 18.32963
Si 22.40287  0.67888 22.40287
Si 25.11838  0.67888 25.11838
Si 22.40287  3.39437 25.11838
Si 25.11838  3.39437 22.40287
Si 26.47612  2.03662 23.76062
Si 26.47612  4.75213 26.47612
Si 23.76062  2.03662 26.47612
Si 23.76062  4.75213 23.76062
Si 22.40287  0.67888 27.83387
Si 25.11838  0.67888 30.54938
Si 22.40287  3.39437 30.54938
Si 25.11838  3.39437 27.83387
Si 26.47612  2.03662 29.19163
Si 26.47612  4.75213 31.90712
Si 23.76062  2.03662 31.90712
Si 23.76062  4.75213 29.19163
Si 22.40287  6.10987 16.97188
Si 25.11838  6.10987 19.68737
Si 22.40287  8.82538 19.68737
Si 25.11838  8.82538 16.97188
Si 26.47612  7.46762 18.32963
Si 26.47612 10.18313 21.04513
Si 23.76062  7.46762 21.04513
Si 23.76062 10.18313 18.32963
Si 22.40287  6.10987 22.40287
Si 25.11838  6.10987 25.11838
Si 22.40287  8.82538 25.11838
Si 25.11838  8.82538 22.40287
Si 26.47612  7.46762 23.76062
Si 26.47612 10.18313 26.47612
Si 23.76062  7.46762 26.47612
Si 23.76062 10.18313 23.76062
Si 22.40287  6.10987 27.83387
Si 25.11838  6.10987 30.54938
Si 22.40287  8.82538 30.54938
Si 25.11838  8.82538 27.83387
Si 26.47612  7.46762 29.19163
Si 26.47612 10.18313 31.90712
Si 23.76062  7.46762 31.90712
Si 23.76062 10.18313 29.19163
Si 22.40287 11.54087 16.97188
Si 25.11838 11.54087 19.68737
Si 22.40287 14.25638 19.68737
Si 25.11838 14.25638 16.97188
Si 26.47612 12.89863 18.32963
Si 26.47612 15.61412 21.04513
Si 23.76062 12.89863 21.04513
Si 23.76062 15.61412 18.32963
Si 22.40287 11.54087 22.40287
Si 25.11838 11.54087 25.11838
Si 22.40287 14.25638 25.11838
Si 25.11838 14.25638 22.40287
Si 26.47612 12.89863 23.76062
Si 26.47612 15.61412 26.47612
Si 23.76062 12.89863 26.47612
Si 23.76062 15.61412 23.76062
Si 22.40287 11.54087 27.83387
Si 25.11838 11.54087 30.54938
Si 22.40287 14.25638 30.54938
Si 25.11838 14.25638 27.83387
Si 26.47612 12.89863 29.19163
Si 26.47612 15.61412 31.90712
Si 23.76062 12.89863 31.90712
Si 23.76062 15.61412 29.19163
Si 27.83387  0.67888 16.97188
Si 30.54938  0.67888 19.68737
Si 27.83387  3.39437 19.68737
Si 30.54938  3.39437 16.97188
Si 31.90712  2.03662 18.32963
Si 31.90712  4.75213 21.04513
Si 29.19163  2.03662 21.04513
Si 29.19163  4.75213 18.32963
Si 27.83387  0.67888 22.40287
Si 30.54938  0.67888 25.11838
Si 27.83387  3.39437 25.11838
Si 30.54938  3.39437 22.40287
Si 31.90712  2.03662 23.76062
Si 31.90712  4.75213 26.47612
Si 29.19163  2.03662 26.47612
Si 29.19163  4.75213 23.76062
Si 27.83387  0.67888 27.83387
Si 30.54938  0.67888 30.54938
Si 27.83387  3.39437 30.54938
Si 30.54938  3.39437 27.83387
Si 31.90712  2.03662 29.19163
Si 31.90712  4.75213 31.90712
Si 29.19163  2.03662 31.90712
Si 29.19163  4.75213 29.19163
Si 27.83387  6.10987 16.97188
Si 30.54938  6.10987 19.68737
Si 27.83387  8.82538 19.68737
Si 30.54938  8.82538 16.97188
Si 31.90712  7.46762 18.32963
Si 31.90712 10.18313 21.04513
Si 29.19163  7.46762 21.04513
Si 29.19163 10.18313 18.32963
Si 27.83387  6.10987 22.40287
Si 30.54938  6.10987 25.11838
Si 27.83387  8.82538 25.11838
Si 30.54938  8.82538 22.40287
Si 31.90712  7.46762 23.76062
Si 31.90712 10.18313 26.47612
Si 29.19163  7.46762 26.47612
Si 29.19163 10.18313 23.76062
Si 27.83387  6.10987 27.83387
Si 30.54938  6.10987 30.54938
Si 27.83387  8.82538 30.54938
Si 30.54938  8.82538 27.83387
Si 31.90712  7.46762 29.19163
Si 31.90712 10.18313 31.90712
Si 29.19163  7.46762 31.90712
Si 29.19163 10.18313 29.19163
Si 27.83387 11.54087 16.97188
Si 30.54938 11.54087 19.68737
Si 27.83387 14.25638 19.68737
Si 30.54938 14.25638 16.97188
Si 31.90712 12.89863 18.32963
Si 31.90712 15.61412 21.04513
Si 29.19163 12.89863 21.04513
Si 29.19163 15.61412 18.32963
Si 27.83387 11.54087 22.40287
Si 30.54938 11.54087 25.11838
Si 27.83387 14.25638 25.11838
Si 30.54938 14.25638 22.40287
Si 31.90712 12.89863 23.76062
Si 31.90712 15.61412 26.47612
Si 29.19163 12.89863 26.47612
Si 29.19163 15.61412 23.76062
Si 27.83387 11.54087 27.83387
Si 30.54938 11.54087 30.54938
Si 27.83387 14.25638 30.54938
Si 30.54938 14.25638 27.83387
Si 31.90712 12.89863 29.19163
Si 31.90712 15.61412 31.90712
Si 29.19163 12.89863 31.90712
Si 29.19163 15.61412 29.19163
Si 16.97188 16.97188 -15.61412
Si 19.68737 16.97188 -12.89863
Si 16.97188 19.68737 -12.89863
Si 19.68737 19.68737 -15.61412
Si 21.04513 18.32963 -14.25638
Si 21.04513 21.04513 -11.54087
Si 18.32963 18.32963 -11.54087
Si 18.32963 21.04513 -14.25638
Si 16.97188 16.97188 -10.18313
Si 19.68737 16.97188 -7.46762
Si 16.97188 19.68737 -7.46762
Si 19.68737 19.68737 -10.18313
Si 21.04513 18.32963 -8.82538
Si 21.04513 21.04513 -6.10987
Si 18.32963 18.32963 -6.10987
Si 18.32963 21.04513 -8.82538
Si 16.97188 16.97188 -4.75213
Si 19.68737 16.97188 -2.03662
Si 16.97188 19.68737 -2.03662
Si 19.68737 19.68737 -4.75213
Si 21.04513 18.32963 -3.39437
Si 21.04513 21.04513 -0.67888
Si 18.32963 18.32963 -0.67888
Si 18.32963 21.04513 -3.39437
Si 16.97188 22.40287 -15.61412
Si 19.68737 22.40287 -12.89863
Si 16.97188 25.11838 -12.89863
Si 19.68737 25.11838 -15.61412
Si 21.04513 23.76062 -14.25638
Si 21.04513 26.47612 -11.54087
Si 18.32963 23.76062 -11.54087
Si 18.32963 26.47612 -14.25638
Si 16.97188 22.40287 -10.18313
Si 19.68737 22.40287 -7.46762
Si 16.97188 25.11838 -7.46762
Si 19.68737 25.11838 -10.18313
Si 21.04513 23.76062 -8.82538
Si 21.04513 26.47612 -6.10987
Si 18.32963 23.76062 -6.10987
Si 18.32963 26.47612 -8.82538
Si 16.97188 22.40287 -4.75213
Si 19.68737 22.40287 -2.03662
Si 16.97188 25.11838 -2.03662
Si 19.68737 25.11838 -4.75213
Si 21.04513 23.76062 -3.39437
Si 21.04513 26.47612 -0.67888
Si 18.32963 23.76062 -0.67888
Si 18.32963 26.47612 -3.39437
Si 16.97188 27.83387 -15.61412
Si 19.68737 27.83387 -12.89863
Si 16.97188 30.54938 -12.89863
Si 19.68737 30.54938 -15.61412
Si 21.04513 29.19163 -14.25638
Si 21.04513 31.90712 -11.54087
Si 18.32963 29.19163 -11.54087
Si 18.32963 31.90712 -14.25638
Si 16.97188 27.83387 -10.18313
Si 19.68737 27.83387 -7.46762
Si 16.97188 30.54938 -7.46762
Si 19.68737 30.54938 -10.18313
Si 21.04513 29.19163 -8.82538
Si 21.04513 31.90712 -6.10987
Si 18.32963 29.19163 -6.10987
Si 18.32963 31.90712 -8.82538
Si 16.97188 27.83387 -4.75213
Si 19.68737 27.83387 -2.03662
Si 16.97188 30.54938 -2.03662
Si 19.68737 30.54938 -4.75213
Si 21.04513 29.19163 -3.39437
Si 21.04513 31.90712 -0.67888
Si 18.32963 29.19163 -0.67888
Si 18.32963 31.90712 -3.39437
Si 22.40287 16.97188 -15.61412
Si 25.11838 16.97188 -12.89863
Si 22.40287 19.68737 -12.89863
Si 25.11838 19.68737 -15.61412
Si 26.47612 18.32963 -14.25638
Si 26.47612 21.04513 -11.54087
Si 23.76062 18.32963 -11.54087
Si 23.76062 21.04513 -14.25638
Si 22.40287 16.97188 -10.18313
Si 25.11838 16.97188 -7.46762
Si 22.40287 19.68737 -7.46762
Si 25.11838 19.68737 -10.18313
Si 26.47612 18.32963 -8.82538
Si 26.47612 21.04513 -6.10987
Si 23.76062 18.32963 -6.10987
Si 23.76062 21.04513 -8.82538
Si 22.40287 16.97188 -4.75213
Si 25.11838 16.97188 -2.03662
Si 22.40287 19.68737 -2.03662
Si 25.11838 19.68737 -4.75213
Si 26.47612 18.32963 -3.39437
Si 26.47612 21.04513 -0.67888
Si 23.76062 18.32963 -0.67888
Si 23.76062 21.04513 -3.39437
Si 22.40287 22.40287 -15.61412
Si 25.11838 22.40287 -12.89863
Si 22.40287 25.11838 -12.89863
Si 25.11838 25.11838 -15.61412
Si 26.47612 23.76062 -14.25638
Si 26.47612 26.47612 -11.54087
Si 23.76062 23.76062 -11.54087
Si 23.76062 26.47612 -14.25638
Si 22.40287 22.40287 -10.18313
Si 25.11838 22.40287 -7.46762
Si 22.40287 25.11838 -7.46762
Si 25.11838 25.11838 -10.18313
Si 26.47612 23.76062 -8.82538
Si 26.47612 26.47612 -6.10987
Si 23.76062 23.76062 -6.10987
Si 23.76062 26.47612 -8.82538
Si 22.40287 22.40287 -4.75213
Si 25.11838 22.40287 -2.03662
Si 22.40287 25.11838 -2.03662
Si 25.11838 25.11838 -4.75213
Si 26.47612 23.76062 -3.39437
Si 26.47612 26.47612 -0.67888
Si 23.76062 23.76062 -0.67888
Si 23.76062 26.47612 -3.39437
Si 22.40287 27.83387 -15.61412
Si 25.11838 27.83387 -12.89863
Si 22.40287 30.54938 -12.89863
Si 25.11838 30.54938 -15.61412
Si 26.47612 29.19163 -14.25638
Si 26.47612 31.90712 -11.54087
Si 23.76062 29.19163 -11.54087
Si 23.76062 31.90712 -14.25638
Si 22.40287 27.83387 -10.18313
Si 25.11838 27.83387 -7.46762
Si 22.40287 30.54938 -7.46762
Si 25.11838 30.54938 -10.18313
Si 26.47612 29.19163 -8.82538
Si 26.47612 31.90712 -6.10987
Si 23.76062 29.19163 -6.10987
Si 23.76062 31.90712 -8.82538
Si 22.40287 27.83387 -4.75213
Si 25.11838 27.83387 -2.03662
Si 22.40287 30.54938 -2.03662
Si 25.11838 30.54938 -4.75213
Si 26.47612 29.19163 -3.39437
Si 26.47612 31.90712 -0.67888
Si 23.76062 29.19163 -0.67888
Si 23.76062 31.90712 -3.39437
Si 27.83387 16.97188 -15.61412
Si 30.54938 16.97188 -12.89863
Si 27.83387 19.68737 -12.89863
Si 30.54938 19.68737 -15.61412
Si 31.90712 18.32963 -14.25638
Si 31.90712 21.04513 -11.54087
Si 29.19163 18.32963 -11.54087
Si 29.19163 21.04513 -14.25638
Si 27.83387 16.97188 -10.18313
Si 30.54938 16.97188 -7.46762
Si 27.83387 19.68737 -7.46762
Si 30.54938 19.68737 -10.18313
Si 31.90712 18.32963 -8.82538
Si 31.90712 21.04513 -6.10987
Si 29.19163 18.32963 -6.10987
Si 29.19163 21.04513 -8.82538
Si 27.83387 16.97188 -4.75213
Si 30.54938 16.97188 -2.03662
Si 27.83387 19.68737 -2.03662
Si 30.54938 19.68737 -4.75213
Si 31.90712 18.32963 -3.39437
Si 31.90712 21.04513 -0.67888
Si 29.19163 18.32963 -0.67888
Si 29.19163 21.04513 -3.39437
Si 27.83387 22.40287 -15.61412
Si 30.54938 22.40287 -12.89863
Si 27.83387 25.11838 -12.89863
Si 30.54938 25.11838 -15.61412
Si 31.90712 23.76062 -14.25638
Si 31.90712 26.47612 -11.54087
Si 29.19163 23.76062 -11.54087
Si 29.19163 26.47612 -14.25638
Si 27.83387 22.40287 -10.18313
Si 30.54938 22.40287 -7.46762
Si 27.83387 25.11838 -7.46762
Si 30.54938 25.11838 -10.18313
Si 31.90712 23.76062 -8.82538
Si 31.90712 26.47612 -6.10987
Si 29.19163 23.76062 -6.10987
Si 29.19163 26.47612 -8.82538
Si 27.83387 22.40287 -4.75213
Si 30.54938 22.40287 -2.03662
Si 27.83387 25.11838 -2.03662
Si 30.54938 25.11838 -4.75213
Si 31.90712 23.76062 -3.39437
Si 31.90712 26.47612 -0.67888
Si 29.19163 23.76062 -0.67888
Si 29.19163 26.47612 -3.39437
Si 27.83387 27.83387 -15.61412
Si 30.54938 27.83387 -12.89863
Si 27.83387 30.54938 -12.89863
Si 30.54938 30.54938 -15.61412
Si 31.90712 29.19163 -14.25638
Si 31.90712 31.90712 -11.54087
Si 29.19163 29.19163 -11.54087
Si 29.19163 31.90712 -14.25638
Si 27.83387 27.83387 -10.18313
Si 30.54938 27.83387 -7.46762
Si 27.83387 30.54938 -7.46762
Si 30.54938 30.54938 -10.18313
Si 31.90712 29.19163 -8.82538
Si 31.90712 31.90712 -6.10987
Si 29.19163 29.19163 -6.10987
Si 29.19163 31.90712 -8.82538
Si 27.83387 27.83387 -4.75213
Si 30.54938 27.83387 -2.03662
Si 27.83387 30.54938 -2.03662
Si 30.54938 30.54938 -4.75213
Si 31.90712 29.19163 -3.39437
Si 31.90712 31.90712 -0.67888
Si 29.19163 29.19163 -0.67888
Si 29.19163 31.90712 -3.39437
Si 16.97188 16.97188  0.67888
Si 19.68737 16.97188  3.39437
Si 16.97188 19.68737  3.39437
Si 19.68737 19.68737  0.67888
Si 21.04513 18.32963  2.03662
Si 21.04513 21.04513  4.75213
Si 18.32963 18.32963  4.75213
Si 18.32963 21.04513  2.03662
Si 16.97188 16.97188  6.10987
Si 19.68737 16.97188  8.82538
Si 16.97188 19.68737  8.82538
Si 19.68737 19.68737  6.10987
Si 21.04513 18.32963  7.46762
Si 21.04513 21.04513 10.18313
Si 18.32963 18.32963 10.18313
Si 18.32963 21.04513  7.46762
Si 16.97188 16.97188 11.54087
Si 19.68737 16.97188 14.25638
Si 16.97188 19.68737 14.25638
Si 19.68737 19.68737 11.54087
Si 21.04513 18.32963 12.89863
Si 21.04513 21.04513 15.61412
Si 18.32963 18.32963 15.61412
Si 18.32963 21.04513 12.89863
Si 16.97188 22.40287  0.67888
Si 19.68737 22.40287  3.39437
Si 16.97188 25.11838  3.39437
Si 19.68737 25.11838  0.67888
Si 21.04513 23.76062  2.03662
Si 21.04513 26.47612  4.75213
Si 18.32963 23.76062  4.75213
Si 18.32963 26.47612  2.03662
Si 16.97188 22.40287  6.10987
Si 19.68737 22.40287  8.82538
Si 16.97188 25.11838  8.82538
Si 19.68737 25.11838  6.10987
Si 21.04513 23.76062  7.46762
Si 21.04513 26.47612 10.18313
Si 18.32963 23.76062 10.18313
Si 18.32963 26.47612  7.46762
Si 16.97188 22.40287 11.54087
Si 19.68737 22.40287 14.25638
Si 16.97188 25.11838 14.25638
Si 19.68737 25.11838 11.54087
Si 21.04513 23.76062 12.89863
Si 21.04513 26.47612 15.61412
Si 18.32963 23.76062 15.61412
Si 18.32963 26.47612 12.89863
Si 16.97188 27.83387  0.67888
Si 19.68737 27.83387  3.39437
Si 16.97188 30.54938  3.39437
Si 19.68737 30.54938  0.67888
Si 21.04513 29.19163  2.03662
Si 21.04513 31.90712  4.75213
Si 18.32963 29.19163  4.75213
Si 18.32963 31.90712  2.03662
Si 16.97188 27.83387  6.10987
Si 19.68737 27.83387  8.82538
Si 16.97188 30.54938  8.82538
Si 19.68737 30.54938  6.10987
Si 21.04513 29.19163  7.46762
Si 21.04513 31.90712 10.18313
Si 18.32963 29.19163 10.18313
Si 18.32963 31.90712  7.46762
Si 16.97188 27.83387 11.54087
Si 19.68737 27.83387 14.25638
Si 16.97188 30.54938 14.25638
Si 19.68737 30.54938 11.54087
Si 21.04513 29.19163 12.89863
Si 21.04513 31.90712 15.61412
Si 18.32963 29.19163 15.61412
Si 18.32963 31.90712 12.89863
Si 22.40287 16.97188  0.67888
Si 25.11838 16.97188  3.39437
Si 22.40287 19.68737  3.39437
Si 25.11838 19.68737  0.67888
Si 26.47612 18.32963  2.03662
Si 26.47612 21.04513  4.75213
Si 23.76062 18.32963  4.75213
Si 23.76062 21.04513  2.03662
Si 22.40287 16.97188  6.10987
Si 25.11838 16.97188  8.82538
Si 22.40287 19.68737  8.82538
Si 25.11838 19.68737  6.10987
Si 26.47612 18.32963  7.46762
Si 26.47612 21.04513 10.18313
Si 23.76062 18.32963 10.18313
Si 23.76062 21.04513  7.46762
Si 22.40287 16.97188 11.54087
Si 25.11838 16.97188 14.25638
Si 22.40287 19.68737 14.25638
Si 25.11838 19.68737 11.54087
Si 26.47612 18.32963 12.89863
Si 26.47612 21.04513 15.61412
Si 23.76062 18.32963 15.61412
Si 23.76062 21.04513 12.89863
Si 22.40287 22.40287  0.67888
Si 25.11838 22.40287  3.39437
Si 22.40287 25.11838  3.39437
Si 25.11838 25.11838  0.67888
Si 26.47612 23.76062  2.03662
Si 26.47612 26.47612  4.75213
Si 23.76062 23.76062  4.75213
Si 23.76062 26.47612  2.03662
Si 22.40287 22.40287  6.10987
Si 25.11838 22.40287  8.82538
Si 22.40287 25.11838  8.82538
Si 25.11838 25.11838  6.10987
Si 26.47612 23.76062  7.46762
Si 26.47612 26.47612 10.18313
Si 23.76062 23.76062 10.18313
Si 23.76062 26.47612  7.46762
Si 22.40287 22.40287 11.54087
Si 25.11838 22.40287 14.25638
Si 22.40287 25.11838 14.25638
Si 25.11838 25.11838 11.54087
Si 26.47612 23.76062 12.89863
Si 26.47612 26.47612 15.61412
Si 23.76062 23.76062 15.61412
Si 23.76062 26.47612 12.89863
Si 22.40287 27.83387  0.67888
Si 25.11838 27.83387  3.39437
Si 22.40287 30.54938  3.39437
Si 25.11838 30.54938  0.67888
Si 26.47612 29.19163  2.03662
Si 26.47612 31.90712  4.75213
Si 23.76062 29.19163  4.75213
Si 23.76062 31.90712  2.03662
Si 22.40287 27.83387  6.10987
Si 25.11838 27.83387  8.82538
Si 22.40287 30.54938  8.82538
Si 25.11838 30.54938  6.10987
Si 26.47612 29.19163  7.46762
Si 26.47612 31.90712 10.18313
Si 23.76062 29.19163 10.18313
Si 23.76062 31.90712  7.46762
Si 22.40287 27.83387 11.54087
Si 25.11838 27.83387 14.25638
Si 22.40287 30.54938 14.25638
Si 25.11838 30.54938 11.54087
Si 26.47612 29.19163 12.89863
Si 26.47612 31.90712 15.61412
Si 23.76062 29.19163 15.61412
Si 23.76062 31.90712 12.89863
Si 27.83387 16.97188  0.67888
Si 30.54938 16.97188  3.39437
Si 27.83387 19.68737  3.39437
Si 30.54938 19.68737  0.67888
Si 31.90712 18.32963  2.03662
Si 31.90712 21.04513  4.75213
Si 29.19163 18.32963  4.75213
Si 29.19163 21.04513  2.03662
Si 27.83387 16.97188  6.10987
Si 30.54938 16.97188  8.82538
Si 27.83387 19.68737  8.82538
Si 30.54938 19.68737  6.10987
Si 31.90712 18.32963  7.46762
Si 31.90712 21.04513 10.18313
Si 29.19163 18.32963 10.18313
Si 29.19163 21.04513  7.46762
Si 27.83387 16.97188 11.54087
Si 30.54938 16.97188 14.25638
Si 27.83387 19.68737 14.25638
Si 30.54938 19.68737 11.54087
Si 31.90712 18.32963 12.89863
Si 31.90712 21.04513 15.61412
Si 29.19163 18.32963 15.61412
Si 29.19163 21.04513 12.89863
Si 27.83387 22.40287  0.67888
Si 30.54938 22.40287  3.39437
Si 27.83387 25.11838  3.39437
Si 30.54938 25.11838  0.67888
Si 31.90712 23.76062  2.03662
Si 31.90712 26.47612  4.75213
Si 29.19163 23.76062  4.75213
Si 29.19163 26.47612  2.03662
Si 27.83387 22.40287  6.10987
Si 30.54938 22.40287  8.82538
Si 27.83387 25.11838  8.82538
Si 30.54938 25.11838  6.10987
Si 31.90712 23.76062  7.46762
Si 31.90712 26.47612 10.18313
Si 29.19163 23.76062 10.18313
Si 29.19163 26.47612  7.46762
Si 27.83387 22.40287 11.54087
Si 30.54938 22.40287 14.25638
Si 27.83387 25.11838 14.25638
Si 30.54938 25.11838 11.54087
Si 31.90712 23.76062 12.89863
Si 31.90712 26.47612 15.61412
Si 29.19163 23.76062 15.61412
Si 29.19163 26.47612 12.89863
Si 27.83387 27.83387  0.67888
Si 30.54938 27.83387  3.39437
Si 27.83387 30.54938  3.39437
Si 30.54938 30.54938  0.67888
Si 31.90712 29.19163  2.03662
Si 31.90712 31.90712  4.75213
Si 29.19163 29.19163  4.75213
Si 29.19163 31.90712  2.03662
Si 27.83387 27.83387  6.10987
Si 30.54938 27.83387  8.82538
Si 27.83387 30.54938  8.82538
Si 30.54938 30.54938  6.10987
Si 31.90712 29.19163  7.46762
Si 31.90712 31.90712 10.18313
Si 29.19163 29.19163 10.18313
Si 29.19163 31.90712  7.46762
Si 27.83387 27.83387 11.54087
Si 30.54938 27.83387 14.25638
Si 27.83387 30.54938 14.25638
Si 30.54938 30.54938 11.54087
Si 31.90712 29.19163 12.89863
Si 31.90712 31.90712 15.61412
Si 29.19163 29.19163 15.61412
Si 29.19163 31.90712 12.89863
Si 16.97188 16.97188 16.97188
Si 19.68737 16.97188 19.68737
Si 16.97188 19.68737 19.68737
Si 19.68737 19.68737 16.97188
Si 21.04513 18.32963 18.32963
Si 21.04513 21.04513 21.04513
Si 18.32963 18.32963 21.04513
Si 18.32963 21.04513 18.32963
Si 16.97188 16.97188 22.40287
Si 19.68737 16.97188 25.11838
Si 16.97188 19.68737 25.11838
Si 19.68737 19.68737 22.40287
Si 21.04513 18.32963 23.76062
Si 21.04513 21.04513 26.47612
Si 18.32963 18.32963 26.47612
Si 18.32963 21.04513 23.76062
Si 16.97188 16.97188 27.83387
Si 19.68737 16.97188 30.54938
Si 16.97188 19.68737 30.54938
Si 19.68737 19.68737 27.83387
Si 21.04513 18.32963 29.19163
Si 21.04513 21.04513 31.90712
Si 18.32963 18.32963 31.90712
Si 18.32963 21.04513 29.19163
Si 16.97188 22.40287 16.97188
Si 19.68737 22.40287 19.68737
Si 16.97188 25.11838 19.68737
Si 19.68737 25.11838 16.97188
Si 21.04513 23.76062 18.32963
Si 21.04513 26.47612 21.04513
Si 18.32963 23.76062 21.04513
Si 18.32963 26.47612 18.32963
Si 16.97188 22.40287 22.40287
Si 19.68737 22.40287 25.11838
Si 16.97188 25.11838 25.11838
Si 19.68737 25.11838 22.40287
Si 21.04513 23.76062 23.76062
Si 21.04513 26.47612 26.47612
Si 18.32963 23.76062 26.47612
Si 18.32963 26.47612 23.76062
Si 16.97188 22.40287 27.83387
Si 19.68737 22.40287 30.54938
Si 16.97188 25.11838 30.54938
Si 19.68737 25.11838 27.83387
Si 21.04513 23.76062 29.19163
Si 21.04513 26.47612 31.90712
Si 18.32963 23.76062 31.90712
Si 18.32963 26.47612 29.19163
Si 16.97188 27.83387 16.97188
Si 19.68737 27.83387 19.68737
Si 16.97188 30.54938 19.68737
Si 19.68737 30.54938 16.97188
Si 21.04513 29.19163 18.32963
Si 21.04513 31.90712 21.04513
Si 18.32963 29.19163 21.04513
Si 18.32963 31.90712 18.32963
Si 16.97188 27.83387 22.40287
Si 19.68737 27.83387 25.11838
Si 16.97188 30.54938 25.11838
Si 19.68737 30.54938 22.40287
Si 21.04513 29.19163 23.76062
Si 21.04513 31.90712 26.47612
Si 18.32963 29.19163 26.47612
Si 18.32963 31.90712 23.76062
Si 16.97188 27.83387 27.83387
Si 19.68737 27.83387 30.54938
Si 16.97188 30.54938 30.54938
Si 19.68737 30.54938 27.83387
Si 21.04513 29.19163 29.19163
Si 21.04513 31.90712 31.90712
Si 18.32963 29.19163 31.90712
Si 18.32963 31.90712 29.19163
Si 22.40287 16.97188 16.97188
Si 25.11838 16.97188 19.68737
Si 22.40287 19.68737 19.68737
Si 25.11838 19.68737 16.97188
Si 26.47612 18.32963 18.32963
Si 26.47612 21.04513 21.04513
Si 23.76062 18.32963 21.04513
Si 23.76062 21.04513 18.32963
Si 22.40287 16.97188 22.40287
Si 25.11838 16.97188 25.11838
Si 22.40287 19.68737 25.11838
Si 25.11838 19.68737 22.40287
Si 26.47612 18.32963 23.76062
Si 26.47612 21.04513 26.47612
Si 23.76062 18.32963 26.47612
Si 23.76062 21.04513 23.76062
Si 22.40287 16.97188 27.83387
Si 25.11838 16.97188 30.54938
Si 22.40287 19.68737 30.54938
Si 25.11838 19.68737 27.83387
Si 26.47612 18.32963 29.19163
Si 26.47612 21.04513 31.90712
Si 23.76062 18.32963 31.90712
Si 23.76062 21.04513 29.19163
Si 22.40287 22.40287 16.97188
Si 25.11838 22.40287 19.68737
Si 22.40287 25.11838 19.68737
Si 25.11838 25.11838 16.97188
Si 26.47612 23.76062 18.32963
Si 26.47612 26.47612 21.04513
Si 23.76062 23.76062 21.04513
Si 23.76062 26.47612 18.32963
Si 22.40287 22.40287 22.40287
Si 25.11838 22.40287 25.11838
Si 22.40287 25.11838 25.11838
Si 25.11838 25.11838 22.40287
Si 26.47612 23.76062 23.76062
Si 26.47612 26.47612 26.47612
Si 23.76062 23.76062 26.47612
Si 23.76062 26.47612 23.76062
Si 22.40287 22.40287 27.83387
Si 25.11838 22.40287 30.54938
Si 22.40287 25.11838 30.54938
Si 25.11838 25.11838 27.83387
Si 26.47612 23.76062 29.19163
Si 26.47612 26.47612 31.90712
Si 23.76062 23.76062 31.90712
Si 23.76062 26.47612 29.19163
Si 22.40287 27.83387 16.97188
Si 25.11838 27.83387 19.68737
Si 22.40287 30.54938 19.68737
Si 25.11838 30.54938 16.97188
Si 26.47612 29.19163 18.32963
Si 26.47612 31.90712 21.04513
Si 23.76062 29.19163 21.04513
Si 23.76062 31.90712 18.32963
Si 22.40287 27.83387 22.40287
Si 25.11838 27.83387 25.11838
Si 22.40287 30.54938 25.11838
Si 25.11838 30.54938 22.40287
Si 26.47612 29.19163 23.76062
Si 26.47612 31.90712 26.47612
Si 23.76062 29.19163 26.47612
Si 23.76062 31.90712 23.76062
Si 22.40287 27.83387 27.83387
Si 25.11838 27.83387 30.54938
Si 22.40287 30.54938 30.54938
Si 25.11838 30.54938 27.83387
Si 26.47612 29.19163 29.19163
Si 26.47612 31.90712 31.90712
Si 23.76062 29.19163 31.90712
Si 23.76062 31.90712 29.19163
Si 27.83387 16.97188 16.97188
Si 30.54938 16.97188 19.68737
Si 27.83387 19.68737 19.68737
Si 30.54938 19.68737 16.97188
Si 31.90712 18.32963 18.32963
Si 31.90712 21.04513 21.04513
Si 29.19163 18.32963 21.04513
Si 29.19163 21.04513 18.32963
Si 27.83387 16.97188 22.40287
Si 30.54938 16.97188 25.11838
Si 27.83387 19.68737 25.11838
Si 30.54938 19.68737 22.40287
Si 31.90712 18.32963 23.76062
Si 31.90712 21.04513 26.47612
Si 29.19163 18.32963 26.47612
Si 29.19163 21.04513 23.76062
Si 27.83387 16.97188 27.83387
Si 30.54938 16.97188 30.54938
Si 27.83387 19.68737 30.54938
Si 30.54938 19.68737 27.83387
Si 31.90712 18.32963 29.19163
Si 31.90712 21.04513 31.90712
Si 29.19163 18.32963 31.90712
Si 29.19163 21.04513 29.19163
Si 27.83387 22.40287 16.97188
Si 30.54938 22.40287 19.68737
Si 27.83387 25.11838 19.68737
Si 30.54938 25.11838 16.97188
Si 31.90712 23.76062 18.32963
Si 31.90712 26.47612 21.04513
Si 29.19163 23.76062 21.04513
Si 29.19163 26.47612 18.32963
Si 27.83387 22.40287 22.40287
Si 30.54938 22.40287 25.11838
Si 27.83387 25.11838 25.11838
Si 30.54938 25.11838 22.40287
Si 31.90712 23.76062 23.76062
Si 31.90712 26.47612 26.47612
Si 29.19163 23.76062 26.47612
Si 29.19163 26.47612 23.76062
Si 27.83387 22.40287 27.83387
Si 30.54938 22.40287 30.54938
Si 27.83387 25.11838 30.54938
Si 30.54938 25.11838 27.83387
Si 31.90712 23.76062 29.19163
Si 31.90712 26.47612 31.90712
Si 29.19163 23.76062 31.90712
Si 29.19163 26.47612 29.19163
Si 27.83387 27.83387 16.97188
Si 30.54938 27.83387 19.68737
Si 27.83387 30.54938 19.68737
Si 30.54938 30.54938 16.97188
Si 31.90712 29.19163 18.32963
Si 31.90712 31.90712 21.04513
Si 29.19163 29.19163 21.04513
Si 29.19163 31.90712 18.32963
Si 27.83387 27.83387 22.40287
Si 30.54938 27.83387 25.11838
Si 27.83387 30.54938 25.11838
Si 30.54938 30.54938 22.40287
Si 31.90712 29.19163 23.76062
Si 31.90712 31.90712 26.47612
Si 29.19163 29.19163 26.47612
Si 29.19163 31.90712 23.76062
Si 27.83387 27.83387 27.83387
Si 30.54938 27.83387 30.54938
Si 27.83387 30.54938 30.54938
Si 30.54938 30.54938 27.83387
Si 31.90712 29.19163 29.19163
Si 31.90712 31.90712 31.90712
Si 29.19163 29.19163 31.90712
Si 29.19163 31.90712 29.19163
