216 

Si    0.72888   0.67888   0.67888   0.013554456208347   0.000001990649305   0.000001990768585
Si    3.39437   0.67888   3.39437  -0.000199991545441   0.000120265705349  -0.000193513130193
Si    0.67888   3.39437   3.39437   0.000422778642398  -0.000114167504386  -0.000114501570355
Si    3.39437   3.39437   0.67888  -0.000200044085735  -0.000193658003340   0.000120665575824
Si    4.75213   2.03662   2.03662   0.000010570014973   0.000025269320605   0.000025400741229
Si    4.75213   4.75213   4.75213   0.000016289911124   0.000007132685986   0.000007123292255
Si    2.03662   2.03662   4.75213   0.000033543114533  -0.000036253896057   0.000033869003256
Si    2.03662   4.75213   2.03662   0.000033457900790   0.000033948392024  -0.000036343074252
Si    0.67888   0.67888   6.10987  -0.000019081232436   0.000002864385501   0.000000654514812
Si    3.39437   0.67888   8.82538  -0.000020012787619   0.000008154452989   0.000008156470443
Si    0.67888   3.39437   8.82538  -0.000003684865018  -0.000008031020002   0.000011480647266
Si    3.39437   3.39437   6.10987  -0.000019404891820   0.000022373287816  -0.000003059001094
Si    4.75213   2.03662   7.46762   0.000001031153570  -0.000009020807497  -0.000000594516956
Si    4.75213   4.75213  10.18313   0.000002564514127  -0.000017225775279  -0.000003757754796
Si    2.03662   2.03662  10.18313   0.000015284754039   0.000001235256355   0.000002270938580
Si    2.03662   4.75213   7.46762   0.000012656311254  -0.000007456216754   0.000008756760913
Si    0.67888   0.67888  11.54087  -0.000013791471980   0.000008178073969  -0.000007935656250
Si    3.39437   0.67888  14.25638  -0.000194040795090  -0.000108275559170   0.000183817527030
Si    0.67888   3.39437  14.25638   0.000422023334293   0.000108391170164  -0.000112502624654
Si    3.39437   3.39437  11.54087  -0.000024784505028   0.000017868996339   0.000003896600431
Si    4.75213   2.03662  12.89863  -0.000016028278573   0.000051357740665   0.000024938656667
Si    4.75213   4.75213  15.61412  -0.000009866508647  -0.000013066277583  -0.000061117738448
Si    2.03662   2.03662  15.61412  -0.003371497174557  -0.002473717107312   0.002466598719524
Si    2.03662   4.75213  12.89863  -0.000177680128761   0.000054528871370  -0.000048807298899
Si    0.67888   6.10987   0.67888  -0.000018920485278   0.000000663958697   0.000002871762727
Si    3.39437   6.10987   3.39437  -0.000019469093625  -0.000003058362868   0.000022348587434
Si    0.67888   8.82538   3.39437  -0.000003740654727   0.000011453907255  -0.000008029924653
Si    3.39437   8.82538   0.67888  -0.000019973537205   0.000008152960030   0.000008157703516
Si    4.75213   7.46762   2.03662   0.000001045283279  -0.000000597604559  -0.000009040180063
Si    4.75213  10.18313   4.75213   0.000002688828767  -0.000003773870246  -0.000017205402684
Si    2.03662   7.46762   4.75213   0.000012644289065   0.000008752043352  -0.000007406440770
Si    2.03662  10.18313   2.03662   0.000015294094777   0.000002250099946   0.000001448055550
Si    0.67888   6.10987   6.10987   0.000108634142006  -0.000020937178134  -0.000020955693162
Si    3.39437   6.10987   8.82538  -0.000007164513094   0.000014917845338   0.000006025142621
Si    0.67888   8.82538   8.82538   0.000118914889550   0.000008999703250   0.000008981289432
Si    3.39437   8.82538   6.10987  -0.000007156506270   0.000006015822057   0.000014922763128
Si    4.75213   7.46762   7.46762   0.000009618824819  -0.000012780455970  -0.000012789378023
Si    4.75213  10.18313  10.18313   0.000008580506736   0.000004627382806   0.000004632822326
Si    2.03662   7.46762  10.18313  -0.000063033013741  -0.000005492721895  -0.000001645937402
Si    2.03662  10.18313   7.46762  -0.000063033119920  -0.000001625409193  -0.000005478855105
Si    0.67888   6.10987  11.54087   0.000106105555195   0.000019953546273  -0.000023735915425
Si    3.39437   6.10987  14.25638  -0.000023727883282  -0.000012045699155  -0.000025913534076
Si    0.67888   8.82538  14.25638  -0.000009025692348  -0.000000432923722   0.000000748213855
Si    3.39437   8.82538  11.54087  -0.000013288043099   0.000005850723599  -0.000024779706307
Si    4.75213   7.46762  12.89863   0.000008800551706  -0.000006106373710   0.000029068469385
Si    4.75213  10.18313  15.61412   0.000001063673388  -0.000001389727110   0.000007033460039
Si    2.03662   7.46762  15.61412   0.000014415195320  -0.000005134954408  -0.000004327348040
Si    2.03662  10.18313  12.89863   0.000011764076167  -0.000011635686454   0.000017409478088
Si    0.67888  11.54087   0.67888  -0.000013660321808  -0.000007936401524   0.000008169783400
Si    3.39437  11.54087   3.39437  -0.000024775026905   0.000003895688330   0.000017750283665
Si    0.67888  14.25638   3.39437   0.000422044921168  -0.000112160955613   0.000108725581992
Si    3.39437  14.25638   0.67888  -0.000194101738045   0.000183939835164  -0.000108680164127
Si    4.75213  12.89863   2.03662  -0.000016002464897   0.000024931058223   0.000051245707405
Si    4.75213  15.61412   4.75213  -0.000009911260638  -0.000061253171652  -0.000013078732422
Si    2.03662  12.89863   4.75213  -0.000177680234747  -0.000048769507038   0.000054556384144
Si    2.03662  15.61412   2.03662  -0.003371494700527   0.002466482635110  -0.002473841175806
Si    0.67888  11.54087   6.10987   0.000106087179883  -0.000023699734816   0.000019981506188
Si    3.39437  11.54087   8.82538  -0.000013278232121  -0.000024798260837   0.000005836418208
Si    0.67888  14.25638   8.82538  -0.000008952282417   0.000000757574997  -0.000000442722814
Si    3.39437  14.25638   6.10987  -0.000023734137377  -0.000026031834971  -0.000012049980851
Si    4.75213  12.89863   7.46762   0.000008694524962   0.000029093475158  -0.000006099065697
Si    4.75213  15.61412  10.18313   0.000001014492310   0.000007032268833  -0.000001411281601
Si    2.03662  12.89863  10.18313   0.000011776140876   0.000017456939925  -0.000011635996778
Si    2.03662  15.61412   7.46762   0.000014405521843  -0.000004119654733  -0.000005151434493
Si    0.67888  11.54087  11.54087   0.000110517507020   0.000011940846784   0.000011977758102
Si    3.39437  11.54087  14.25638  -0.000019441080018   0.000001067146971  -0.000024353247573
Si    0.67888  14.25638  14.25638   0.000420835107591   0.000105074467205   0.000105425422928
Si    3.39437  14.25638  11.54087  -0.000019413481061  -0.000024357259887   0.000001049152899
Si    4.75213  12.89863  12.89863   0.000016290967806   0.000009173477120   0.000009189407048
Si    4.75213  15.61412  15.61412   0.000011536426551  -0.000033386871046  -0.000033522031746
Si    2.03662  12.89863  15.61412   0.000034356650417  -0.000023934613301   0.000033469129262
Si    2.03662  15.61412  12.89863   0.000034439773728   0.000033375619175  -0.000023851458166
Si    6.10987   0.67888   0.67888  -0.000005160251597   0.000002872322464   0.000002868709121
Si    8.82538   0.67888   3.39437   0.000005834823010   0.000004818734739  -0.000008019653555
Si    6.10987   3.39437   3.39437   0.000002261604698  -0.000015117494688  -0.000015111467388
Si    8.82538   3.39437   0.67888   0.000005859379149  -0.000008015705051   0.000004832969450
Si   10.18313   2.03662   2.03662   0.000000019902894   0.000002240477187   0.000002254158711
Si   10.18313   4.75213   4.75213  -0.000001025981633   0.000000063622854   0.000000049625513
Si    7.46762   2.03662   4.75213   0.000000525186588   0.000012655667642   0.000004997976128
Si    7.46762   4.75213   2.03662   0.000000536122784   0.000004987722841   0.000012657937453
Si    6.10987   0.67888   6.10987  -0.000000628273854   0.000028677628615  -0.000012286843571
Si    8.82538   0.67888   8.82538   0.000010654690961   0.000009002688497   0.000008981075390
Si    6.10987   3.39437   8.82538   0.000000206281085   0.000012738166640   0.000001216476606
Si    8.82538   3.39437   6.10987   0.000004797709704  -0.000006099475581   0.000000745923120
Si   10.18313   2.03662   7.46762  -0.000004934913407  -0.000001185451973  -0.000007870707172
Si   10.18313   4.75213  10.18313   0.000002555695026   0.000011796956078  -0.000005328660776
Si    7.46762   2.03662  10.18313  -0.000012409755470   0.000002253437388  -0.000000343335676
Si    7.46762   4.75213   7.46762  -0.000005570581516   0.000003649050436  -0.000013450249326
Si    6.10987   0.67888  11.54087  -0.000001507391714  -0.000018672623750   0.000009405137693
Si    8.82538   0.67888  14.25638   0.000000547352982   0.000006202349806   0.000000736762229
Si    6.10987   3.39437  14.25638   0.000001632031421  -0.000011260393092   0.000004138145305
Si    8.82538   3.39437  11.54087   0.000011111043184  -0.000005885469200  -0.000007354940615
Si   10.18313   2.03662  12.89863   0.000003293280848  -0.000011535944779   0.000009481893078
Si   10.18313   4.75213  15.61412   0.000004165866624   0.000000521535279   0.000008662208606
Si    7.46762   2.03662  15.61412  -0.000002635851066  -0.000003254211064  -0.000000494570424
Si    7.46762   4.75213  12.89863  -0.000009077589178   0.000011937142319   0.000006034550296
Si    6.10987   6.10987   0.67888  -0.000000745216538  -0.000012297784434   0.000028677428569
Si    8.82538   6.10987   3.39437   0.000004816351260   0.000000748118215  -0.000006105465157
Si    6.10987   8.82538   3.39437   0.000000197129884   0.000001220075968   0.000012733765643
Si    8.82538   8.82538   0.67888   0.000010609536745   0.000008999501297   0.000008984188080
Si   10.18313   7.46762   2.03662  -0.000004928644615  -0.000007881760783  -0.000001190310340
Si   10.18313  10.18313   4.75213   0.000002562491917  -0.000005330724127   0.000011808921443
Si    7.46762   7.46762   4.75213  -0.000005563225100  -0.000013447924225   0.000003647548484
Si    7.46762  10.18313   2.03662  -0.000012400131929  -0.000000360544339   0.000002259753622
Si    6.10987   6.10987   6.10987  -0.000002072712647   0.000003406420895   0.000003409648566
Si    8.82538   6.10987   8.82538   0.000001054786753   0.000000859411798   0.000002876924519
Si    6.10987   8.82538   8.82538  -0.000000933916838   0.000002884052899   0.000002879606509
Si    8.82538   8.82538   6.10987   0.000001034929239   0.000002854032085   0.000000854205652
Si   10.18313   7.46762   7.46762  -0.000000948400165  -0.000002693063646  -0.000002704421781
Si   10.18313  10.18313  10.18313  -0.000000068602936  -0.000000191005297  -0.000000175281711
Si    7.46762   7.46762  10.18313  -0.000002916410683  -0.000003042043145  -0.000000715140986
Si    7.46762  10.18313   7.46762  -0.000002934266181  -0.000000704207193  -0.000003039452360
Si    6.10987   6.10987  11.54087  -0.000001925482951   0.000003523690046  -0.000010631579554
Si    8.82538   6.10987  14.25638   0.000009224134126  -0.000001634507735  -0.000003107034418
Si    6.10987   8.82538  14.25638   0.000001077453396   0.000008781060300  -0.000015615126508
Si    8.82538   8.82538  11.54087   0.000006322047376   0.000008166718702  -0.000008137077349
Si   10.18313   7.46762  12.89863   0.000003441753756   0.000002446478435  -0.000001806873398
Si   10.18313  10.18313  15.61412  -0.000004928421635   0.000000766342872  -0.000005936549987
Si    7.46762   7.46762  15.61412  -0.000014288302827  -0.000008640638559  -0.000011244595676
Si    7.46762  10.18313  12.89863  -0.000000293630195   0.000006172649877   0.000007391221399
Si    6.10987  11.54087   0.67888  -0.000001624133935   0.000009411785788  -0.000018670923120
Si    8.82538  11.54087   3.39437   0.000011110301908  -0.000007365972058  -0.000005874056485
Si    6.10987  14.25638   3.39437   0.000001632214111   0.000004145275465  -0.000011259911024
Si    8.82538  14.25638   0.67888   0.000000589741919   0.000000741397843   0.000006205137977
Si   10.18313  12.89863   2.03662   0.000003287129148   0.000009479524728  -0.000011544764153
Si   10.18313  15.61412   4.75213   0.000004172212227   0.000008648933824   0.000000521461915
Si    7.46762  12.89863   4.75213  -0.000009077678034   0.000006061179725   0.000011926917158
Si    7.46762  15.61412   2.03662  -0.000002617810924  -0.000000494854605  -0.000003262792364
Si    6.10987  11.54087   6.10987  -0.000001925378394  -0.000010639107283   0.000003509520490
Si    8.82538  11.54087   8.82538   0.000006323981327  -0.000008133709218   0.000008160778055
Si    6.10987  14.25638   8.82538   0.000001086580845  -0.000015623855326   0.000008787002074
Si    8.82538  14.25638   6.10987   0.000009224854414  -0.000003114021539  -0.000001627106587
Si   10.18313  12.89863   7.46762   0.000003434957387  -0.000001797244841   0.000002448887356
Si   10.18313  15.61412  10.18313  -0.000004934551561  -0.000005934493484   0.000000748556279
Si    7.46762  12.89863  10.18313  -0.000000282990792   0.000007372748405   0.000006166374206
Si    7.46762  15.61412   7.46762  -0.000014297971905  -0.000011256575213  -0.000008639430175
Si    6.10987  11.54087  11.54087  -0.000001193223327  -0.000006290899317  -0.000006289677058
Si    8.82538  11.54087  14.25638   0.000004796811458  -0.000004493885141   0.000002348340190
Si    6.10987  14.25638  14.25638   0.000001390678979   0.000012226960327   0.000012225363533
Si    8.82538  14.25638  11.54087   0.000004813991085   0.000002350691388  -0.000004500074226
Si   10.18313  12.89863  12.89863  -0.000001023152785   0.000005710166576   0.000005715322589
Si   10.18313  15.61412  15.61412  -0.000000858889222  -0.000005124558100  -0.000005133670710
Si    7.46762  12.89863  15.61412  -0.000004750640812   0.000006032830860  -0.000019940940667
Si    7.46762  15.61412  12.89863  -0.000004743809644  -0.000019930149012   0.000006039514549
Si   11.54087   0.67888   0.67888  -0.000013901285060   0.000008144061725   0.000008147521752
Si   14.25638   0.67888   3.39437  -0.000183759721961   0.000108389719878   0.000174873337386
Si   11.54087   3.39437   3.39437  -0.000007173556049  -0.000003904026056  -0.000003913686263
Si   14.25638   3.39437   0.67888  -0.000183806335853   0.000174971900855   0.000108790998892
Si   15.61412   2.03662   2.03662  -0.003224254461926   0.002172627260941   0.002172767694567
Si   15.61412   4.75213   4.75213  -0.000181682306797  -0.000042202415108  -0.000042261501293
Si   12.89863   2.03662   4.75213  -0.000013468832489  -0.000051769410269   0.000022762445401
Si   12.89863   4.75213   2.03662  -0.000013430927241   0.000022749112388  -0.000051651594975
Si   11.54087   0.67888   6.10987  -0.000002780514763   0.000023139010599   0.000010925055215
Si   14.25638   0.67888   8.82538  -0.000011242399562   0.000002885476970   0.000002879379695
Si   11.54087   3.39437   8.82538  -0.000008047178618  -0.000024949842298   0.000007407232447
Si   14.25638   3.39437   6.10987  -0.000016564156926  -0.000032761393762   0.000012369655128
Si   15.61412   2.03662   7.46762   0.000012503864819  -0.000002317450868  -0.000000523894560
Si   15.61412   4.75213  10.18313   0.000008548338048   0.000013134133295   0.000012532320386
Si   12.89863   2.03662  10.18313   0.000005487422992   0.000010584459478   0.000002198370431
Si   12.89863   4.75213   7.46762   0.000008739540412   0.000029204945725  -0.000011878147494
Si   11.54087   0.67888  11.54087  -0.000008911357901  -0.000011267457288  -0.000020777127446
Si   14.25638   0.67888  14.25638  -0.000182935245387  -0.000098282607501  -0.000177790573502
Si   11.54087   3.39437  14.25638  -0.000001406892579   0.000009313791961  -0.000011303981465
Si   14.25638   3.39437  11.54087  -0.000015782290980  -0.000029179651269  -0.000007310195318
Si   15.61412   2.03662  12.89863   0.000028279435727   0.000039290101752   0.000027479539571
Si   15.61412   4.75213  15.61412   0.000022872716368  -0.000016586418430  -0.000046629968820
Si   12.89863   2.03662  15.61412   0.000007073478890  -0.000025093760181   0.000023269006234
Si   12.89863   4.75213  12.89863   0.000016287291533   0.000009340353288   0.000006964441984
Si   11.54087   6.10987   0.67888  -0.000002906321753   0.000010931823918   0.000023145932552
Si   14.25638   6.10987   3.39437  -0.000016553885489   0.000012363925570  -0.000032665886027
Si   11.54087   8.82538   3.39437  -0.000008057062640   0.000007425113650  -0.000024925393458
Si   14.25638   8.82538   0.67888  -0.000011206584370   0.000002883823241   0.000002881077647
Si   15.61412   7.46762   2.03662   0.000012546704919  -0.000000532883558  -0.000002543681427
Si   15.61412  10.18313   4.75213   0.000008516954300   0.000012536609910   0.000013099868348
Si   12.89863   7.46762   4.75213   0.000008843011162  -0.000011908744775   0.000029181665708
Si   12.89863  10.18313   2.03662   0.000005517622236   0.000002180796890   0.000010593839197
Si   11.54087   6.10987   6.10987  -0.000009117223363  -0.000003440806451  -0.000003426151889
Si   14.25638   6.10987   8.82538  -0.000004093753573  -0.000015750570517   0.000010298371589
Si   11.54087   8.82538   8.82538  -0.000009907150505   0.000008153520151   0.000008157020427
Si   14.25638   8.82538   6.10987  -0.000004101780681   0.000010296097243  -0.000015751784376
Si   15.61412   7.46762   7.46762  -0.000071653131185  -0.000010788304319  -0.000010791573538
Si   15.61412  10.18313  10.18313  -0.000069762110181   0.000001785358378   0.000001806998992
Si   12.89863   7.46762  10.18313   0.000004181511416   0.000001696409245  -0.000003695286976
Si   12.89863  10.18313   7.46762   0.000004199411507  -0.000003684650185   0.000001688470618
Si   11.54087   6.10987  11.54087  -0.000004807004676  -0.000002646455144   0.000000648123126
Si   14.25638   6.10987  14.25638  -0.000016706569513   0.000004433839914   0.000026300874844
Si   11.54087   8.82538  14.25638  -0.000001923693640   0.000004441035739   0.000015068160823
Si   14.25638   8.82538  11.54087  -0.000004981566821  -0.000000295244525   0.000012869805152
Si   15.61412   7.46762  12.89863   0.000003247274973  -0.000019810480308  -0.000002062136887
Si   15.61412  10.18313  15.61412   0.000012530023722  -0.000003216093515  -0.000001216118990
Si   12.89863   7.46762  15.61412   0.000006553456436  -0.000010332383480  -0.000018752332451
Si   12.89863  10.18313  12.89863   0.000002735369139   0.000002032952556  -0.000017318506674
Si   11.54087  11.54087   0.67888  -0.000009019072769  -0.000020807432205  -0.000011279319823
Si   14.25638  11.54087   3.39437  -0.000015825356400  -0.000007319412788  -0.000029174509585
Si   11.54087  14.25638   3.39437  -0.000001424856765  -0.000011298702578   0.000009300476332
Si   14.25638  14.25638   0.67888  -0.000182974272596  -0.000177894418280  -0.000098681598405
Si   15.61412  12.89863   2.03662   0.000028150908758   0.000027554785955   0.000039375800049
Si   15.61412  15.61412   4.75213   0.000023018451994  -0.000046541614774  -0.000016494547580
Si   12.89863  12.89863   4.75213   0.000016286889156   0.000006965606208   0.000009348827025
Si   12.89863  15.61412   2.03662   0.000007056296012   0.000023160833910  -0.000025220947202
Si   11.54087  11.54087   6.10987  -0.000004789082523   0.000000658762940  -0.000002654340336
Si   14.25638  11.54087   8.82538  -0.000004973437967   0.000012864160492  -0.000000295180119
Si   11.54087  14.25638   8.82538  -0.000001931736108   0.000015069193320   0.000004453943120
Si   14.25638  14.25638   6.10987  -0.000016665372144   0.000026300805393   0.000004429323401
Si   15.61412  12.89863   7.46762   0.000003260860688  -0.000002113142104  -0.000019814727114
Si   15.61412  15.61412  10.18313   0.000012524393258  -0.000001433838787  -0.000003233444812
Si   12.89863  12.89863  10.18313   0.000002614607169  -0.000017336216803   0.000002026015818
Si   12.89863  15.61412   7.46762   0.000006522778977  -0.000018739523486  -0.000010353568196
Si   11.54087  11.54087  11.54087  -0.000010154032263  -0.000004713824315  -0.000004732015063
Si   14.25638  11.54087  14.25638  -0.000016561444073  -0.000019477407153   0.000025545251262
Si   11.54087  14.25638  14.25638  -0.000006142413667  -0.000004257446413  -0.000004251133805
Si   14.25638  14.25638  11.54087  -0.000016569492603   0.000025649197166  -0.000019490165660
Si   15.61412  12.89863  12.89863  -0.000181686588720   0.000060222154543   0.000060244926111
Si   15.61412  15.61412  15.61412  -0.003226189389768  -0.002181523558668  -0.002181651229481
Si   12.89863  12.89863  15.61412  -0.000007270552961  -0.000010868581642   0.000041758754116
Si   12.89863  15.61412  12.89863  -0.000007326380474   0.000041852627476  -0.000010886599562
