CRYSTAL
PRIMVEC
  16.293000   0.000000   0.000000
   0.000000  16.293000   0.000000
   0.000000   0.000000  16.293000
PRIMCOORD
 216 1
Si     7.289E-01     6.789E-01     6.789E-01     3.759E-15     0.000E+00     2.302E-31
Si     3.394E+00     6.789E-01     3.394E+00     2.902E-15     0.000E+00     1.777E-31
Si     6.789E-01     3.394E+00     3.394E+00     9.131E-16     0.000E+00     5.591E-32
Si     3.394E+00     3.394E+00     6.789E-01     2.186E-15     0.000E+00     1.339E-31
Si     4.752E+00     2.037E+00     2.037E+00     1.139E-15     0.000E+00     6.974E-32
Si     4.752E+00     4.752E+00     4.752E+00     8.081E-16     0.000E+00     4.948E-32
Si     2.037E+00     2.037E+00     4.752E+00     9.186E-16     0.000E+00     5.625E-32
Si     2.037E+00     4.752E+00     2.037E+00     1.687E-15     0.000E+00     1.033E-31
Si     6.789E-01     6.789E-01     6.110E+00     1.677E-15     0.000E+00     1.027E-31
Si     3.394E+00     6.789E-01     8.825E+00     2.453E-15     0.000E+00     1.502E-31
Si     6.789E-01     3.394E+00     8.825E+00     1.600E-15     0.000E+00     9.798E-32
Si     3.394E+00     3.394E+00     6.110E+00     1.469E-15     0.000E+00     8.995E-32
Si     4.752E+00     2.037E+00     7.468E+00     9.933E-16     0.000E+00     6.082E-32
Si     4.752E+00     4.752E+00     1.018E+01     3.455E-15     0.000E+00     2.115E-31
Si     2.037E+00     2.037E+00     1.018E+01     3.807E-15     0.000E+00     2.331E-31
Si     2.037E+00     4.752E+00     7.468E+00     1.752E-15     0.000E+00     1.073E-31
Si     6.789E-01     6.789E-01     1.154E+01     2.832E-16     0.000E+00     1.734E-32
Si     3.394E+00     6.789E-01     1.426E+01     1.008E-15     0.000E+00     6.173E-32
Si     6.789E-01     3.394E+00     1.426E+01     1.811E-15     0.000E+00     1.109E-31
Si     3.394E+00     3.394E+00     1.154E+01     1.877E-15     0.000E+00     1.149E-31
Si     4.752E+00     2.037E+00     1.290E+01     1.603E-15     0.000E+00     9.817E-32
Si     4.752E+00     4.752E+00     1.561E+01     1.329E-15     0.000E+00     8.139E-32
Si     2.037E+00     2.037E+00     1.561E+01     1.536E-15     0.000E+00     9.405E-32
Si     2.037E+00     4.752E+00     1.290E+01     1.782E-15     0.000E+00     1.091E-31
Si     6.789E-01     6.110E+00     6.789E-01     2.531E-15     0.000E+00     1.550E-31
Si     3.394E+00     6.110E+00     3.394E+00     1.240E-15     0.000E+00     7.591E-32
Si     6.789E-01     8.825E+00     3.394E+00     2.561E-15     0.000E+00     1.568E-31
Si     3.394E+00     8.825E+00     6.789E-01     2.855E-15     0.000E+00     1.748E-31
Si     4.752E+00     7.468E+00     2.037E+00     2.187E-15     0.000E+00     1.339E-31
Si     4.752E+00     1.018E+01     4.752E+00     1.064E-15     0.000E+00     6.518E-32
Si     2.037E+00     7.468E+00     4.752E+00     9.540E-16     0.000E+00     5.842E-32
Si     2.037E+00     1.018E+01     2.037E+00     2.003E-15     0.000E+00     1.226E-31
Si     6.789E-01     6.110E+00     6.110E+00     1.607E-15     0.000E+00     9.840E-32
Si     3.394E+00     6.110E+00     8.825E+00     5.202E-16     0.000E+00     3.186E-32
Si     6.789E-01     8.825E+00     8.825E+00     2.291E-15     0.000E+00     1.403E-31
Si     3.394E+00     8.825E+00     6.110E+00     1.357E-15     0.000E+00     8.310E-32
Si     4.752E+00     7.468E+00     7.468E+00     4.995E-16     0.000E+00     3.059E-32
Si     4.752E+00     1.018E+01     1.018E+01     2.903E-15     0.000E+00     1.778E-31
Si     2.037E+00     7.468E+00     1.018E+01     2.067E-15     0.000E+00     1.266E-31
Si     2.037E+00     1.018E+01     7.468E+00     3.518E-15     0.000E+00     2.154E-31
Si     6.789E-01     6.110E+00     1.154E+01     1.671E-15     0.000E+00     1.023E-31
Si     3.394E+00     6.110E+00     1.426E+01     6.610E-16     0.000E+00     4.048E-32
Si     6.789E-01     8.825E+00     1.426E+01     1.549E-15     0.000E+00     9.482E-32
Si     3.394E+00     8.825E+00     1.154E+01     1.454E-15     0.000E+00     8.905E-32
Si     4.752E+00     7.468E+00     1.290E+01     2.010E-15     0.000E+00     1.231E-31
Si     4.752E+00     1.018E+01     1.561E+01     1.832E-15     0.000E+00     1.122E-31
Si     2.037E+00     7.468E+00     1.561E+01     2.367E-15     0.000E+00     1.449E-31
Si     2.037E+00     1.018E+01     1.290E+01     2.486E-15     0.000E+00     1.522E-31
Si     6.789E-01     1.154E+01     6.789E-01     3.033E-15     0.000E+00     1.857E-31
Si     3.394E+00     1.154E+01     3.394E+00     1.906E-15     0.000E+00     1.167E-31
Si     6.789E-01     1.426E+01     3.394E+00     2.374E-15     0.000E+00     1.454E-31
Si     3.394E+00     1.426E+01     6.789E-01     1.001E-15     0.000E+00     6.132E-32
Si     4.752E+00     1.290E+01     2.037E+00     2.203E-15     0.000E+00     1.349E-31
Si     4.752E+00     1.561E+01     4.752E+00     1.549E-15     0.000E+00     9.485E-32
Si     2.037E+00     1.290E+01     4.752E+00     3.501E-15     0.000E+00     2.144E-31
Si     2.037E+00     1.561E+01     2.037E+00     1.985E-15     0.000E+00     1.215E-31
Si     6.789E-01     1.154E+01     6.110E+00     1.682E-15     0.000E+00     1.030E-31
Si     3.394E+00     1.154E+01     8.825E+00     3.508E-15     0.000E+00     2.148E-31
Si     6.789E-01     1.426E+01     8.825E+00     2.397E-15     0.000E+00     1.468E-31
Si     3.394E+00     1.426E+01     6.110E+00     2.991E-15     0.000E+00     1.831E-31
Si     4.752E+00     1.290E+01     7.468E+00     2.627E-15     0.000E+00     1.609E-31
Si     4.752E+00     1.561E+01     1.018E+01     1.525E-15     0.000E+00     9.340E-32
Si     2.037E+00     1.290E+01     1.018E+01     1.420E-15     0.000E+00     8.696E-32
Si     2.037E+00     1.561E+01     7.468E+00     9.955E-16     0.000E+00     6.096E-32
Si     6.789E-01     1.154E+01     1.154E+01     1.342E-15     0.000E+00     8.215E-32
Si     3.394E+00     1.154E+01     1.426E+01     2.009E-15     0.000E+00     1.230E-31
Si     6.789E-01     1.426E+01     1.426E+01     8.839E-16     0.000E+00     5.412E-32
Si     3.394E+00     1.426E+01     1.154E+01     2.288E-15     0.000E+00     1.401E-31
Si     4.752E+00     1.290E+01     1.290E+01     2.585E-15     0.000E+00     1.583E-31
Si     4.752E+00     1.561E+01     1.561E+01     3.054E-15     0.000E+00     1.870E-31
Si     2.037E+00     1.290E+01     1.561E+01     1.640E-15     0.000E+00     1.004E-31
Si     2.037E+00     1.561E+01     1.290E+01     3.093E-16     0.000E+00     1.894E-32
Si     6.110E+00     6.789E-01     6.789E-01     3.900E-15     0.000E+00     2.388E-31
Si     8.825E+00     6.789E-01     3.394E+00     1.071E-15     0.000E+00     6.555E-32
Si     6.110E+00     3.394E+00     3.394E+00     2.734E-15     0.000E+00     1.674E-31
Si     8.825E+00     3.394E+00     6.789E-01     2.756E-15     0.000E+00     1.687E-31
Si     1.018E+01     2.037E+00     2.037E+00     1.536E-15     0.000E+00     9.406E-32
Si     1.018E+01     4.752E+00     4.752E+00     1.735E-15     0.000E+00     1.062E-31
Si     7.468E+00     2.037E+00     4.752E+00     9.071E-16     0.000E+00     5.555E-32
Si     7.468E+00     4.752E+00     2.037E+00     1.220E-15     0.000E+00     7.469E-32
Si     6.110E+00     6.789E-01     6.110E+00     1.328E-15     0.000E+00     8.134E-32
Si     8.825E+00     6.789E-01     8.825E+00     2.768E-15     0.000E+00     1.695E-31
Si     6.110E+00     3.394E+00     8.825E+00     3.524E-15     0.000E+00     2.158E-31
Si     8.825E+00     3.394E+00     6.110E+00     1.396E-15     0.000E+00     8.546E-32
Si     1.018E+01     2.037E+00     7.468E+00     2.827E-15     0.000E+00     1.731E-31
Si     1.018E+01     4.752E+00     1.018E+01     1.765E-15     0.000E+00     1.081E-31
Si     7.468E+00     2.037E+00     1.018E+01     1.297E-15     0.000E+00     7.945E-32
Si     7.468E+00     4.752E+00     7.468E+00     1.414E-15     0.000E+00     8.661E-32
Si     6.110E+00     6.789E-01     1.154E+01     2.763E-15     0.000E+00     1.692E-31
Si     8.825E+00     6.789E-01     1.426E+01     2.241E-15     0.000E+00     1.372E-31
Si     6.110E+00     3.394E+00     1.426E+01     1.725E-15     0.000E+00     1.056E-31
Si     8.825E+00     3.394E+00     1.154E+01     1.397E-15     0.000E+00     8.554E-32
Si     1.018E+01     2.037E+00     1.290E+01     2.514E-15     0.000E+00     1.539E-31
Si     1.018E+01     4.752E+00     1.561E+01     2.854E-15     0.000E+00     1.747E-31
Si     7.468E+00     2.037E+00     1.561E+01     1.287E-15     0.000E+00     7.881E-32
Si     7.468E+00     4.752E+00     1.290E+01     1.398E-15     0.000E+00     8.558E-32
Si     6.110E+00     6.110E+00     6.789E-01     1.104E-15     0.000E+00     6.763E-32
Si     8.825E+00     6.110E+00     3.394E+00     3.617E-15     0.000E+00     2.215E-31
Si     6.110E+00     8.825E+00     3.394E+00     2.077E-15     0.000E+00     1.272E-31
Si     8.825E+00     8.825E+00     6.789E-01     2.205E-15     0.000E+00     1.350E-31
Si     1.018E+01     7.468E+00     2.037E+00     2.945E-15     0.000E+00     1.803E-31
Si     1.018E+01     1.018E+01     4.752E+00     1.552E-15     0.000E+00     9.506E-32
Si     7.468E+00     7.468E+00     4.752E+00     1.224E-15     0.000E+00     7.497E-32
Si     7.468E+00     1.018E+01     2.037E+00     1.313E-15     0.000E+00     8.038E-32
Si     6.110E+00     6.110E+00     6.110E+00     1.854E-15     0.000E+00     1.135E-31
Si     8.825E+00     6.110E+00     8.825E+00     1.328E-15     0.000E+00     8.134E-32
Si     6.110E+00     8.825E+00     8.825E+00     2.655E-15     0.000E+00     1.626E-31
Si     8.825E+00     8.825E+00     6.110E+00     5.971E-16     0.000E+00     3.656E-32
Si     1.018E+01     7.468E+00     7.468E+00     4.187E-15     0.000E+00     2.564E-31
Si     1.018E+01     1.018E+01     1.018E+01     1.403E-15     0.000E+00     8.590E-32
Si     7.468E+00     7.468E+00     1.018E+01     1.144E-15     0.000E+00     7.007E-32
Si     7.468E+00     1.018E+01     7.468E+00     9.250E-16     0.000E+00     5.664E-32
Si     6.110E+00     6.110E+00     1.154E+01     2.850E-15     0.000E+00     1.745E-31
Si     8.825E+00     6.110E+00     1.426E+01     1.034E-15     0.000E+00     6.334E-32
Si     6.110E+00     8.825E+00     1.426E+01     9.878E-16     0.000E+00     6.049E-32
Si     8.825E+00     8.825E+00     1.154E+01     2.691E-15     0.000E+00     1.647E-31
Si     1.018E+01     7.468E+00     1.290E+01     2.205E-15     0.000E+00     1.350E-31
Si     1.018E+01     1.018E+01     1.561E+01     1.915E-15     0.000E+00     1.173E-31
Si     7.468E+00     7.468E+00     1.561E+01     1.704E-15     0.000E+00     1.043E-31
Si     7.468E+00     1.018E+01     1.290E+01     1.474E-15     0.000E+00     9.023E-32
Si     6.110E+00     1.154E+01     6.789E-01     3.083E-15     0.000E+00     1.888E-31
Si     8.825E+00     1.154E+01     3.394E+00     1.852E-15     0.000E+00     1.134E-31
Si     6.110E+00     1.426E+01     3.394E+00     9.846E-16     0.000E+00     6.029E-32
Si     8.825E+00     1.426E+01     6.789E-01     8.989E-16     0.000E+00     5.504E-32
Si     1.018E+01     1.290E+01     2.037E+00     1.600E-15     0.000E+00     9.796E-32
Si     1.018E+01     1.561E+01     4.752E+00     7.179E-16     0.000E+00     4.396E-32
Si     7.468E+00     1.290E+01     4.752E+00     2.377E-15     0.000E+00     1.455E-31
Si     7.468E+00     1.561E+01     2.037E+00     3.955E-15     0.000E+00     2.421E-31
Si     6.110E+00     1.154E+01     6.110E+00     2.898E-15     0.000E+00     1.775E-31
Si     8.825E+00     1.154E+01     8.825E+00     1.629E-15     0.000E+00     9.978E-32
Si     6.110E+00     1.426E+01     8.825E+00     2.327E-15     0.000E+00     1.425E-31
Si     8.825E+00     1.426E+01     6.110E+00     1.458E-15     0.000E+00     8.927E-32
Si     1.018E+01     1.290E+01     7.468E+00     3.286E-15     0.000E+00     2.012E-31
Si     1.018E+01     1.561E+01     1.018E+01     1.964E-15     0.000E+00     1.203E-31
Si     7.468E+00     1.290E+01     1.018E+01     2.113E-15     0.000E+00     1.294E-31
Si     7.468E+00     1.561E+01     7.468E+00     2.478E-15     0.000E+00     1.518E-31
Si     6.110E+00     1.154E+01     1.154E+01     2.880E-15     0.000E+00     1.763E-31
Si     8.825E+00     1.154E+01     1.426E+01     1.885E-15     0.000E+00     1.154E-31
Si     6.110E+00     1.426E+01     1.426E+01     2.422E-15     0.000E+00     1.483E-31
Si     8.825E+00     1.426E+01     1.154E+01     1.491E-15     0.000E+00     9.129E-32
Si     1.018E+01     1.290E+01     1.290E+01     4.074E-16     0.000E+00     2.495E-32
Si     1.018E+01     1.561E+01     1.561E+01     8.747E-16     0.000E+00     5.356E-32
Si     7.468E+00     1.290E+01     1.561E+01     2.800E-15     0.000E+00     1.714E-31
Si     7.468E+00     1.561E+01     1.290E+01     1.879E-15     0.000E+00     1.150E-31
Si     1.154E+01     6.789E-01     6.789E-01     1.904E-15     0.000E+00     1.166E-31
Si     1.426E+01     6.789E-01     3.394E+00     1.839E-15     0.000E+00     1.126E-31
Si     1.154E+01     3.394E+00     3.394E+00     1.528E-15     0.000E+00     9.358E-32
Si     1.426E+01     3.394E+00     6.789E-01     1.327E-15     0.000E+00     8.123E-32
Si     1.561E+01     2.037E+00     2.037E+00     7.524E-16     0.000E+00     4.607E-32
Si     1.561E+01     4.752E+00     4.752E+00     8.739E-16     0.000E+00     5.351E-32
Si     1.290E+01     2.037E+00     4.752E+00     1.718E-15     0.000E+00     1.052E-31
Si     1.290E+01     4.752E+00     2.037E+00     1.741E-15     0.000E+00     1.066E-31
Si     1.154E+01     6.789E-01     6.110E+00     2.134E-15     0.000E+00     1.307E-31
Si     1.426E+01     6.789E-01     8.825E+00     7.409E-16     0.000E+00     4.537E-32
Si     1.154E+01     3.394E+00     8.825E+00     1.042E-15     0.000E+00     6.380E-32
Si     1.426E+01     3.394E+00     6.110E+00     1.482E-15     0.000E+00     9.076E-32
Si     1.561E+01     2.037E+00     7.468E+00     9.535E-16     0.000E+00     5.838E-32
Si     1.561E+01     4.752E+00     1.018E+01     3.250E-15     0.000E+00     1.990E-31
Si     1.290E+01     2.037E+00     1.018E+01     2.574E-15     0.000E+00     1.576E-31
Si     1.290E+01     4.752E+00     7.468E+00     6.684E-16     0.000E+00     4.093E-32
Si     1.154E+01     6.789E-01     1.154E+01     2.380E-15     0.000E+00     1.457E-31
Si     1.426E+01     6.789E-01     1.426E+01     1.784E-15     0.000E+00     1.092E-31
Si     1.154E+01     3.394E+00     1.426E+01     2.127E-15     0.000E+00     1.303E-31
Si     1.426E+01     3.394E+00     1.154E+01     3.896E-15     0.000E+00     2.386E-31
Si     1.561E+01     2.037E+00     1.290E+01     2.850E-15     0.000E+00     1.745E-31
Si     1.561E+01     4.752E+00     1.561E+01     1.505E-15     0.000E+00     9.216E-32
Si     1.290E+01     2.037E+00     1.561E+01     1.461E-15     0.000E+00     8.944E-32
Si     1.290E+01     4.752E+00     1.290E+01     6.767E-16     0.000E+00     4.144E-32
Si     1.154E+01     6.110E+00     6.789E-01     2.179E-15     0.000E+00     1.334E-31
Si     1.426E+01     6.110E+00     3.394E+00     1.211E-15     0.000E+00     7.417E-32
Si     1.154E+01     8.825E+00     3.394E+00     1.134E-15     0.000E+00     6.943E-32
Si     1.426E+01     8.825E+00     6.789E-01     2.445E-15     0.000E+00     1.497E-31
Si     1.561E+01     7.468E+00     2.037E+00     5.461E-16     0.000E+00     3.344E-32
Si     1.561E+01     1.018E+01     4.752E+00     6.432E-16     0.000E+00     3.939E-32
Si     1.290E+01     7.468E+00     4.752E+00     1.546E-15     0.000E+00     9.465E-32
Si     1.290E+01     1.018E+01     2.037E+00     1.859E-15     0.000E+00     1.138E-31
Si     1.154E+01     6.110E+00     6.110E+00     4.726E-15     0.000E+00     2.894E-31
Si     1.426E+01     6.110E+00     8.825E+00     2.579E-15     0.000E+00     1.579E-31
Si     1.154E+01     8.825E+00     8.825E+00     1.114E-15     0.000E+00     6.823E-32
Si     1.426E+01     8.825E+00     6.110E+00     2.122E-15     0.000E+00     1.299E-31
Si     1.561E+01     7.468E+00     7.468E+00     1.571E-15     0.000E+00     9.619E-32
Si     1.561E+01     1.018E+01     1.018E+01     2.770E-15     0.000E+00     1.696E-31
Si     1.290E+01     7.468E+00     1.018E+01     1.478E-15     0.000E+00     9.051E-32
Si     1.290E+01     1.018E+01     7.468E+00     7.843E-16     0.000E+00     4.803E-32
Si     1.154E+01     6.110E+00     1.154E+01     8.401E-16     0.000E+00     5.144E-32
Si     1.426E+01     6.110E+00     1.426E+01     9.551E-16     0.000E+00     5.848E-32
Si     1.154E+01     8.825E+00     1.426E+01     1.284E-15     0.000E+00     7.863E-32
Si     1.426E+01     8.825E+00     1.154E+01     1.037E-15     0.000E+00     6.350E-32
Si     1.561E+01     7.468E+00     1.290E+01     3.292E-15     0.000E+00     2.016E-31
Si     1.561E+01     1.018E+01     1.561E+01     2.681E-15     0.000E+00     1.642E-31
Si     1.290E+01     7.468E+00     1.561E+01     2.873E-15     0.000E+00     1.760E-31
Si     1.290E+01     1.018E+01     1.290E+01     1.590E-15     0.000E+00     9.736E-32
Si     1.154E+01     1.154E+01     6.789E-01     1.424E-15     0.000E+00     8.721E-32
Si     1.426E+01     1.154E+01     3.394E+00     2.709E-15     0.000E+00     1.659E-31
Si     1.154E+01     1.426E+01     3.394E+00     1.603E-15     0.000E+00     9.814E-32
Si     1.426E+01     1.426E+01     6.789E-01     6.473E-16     0.000E+00     3.964E-32
Si     1.561E+01     1.290E+01     2.037E+00     2.395E-15     0.000E+00     1.466E-31
Si     1.561E+01     1.561E+01     4.752E+00     1.291E-15     0.000E+00     7.904E-32
Si     1.290E+01     1.290E+01     4.752E+00     1.623E-15     0.000E+00     9.935E-32
Si     1.290E+01     1.561E+01     2.037E+00     6.039E-16     0.000E+00     3.698E-32
Si     1.154E+01     1.154E+01     6.110E+00     2.524E-15     0.000E+00     1.546E-31
Si     1.426E+01     1.154E+01     8.825E+00     1.685E-15     0.000E+00     1.032E-31
Si     1.154E+01     1.426E+01     8.825E+00     9.092E-16     0.000E+00     5.567E-32
Si     1.426E+01     1.426E+01     6.110E+00     2.623E-15     0.000E+00     1.606E-31
Si     1.561E+01     1.290E+01     7.468E+00     1.308E-15     0.000E+00     8.012E-32
Si     1.561E+01     1.561E+01     1.018E+01     1.126E-15     0.000E+00     6.895E-32
Si     1.290E+01     1.290E+01     1.018E+01     1.111E-15     0.000E+00     6.801E-32
Si     1.290E+01     1.561E+01     7.468E+00     2.767E-15     0.000E+00     1.694E-31
Si     1.154E+01     1.154E+01     1.154E+01     7.294E-16     0.000E+00     4.466E-32
Si     1.426E+01     1.154E+01     1.426E+01     1.865E-15     0.000E+00     1.142E-31
Si     1.154E+01     1.426E+01     1.426E+01     3.354E-16     0.000E+00     2.054E-32
Si     1.426E+01     1.426E+01     1.154E+01     2.304E-15     0.000E+00     1.411E-31
Si     1.561E+01     1.290E+01     1.290E+01     1.187E-15     0.000E+00     7.267E-32
Si     1.561E+01     1.561E+01     1.561E+01     3.455E-15     0.000E+00     2.115E-31
Si     1.290E+01     1.290E+01     1.561E+01     7.142E-16     0.000E+00     4.374E-32
Si     1.290E+01     1.561E+01     1.290E+01     1.233E-15     0.000E+00     7.550E-32
