384 

Si    0.67887   0.67887   0.67888   0.000003780134974   0.000003780002283  -0.000004943620078
Si    3.39438   0.67887   3.39437  -0.000002077130057  -0.000005615065813   0.000007891851038
Si    0.67887   3.39437   3.39437  -0.000005614828136  -0.000002077165194   0.000007891797700
Si    3.39438   3.39437   0.67888   0.000002232375452   0.000002232317200  -0.000005445878141
Si    4.75212   2.03662   2.03662  -0.000000011760105   0.000000377797612  -0.000000871365923
Si    4.75212   4.75212   4.75213  -0.000002021741554  -0.000002021683918  -0.000003168558854
Si    2.03662   2.03662   4.75213  -0.000002167545116  -0.000002167785196  -0.000003637254689
Si    2.03662   4.75212   2.03662   0.000000377825086  -0.000000011578942  -0.000000871346393
Si    0.67887   0.67887   6.10987  -0.000004899050616  -0.000004899355005   0.000000333591333
Si    3.39438   0.67887   8.82537  -0.000002759408665  -0.000005115092071  -0.000009135268433
Si    0.67887   3.39437   8.82537  -0.000005114973822  -0.000002759450653  -0.000009135082934
Si    3.39438   3.39437   6.10987  -0.000004153336418  -0.000004153389025   0.000000193782349
Si    4.75212   2.03662   7.46762   0.000001267547039  -0.000000900273552   0.000001364002014
Si    4.75212   4.75212  10.18313  -0.000000895751381  -0.000000895751239   0.000001255168647
Si    2.03662   2.03662  10.18313   0.000000066679517   0.000000066493937   0.000000225670513
Si    2.03662   4.75212   7.46762  -0.000000900013852   0.000001267680534   0.000001364015157
Si    0.67887   0.67887  11.54087   0.000003757556209   0.000003757504572   0.000005236556896
Si    3.39438   0.67887  14.25638  -0.000000392850280   0.000007079036130  -0.000000029581122
Si    0.67887   3.39437  14.25638   0.000007079100289  -0.000000392966081  -0.000000029603992
Si    3.39438   3.39437  11.54087   0.000002718529440   0.000002718450034   0.000005988412225
Si    4.75212   2.03662  12.89862   0.000000209544606  -0.000000118108094  -0.000000884112020
Si    4.75212   4.75212  15.61413  -0.000001375712286  -0.000001375801774   0.000004813623375
Si    2.03662   2.03662  15.61413   0.000000043443341   0.000000043411227   0.000002438792073
Si    2.03662   4.75212  12.89862  -0.000000118123251   0.000000209554806  -0.000000884172215
Si    0.67887   6.10987   0.67888   0.000003189436929   0.000001619999470   0.000002412949563
Si    3.39438   6.10987   3.39437   0.000005635901481  -0.000005763715870   0.000003492473966
Si    0.67887   8.82537   3.39437   0.000002211883060   0.000001327073340  -0.000002615998665
Si    3.39438   8.82537   0.67888  -0.000001990662442  -0.000003965495668  -0.000004818312962
Si    4.75212   7.46762   2.03662   0.000002006521193   0.000002568695726   0.000000595757533
Si    4.75212  10.18313   4.75213  -0.000002105384781  -0.000001001406366  -0.000003115659751
Si    2.03662   7.46762   4.75213   0.000003415352624  -0.000000697110342  -0.000006810261639
Si    2.03662  10.18313   2.03662   0.000002104399359   0.000001262292713  -0.000000436829236
Si    0.67887   6.10987   6.10987  -0.000001360974680  -0.000001036528033  -0.000000510858367
Si    3.39438   6.10987   8.82537   0.000007203950003  -0.000005288335075  -0.000002219527924
Si    0.67887   8.82537   8.82537  -0.000000023355764   0.000001437690135   0.000002426280830
Si    3.39438   8.82537   6.10987   0.000000597011848   0.000004613240610  -0.000000323266373
Si    4.75212   7.46762   7.46762   0.000001037108107   0.000001966249272  -0.000002559739028
Si    4.75212  10.18313  10.18313   0.000001848771208   0.000002671478597   0.000000921086098
Si    2.03662   7.46762  10.18313  -0.000002055255488   0.000006387197032  -0.000000249996126
Si    2.03662  10.18313   7.46762  -0.000001910697394   0.000002696235056   0.000001633617265
Si    0.67887   6.10987  11.54087   0.000000087477062   0.000003407884180  -0.000000425706464
Si    3.39438   6.10987  14.25638  -0.000002940535799   0.000002001073919   0.000001110944690
Si    0.67887   8.82537  14.25638   0.000000138515390   0.000001469586242   0.000001037243660
Si    3.39438   8.82537  11.54087   0.000000147962310  -0.000003444797142   0.000003858982423
Si    4.75212   7.46762  12.89862   0.000001130894741  -0.000000432221330   0.000001687422136
Si    4.75212  10.18313  15.61413  -0.000002349568332  -0.000000185066808   0.000002208889975
Si    2.03662   7.46762  15.61413   0.000001688028471  -0.000001468066121   0.000006324163580
Si    2.03662  10.18313  12.89862  -0.000000043407115   0.000003473709857   0.000000471475711
Si    0.67887  11.54087   0.67888  -0.000006918847513   0.000006111824048  -0.000003361843835
Si    3.39438  11.54087   3.39437   0.000005332476087  -0.000002289049177  -0.000003078846900
Si    0.67887  14.25638   3.39437  -0.000002155391721   0.000000711977007   0.000005543878551
Si    3.39438  14.25638   0.67888  -0.000000329845087   0.000000518291906  -0.000002631880664
Si    4.75212  12.89862   2.03662  -0.000000234554359   0.000001157432092   0.000000300814309
Si    4.75212  15.61413   4.75213  -0.000001424431810   0.000000812747473  -0.000003373826103
Si    2.03662  12.89862   4.75213  -0.000005669135781  -0.000000563620168   0.000000869108269
Si    2.03662  15.61413   2.03662   0.000001509854946  -0.000003982324627  -0.000000588935292
Si    0.67887  11.54087   6.10987   0.000001991137326  -0.000003518177159   0.000000137685300
Si    3.39438  11.54087   8.82537   0.000005881905991  -0.000001779585972   0.000002226160226
Si    0.67887  14.25638   8.82537  -0.000003222403852   0.000001261025239  -0.000005794478920
Si    3.39438  14.25638   6.10987   0.000007351961773   0.000005928828531  -0.000000202214872
Si    4.75212  12.89862   7.46762  -0.000006277698169  -0.000002011906172  -0.000002876081667
Si    4.75212  15.61413  10.18313   0.000007656159353  -0.000001764507223   0.000000133621460
Si    2.03662  12.89862  10.18313  -0.000004024019800   0.000005474376498   0.000000748660119
Si    2.03662  15.61413   7.46762  -0.000002784771057  -0.000002365343411  -0.000000309612956
Si    0.67887  11.54087  11.54087  -0.000006353257338   0.000002713047145   0.000004752591534
Si    3.39438  11.54087  14.25638   0.000003808774221  -0.000003175686853  -0.000001515861381
Si    0.67887  14.25638  14.25638   0.000003955958525  -0.000004248402267   0.000000324149193
Si    3.39438  14.25638  11.54087  -0.000000235910047   0.000000430437184   0.000003145124518
Si    4.75212  12.89862  12.89862  -0.000004182816936  -0.000000590783038   0.000000849602428
Si    4.75212  15.61413  15.61413   0.000000379265472  -0.000001195371776   0.000005218598092
Si    2.03662  12.89862  15.61413  -0.000007775044698   0.000000262171911  -0.000000071923238
Si    2.03662  15.61413  12.89862  -0.000002713224673  -0.000002727607562  -0.000000527436964
Si    0.67887  16.97188   0.67888  -0.000000758247005   0.000002485958342  -0.000004554515541
Si    3.39438  16.97188   3.39437   0.000002559658773   0.000002276817245   0.000002444338775
Si    0.67887  19.68738   3.39437   0.000003154985443   0.000002868592036   0.000001081647845
Si    3.39438  19.68738   0.67888  -0.000007102045474  -0.000005992108791  -0.000001180828647
Si    4.75212  18.32963   2.03662  -0.000000875229488  -0.000000749744536  -0.000000968206570
Si    4.75212  21.04512   4.75213  -0.000001915388390   0.000000426689789  -0.000003552802848
Si    2.03662  18.32963   4.75213   0.000004586645440   0.000007183923169  -0.000003018292205
Si    2.03662  21.04512   2.03662   0.000002171686271   0.000000878413601   0.000000233979057
Si    0.67887  16.97188   6.10987  -0.000003479974931  -0.000010277087224   0.000000544941477
Si    3.39438  16.97188   8.82537   0.000002905049221   0.000002560091756  -0.000002081337341
Si    0.67887  19.68738   8.82537   0.000004851916886   0.000001222974674  -0.000001542116679
Si    3.39438  19.68738   6.10987   0.000002046343143  -0.000001075933374  -0.000000628010136
Si    4.75212  18.32963   7.46762  -0.000002560160304  -0.000002905171549   0.000002081377143
Si    4.75212  21.04512  10.18313   0.000010277084700   0.000003480001065  -0.000000544795598
Si    2.03662  18.32963  10.18313   0.000001075739296  -0.000002046525180   0.000000627975318
Si    2.03662  21.04512   7.46762  -0.000001223146330  -0.000004852017002   0.000001542150161
Si    0.67887  16.97188  11.54087  -0.000000426705760   0.000001915234939   0.000003552727385
Si    3.39438  16.97188  14.25638   0.000000749740565   0.000000875210220   0.000000968082359
Si    0.67887  19.68738  14.25638  -0.000000878467718  -0.000002171682084  -0.000000234031904
Si    3.39438  19.68738  11.54087  -0.000007183889245  -0.000004586638651   0.000003018437513
Si    4.75212  18.32963  12.89862  -0.000002276847326  -0.000002559643580  -0.000002444268112
Si    4.75212  21.04512  15.61413  -0.000002485974460   0.000000758045791   0.000004554361673
Si    2.03662  18.32963  15.61413   0.000005992099729   0.000007102079307   0.000001180686907
Si    2.03662  21.04512  12.89862  -0.000002868527079  -0.000003154999895  -0.000001081659480
Si    6.10987   0.67887   0.67888   0.000001619843439   0.000003189342936   0.000002412783676
Si    8.82537   0.67887   3.39437   0.000001327114218   0.000002211734032  -0.000002615849831
Si    6.10987   3.39437   3.39437  -0.000005763807911   0.000005635971000   0.000003492469028
Si    8.82537   3.39437   0.67888  -0.000003965470105  -0.000001990588286  -0.000004818418124
Si   10.18313   2.03662   2.03662   0.000001262474509   0.000002104402681  -0.000000436866696
Si   10.18313   4.75212   4.75213  -0.000001001448648  -0.000002105323316  -0.000003115757116
Si    7.46762   2.03662   4.75213  -0.000000697067566   0.000003415277938  -0.000006810205272
Si    7.46762   4.75212   2.03662   0.000002568601931   0.000002006604498   0.000000595726655
Si    6.10987   0.67887   6.10987  -0.000001036712586  -0.000001361139962  -0.000000510832608
Si    8.82537   0.67887   8.82537   0.000001437561556  -0.000000023573584   0.000002426181734
Si    6.10987   3.39437   8.82537  -0.000005288561972   0.000007203928611  -0.000002219518871
Si    8.82537   3.39437   6.10987   0.000004613218636   0.000000597041765  -0.000000323278605
Si   10.18313   2.03662   7.46762   0.000002696210370  -0.000001910798905   0.000001633481297
Si   10.18313   4.75212  10.18313   0.000002671600085   0.000001848944311   0.000000921141343
Si    7.46762   2.03662  10.18313   0.000006386962192  -0.000002055352366  -0.000000249915202
Si    7.46762   4.75212   7.46762   0.000001966253546   0.000001037205500  -0.000002559856371
Si    6.10987   0.67887  11.54087   0.000003407839114   0.000000087535591  -0.000000425783009
Si    8.82537   0.67887  14.25638   0.000001469501127   0.000000138480458   0.000001037334926
Si    6.10987   3.39437  14.25638   0.000002000942098  -0.000002940592236   0.000001110969630
Si    8.82537   3.39437  11.54087  -0.000003444833431   0.000000147987093   0.000003859049029
Si   10.18313   2.03662  12.89862   0.000003473757983  -0.000000043315182   0.000000471485768
Si   10.18313   4.75212  15.61413  -0.000000185012581  -0.000002349432066   0.000002208863185
Si    7.46762   2.03662  15.61413  -0.000001468144339   0.000001688056026   0.000006324237725
Si    7.46762   4.75212  12.89862  -0.000000432356786   0.000001130949381   0.000001687534152
Si    6.10987   6.10987   0.67888   0.000003857241003   0.000003857191444  -0.000000005957927
Si    8.82537   6.10987   3.39437   0.000008578549415   0.000001191556125  -0.000000040147724
Si    6.10987   8.82537   3.39437   0.000001191528430   0.000008578538113  -0.000000040131863
Si    8.82537   8.82537   0.67888   0.000004665268690   0.000004665191804  -0.000003516815594
Si   10.18313   7.46762   2.03662  -0.000007110915211  -0.000002472978785  -0.000000440962906
Si   10.18313  10.18313   4.75213  -0.000001483806355  -0.000001483811185   0.000001029545280
Si    7.46762   7.46762   4.75213  -0.000003672487807  -0.000003672441306   0.000006753126120
Si    7.46762  10.18313   2.03662  -0.000002472943366  -0.000007111082702  -0.000000440890829
Si    6.10987   6.10987   6.10987  -0.000004832523376  -0.000004832487608   0.000001363557053
Si    8.82537   6.10987   8.82537   0.000007651118817  -0.000000065840129   0.000000790697230
Si    6.10987   8.82537   8.82537  -0.000000066003570   0.000007650992539   0.000000790748826
Si    8.82537   8.82537   6.10987   0.000001977110244   0.000001977116547   0.000000890610663
Si   10.18313   7.46762   7.46762   0.000001813837925   0.000006325797661   0.000005756698678
Si   10.18313  10.18313  10.18313  -0.000001979672125  -0.000001979847722  -0.000001682494594
Si    7.46762   7.46762  10.18313  -0.000005643879639  -0.000005643736245   0.000000362235564
Si    7.46762  10.18313   7.46762   0.000006325845591   0.000001813746043   0.000005756595448
Si    6.10987   6.10987  11.54087   0.000002339446327   0.000002339524438  -0.000002180071218
Si    8.82537   6.10987  14.25638  -0.000005182498337   0.000001549612389  -0.000000901750534
Si    6.10987   8.82537  14.25638   0.000001549581009  -0.000005182448873  -0.000000901890655
Si    8.82537   8.82537  11.54087   0.000004016740165   0.000004016706651   0.000003474739294
Si   10.18313   7.46762  12.89862   0.000000633332478   0.000007341133496  -0.000004960568690
Si   10.18313  10.18313  15.61413  -0.000000711048714  -0.000000711154967  -0.000001295643402
Si    7.46762   7.46762  15.61413  -0.000003715402641  -0.000003715618093  -0.000006872592030
Si    7.46762  10.18313  12.89862   0.000007341030510   0.000000633126314  -0.000004960746084
Si    6.10987  11.54087   0.67888  -0.000005767206789   0.000005756724353  -0.000003143749020
Si    8.82537  11.54087   3.39437   0.000001981388063   0.000001509520958   0.000000920640631
Si    6.10987  14.25638   3.39437  -0.000002675787957  -0.000001432416682   0.000005881351534
Si    8.82537  14.25638   0.67888  -0.000000871373034  -0.000001692778131  -0.000002179676723
Si   10.18313  12.89862   2.03662   0.000000763636460  -0.000002179192170  -0.000000870446507
Si   10.18313  15.61413   4.75213  -0.000008468064585   0.000003922933672  -0.000003034491348
Si    7.46762  12.89862   4.75213   0.000001605774486   0.000000755872665  -0.000001764985406
Si    7.46762  15.61413   2.03662  -0.000005440053007  -0.000001761487688  -0.000000042127508
Si    6.10987  11.54087   6.10987   0.000002271529483  -0.000003800086846  -0.000001303007082
Si    8.82537  11.54087   8.82537   0.000001406914646   0.000002892231145  -0.000001136395203
Si    6.10987  14.25638   8.82537  -0.000002345381353  -0.000002605854708  -0.000006273153524
Si    8.82537  14.25638   6.10987   0.000001041870544   0.000002757476066  -0.000000665093049
Si   10.18313  12.89862   7.46762  -0.000002892217078  -0.000001406882357   0.000001136800946
Si   10.18313  15.61413  10.18313   0.000003799978949  -0.000002271656830   0.000001303099813
Si    7.46762  12.89862  10.18313  -0.000002757565587  -0.000001041886239   0.000000665284590
Si    7.46762  15.61413   7.46762   0.000002605853932   0.000002345415906   0.000006273486330
Si    6.10987  11.54087  11.54087  -0.000003922958451   0.000008468015879   0.000003034524252
Si    8.82537  11.54087  14.25638   0.000002179109074  -0.000000763706938   0.000000870495462
Si    6.10987  14.25638  14.25638   0.000001761346520   0.000005439885774   0.000000041951876
Si    8.82537  14.25638  11.54087  -0.000000756096125  -0.000001605873710   0.000001765040435
Si   10.18313  12.89862  12.89862  -0.000001509613959  -0.000001981342949  -0.000000920596867
Si   10.18313  15.61413  15.61413  -0.000005756873154   0.000005767156425   0.000003143537171
Si    7.46762  12.89862  15.61413   0.000001692785743   0.000000871256028   0.000002179421015
Si    7.46762  15.61413  12.89862   0.000001432367992   0.000002675697807  -0.000005881496715
Si    6.10987  16.97188   0.67888   0.000001195368546  -0.000000379217454  -0.000005218764786
Si    8.82537  16.97188   3.39437   0.000000590828476   0.000004182944090  -0.000000849626390
Si    6.10987  19.68738   3.39437   0.000002727555834   0.000002713191674   0.000000527219667
Si    8.82537  19.68738   0.67888  -0.000000262295258   0.000007774970564   0.000000071713628
Si   10.18313  18.32963   2.03662   0.000003175632665  -0.000003808722371   0.000001515762145
Si   10.18313  21.04512   4.75213  -0.000002712968991   0.000006353209032  -0.000004752631608
Si    7.46762  18.32963   4.75213  -0.000000430385980   0.000000235986713  -0.000003145032148
Si    7.46762  21.04512   2.03662   0.000004248227195  -0.000003956075317  -0.000000324429049
Si    6.10987  16.97188   6.10987   0.000001764365582  -0.000007656153258  -0.000000133405197
Si    8.82537  16.97188   8.82537   0.000002011737284   0.000006277636334   0.000002876194424
Si    6.10987  19.68738   8.82537   0.000002365477245   0.000002784695940   0.000000309682112
Si    8.82537  19.68738   6.10987  -0.000005474488414   0.000004023886665  -0.000000748477069
Si   10.18313  18.32963   7.46762   0.000001779409489  -0.000005881902777  -0.000002225951270
Si   10.18313  21.04512  10.18313   0.000003518282239  -0.000001991201426  -0.000000137480654
Si    7.46762  18.32963  10.18313  -0.000005928900588  -0.000007352038772   0.000000202214274
Si    7.46762  21.04512   7.46762  -0.000001261012091   0.000003222310992   0.000005794684188
Si    6.10987  16.97188  11.54087  -0.000000812767740   0.000001424264352   0.000003373788117
Si    8.82537  16.97188  14.25638  -0.000001157467963   0.000000234573019  -0.000000300884949
Si    6.10987  19.68738  14.25638   0.000003982237322  -0.000001509995942   0.000000589002098
Si    8.82537  19.68738  11.54087   0.000000563669243   0.000005669151032  -0.000000868991219
Si   10.18313  18.32963  12.89862   0.000002289018543  -0.000005332368922   0.000003078763699
Si   10.18313  21.04512  15.61413  -0.000006111750816   0.000006918742969   0.000003361531936
Si    7.46762  18.32963  15.61413  -0.000000518340375   0.000000329943380   0.000002631749966
Si    7.46762  21.04512  12.89862  -0.000000711819268   0.000002155357495  -0.000005543895539
Si   11.54087   0.67887   0.67888   0.000006111772000  -0.000006918700125  -0.000003361686360
Si   14.25638   0.67887   3.39437   0.000000711826782  -0.000002155427533   0.000005543734194
Si   11.54087   3.39437   3.39437  -0.000002289008343   0.000005332538032  -0.000003078910577
Si   14.25638   3.39437   0.67888   0.000000518232282  -0.000000329888299  -0.000002632063607
Si   15.61413   2.03662   2.03662  -0.000003982553701   0.000001509861040  -0.000000589022676
Si   15.61413   4.75212   4.75213   0.000000812632675  -0.000001424306273  -0.000003373829682
Si   12.89862   2.03662   4.75213  -0.000000563666357  -0.000005669108446   0.000000868956438
Si   12.89862   4.75212   2.03662   0.000001157297612  -0.000000234345430   0.000000300774797
Si   11.54087   0.67887   6.10987  -0.000003518228041   0.000001991175368   0.000000137586482
Si   14.25638   0.67887   8.82537   0.000001260897846  -0.000003222418106  -0.000005794494251
Si   11.54087   3.39437   8.82537  -0.000001779428698   0.000005882070194   0.000002226086565
Si   14.25638   3.39437   6.10987   0.000005928806274   0.000007352087505  -0.000000202182028
Si   15.61413   2.03662   7.46762  -0.000002365444643  -0.000002784710096  -0.000000309679323
Si   15.61413   4.75212  10.18313  -0.000001764630954   0.000007656417568   0.000000133585752
Si   12.89862   2.03662  10.18313   0.000005474353271  -0.000004023955016   0.000000748630078
Si   12.89862   4.75212   7.46762  -0.000002011914345  -0.000006277533060  -0.000002876037201
Si   11.54087   0.67887  11.54087   0.000002712936554  -0.000006353311967   0.000004752626349
Si   14.25638   0.67887  14.25638  -0.000004248377639   0.000003956169147   0.000000324385514
Si   11.54087   3.39437  14.25638  -0.000003175455309   0.000003808927079  -0.000001515915404
Si   14.25638   3.39437  11.54087   0.000000430194653  -0.000000235834476   0.000003145194273
Si   15.61413   2.03662  12.89862  -0.000002727664662  -0.000002713168877  -0.000000527184416
Si   15.61413   4.75212  15.61413  -0.000001195634355   0.000000379289183   0.000005218498088
Si   12.89862   2.03662  15.61413   0.000000262318448  -0.000007774862692  -0.000000071865605
Si   12.89862   4.75212  12.89862  -0.000000590895944  -0.000004182658653   0.000000849754744
Si   11.54087   6.10987   0.67888   0.000005756905868  -0.000005767036217  -0.000003143687711
Si   14.25638   6.10987   3.39437  -0.000001432553578  -0.000002675483126   0.000005881325024
Si   11.54087   8.82537   3.39437   0.000001509803281   0.000001981301688   0.000000920561543
Si   14.25638   8.82537   0.67888  -0.000001692818935  -0.000000871312523  -0.000002179496124
Si   15.61413   7.46762   2.03662  -0.000001761574983  -0.000005439709860  -0.000000042148816
Si   15.61413  10.18313   4.75213   0.000003922921800  -0.000008468187673  -0.000003034610620
Si   12.89862   7.46762   4.75213   0.000000756081288   0.000001605896520  -0.000001765203515
Si   12.89862  10.18313   2.03662  -0.000002178874414   0.000000763464395  -0.000000870531816
Si   11.54087   6.10987   6.10987  -0.000003800077945   0.000002271676556  -0.000001302973850
Si   14.25638   6.10987   8.82537  -0.000002605967685  -0.000002345188710  -0.000006273197329
Si   11.54087   8.82537   8.82537   0.000002892288601   0.000001406851117  -0.000001136346935
Si   14.25638   8.82537   6.10987   0.000002757515796   0.000001041936118  -0.000000665267526
Si   15.61413   7.46762   7.46762   0.000002345281993   0.000002606001875   0.000006273450005
Si   15.61413  10.18313  10.18313  -0.000002271496716   0.000003800049415   0.000001303195130
Si   12.89862   7.46762  10.18313  -0.000001041847638  -0.000002757411476   0.000000665294304
Si   12.89862  10.18313   7.46762  -0.000001406804526  -0.000002892232507   0.000001136723071
Si   11.54087   6.10987  11.54087   0.000008468146183  -0.000003922900588   0.000003034654401
Si   14.25638   6.10987  14.25638   0.000005439777878   0.000001761517960   0.000000042008501
Si   11.54087   8.82537  14.25638  -0.000000763571265   0.000002178948059   0.000000870405115
Si   14.25638   8.82537  11.54087  -0.000001605853461  -0.000000756021282   0.000001765118836
Si   15.61413   7.46762  12.89862   0.000002675704351   0.000001432544962  -0.000005881521022
Si   15.61413  10.18313  15.61413   0.000005767162703  -0.000005756894503   0.000003143551532
Si   12.89862   7.46762  15.61413   0.000000871341134   0.000001692774400   0.000002179406176
Si   12.89862  10.18313  12.89862  -0.000001981289585  -0.000001509784907  -0.000000920766765
Si   11.54087  11.54087   0.67888   0.000000711114531   0.000000710864746   0.000001295357405
Si   14.25638  11.54087   3.39437  -0.000007341130258  -0.000000633508444   0.000004960610044
Si   11.54087  14.25638   3.39437  -0.000000633276166  -0.000007341239420   0.000004960704789
Si   14.25638  14.25638   0.67888   0.000003715621754   0.000003715461698   0.000006872329820
Si   15.61413  12.89862   2.03662  -0.000001549567960   0.000005182312055   0.000000901667457
Si   15.61413  15.61413   4.75213  -0.000002339387597  -0.000002339464554   0.000002180376521
Si   12.89862  12.89862   4.75213  -0.000004016710351  -0.000004016880120  -0.000003474607654
Si   12.89862  15.61413   2.03662   0.000005182518002  -0.000001549399930   0.000000901637903
Si   11.54087  11.54087   6.10987   0.000001979903194   0.000001979687999   0.000001682483124
Si   14.25638  11.54087   8.82537  -0.000006325859627  -0.000001813974057  -0.000005756444663
Si   11.54087  14.25638   8.82537  -0.000001813881569  -0.000006325918709  -0.000005756514432
Si   14.25638  14.25638   6.10987   0.000005644028882   0.000005643902023  -0.000000362011224
Si   15.61413  12.89862   7.46762   0.000000066074623  -0.000007651004712  -0.000000790662573
Si   15.61413  15.61413  10.18313   0.000004832709641   0.000004832614329  -0.000001363480310
Si   12.89862  12.89862  10.18313  -0.000001977078826  -0.000001977400201  -0.000000890402723
Si   12.89862  15.61413   7.46762  -0.000007650917425   0.000000065922496  -0.000000790621693
Si   11.54087  11.54087  11.54087   0.000001483992428   0.000001483725063  -0.000001029648026
Si   14.25638  11.54087  14.25638   0.000002472961435   0.000007110936958   0.000000440775963
Si   11.54087  14.25638  14.25638   0.000007111022383   0.000002472757336   0.000000440738013
Si   14.25638  14.25638  11.54087   0.000003672589655   0.000003672439247  -0.000006752913396
Si   15.61413  12.89862  12.89862  -0.000001191598878  -0.000008578575505   0.000000040079847
Si   15.61413  15.61413  15.61413  -0.000003857170235  -0.000003857254104   0.000000005613973
Si   12.89862  12.89862  15.61413  -0.000004665217452  -0.000004665393723   0.000003516506263
Si   12.89862  15.61413  12.89862  -0.000008578375416  -0.000001191595609   0.000000040040368
Si   11.54087  16.97188   0.67888   0.000000185120342   0.000002349746947  -0.000002208995987
Si   14.25638  16.97188   3.39437   0.000000432341980  -0.000001130754049  -0.000001687479043
Si   11.54087  19.68738   3.39437  -0.000003473707988   0.000000043365410  -0.000000471505888
Si   14.25638  19.68738   0.67888   0.000001468116790  -0.000001687974693  -0.000006324252687
Si   15.61413  18.32963   2.03662  -0.000002001027511   0.000002940669672  -0.000001110995240
Si   15.61413  21.04512   4.75213  -0.000003407771605  -0.000000087553941   0.000000425780564
Si   12.89862  18.32963   4.75213   0.000003444918088  -0.000000147866711  -0.000003858914984
Si   12.89862  21.04512   2.03662  -0.000001469443661  -0.000000138488107  -0.000001037385194
Si   11.54087  16.97188   6.10987  -0.000002671435015  -0.000001848765582  -0.000000920946062
Si   14.25638  16.97188   8.82537  -0.000001966019406  -0.000001037029755   0.000002559848959
Si   11.54087  19.68738   8.82537  -0.000002696136179   0.000001910791879  -0.000001633388624
Si   14.25638  19.68738   6.10987  -0.000006387074092   0.000002055235156   0.000000250164259
Si   15.61413  18.32963   7.46762   0.000005288597248  -0.000007203972632   0.000002219773825
Si   15.61413  21.04512  10.18313   0.000001036680016   0.000001360899704   0.000000511000921
Si   12.89862  18.32963  10.18313  -0.000004613146885  -0.000000596777007   0.000000323421557
Si   12.89862  21.04512   7.46762  -0.000001437673528   0.000000023310497  -0.000002426016958
Si   11.54087  16.97188  11.54087   0.000001001423873   0.000002105438996   0.000003115749344
Si   14.25638  16.97188  14.25638  -0.000002568519174  -0.000002006593147  -0.000000596015668
Si   11.54087  19.68738  14.25638  -0.000001262395851  -0.000002104430723   0.000000436741738
Si   14.25638  19.68738  11.54087   0.000000697049851  -0.000003415297262   0.000006810165606
Si   15.61413  18.32963  12.89862   0.000005763788403  -0.000005635979785  -0.000003492573086
Si   15.61413  21.04512  15.61413  -0.000001619833748  -0.000003189331734  -0.000002412888877
Si   12.89862  18.32963  15.61413   0.000003965379089   0.000001990680232   0.000004818319222
Si   12.89862  21.04512  12.89862  -0.000001327085924  -0.000002211845002   0.000002615751620
Si   16.97188   0.67887   0.67888   0.000002485785287  -0.000000758327106  -0.000004554588199
Si   19.68738   0.67887   3.39437   0.000002868595757   0.000003154650184   0.000001081738499
Si   16.97188   3.39437   3.39437   0.000002276635660   0.000002559685281   0.000002444354735
Si   19.68738   3.39437   0.67888  -0.000005992057940  -0.000007102006931  -0.000001181017754
Si   21.04512   2.03662   2.03662   0.000000878779173   0.000002171523997   0.000000233840888
Si   21.04512   4.75212   4.75213   0.000000426778398  -0.000001915233259  -0.000003552825070
Si   18.32963   2.03662   4.75213   0.000007183760292   0.000004586487245  -0.000003018319777
Si   18.32963   4.75212   2.03662  -0.000000749821942  -0.000000874958863  -0.000000968338365
Si   16.97188   0.67887   6.10987  -0.000010277112282  -0.000003480159181   0.000000544913714
Si   19.68738   0.67887   8.82537   0.000001223195479   0.000004851757679  -0.000001542166042
Si   16.97188   3.39437   8.82537   0.000002560004424   0.000002905142210  -0.000002081417386
Si   19.68738   3.39437   6.10987  -0.000001075876684   0.000002046419063  -0.000000627958778
Si   21.04512   2.03662   7.46762  -0.000004851935015  -0.000001223301688   0.000001542314714
Si   21.04512   4.75212  10.18313   0.000003480060889   0.000010277210689  -0.000000544625781
Si   18.32963   2.03662  10.18313  -0.000002046387809   0.000001075687939   0.000000628001994
Si   18.32963   4.75212   7.46762  -0.000002905195911  -0.000002559965157   0.000002081374298
Si   16.97188   0.67887  11.54087   0.000001915206805  -0.000000426839708   0.000003552860021
Si   19.68738   0.67887  14.25638  -0.000002171536522  -0.000000878559456  -0.000000233976208
Si   16.97188   3.39437  14.25638   0.000000874987858   0.000000749751265   0.000000968251619
Si   19.68738   3.39437  11.54087  -0.000004586375231  -0.000007183754838   0.000003018489236
Si   21.04512   2.03662  12.89862  -0.000003154841030  -0.000002868596496  -0.000001081640644
Si   21.04512   4.75212  15.61413   0.000000758163698  -0.000002485864398   0.000004554283576
Si   18.32963   2.03662  15.61413   0.000007102046323   0.000005992082033   0.000001180635396
Si   18.32963   4.75212  12.89862  -0.000002559625725  -0.000002276540286  -0.000002444207785
Si   16.97188   6.10987   0.67888  -0.000000379274074   0.000001195664198  -0.000005218825541
Si   19.68738   6.10987   3.39437   0.000002713211513   0.000002727783538   0.000000527193405
Si   16.97188   8.82537   3.39437   0.000004182614968   0.000000590992924  -0.000000849758373
Si   19.68738   8.82537   0.67888   0.000007774901536  -0.000000262261437   0.000000071705998
Si   21.04512   7.46762   2.03662  -0.000003955953329   0.000004248355454  -0.000000324507892
Si   21.04512  10.18313   4.75213   0.000006353214046  -0.000002712763257  -0.000004752524825
Si   18.32963   7.46762   4.75213   0.000000235854923  -0.000000430157038  -0.000003145017883
Si   18.32963  10.18313   2.03662  -0.000003808902334   0.000003175490154   0.000001515709963
Si   16.97188   6.10987   6.10987  -0.000007656246360   0.000001764623896  -0.000000133395675
Si   19.68738   6.10987   8.82537   0.000002784743422   0.000002365685924   0.000000309774323
Si   16.97188   8.82537   8.82537   0.000006277665089   0.000002011949180   0.000002876314349
Si   19.68738   8.82537   6.10987   0.000004023816087  -0.000005474345933  -0.000000748397651
Si   21.04512   7.46762   7.46762   0.000003222323639  -0.000001260829294   0.000005794789496
Si   21.04512  10.18313  10.18313  -0.000001991289820   0.000003518274838  -0.000000137488555
Si   18.32963   7.46762  10.18313  -0.000007352131254  -0.000005928526038   0.000000202461037
Si   18.32963  10.18313   7.46762  -0.000005881955061   0.000001779572995  -0.000002225843069
Si   16.97188   6.10987  11.54087   0.000001424274138  -0.000000812318459   0.000003373940167
Si   19.68738   6.10987  14.25638  -0.000001509968882   0.000003982477544   0.000000588868588
Si   16.97188   8.82537  14.25638   0.000000234472466  -0.000001157359730  -0.000000300955156
Si   19.68738   8.82537  11.54087   0.000005668955038   0.000000563707535  -0.000000869065331
Si   21.04512   7.46762  12.89862   0.000002155421392  -0.000000711771483  -0.000005543925047
Si   21.04512  10.18313  15.61413   0.000006918757591  -0.000006111657043   0.000003361506092
Si   18.32963   7.46762  15.61413   0.000000329824693  -0.000000518241440   0.000002631754855
Si   18.32963  10.18313  12.89862  -0.000005332583777   0.000002288882674   0.000003078677065
Si   16.97188  11.54087   0.67888   0.000002349512124   0.000000184853107  -0.000002209139585
Si   19.68738  11.54087   3.39437   0.000000043317772  -0.000003473688236  -0.000000471361052
Si   16.97188  14.25638   3.39437  -0.000001130757378   0.000000432329328  -0.000001687263980
Si   19.68738  14.25638   0.67888  -0.000001687957815   0.000001468237098  -0.000006324510019
Si   21.04512  12.89862   2.03662  -0.000000138390136  -0.000001469567672  -0.000001037400339
Si   21.04512  15.61413   4.75213  -0.000000087432727  -0.000003407865607   0.000000425778268
Si   18.32963  12.89862   4.75213  -0.000000147882057   0.000003444818729  -0.000003858709992
Si   18.32963  15.61413   2.03662   0.000002940808032  -0.000002000886796  -0.000001111006506
Si   16.97188  11.54087   6.10987  -0.000001848743148  -0.000002671401049  -0.000000920894140
Si   19.68738  11.54087   8.82537   0.000001910581559  -0.000002696196567  -0.000001633397251
Si   16.97188  14.25638   8.82537  -0.000001036982355  -0.000001966195244   0.000002559790728
Si   19.68738  14.25638   6.10987   0.000002055278693  -0.000006387265352   0.000000250151321
Si   21.04512  12.89862   7.46762   0.000000023343109  -0.000001437647544  -0.000002426094835
Si   21.04512  15.61413  10.18313   0.000001361186011   0.000001036638185   0.000000510984769
Si   18.32963  12.89862  10.18313  -0.000000596963290  -0.000004613356325   0.000000323193838
Si   18.32963  15.61413   7.46762  -0.000007204068708   0.000005288467977   0.000002219752677
Si   16.97188  11.54087  11.54087   0.000002105434036   0.000001001195333   0.000003115576521
Si   19.68738  11.54087  14.25638  -0.000002104375144  -0.000001262430670   0.000000436853802
Si   16.97188  14.25638  14.25638  -0.000002006579883  -0.000002568567859  -0.000000595916077
Si   19.68738  14.25638  11.54087  -0.000003415202218   0.000000697140298   0.000006810249570
Si   21.04512  12.89862  12.89862  -0.000002211655290  -0.000001327041507   0.000002615792307
Si   21.04512  15.61413  15.61413  -0.000003189513395  -0.000001619792545  -0.000002412940444
Si   18.32963  12.89862  15.61413   0.000001990733376   0.000003965364569   0.000004818151810
Si   18.32963  15.61413  12.89862  -0.000005635945395   0.000005763752188  -0.000003492557081
Si   16.97188  16.97188   0.67888   0.000001375949711   0.000001375963382  -0.000004813777662
Si   19.68738  16.97188   3.39437   0.000000118141893  -0.000000209507914   0.000000884034363
Si   16.97188  19.68738   3.39437  -0.000000209373770   0.000000118174277   0.000000884056757
Si   19.68738  19.68738   0.67888  -0.000000043561936  -0.000000043603827  -0.000002438849224
Si   21.04512  18.32963   2.03662  -0.000007079151424   0.000000392884489   0.000000029510183
Si   21.04512  21.04512   4.75213  -0.000003757472676  -0.000003757702230  -0.000005236530885
Si   18.32963  18.32963   4.75213  -0.000002718435088  -0.000002718393971  -0.000005988453123
Si   18.32963  21.04512   2.03662   0.000000392863676  -0.000007079408753   0.000000029509646
Si   16.97188  16.97188   6.10987   0.000000895691043   0.000000895693140  -0.000001254850829
Si   19.68738  16.97188   8.82537   0.000000900089200  -0.000001267501605  -0.000001363871506
Si   16.97188  19.68738   8.82537  -0.000001267475464   0.000000899997323  -0.000001363956577
Si   19.68738  19.68738   6.10987  -0.000000066562653  -0.000000066656750  -0.000000225498326
Si   21.04512  18.32963   7.46762   0.000005115094231   0.000002759401725   0.000009135385505
Si   21.04512  21.04512  10.18313   0.000004899098244   0.000004898941349  -0.000000333458149
Si   18.32963  18.32963  10.18313   0.000004153304405   0.000004153248703  -0.000000193868965
Si   18.32963  21.04512   7.46762   0.000002759383028   0.000005114831096   0.000009135375570
Si   16.97188  16.97188  11.54087   0.000002021777129   0.000002021686897   0.000003168513189
Si   19.68738  16.97188  14.25638  -0.000000377773451   0.000000011613308   0.000000871292001
Si   16.97188  19.68738  14.25638   0.000000011765086  -0.000000377880505   0.000000871287549
Si   19.68738  19.68738  11.54087   0.000002167767767   0.000002167613498   0.000003637297352
Si   21.04512  18.32963  12.89862   0.000005614981653   0.000002077148950  -0.000007892026572
Si   21.04512  21.04512  15.61413  -0.000003779995844  -0.000003780113259   0.000004943509261
Si   18.32963  18.32963  15.61413  -0.000002232232152  -0.000002232332189   0.000005445817857
Si   18.32963  21.04512  12.89862   0.000002077154291   0.000005614833904  -0.000007891985678
