10 

C   -0.55502  -0.05167   0.35409   0.013213617355591  -0.035526076213779   0.017644855953024
C    0.81500  -0.46585  -0.13783   0.101173026818679   0.025619533666173  -0.006010510662501
O    0.86860  -1.67958  -0.73136   0.157481082186919   0.099501152454908   0.015955313404480
N   -0.89697   1.28481  -0.17674  -0.013730506898835   0.060478002033234   0.073697546902742
H   -1.33580  -0.76012   0.00834   0.044347729080083   0.048585573284946   0.022292380987031
H   -0.54756  -0.10941   1.46450  -0.004696083446403   0.009474162036694  -0.075939460319120
O    1.87096   0.13365  -0.04595  -0.183595201311727  -0.133906146047283  -0.028370824403536
H    1.75863  -1.86736  -1.01311  -0.132090727849481   0.021931521149934   0.038657845606072
H   -1.77844   1.56501   0.19676   0.094313691484561  -0.028617534754766  -0.034154804006354
H   -0.19940   1.95052   0.08130  -0.076865423871907  -0.067873886046896  -0.023520741159944
