216 

Si    0.72888   0.67888   0.67888   0.013554451750863   0.000001990625474   0.000001990783227
Si    3.39437   0.67888   3.39437  -0.000199988989378   0.000120263422837  -0.000193512998229
Si    0.67888   3.39437   3.39437   0.000422773517983  -0.000114168532024  -0.000114502609656
Si    3.39437   3.39437   0.67888  -0.000200041492332  -0.000193657892936   0.000120663351253
Si    4.75213   2.03662   2.03662   0.000010576557470   0.000025270596331   0.000025402006006
Si    4.75213   4.75213   4.75213   0.000016297046860   0.000007132986801   0.000007123584731
Si    2.03662   2.03662   4.75213   0.000033542893754  -0.000036256965450   0.000033870774095
Si    2.03662   4.75213   2.03662   0.000033457668950   0.000033950195956  -0.000036346129940
Si    0.67888   0.67888   6.10987  -0.000019083983932   0.000002861931995   0.000000654414342
Si    3.39437   0.67888   8.82538  -0.000020011016040   0.000008154416806   0.000008156436936
Si    0.67888   3.39437   8.82538  -0.000003687959818  -0.000008030992019   0.000011482718080
Si    3.39437   3.39437   6.10987  -0.000019399954991   0.000022373538985  -0.000003057817803
Si    4.75213   2.03662   7.46762   0.000001035433125  -0.000009020308475  -0.000000594159190
Si    4.75213   4.75213  10.18313   0.000002568175538  -0.000017223998933  -0.000003758230068
Si    2.03662   2.03662  10.18313   0.000015283814172   0.000001235877792   0.000002271941784
Si    2.03662   4.75213   7.46762   0.000012657091364  -0.000007455139350   0.000008759057198
Si    0.67888   0.67888  11.54087  -0.000013794217761   0.000008180492799  -0.000007935545072
Si    3.39437   0.67888  14.25638  -0.000194038203838  -0.000108273344234   0.000183817415355
Si    0.67888   3.39437  14.25638   0.000422018118034   0.000108391864789  -0.000112503313997
Si    3.39437   3.39437  11.54087  -0.000024784642670   0.000017871570047   0.000003896855195
Si    4.75213   2.03662  12.89863  -0.000016026303978   0.000051357082073   0.000024938109680
Si    4.75213   4.75213  15.61412  -0.000009864525472  -0.000013065704726  -0.000061117101711
Si    2.03662   2.03662  15.61412  -0.003371499252013  -0.002473715240664   0.002466596844886
Si    2.03662   4.75213  12.89863  -0.000177682172350   0.000054530235217  -0.000048808610945
Si    0.67888   6.10987   0.67888  -0.000018923249257   0.000000663876094   0.000002869327662
Si    3.39437   6.10987   3.39437  -0.000019464180556  -0.000003057136209   0.000022348838758
Si    0.67888   8.82538   3.39437  -0.000003743738792   0.000011456025990  -0.000008029891879
Si    3.39437   8.82538   0.67888  -0.000019971739140   0.000008152985970   0.000008157720600
Si    4.75213   7.46762   2.03662   0.000001049532280  -0.000000597213741  -0.000009039674564
Si    4.75213  10.18313   4.75213   0.000002692490081  -0.000003774362005  -0.000017203634659
Si    2.03662   7.46762   4.75213   0.000012645054013   0.000008754358085  -0.000007405371612
Si    2.03662  10.18313   2.03662   0.000015293171498   0.000002251114812   0.000001448696159
Si    0.67888   6.10987   6.10987   0.000108632987282  -0.000020934199637  -0.000020952764726
Si    3.39437   6.10987   8.82538  -0.000007160309323   0.000014920116168   0.000006025804262
Si    0.67888   8.82538   8.82538   0.000118916489921   0.000008999742517   0.000008981283393
Si    3.39437   8.82538   6.10987  -0.000007152328198   0.000006016530420   0.000014925013251
Si    4.75213   7.46762   7.46762   0.000009624004500  -0.000012779647523  -0.000012788594196
Si    4.75213  10.18313  10.18313   0.000008585679461   0.000004626598287   0.000004632018188
Si    2.03662   7.46762  10.18313  -0.000063031153194  -0.000005492224312  -0.000001646416750
Si    2.03662  10.18313   7.46762  -0.000063031279301  -0.000001625905238  -0.000005478378308
Si    0.67888   6.10987  11.54087   0.000106104281220   0.000019950803586  -0.000023733136158
Si    3.39437   6.10987  14.25638  -0.000023728039755  -0.000012045931298  -0.000025916102030
Si    0.67888   8.82538  14.25638  -0.000009028759881  -0.000000434975327   0.000000748215960
Si    3.39437   8.82538  11.54087  -0.000013283870920   0.000005850061379  -0.000024781953779
Si    4.75213   7.46762  12.89863   0.000008804242315  -0.000006105847565   0.000029066738140
Si    4.75213  10.18313  15.61412   0.000001067923981  -0.000001390061766   0.000007032950043
Si    2.03662   7.46762  15.61412   0.000014414250680  -0.000005135927295  -0.000004327975809
Si    2.03662  10.18313  12.89863   0.000011764834576  -0.000011637970680   0.000017408405901
Si    0.67888  11.54087   0.67888  -0.000013663072884  -0.000007936285552   0.000008172223519
Si    3.39437  11.54087   3.39437  -0.000024775196405   0.000003895935804   0.000017752871096
Si    0.67888  14.25638   3.39437   0.000422039668812  -0.000112161688638   0.000108726271716
Si    3.39437  14.25638   0.67888  -0.000194099139190   0.000183939706206  -0.000108677938317
Si    4.75213  12.89863   2.03662  -0.000016000458309   0.000024930506609   0.000051245052955
Si    4.75213  15.61412   4.75213  -0.000009909264422  -0.000061252558745  -0.000013078165373
Si    2.03662  12.89863   4.75213  -0.000177682275035  -0.000048770846875   0.000054557717008
Si    2.03662  15.61412   2.03662  -0.003371496764842   0.002466480720801  -0.002473839288791
Si    0.67888  11.54087   6.10987   0.000106085878124  -0.000023696954743   0.000019978721820
Si    3.39437  11.54087   8.82538  -0.000013274053494  -0.000024800517922   0.000005835745033
Si    0.67888  14.25638   8.82538  -0.000008955376534   0.000000757521111  -0.000000444801179
Si    3.39437  14.25638   6.10987  -0.000023734297133  -0.000026034424068  -0.000012050248249
Si    4.75213  12.89863   7.46762   0.000008698192854   0.000029091709344  -0.000006098587571
Si    4.75213  15.61412  10.18313   0.000001018774768   0.000007031728157  -0.000001411635337
Si    2.03662  12.89863  10.18313   0.000011776921432   0.000017455856442  -0.000011638287779
Si    2.03662  15.61412   7.46762   0.000014404611454  -0.000004120278978  -0.000005152452430
Si    0.67888  11.54087  11.54087   0.000110516368624   0.000011937888775   0.000011974792409
Si    3.39437  11.54087  14.25638  -0.000019436170600   0.000001065961561  -0.000024353475839
Si    0.67888  14.25638  14.25638   0.000420829967524   0.000105075487529   0.000105426478996
Si    3.39437  14.25638  11.54087  -0.000019408595226  -0.000024357553889   0.000001047944199
Si    4.75213  12.89863  12.89863   0.000016298119289   0.000009173167335   0.000009189139789
Si    4.75213  15.61412  15.61412   0.000011542967156  -0.000033388178712  -0.000033523252348
Si    2.03662  12.89863  15.61412   0.000034356426363  -0.000023936429655   0.000033472179492
Si    2.03662  15.61412  12.89863   0.000034439544899   0.000033378631041  -0.000023853224150
Si    6.10987   0.67888   0.67888  -0.000005157078913   0.000002872290193   0.000002868716707
Si    8.82538   0.67888   3.39437   0.000005832111553   0.000004821142283  -0.000008019474178
Si    6.10987   3.39437   3.39437   0.000002265784409  -0.000015117119231  -0.000015111100307
Si    8.82538   3.39437   0.67888   0.000005856695437  -0.000008015526528   0.000004835373518
Si   10.18313   2.03662   2.03662   0.000000019180990   0.000002241462999   0.000002255167375
Si   10.18313   4.75213   4.75213  -0.000001029785135   0.000000063886208   0.000000049853239
Si    7.46762   2.03662   4.75213   0.000000525111094   0.000012658028724   0.000004997584170
Si    7.46762   4.75213   2.03662   0.000000536047486   0.000004987349313   0.000012660326238
Si    6.10987   0.67888   6.10987  -0.000000623994474   0.000028678580462  -0.000012286248591
Si    8.82538   0.67888   8.82538   0.000010650542533   0.000009002668998   0.000008981102608
Si    6.10987   3.39437   8.82538   0.000000209848061   0.000012739753261   0.000001216359257
Si    8.82538   3.39437   6.10987   0.000004793707149  -0.000006097628597   0.000000744996600
Si   10.18313   2.03662   7.46762  -0.000004937298957  -0.000001184978384  -0.000007871386771
Si   10.18313   4.75213  10.18313   0.000002553542084   0.000011795739574  -0.000005330370880
Si    7.46762   2.03662  10.18313  -0.000012410425388   0.000002253211071  -0.000000344386417
Si    7.46762   4.75213   7.46762  -0.000005571081482   0.000003651155084  -0.000013451648726
Si    6.10987   0.67888  11.54087  -0.000001503109947  -0.000018673623316   0.000009404519695
Si    8.82538   0.67888  14.25638   0.000000544623969   0.000006199936812   0.000000736615566
Si    6.10987   3.39437  14.25638   0.000001635442071  -0.000011259764166   0.000004137538349
Si    8.82538   3.39437  11.54087   0.000011107064315  -0.000005886793325  -0.000007356442455
Si   10.18313   2.03662  12.89863   0.000003291768634  -0.000011538221234   0.000009481137630
Si   10.18313   4.75213  15.61412   0.000004164339075   0.000000522306183   0.000008664498617
Si    7.46762   2.03662  15.61412  -0.000002635251624  -0.000003255104080  -0.000000493662866
Si    7.46762   4.75213  12.89863  -0.000009079683329   0.000011937574913   0.000006034117490
Si    6.10987   6.10987   0.67888  -0.000000740947133  -0.000012297132190   0.000028678404280
Si    8.82538   6.10987   3.39437   0.000004812344718   0.000000747213573  -0.000006103596746
Si    6.10987   8.82538   3.39437   0.000000200671718   0.000001219968070   0.000012735354567
Si    8.82538   8.82538   0.67888   0.000010605387557   0.000008999546683   0.000008984214836
Si   10.18313   7.46762   2.03662  -0.000004930997567  -0.000007882411702  -0.000001189827506
Si   10.18313  10.18313   4.75213   0.000002560345818  -0.000005332441463   0.000011807667856
Si    7.46762   7.46762   4.75213  -0.000005563718582  -0.000013449298962   0.000003649648720
Si    7.46762  10.18313   2.03662  -0.000012400806189  -0.000000361578037   0.000002259493681
Si    6.10987   6.10987   6.10987  -0.000002067995702   0.000003407755533   0.000003410951839
Si    8.82538   6.10987   8.82538   0.000001049359261   0.000000859951047   0.000002873109093
Si    6.10987   8.82538   8.82538  -0.000000932152703   0.000002884076558   0.000002879590742
Si    8.82538   8.82538   6.10987   0.000001029525919   0.000002850212669   0.000000854729552
Si   10.18313   7.46762   7.46762  -0.000000953445097  -0.000002694428932  -0.000002705817639
Si   10.18313  10.18313  10.18313  -0.000000073670131  -0.000000189599552  -0.000000173879783
Si    7.46762   7.46762  10.18313  -0.000002919413176  -0.000003039996509  -0.000000717178042
Si    7.46762  10.18313   7.46762  -0.000002937264653  -0.000000706236002  -0.000003037422090
Si    6.10987   6.10987  11.54087  -0.000001925113998   0.000003525054363  -0.000010632920654
Si    8.82538   6.10987  14.25638   0.000009220156174  -0.000001632974681  -0.000003105659548
Si    6.10987   8.82538  14.25638   0.000001081009635   0.000008781168615  -0.000015616697891
Si    8.82538   8.82538  11.54087   0.000006316655497   0.000008170564643  -0.000008137615476
Si   10.18313   7.46762  12.89863   0.000003439601591   0.000002448198610  -0.000001805649274
Si   10.18313  10.18313  15.61412  -0.000004930785617   0.000000767035696  -0.000005936996983
Si    7.46762   7.46762  15.61412  -0.000014288981190  -0.000008639617302  -0.000011244355351
Si    7.46762  10.18313  12.89863  -0.000000294103497   0.000006174030109   0.000007389094400
Si    6.10987  11.54087   0.67888  -0.000001619837478   0.000009411162012  -0.000018671920900
Si    8.82538  11.54087   3.39437   0.000011106322279  -0.000007367497252  -0.000005875396485
Si    6.10987  14.25638   3.39437   0.000001635602972   0.000004144641309  -0.000011259303864
Si    8.82538  14.25638   0.67888   0.000000587041052   0.000000741233777   0.000006202756199
Si   10.18313  12.89863   2.03662   0.000003285618895   0.000009478713529  -0.000011547027880
Si   10.18313  15.61412   4.75213   0.000004170674068   0.000008651139469   0.000000522222840
Si    7.46762  12.89863   4.75213  -0.000009079758221   0.000006060749531   0.000011927317230
Si    7.46762  15.61412   2.03662  -0.000002617225550  -0.000000493994248  -0.000003263697777
Si    6.10987  11.54087   6.10987  -0.000001925015979  -0.000010640439808   0.000003510859134
Si    8.82538  11.54087   8.82538   0.000006318580341  -0.000008134233809   0.000008164601668
Si    6.10987  14.25638   8.82538   0.000001090146834  -0.000015625440358   0.000008787137103
Si    8.82538  14.25638   6.10987   0.000009220843851  -0.000003112696132  -0.000001625604275
Si   10.18313  12.89863   7.46762   0.000003432795972  -0.000001796034094   0.000002450575132
Si   10.18313  15.61412  10.18313  -0.000004936947837  -0.000005934998391   0.000000749245278
Si    7.46762  12.89863  10.18313  -0.000000283476920   0.000007370625880   0.000006167762947
Si    7.46762  15.61412   7.46762  -0.000014298662565  -0.000011256390567  -0.000008638390455
Si    6.10987  11.54087  11.54087  -0.000001188494595  -0.000006292218297  -0.000006291003829
Si    8.82538  11.54087  14.25638   0.000004792796861  -0.000004492987527   0.000002346508746
Si    6.10987  14.25638  14.25638   0.000001394834315   0.000012226576189   0.000012224998287
Si    8.82538  14.25638  11.54087   0.000004809984124   0.000002348839063  -0.000004499149925
Si   10.18313  12.89863  12.89863  -0.000001026978027   0.000005709897974   0.000005715072095
Si   10.18313  15.61412  15.61412  -0.000000859624649  -0.000005125565919  -0.000005134665664
Si    7.46762  12.89863  15.61412  -0.000004750735294   0.000006033185357  -0.000019943302745
Si    7.46762  15.61412  12.89863  -0.000004743904688  -0.000019932542098   0.000006039928542
Si   11.54087   0.67888   0.67888  -0.000013900298636   0.000008144057931   0.000008147533188
Si   14.25638   0.67888   3.39437  -0.000183759414211   0.000108387353489   0.000174873126368
Si   11.54087   3.39437   3.39437  -0.000007172661481  -0.000003904568716  -0.000003914233957
Si   14.25638   3.39437   0.67888  -0.000183806027198   0.000174971634047   0.000108788692366
Si   15.61412   2.03662   2.03662  -0.003224257851877   0.002172625378843   0.002172765842854
Si   15.61412   4.75213   4.75213  -0.000181685977008  -0.000042203709454  -0.000042262774755
Si   12.89863   2.03662   4.75213  -0.000013469642757  -0.000051768779210   0.000022761876015
Si   12.89863   4.75213   2.03662  -0.000013431747465   0.000022748576262  -0.000051650908465
Si   11.54087   0.67888   6.10987  -0.000002778891033   0.000023139832642   0.000010924730633
Si   14.25638   0.67888   8.82538  -0.000011243270105   0.000002885461883   0.000002879382153
Si   11.54087   3.39437   8.82538  -0.000008046527463  -0.000024950927626   0.000007407149136
Si   14.25638   3.39437   6.10987  -0.000016566854730  -0.000032763889992   0.000012370037039
Si   15.61412   2.03662   7.46762   0.000012501434101  -0.000002318092482  -0.000000522812234
Si   15.61412   4.75213  10.18313   0.000008547412751   0.000013133265136   0.000012534576042
Si   12.89863   2.03662  10.18313   0.000005488472926   0.000010584108294   0.000002198595692
Si   12.89863   4.75213   7.46762   0.000008739714906   0.000029203789410  -0.000011878236119
Si   11.54087   0.67888  11.54087  -0.000008909777057  -0.000011268281274  -0.000020776833613
Si   14.25638   0.67888  14.25638  -0.000182934938559  -0.000098280294738  -0.000177790319070
Si   11.54087   3.39437  14.25638  -0.000001404988558   0.000009313690715  -0.000011303861649
Si   14.25638   3.39437  11.54087  -0.000015780112276  -0.000029179658551  -0.000007308902899
Si   15.61412   2.03662  12.89863   0.000028277772732   0.000039293065796   0.000027481521094
Si   15.61412   4.75213  15.61412   0.000022871040800  -0.000016588394571  -0.000046632919615
Si   12.89863   2.03662  15.61412   0.000007077396037  -0.000025094989991   0.000023270226134
Si   12.89863   4.75213  12.89863   0.000016291428750   0.000009340267417   0.000006964547172
Si   11.54087   6.10987   0.67888  -0.000002904708106   0.000010931561291   0.000023146755685
Si   14.25638   6.10987   3.39437  -0.000016556636869   0.000012364346637  -0.000032668400382
Si   11.54087   8.82538   3.39437  -0.000008056423390   0.000007425064497  -0.000024926475111
Si   14.25638   8.82538   0.67888  -0.000011207446805   0.000002883820792   0.000002881104365
Si   15.61412   7.46762   2.03662   0.000012544261204  -0.000000531761442  -0.000002544345239
Si   15.61412  10.18313   4.75213   0.000008516053599   0.000012538858839   0.000013098957104
Si   12.89863   7.46762   4.75213   0.000008843189440  -0.000011908822177   0.000029180482154
Si   12.89863  10.18313   2.03662   0.000005518676278   0.000002181016000   0.000010593493385
Si   11.54087   6.10987   6.10987  -0.000009119916456  -0.000003441486460  -0.000003426860643
Si   14.25638   6.10987   8.82538  -0.000004092685417  -0.000015752324215   0.000010299072113
Si   11.54087   8.82538   8.82538  -0.000009908982709   0.000008153539410   0.000008157026649
Si   14.25638   8.82538   6.10987  -0.000004100727485   0.000010296843317  -0.000015753586412
Si   15.61412   7.46762   7.46762  -0.000071653120558  -0.000010788416298  -0.000010791691452
Si   15.61412  10.18313  10.18313  -0.000069762068026   0.000001785472892   0.000001807125540
Si   12.89863   7.46762  10.18313   0.000004182939649   0.000001695901940  -0.000003694751312
Si   12.89863  10.18313   7.46762   0.000004200843774  -0.000003684095444   0.000001687904005
Si   11.54087   6.10987  11.54087  -0.000004805384584  -0.000002647102763   0.000000648810032
Si   14.25638   6.10987  14.25638  -0.000016704406342   0.000004432576467   0.000026300868592
Si   11.54087   8.82538  14.25638  -0.000001923031125   0.000004441115288   0.000015069249831
Si   14.25638   8.82538  11.54087  -0.000004980561507  -0.000000295927106   0.000012871583665
Si   15.61412   7.46762  12.89863   0.000003246340544  -0.000019812719914  -0.000002061228648
Si   15.61412  10.18313  15.61412   0.000012527600670  -0.000003217187235  -0.000001215455983
Si   12.89863   7.46762  15.61412   0.000006554499876  -0.000010332593217  -0.000018751942787
Si   12.89863  10.18313  12.89863   0.000002735569560   0.000002033025347  -0.000017317300645
Si   11.54087  11.54087   0.67888  -0.000009017473005  -0.000020807159132  -0.000011280155596
Si   14.25638  11.54087   3.39437  -0.000015823174489  -0.000007318143371  -0.000029174530434
Si   11.54087  14.25638   3.39437  -0.000001422919832  -0.000011298598964   0.000009300365838
Si   14.25638  14.25638   0.67888  -0.000182973943534  -0.000177894210414  -0.000098679272896
Si   15.61412  12.89863   2.03662   0.000028149254484   0.000027556762597   0.000039378801835
Si   15.61412  15.61412   4.75213   0.000023016771943  -0.000046544597477  -0.000016496585749
Si   12.89863  12.89863   4.75213   0.000016291007734   0.000006965678696   0.000009348710700
Si   12.89863  15.61412   2.03662   0.000007060212554   0.000023162023435  -0.000025222134973
Si   11.54087  11.54087   6.10987  -0.000004787417883   0.000000659437002  -0.000002655013674
Si   14.25638  11.54087   8.82538  -0.000004972404633   0.000012865916199  -0.000000295887359
Si   11.54087  14.25638   8.82538  -0.000001931091364   0.000015070241662   0.000004454004304
Si   14.25638  14.25638   6.10987  -0.000016663202413   0.000026300811432   0.000004428018593
Si   15.61412  12.89863   7.46762   0.000003259950139  -0.000002112232662  -0.000019816993010
Si   15.61412  15.61412  10.18313   0.000012521940171  -0.000001433208183  -0.000003234555686
Si   12.89863  12.89863  10.18313   0.000002614776925  -0.000017335067162   0.000002026071976
Si   12.89863  15.61412   7.46762   0.000006523835616  -0.000018739200922  -0.000010353800552
Si   11.54087  11.54087  11.54087  -0.000010156751849  -0.000004713135807  -0.000004731335702
Si   14.25638  11.54087  14.25638  -0.000016564199272  -0.000019477808433   0.000025547784586
Si   11.54087  14.25638  14.25638  -0.000006141498750  -0.000004256924388  -0.000004250576054
Si   14.25638  14.25638  11.54087  -0.000016572216327   0.000025651675912  -0.000019490545829
Si   15.61412  12.89863  12.89863  -0.000181690228053   0.000060223453702   0.000060246230710
Si   15.61412  15.61412  15.61412  -0.003226192759225  -0.002181521699220  -0.002181649338608
Si   12.89863  12.89863  15.61412  -0.000007271380766  -0.000010868033921   0.000041758124756
Si   12.89863  15.61412  12.89863  -0.000007327181441   0.000041851953289  -0.000010886032424
