216 

Si    0.67888   0.67888   0.67888   0.000006054936543   0.000006054797321   0.000006037972360
Si    3.39437   0.67888   3.39437  -0.000006054884042   0.000006054883564  -0.000006037912349
Si    0.67888   3.39437   3.39437   0.000006054902996  -0.000006054852692  -0.000006037967761
Si    3.39437   3.39437   0.67888  -0.000006054933139  -0.000006054890146   0.000006037986538
Si    4.75213   2.03662   2.03662   0.000008390602887  -0.000000000007618  -0.000000000048457
Si    4.75213   4.75213   4.75213   0.000004929150790   0.000004929174941   0.000004933329326
Si    2.03662   2.03662   4.75213  -0.000000000016640   0.000000000000456   0.000008395745251
Si    2.03662   4.75213   2.03662   0.000000000009240   0.000008390576746   0.000000000001692
Si    0.67888   0.67888   6.10987   0.000002760109690   0.000002759974013   0.000000194079797
Si    3.39437   0.67888   8.82538  -0.000004929304696   0.000004929246506   0.000004933345494
Si    0.67888   3.39437   8.82538   0.000004929199374  -0.000004929214366   0.000004933316958
Si    3.39437   3.39437   6.10987  -0.000002760113376  -0.000002760013543   0.000000194087580
Si    4.75213   2.03662   7.46762   0.000002774870498   0.000000198724393  -0.000002771121531
Si    4.75213   4.75213  10.18313   0.000002760040967   0.000002760016489  -0.000000194076587
Si    2.03662   2.03662  10.18313   0.000000000001073   0.000000000064708  -0.000000000062856
Si    2.03662   4.75213   7.46762   0.000000198715891   0.000002774916097  -0.000002771173906
Si    0.67888   0.67888  11.54087   0.000004929211667   0.000004929164785  -0.000004933362160
Si    3.39437   0.67888  14.25638  -0.000002760039217   0.000002760063142  -0.000000194102107
Si    0.67888   3.39437  14.25638   0.000002760061712  -0.000002759992786  -0.000000194102627
Si    3.39437   3.39437  11.54087  -0.000004929148640  -0.000004929174033  -0.000004933317826
Si    4.75213   2.03662  12.89863   0.000002774778958  -0.000000198689401   0.000002771169998
Si    4.75213   4.75213  15.61412   0.000006054929074   0.000006054869582  -0.000006038045887
Si    2.03662   2.03662  15.61412  -0.000000000016988  -0.000000000018829  -0.000008395797381
Si    2.03662   4.75213  12.89863  -0.000000198657954   0.000002774899187   0.000002771071891
Si    0.67888   6.10987   0.67888   0.000002774824561   0.000000198747416   0.000002771148532
Si    3.39437   6.10987   3.39437  -0.000002774859027   0.000000198736708  -0.000002771169781
Si    0.67888   8.82538   3.39437   0.000004929131415   0.000004929198065  -0.000004933345624
Si    3.39437   8.82538   0.67888  -0.000004929116608   0.000004929224227   0.000004933294199
Si    4.75213   7.46762   2.03662   0.000002760075007  -0.000002760066336   0.000000194095854
Si    4.75213  10.18313   4.75213   0.000002774822592  -0.000000198711572   0.000002771181856
Si    2.03662   7.46762   4.75213   0.000000198675650  -0.000002774904252   0.000002771117708
Si    2.03662  10.18313   2.03662   0.000000000011946  -0.000000000059505   0.000000000000981
Si    0.67888   6.10987   6.10987   0.000008390621326   0.000000000000325  -0.000000000053353
Si    3.39437   6.10987   8.82538  -0.000002774858596  -0.000000198743819   0.000002771186353
Si    0.67888   8.82538   8.82538   0.000006054899268   0.000006054907015   0.000006037987820
Si    3.39437   8.82538   6.10987  -0.000002760016755   0.000002760039220  -0.000000194041365
Si    4.75213   7.46762   7.46762   0.000004929160509  -0.000004929184556  -0.000004933342176
Si    4.75213  10.18313  10.18313   0.000008390576197   0.000000000066295  -0.000000000041496
Si    2.03662   7.46762  10.18313  -0.000000000002114  -0.000008390555998   0.000000000016752
Si    2.03662  10.18313   7.46762   0.000000000017937  -0.000000000016072  -0.000008395875820
Si    0.67888   6.10987  11.54087   0.000002774841294  -0.000000198748213  -0.000002771116169
Si    3.39437   6.10987  14.25638  -0.000008390633394   0.000000000013498  -0.000000000029825
Si    0.67888   8.82538  14.25638   0.000002760092083   0.000002760040222   0.000000194108492
Si    3.39437   8.82538  11.54087  -0.000006054887663   0.000006054890425  -0.000006037980396
Si    4.75213   7.46762  12.89863   0.000006054907834  -0.000006054873232   0.000006038038372
Si    4.75213  10.18313  15.61412   0.000002774793786   0.000000198626991  -0.000002771158943
Si    2.03662   7.46762  15.61412  -0.000000198760820  -0.000002774815928  -0.000002771169648
Si    2.03662  10.18313  12.89863  -0.000000000029903   0.000000000036481   0.000008395846835
Si    0.67888  11.54087   0.67888   0.000004929132449  -0.000004929226405   0.000004933362620
Si    3.39437  11.54087   3.39437  -0.000004929161211  -0.000004929101804  -0.000004933350045
Si    0.67888  14.25638   3.39437   0.000002774800210  -0.000000198682027  -0.000002771191188
Si    3.39437  14.25638   0.67888  -0.000002774935660  -0.000000198628415   0.000002771110432
Si    4.75213  12.89863   2.03662   0.000002760043672   0.000002759960460  -0.000000194126138
Si    4.75213  15.61412   4.75213   0.000006054920144  -0.000006054870942   0.000006037987322
Si    2.03662  12.89863   4.75213  -0.000000198613662   0.000002774859209   0.000002771161104
Si    2.03662  15.61412   2.03662   0.000000000020977  -0.000008390652962  -0.000000000027882
Si    0.67888  11.54087   6.10987   0.000002760072784  -0.000002760041103  -0.000000194113018
Si    3.39437  11.54087   8.82538  -0.000006054872786  -0.000006054897846   0.000006037969284
Si    0.67888  14.25638   8.82538   0.000002774895328   0.000000198679114   0.000002771163443
Si    3.39437  14.25638   6.10987  -0.000008390603889  -0.000000000016088   0.000000000023096
Si    4.75213  12.89863   7.46762   0.000006054866596   0.000006054936886  -0.000006037928510
Si    4.75213  15.61412  10.18313   0.000002760085571  -0.000002760067903   0.000000194166471
Si    2.03662  12.89863  10.18313   0.000000000025693   0.000008390601065  -0.000000000006258
Si    2.03662  15.61412   7.46762  -0.000000198677418  -0.000002774893969  -0.000002771132908
Si    0.67888  11.54087  11.54087   0.000006054887487  -0.000006054913419  -0.000006038019046
Si    3.39437  11.54087  14.25638  -0.000002760001408  -0.000002760096939   0.000000194034678
Si    0.67888  14.25638  14.25638   0.000008390619615   0.000000000015587   0.000000000091612
Si    3.39437  14.25638  11.54087  -0.000002774830234   0.000000198676029  -0.000002771178118
Si    4.75213  12.89863  12.89863   0.000004929153800   0.000004929180135   0.000004933283631
Si    4.75213  15.61412  15.61412   0.000004929207028  -0.000004929092782  -0.000004933336414
Si    2.03662  12.89863  15.61412   0.000000198748691   0.000002774857559  -0.000002771154801
Si    2.03662  15.61412  12.89863   0.000000198670538  -0.000002774855642   0.000002771128362
Si    6.10987   0.67888   0.67888   0.000000198648126   0.000002774807975   0.000002771133669
Si    8.82538   0.67888   3.39437   0.000004929105820   0.000004929172768  -0.000004933321315
Si    6.10987   3.39437   3.39437   0.000000198734724  -0.000002774882918  -0.000002771176010
Si    8.82538   3.39437   0.67888   0.000004929145045  -0.000004929132385   0.000004933378549
Si   10.18313   2.03662   2.03662   0.000000000026671   0.000000000033573   0.000000000065774
Si   10.18313   4.75213   4.75213  -0.000000198772524   0.000002774869379   0.000002771158739
Si    7.46762   2.03662   4.75213  -0.000002774823245   0.000000198705790   0.000002771160308
Si    7.46762   4.75213   2.03662  -0.000002760017136   0.000002760037436   0.000000194030765
Si    6.10987   0.67888   6.10987  -0.000000000007184   0.000008390582143   0.000000000017055
Si    8.82538   0.67888   8.82538   0.000006054892068   0.000006054905336   0.000006037979911
Si    6.10987   3.39437   8.82538  -0.000000198685059  -0.000002774868595   0.000002771159939
Si    8.82538   3.39437   6.10987   0.000002760047200  -0.000002760046791  -0.000000194032836
Si   10.18313   2.03662   7.46762   0.000000000036811   0.000000000003609  -0.000008395886550
Si   10.18313   4.75213  10.18313  -0.000000000010760   0.000008390624690   0.000000000027995
Si    7.46762   2.03662  10.18313  -0.000008390572099  -0.000000000013045  -0.000000000038781
Si    7.46762   4.75213   7.46762  -0.000004929160049   0.000004929170693  -0.000004933352285
Si    6.10987   0.67888  11.54087  -0.000000198793007   0.000002774828086  -0.000002771109040
Si    8.82538   0.67888  14.25638   0.000002760015235   0.000002760042987   0.000000194154943
Si    6.10987   3.39437  14.25638  -0.000000000000099  -0.000008390587211   0.000000000008693
Si    8.82538   3.39437  11.54087   0.000006055006316  -0.000006054904418  -0.000006037934305
Si   10.18313   2.03662  12.89863  -0.000000000044353   0.000000000032711   0.000008395831641
Si   10.18313   4.75213  15.61412   0.000000198761564   0.000002774850311  -0.000002771179580
Si    7.46762   2.03662  15.61412  -0.000002774827444  -0.000000198707439  -0.000002771122845
Si    7.46762   4.75213  12.89863  -0.000006054874527   0.000006054936135   0.000006038029473
Si    6.10987   6.10987   0.67888  -0.000000000038691   0.000000000028799   0.000008395820590
Si    8.82538   6.10987   3.39437   0.000002774891138  -0.000000198767719  -0.000002771143625
Si    6.10987   8.82538   3.39437  -0.000000198770664   0.000002774818712  -0.000002771107679
Si    8.82538   8.82538   0.67888   0.000006054917522   0.000006054849847   0.000006038021933
Si   10.18313   7.46762   2.03662  -0.000000000012094  -0.000008390590004  -0.000000000031009
Si   10.18313  10.18313   4.75213   0.000000000027506  -0.000000000073703   0.000008395715037
Si    7.46762   7.46762   4.75213  -0.000004929177894  -0.000004929178440   0.000004933321790
Si    7.46762  10.18313   2.03662  -0.000008390576404   0.000000000092463   0.000000000053799
Si    6.10987   6.10987   6.10987   0.000000000010416  -0.000000000006094   0.000000000047976
Si    8.82538   6.10987   8.82538   0.000002774797680   0.000000198726370   0.000002771065285
Si    6.10987   8.82538   8.82538   0.000000198761732   0.000002774828541   0.000002771077023
Si    8.82538   8.82538   6.10987   0.000002760020673   0.000002760051872   0.000000194055512
Si   10.18313   7.46762   7.46762  -0.000000198641670  -0.000002774836489  -0.000002771108281
Si   10.18313  10.18313  10.18313  -0.000000000059291   0.000000000009602   0.000000000026218
Si    7.46762   7.46762  10.18313  -0.000002760029284  -0.000002760033782  -0.000000194058371
Si    7.46762  10.18313   7.46762  -0.000002774910083  -0.000000198667590  -0.000002771161136
Si    6.10987   6.10987  11.54087   0.000000000086631  -0.000000000022044  -0.000008395839522
Si    8.82538   6.10987  14.25638   0.000008390632873  -0.000000000027729  -0.000000000079429
Si    6.10987   8.82538  14.25638  -0.000000000017218   0.000008390559000  -0.000000000039513
Si    8.82538   8.82538  11.54087   0.000004929145705   0.000004929074124  -0.000004933285367
Si   10.18313   7.46762  12.89863   0.000000198726187  -0.000002774893514   0.000002771088004
Si   10.18313  10.18313  15.61412  -0.000000000026676   0.000000000009374  -0.000008395796081
Si    7.46762   7.46762  15.61412  -0.000006054885035  -0.000006054941432  -0.000006037933500
Si    7.46762  10.18313  12.89863  -0.000002774813477   0.000000198740146   0.000002771105558
Si    6.10987  11.54087   0.67888  -0.000000198768090  -0.000002774771656   0.000002771110789
Si    8.82538  11.54087   3.39437   0.000006054910290  -0.000006054884551  -0.000006037972115
Si    6.10987  14.25638   3.39437   0.000000000001639  -0.000000000002825  -0.000008395776396
Si    8.82538  14.25638   0.67888   0.000002774897301   0.000000198648510   0.000002771074256
Si   10.18313  12.89863   2.03662  -0.000000000001448   0.000008390533908   0.000000000018181
Si   10.18313  15.61412   4.75213   0.000000198745053  -0.000002774822190   0.000002771108208
Si    7.46762  12.89863   4.75213  -0.000006054866906   0.000006054892257   0.000006038032431
Si    7.46762  15.61412   2.03662  -0.000002760137307  -0.000002760080979  -0.000000194037004
Si    6.10987  11.54087   6.10987  -0.000000000007839  -0.000008390590736  -0.000000000008577
Si    8.82538  11.54087   8.82538   0.000004929233489  -0.000004929229699   0.000004933311842
Si    6.10987  14.25638   8.82538   0.000000000100059   0.000000000019309   0.000008395730557
Si    8.82538  14.25638   6.10987   0.000008390631982   0.000000000000255  -0.000000000063004
Si   10.18313  12.89863   7.46762   0.000000198748719   0.000002774857618  -0.000002771179728
Si   10.18313  15.61412  10.18313   0.000000000042945  -0.000008390599830  -0.000000000020004
Si    7.46762  12.89863  10.18313  -0.000002760007908   0.000002760025896   0.000000194060402
Si    7.46762  15.61412   7.46762  -0.000006054928056  -0.000006054908061  -0.000006038010847
Si    6.10987  11.54087  11.54087   0.000000198766321  -0.000002774819022  -0.000002771128649
Si    8.82538  11.54087  14.25638   0.000002760120900  -0.000002759993098  -0.000000194034098
Si    6.10987  14.25638  14.25638   0.000000000006119  -0.000000000030139  -0.000000000014064
Si    8.82538  14.25638  11.54087   0.000002774851158  -0.000000198744586  -0.000002771115350
Si   10.18313  12.89863  12.89863  -0.000000198687339   0.000002774805669   0.000002771123440
Si   10.18313  15.61412  15.61412  -0.000000198732140  -0.000002774855397  -0.000002771136590
Si    7.46762  12.89863  15.61412  -0.000004929185557   0.000004929167329  -0.000004933347906
Si    7.46762  15.61412  12.89863  -0.000004929231471  -0.000004929170539   0.000004933380914
Si   11.54087   0.67888   0.67888  -0.000004929209668   0.000004929243057   0.000004933341359
Si   14.25638   0.67888   3.39437  -0.000000198690379   0.000002774828509  -0.000002771105223
Si   11.54087   3.39437   3.39437  -0.000004929209953  -0.000004929230278  -0.000004933419612
Si   14.25638   3.39437   0.67888  -0.000000198707789  -0.000002774902040   0.000002771109245
Si   15.61412   2.03662   2.03662  -0.000008390576546  -0.000000000007087   0.000000000002212
Si   15.61412   4.75213   4.75213  -0.000006054919009   0.000006054902934   0.000006038051677
Si   12.89863   2.03662   4.75213   0.000002774774510  -0.000000198705460   0.000002771121312
Si   12.89863   4.75213   2.03662   0.000002760024990   0.000002760157079  -0.000000194115665
Si   11.54087   0.67888   6.10987  -0.000002760117379   0.000002760026519  -0.000000194034044
Si   14.25638   0.67888   8.82538   0.000000198771587   0.000002774823910   0.000002771076717
Si   11.54087   3.39437   8.82538  -0.000006054941234  -0.000006054945275   0.000006038041377
Si   14.25638   3.39437   6.10987   0.000000000021301  -0.000008390547944   0.000000000000229
Si   15.61412   2.03662   7.46762  -0.000002774820236  -0.000000198700886  -0.000002771136951
Si   15.61412   4.75213  10.18313  -0.000002760086018   0.000002760080654   0.000000194138654
Si   12.89863   2.03662  10.18313   0.000008390566099   0.000000000116678  -0.000000000065983
Si   12.89863   4.75213   7.46762   0.000006054960668   0.000006054950738  -0.000006037967093
Si   11.54087   0.67888  11.54087  -0.000006054873612   0.000006054892624  -0.000006037960989
Si   14.25638   0.67888  14.25638   0.000000000019097   0.000008390560143  -0.000000000026525
Si   11.54087   3.39437  14.25638  -0.000002760032656  -0.000002759996306   0.000000194125177
Si   14.25638   3.39437  11.54087   0.000000198763083  -0.000002774873657  -0.000002771102784
Si   15.61412   2.03662  12.89863  -0.000002774801406   0.000000198655061   0.000002771199289
Si   15.61412   4.75213  15.61412  -0.000004929117019   0.000004929129890  -0.000004933359975
Si   12.89863   2.03662  15.61412   0.000002774785800   0.000000198702741  -0.000002771154625
Si   12.89863   4.75213  12.89863   0.000004929217712   0.000004929166522   0.000004933365474
Si   11.54087   6.10987   0.67888  -0.000002774836012  -0.000000198733634   0.000002771163672
Si   14.25638   6.10987   3.39437  -0.000000000037377  -0.000000000044934  -0.000008395803747
Si   11.54087   8.82538   3.39437  -0.000006054893882   0.000006054968224  -0.000006037946037
Si   14.25638   8.82538   0.67888   0.000000198728744   0.000002774849365   0.000002771109035
Si   15.61412   7.46762   2.03662  -0.000002760021686  -0.000002760034900  -0.000000194092298
Si   15.61412  10.18313   4.75213  -0.000002774866112   0.000000198743656   0.000002771087123
Si   12.89863   7.46762   4.75213   0.000006054890342  -0.000006054837436   0.000006038050361
Si   12.89863  10.18313   2.03662   0.000008390630104  -0.000000000014241  -0.000000000005525
Si   11.54087   6.10987   6.10987  -0.000008390584920   0.000000000024974  -0.000000000022541
Si   14.25638   6.10987   8.82538  -0.000000000004589  -0.000000000020921   0.000008395790211
Si   11.54087   8.82538   8.82538  -0.000004929179671   0.000004929209511   0.000004933367054
Si   14.25638   8.82538   6.10987   0.000000000022298   0.000008390621721   0.000000000035432
Si   15.61412   7.46762   7.46762  -0.000006054896790  -0.000006054873115  -0.000006037961037
Si   15.61412  10.18313  10.18313  -0.000008390574275   0.000000000029629   0.000000000036203
Si   12.89863   7.46762  10.18313   0.000002760075030  -0.000002760073269   0.000000194048852
Si   12.89863  10.18313   7.46762   0.000002774822596   0.000000198705020  -0.000002771141444
Si   11.54087   6.10987  11.54087  -0.000002774891757   0.000000198710252  -0.000002771109551
Si   14.25638   6.10987  14.25638   0.000000000029857   0.000000000000340  -0.000000000020812
Si   11.54087   8.82538  14.25638  -0.000002760009332   0.000002760100656  -0.000000194172156
Si   14.25638   8.82538  11.54087  -0.000000198780529   0.000002774770471  -0.000002771129421
Si   15.61412   7.46762  12.89863  -0.000004929268046  -0.000004929203394   0.000004933305436
Si   15.61412  10.18313  15.61412  -0.000002774900313  -0.000000198703668  -0.000002771141552
Si   12.89863   7.46762  15.61412   0.000004929173584  -0.000004929185479  -0.000004933332335
Si   12.89863  10.18313  12.89863   0.000002774848394  -0.000000198722592   0.000002771155550
Si   11.54087  11.54087   0.67888  -0.000006054918858  -0.000006054916252   0.000006037946417
Si   14.25638  11.54087   3.39437   0.000000198785316  -0.000002774887690  -0.000002771122766
Si   11.54087  14.25638   3.39437  -0.000002774842239   0.000000198727175  -0.000002771121102
Si   14.25638  14.25638   0.67888   0.000000000040586   0.000000000058829   0.000008395830741
Si   15.61412  12.89863   2.03662  -0.000002760060391   0.000002760020735   0.000000194054920
Si   15.61412  15.61412   4.75213  -0.000004929187377  -0.000004929102726   0.000004933361593
Si   12.89863  12.89863   4.75213   0.000004929145501   0.000004929259065   0.000004933367702
Si   12.89863  15.61412   2.03662   0.000002760071410  -0.000002759995084   0.000000194126728
Si   11.54087  11.54087   6.10987  -0.000002759976320  -0.000002759968058   0.000000194007845
Si   14.25638  11.54087   8.82538  -0.000000198709661  -0.000002774882468   0.000002771065130
Si   11.54087  14.25638   8.82538  -0.000002774855432  -0.000000198678392   0.000002771102320
Si   14.25638  14.25638   6.10987   0.000000000025512  -0.000000000016355   0.000000000029274
Si   15.61412  12.89863   7.46762  -0.000004929196349   0.000004929107096  -0.000004933310390
Si   15.61412  15.61412  10.18313  -0.000002760102199  -0.000002760075990  -0.000000194124474
Si   12.89863  12.89863  10.18313   0.000002760024173   0.000002760023333  -0.000000194080924
Si   12.89863  15.61412   7.46762   0.000004929162739  -0.000004929131828  -0.000004933362969
Si   11.54087  11.54087  11.54087  -0.000004929096227  -0.000004929126952  -0.000004933351959
Si   14.25638  11.54087  14.25638   0.000000000011444  -0.000008390629407  -0.000000000019125
Si   11.54087  14.25638  14.25638  -0.000008390545585  -0.000000000011902  -0.000000000055901
Si   14.25638  14.25638  11.54087   0.000000000048786  -0.000000000001700  -0.000008395650934
Si   15.61412  12.89863  12.89863  -0.000006054925591   0.000006054861579   0.000006038002996
Si   15.61412  15.61412  15.61412  -0.000006054908454  -0.000006054935652  -0.000006037963923
Si   12.89863  12.89863  15.61412   0.000006054919204   0.000006054961243  -0.000006038053142
Si   12.89863  15.61412  12.89863   0.000006054889375  -0.000006054805018   0.000006037998655
