216 

Si    0.67888   0.67888   0.67888   0.000009230650275   0.000009230650307   0.000009212822720
Si    3.39437   0.67888   3.39437  -0.000009230650379   0.000009230650394  -0.000009212822835
Si    0.67888   3.39437   3.39437   0.000009230650289  -0.000009230650294  -0.000009212822721
Si    3.39437   3.39437   0.67888  -0.000009230650361  -0.000009230650397   0.000009212822835
Si    4.75213   2.03662   2.03662   0.000007339841088   0.000000000000009  -0.000000000000012
Si    4.75213   4.75213   4.75213   0.000008381558099   0.000008381558237   0.000008385471889
Si    2.03662   2.03662   4.75213  -0.000000000000069   0.000000000000143   0.000007347272522
Si    2.03662   4.75213   2.03662  -0.000000000000062   0.000007339841067   0.000000000000143
Si    0.67888   0.67888   6.10987   0.000003092513373   0.000003092513566   0.000000875645283
Si    3.39437   0.67888   8.82538  -0.000008381558261   0.000008381558271   0.000008385471866
Si    0.67888   3.39437   8.82538   0.000008381558132  -0.000008381558102   0.000008385471749
Si    3.39437   3.39437   6.10987  -0.000003092513519  -0.000003092513317   0.000000875645288
Si    4.75213   2.03662   7.46762   0.000003110689310   0.000000880662749  -0.000003106557877
Si    4.75213   4.75213  10.18313   0.000003092513385   0.000003092513443  -0.000000875645429
Si    2.03662   2.03662  10.18313  -0.000000000000047   0.000000000000023   0.000000000000010
Si    2.03662   4.75213   7.46762   0.000000880662562   0.000003110689450  -0.000003106557946
Si    0.67888   0.67888  11.54087   0.000008381558138   0.000008381558164  -0.000008385471754
Si    3.39437   0.67888  14.25638  -0.000003092513501   0.000003092513350  -0.000000875645295
Si    0.67888   3.39437  14.25638   0.000003092513365  -0.000003092513563  -0.000000875645300
Si    3.39437   3.39437  11.54087  -0.000008381558260  -0.000008381558259  -0.000008385471877
Si    4.75213   2.03662  12.89863   0.000003110689326  -0.000000880662712   0.000003106557885
Si    4.75213   4.75213  15.61412   0.000009230650256   0.000009230650191  -0.000009212822701
Si    2.03662   2.03662  15.61412  -0.000000000000064  -0.000000000000111  -0.000007347272516
Si    2.03662   4.75213  12.89863  -0.000000880662672   0.000003110689311   0.000003106557813
Si    0.67888   6.10987   0.67888   0.000003110689316   0.000000880662542   0.000003106557961
Si    3.39437   6.10987   3.39437  -0.000003110689419   0.000000880662537  -0.000003106557729
Si    0.67888   8.82538   3.39437   0.000008381558112   0.000008381558093  -0.000008385471702
Si    3.39437   8.82538   0.67888  -0.000008381558221   0.000008381558202   0.000008385471890
Si    4.75213   7.46762   2.03662   0.000003092513413  -0.000003092513497   0.000000875645439
Si    4.75213  10.18313   4.75213   0.000003110689339  -0.000000880662742   0.000003106557920
Si    2.03662   7.46762   4.75213   0.000000880662576  -0.000003110689490   0.000003106557989
Si    2.03662  10.18313   2.03662  -0.000000000000044  -0.000000000000009   0.000000000000056
Si    0.67888   6.10987   6.10987   0.000007339841094  -0.000000000000019   0.000000000000025
Si    3.39437   6.10987   8.82538  -0.000003110689440  -0.000000880662608   0.000003106557739
Si    0.67888   8.82538   8.82538   0.000009230650289   0.000009230650233   0.000009212822696
Si    3.39437   8.82538   6.10987  -0.000003092513503   0.000003092513287  -0.000000875645251
Si    4.75213   7.46762   7.46762   0.000008381558080  -0.000008381558249  -0.000008385471874
Si    4.75213  10.18313  10.18313   0.000007339841066  -0.000000000000016  -0.000000000000046
Si    2.03662   7.46762  10.18313  -0.000000000000057  -0.000007339841148  -0.000000000000162
Si    2.03662  10.18313   7.46762  -0.000000000000062  -0.000000000000145  -0.000007347272519
Si    0.67888   6.10987  11.54087   0.000003110689315  -0.000000880662642  -0.000003106557986
Si    3.39437   6.10987  14.25638  -0.000007339841215  -0.000000000000065  -0.000000000000028
Si    0.67888   8.82538  14.25638   0.000003092513374   0.000003092513484   0.000000875645267
Si    3.39437   8.82538  11.54087  -0.000009230650381   0.000009230650336  -0.000009212822882
Si    4.75213   7.46762  12.89863   0.000009230650262  -0.000009230650303   0.000009212822676
Si    4.75213  10.18313  15.61412   0.000003110689349   0.000000880662717  -0.000003106557873
Si    2.03662   7.46762  15.61412  -0.000000880662669  -0.000003110689412  -0.000003106557841
Si    2.03662  10.18313  12.89863  -0.000000000000066   0.000000000000096   0.000007347272471
Si    0.67888  11.54087   0.67888   0.000008381558112  -0.000008381558101   0.000008385471768
Si    3.39437  11.54087   3.39437  -0.000008381558233  -0.000008381558224  -0.000008385471843
Si    0.67888  14.25638   3.39437   0.000003110689292  -0.000000880662545  -0.000003106557943
Si    3.39437  14.25638   0.67888  -0.000003110689410  -0.000000880662542   0.000003106557751
Si    4.75213  12.89863   2.03662   0.000003092513435   0.000003092513497  -0.000000875645393
Si    4.75213  15.61412   4.75213   0.000009230650253  -0.000009230650213   0.000009212822704
Si    2.03662  12.89863   4.75213  -0.000000880662675   0.000003110689354   0.000003106557861
Si    2.03662  15.61412   2.03662  -0.000000000000046  -0.000007339841058  -0.000000000000105
Si    0.67888  11.54087   6.10987   0.000003092513368  -0.000003092513541  -0.000000875645268
Si    3.39437  11.54087   8.82538  -0.000009230650367  -0.000009230650376   0.000009212822805
Si    0.67888  14.25638   8.82538   0.000003110689313   0.000000880662624   0.000003106557945
Si    3.39437  14.25638   6.10987  -0.000007339841226   0.000000000000017  -0.000000000000009
Si    4.75213  12.89863   7.46762   0.000009230650250   0.000009230650242  -0.000009212822696
Si    4.75213  15.61412  10.18313   0.000003092513373  -0.000003092513420   0.000000875645422
Si    2.03662  12.89863  10.18313  -0.000000000000060   0.000007339841116   0.000000000000090
Si    2.03662  15.61412   7.46762  -0.000000880662671  -0.000003110689318  -0.000003106557838
Si    0.67888  11.54087  11.54087   0.000009230650284  -0.000009230650266  -0.000009212822769
Si    3.39437  11.54087  14.25638  -0.000003092513494  -0.000003092513292   0.000000875645263
Si    0.67888  14.25638  14.25638   0.000007339841088   0.000000000000070  -0.000000000000010
Si    3.39437  14.25638  11.54087  -0.000003110689423   0.000000880662632  -0.000003106557761
Si    4.75213  12.89863  12.89863   0.000008381558110   0.000008381558285   0.000008385471856
Si    4.75213  15.61412  15.61412   0.000008381558123  -0.000008381558173  -0.000008385471865
Si    2.03662  12.89863  15.61412   0.000000880662586   0.000003110689500  -0.000003106557952
Si    2.03662  15.61412  12.89863   0.000000880662568  -0.000003110689392   0.000003106557941
Si    6.10987   0.67888   0.67888   0.000000880662621   0.000003110689366   0.000003106557850
Si    8.82538   0.67888   3.39437   0.000008381558167   0.000008381558299  -0.000008385471952
Si    6.10987   3.39437   3.39437   0.000000880662612  -0.000003110689363  -0.000003106557860
Si    8.82538   3.39437   0.67888   0.000008381558152  -0.000008381558315   0.000008385471921
Si   10.18313   2.03662   2.03662  -0.000000000000121   0.000000000000002  -0.000000000000010
Si   10.18313   4.75213   4.75213  -0.000000880662663   0.000003110689388   0.000003106557869
Si    7.46762   2.03662   4.75213  -0.000003110689435   0.000000880662745   0.000003106557784
Si    7.46762   4.75213   2.03662  -0.000003092513496   0.000003092513373   0.000000875645415
Si    6.10987   0.67888   6.10987  -0.000000000000066   0.000007339841265  -0.000000000000048
Si    8.82538   0.67888   8.82538   0.000009230650227   0.000009230650373   0.000009212822830
Si    6.10987   3.39437   8.82538  -0.000000880662698  -0.000003110689308   0.000003106557822
Si    8.82538   3.39437   6.10987   0.000003092513398  -0.000003092513348  -0.000000875645364
Si   10.18313   2.03662   7.46762  -0.000000000000027   0.000000000000139  -0.000007347272580
Si   10.18313   4.75213  10.18313  -0.000000000000031   0.000007339841153  -0.000000000000105
Si    7.46762   2.03662  10.18313  -0.000007339841210   0.000000000000014   0.000000000000020
Si    7.46762   4.75213   7.46762  -0.000008381558257   0.000008381558249  -0.000008385471877
Si    6.10987   0.67888  11.54087  -0.000000880662684   0.000003110689362  -0.000003106557799
Si    8.82538   0.67888  14.25638   0.000003092513400   0.000003092513384   0.000000875645359
Si    6.10987   3.39437  14.25638  -0.000000000000046  -0.000007339841266   0.000000000000027
Si    8.82538   3.39437  11.54087   0.000009230650235  -0.000009230650384  -0.000009212822798
Si   10.18313   2.03662  12.89863  -0.000000000000037  -0.000000000000101   0.000007347272592
Si   10.18313   4.75213  15.61412   0.000000880662595   0.000003110689258  -0.000003106557767
Si    7.46762   2.03662  15.61412  -0.000003110689425  -0.000000880662710  -0.000003106557799
Si    7.46762   4.75213  12.89863  -0.000009230650399   0.000009230650218   0.000009212822715
Si    6.10987   6.10987   0.67888  -0.000000000000026  -0.000000000000086   0.000007347272667
Si    8.82538   6.10987   3.39437   0.000003110689344  -0.000000880662693  -0.000003106557788
Si    6.10987   8.82538   3.39437  -0.000000880662674   0.000003110689289  -0.000003106557790
Si    8.82538   8.82538   0.67888   0.000009230650229   0.000009230650338   0.000009212822854
Si   10.18313   7.46762   2.03662  -0.000000000000041  -0.000007339841201   0.000000000000114
Si   10.18313  10.18313   4.75213  -0.000000000000046  -0.000000000000126   0.000007347272570
Si    7.46762   7.46762   4.75213  -0.000008381558240  -0.000008381558258   0.000008385471881
Si    7.46762  10.18313   2.03662  -0.000007339841173   0.000000000000001   0.000000000000021
Si    6.10987   6.10987   6.10987  -0.000000000000099  -0.000000000000030   0.000000000000005
Si    8.82538   6.10987   8.82538   0.000003110689321   0.000000880662638   0.000003106557771
Si    6.10987   8.82538   8.82538   0.000000880662576   0.000003110689312   0.000003106557820
Si    8.82538   8.82538   6.10987   0.000003092513408   0.000003092513333   0.000000875645340
Si   10.18313   7.46762   7.46762  -0.000000880662648  -0.000003110689413  -0.000003106557900
Si   10.18313  10.18313  10.18313  -0.000000000000103  -0.000000000000010  -0.000000000000028
Si    7.46762   7.46762  10.18313  -0.000003092513511  -0.000003092513411  -0.000000875645450
Si    7.46762  10.18313   7.46762  -0.000003110689428  -0.000000880662747  -0.000003106557816
Si    6.10987   6.10987  11.54087  -0.000000000000086  -0.000000000000014  -0.000007347272669
Si    8.82538   6.10987  14.25638   0.000007339841082  -0.000000000000052   0.000000000000019
Si    6.10987   8.82538  14.25638  -0.000000000000056   0.000007339841217  -0.000000000000022
Si    8.82538   8.82538  11.54087   0.000008381558141   0.000008381558256  -0.000008385471949
Si   10.18313   7.46762  12.89863   0.000000880662607  -0.000003110689328   0.000003106557780
Si   10.18313  10.18313  15.61412  -0.000000000000047   0.000000000000110  -0.000007347272534
Si    7.46762   7.46762  15.61412  -0.000009230650368  -0.000009230650301  -0.000009212822680
Si    7.46762  10.18313  12.89863  -0.000003110689424   0.000000880662715   0.000003106557808
Si    6.10987  11.54087   0.67888  -0.000000880662648  -0.000003110689293   0.000003106557835
Si    8.82538  11.54087   3.39437   0.000009230650253  -0.000009230650360  -0.000009212822831
Si    6.10987  14.25638   3.39437  -0.000000000000043   0.000000000000057  -0.000007347272661
Si    8.82538  14.25638   0.67888   0.000003110689325   0.000000880662689   0.000003106557794
Si   10.18313  12.89863   2.03662  -0.000000000000036   0.000007339841196  -0.000000000000097
Si   10.18313  15.61412   4.75213   0.000000880662603  -0.000003110689262   0.000003106557748
Si    7.46762  12.89863   4.75213  -0.000009230650384   0.000009230650268   0.000009212822704
Si    7.46762  15.61412   2.03662  -0.000003092513474  -0.000003092513346  -0.000000875645421
Si    6.10987  11.54087   6.10987  -0.000000000000064  -0.000007339841256   0.000000000000015
Si    8.82538  11.54087   8.82538   0.000008381558141  -0.000008381558286   0.000008385471889
Si    6.10987  14.25638   8.82538  -0.000000000000079  -0.000000000000006   0.000007347272655
Si    8.82538  14.25638   6.10987   0.000007339841092  -0.000000000000000  -0.000000000000023
Si   10.18313  12.89863   7.46762   0.000000880662597   0.000003110689287  -0.000003106557818
Si   10.18313  15.61412  10.18313  -0.000000000000035  -0.000007339841122   0.000000000000128
Si    7.46762  12.89863  10.18313  -0.000003092513513   0.000003092513398   0.000000875645416
Si    7.46762  15.61412   7.46762  -0.000009230650403  -0.000009230650241  -0.000009212822722
Si    6.10987  11.54087  11.54087   0.000000880662605  -0.000003110689341  -0.000003106557881
Si    8.82538  11.54087  14.25638   0.000003092513407  -0.000003092513333  -0.000000875645330
Si    6.10987  14.25638  14.25638  -0.000000000000089   0.000000000000050   0.000000000000011
Si    8.82538  14.25638  11.54087   0.000003110689350  -0.000000880662611  -0.000003106557777
Si   10.18313  12.89863  12.89863  -0.000000880662668   0.000003110689442   0.000003106557901
Si   10.18313  15.61412  15.61412  -0.000000880662656  -0.000003110689352  -0.000003106557871
Si    7.46762  12.89863  15.61412  -0.000008381558215   0.000008381558292  -0.000008385471860
Si    7.46762  15.61412  12.89863  -0.000008381558246  -0.000008381558195   0.000008385471892
Si   11.54087   0.67888   0.67888  -0.000008381558228   0.000008381558177   0.000008385471792
Si   14.25638   0.67888   3.39437  -0.000000880662666   0.000003110689440  -0.000003106557922
Si   11.54087   3.39437   3.39437  -0.000008381558226  -0.000008381558167  -0.000008385471803
Si   14.25638   3.39437   0.67888  -0.000000880662666  -0.000003110689451   0.000003106557912
Si   15.61412   2.03662   2.03662  -0.000007339841192   0.000000000000021   0.000000000000004
Si   15.61412   4.75213   4.75213  -0.000009230650368   0.000009230650345   0.000009212822841
Si   12.89863   2.03662   4.75213   0.000003110689321  -0.000000880662515   0.000003106557836
Si   12.89863   4.75213   2.03662   0.000003092513370   0.000003092513388  -0.000000875645200
Si   11.54087   0.67888   6.10987  -0.000003092513454   0.000003092513551  -0.000000875645383
Si   14.25638   0.67888   8.82538   0.000000880662593   0.000003110689417   0.000003106557898
Si   11.54087   3.39437   8.82538  -0.000009230650373  -0.000009230650233   0.000009212822696
Si   14.25638   3.39437   6.10987  -0.000000000000020  -0.000007339841019  -0.000000000000031
Si   15.61412   2.03662   7.46762  -0.000003110689406  -0.000000880662505  -0.000003106557912
Si   15.61412   4.75213  10.18313  -0.000003092513468   0.000003092513457   0.000000875645211
Si   12.89863   2.03662  10.18313   0.000007339841134   0.000000000000023   0.000000000000020
Si   12.89863   4.75213   7.46762   0.000009230650290   0.000009230650390  -0.000009212822856
Si   11.54087   0.67888  11.54087  -0.000009230650372   0.000009230650256  -0.000009212822666
Si   14.25638   0.67888  14.25638  -0.000000000000040   0.000007339841058   0.000000000000020
Si   11.54087   3.39437  14.25638  -0.000003092513474  -0.000003092513585   0.000000875645380
Si   14.25638   3.39437  11.54087   0.000000880662585  -0.000003110689420  -0.000003106557894
Si   15.61412   2.03662  12.89863  -0.000003110689421   0.000000880662546   0.000003106557914
Si   15.61412   4.75213  15.61412  -0.000008381558237   0.000008381558094  -0.000008385471780
Si   12.89863   2.03662  15.61412   0.000003110689306   0.000000880662524  -0.000003106557851
Si   12.89863   4.75213  12.89863   0.000008381558189   0.000008381558130   0.000008385471796
Si   11.54087   6.10987   0.67888  -0.000003110689411  -0.000000880662711   0.000003106557983
Si   14.25638   6.10987   3.39437  -0.000000000000043  -0.000000000000048  -0.000007347272416
Si   11.54087   8.82538   3.39437  -0.000009230650396   0.000009230650227  -0.000009212822670
Si   14.25638   8.82538   0.67888   0.000000880662551   0.000003110689356   0.000003106557920
Si   15.61412   7.46762   2.03662  -0.000003092513503  -0.000003092513513  -0.000000875645183
Si   15.61412  10.18313   4.75213  -0.000003110689431   0.000000880662513   0.000003106557943
Si   12.89863   7.46762   4.75213   0.000009230650277  -0.000009230650413   0.000009212822872
Si   12.89863  10.18313   2.03662   0.000007339841099   0.000000000000004   0.000000000000034
Si   11.54087   6.10987   6.10987  -0.000007339841144  -0.000000000000018  -0.000000000000012
Si   14.25638   6.10987   8.82538  -0.000000000000015  -0.000000000000003   0.000007347272414
Si   11.54087   8.82538   8.82538  -0.000008381558232   0.000008381558134   0.000008385471764
Si   14.25638   8.82538   6.10987  -0.000000000000035   0.000007339841002   0.000000000000020
Si   15.61412   7.46762   7.46762  -0.000009230650357  -0.000009230650380  -0.000009212822817
Si   15.61412  10.18313  10.18313  -0.000007339841168  -0.000000000000011  -0.000000000000031
Si   12.89863   7.46762  10.18313   0.000003092513391  -0.000003092513455   0.000000875645186
Si   12.89863  10.18313   7.46762   0.000003110689324   0.000000880662499  -0.000003106557867
Si   11.54087   6.10987  11.54087  -0.000003110689412   0.000000880662621  -0.000003106557997
Si   14.25638   6.10987  14.25638  -0.000000000000051  -0.000000000000073  -0.000000000000000
Si   11.54087   8.82538  14.25638  -0.000003092513487   0.000003092513517  -0.000000875645340
Si   14.25638   8.82538  11.54087  -0.000000880662639   0.000003110689385  -0.000003106557958
Si   15.61412   7.46762  12.89863  -0.000008381558223  -0.000008381558196   0.000008385471739
Si   15.61412  10.18313  15.61412  -0.000003110689446  -0.000000880662522  -0.000003106557891
Si   12.89863   7.46762  15.61412   0.000008381558160  -0.000008381558208  -0.000008385471784
Si   12.89863  10.18313  12.89863   0.000003110689317  -0.000000880662530   0.000003106557841
Si   11.54087  11.54087   0.67888  -0.000009230650391  -0.000009230650219   0.000009212822711
Si   14.25638  11.54087   3.39437   0.000000880662541  -0.000003110689389  -0.000003106557870
Si   11.54087  14.25638   3.39437  -0.000003110689409   0.000000880662682  -0.000003106557983
Si   14.25638  14.25638   0.67888  -0.000000000000077   0.000000000000074   0.000007347272446
Si   15.61412  12.89863   2.03662  -0.000003092513498   0.000003092513506   0.000000875645255
Si   15.61412  15.61412   4.75213  -0.000008381558232  -0.000008381558119   0.000008385471774
Si   12.89863  12.89863   4.75213   0.000008381558185   0.000008381558185   0.000008385471797
Si   12.89863  15.61412   2.03662   0.000003092513364  -0.000003092513382   0.000000875645219
Si   11.54087  11.54087   6.10987  -0.000003092513464  -0.000003092513536   0.000000875645344
Si   14.25638  11.54087   8.82538  -0.000000880662635  -0.000003110689427   0.000003106557883
Si   11.54087  14.25638   8.82538  -0.000003110689371  -0.000000880662650   0.000003106557955
Si   14.25638  14.25638   6.10987  -0.000000000000056   0.000000000000008  -0.000000000000009
Si   15.61412  12.89863   7.46762  -0.000008381558231   0.000008381558152  -0.000008385471786
Si   15.61412  15.61412  10.18313  -0.000003092513480  -0.000003092513436  -0.000000875645211
Si   12.89863  12.89863  10.18313   0.000003092513389   0.000003092513449  -0.000000875645240
Si   12.89863  15.61412   7.46762   0.000008381558177  -0.000008381558148  -0.000008385471823
Si   11.54087  11.54087  11.54087  -0.000008381558221  -0.000008381558163  -0.000008385471799
Si   14.25638  11.54087  14.25638  -0.000000000000057  -0.000007339841014  -0.000000000000021
Si   11.54087  14.25638  14.25638  -0.000007339841167   0.000000000000056   0.000000000000025
Si   14.25638  14.25638  11.54087  -0.000000000000035   0.000000000000030  -0.000007347272428
Si   15.61412  12.89863  12.89863  -0.000009230650375   0.000009230650400   0.000009212822789
Si   15.61412  15.61412  15.61412  -0.000009230650380  -0.000009230650294  -0.000009212822814
Si   12.89863  12.89863  15.61412   0.000009230650256   0.000009230650440  -0.000009212822820
Si   12.89863  15.61412  12.89863   0.000009230650271  -0.000009230650337   0.000009212822854
