512 

Si    0.67887   0.67888   0.67887   0.000000287808459   0.000000287808686   0.000000281666657
Si    3.39437   0.67888   3.39437  -0.000000301263185   0.000008739305174  -0.000000300153432
Si    0.67887   3.39438   3.39437   0.000008739305468  -0.000000301263242  -0.000000300153400
Si    3.39437   3.39438   0.67887  -0.000000304034814  -0.000000304034855   0.000008743777992
Si    4.75212   2.03662   2.03662   0.000006174500918  -0.000004995985925  -0.000004988096449
Si    4.75212   4.75212   4.75212  -0.000001386600191  -0.000001386600287  -0.000001396098211
Si    2.03662   2.03662   4.75212  -0.000005003844618  -0.000005003844542   0.000006163763512
Si    2.03662   4.75212   2.03662  -0.000004995986030   0.000006174500716  -0.000004988096403
Si    0.67887   0.67888   6.10987  -0.000003885457117  -0.000003885456806   0.000006583521502
Si    3.39437   0.67888   8.82537  -0.000000014672177   0.000003014233992  -0.000002137413603
Si    0.67887   3.39438   8.82537   0.000003014234000  -0.000000014672029  -0.000002137413587
Si    3.39437   3.39438   6.10987   0.000000077412604   0.000000077412473   0.000004295589170
Si    4.75212   2.03662   7.46762   0.000001799745462   0.000008992283804  -0.000003068043300
Si    4.75212   4.75212  10.18313  -0.000002301509910  -0.000002301510318   0.000007467469349
Si    2.03662   2.03662  10.18313  -0.000001858938757  -0.000001858938821   0.000005185788297
Si    2.03662   4.75212   7.46762   0.000008992283576   0.000001799745269  -0.000003068043104
Si    0.67887   0.67888  11.54087   0.000001773573600   0.000001773573833   0.000004589255485
Si    3.39437   0.67888  14.25638   0.000001378993981   0.000004542293169   0.000000848716666
Si    0.67887   3.39438  14.25638   0.000004542293440   0.000001378994512   0.000000848716644
Si    3.39437   3.39438  11.54087   0.000004014460356   0.000004014460213  -0.000005766520372
Si    4.75212   2.03662  12.89862  -0.000003103308388  -0.000003493725367   0.000002217016565
Si    4.75212   4.75212  15.61412  -0.000000438578134  -0.000000438578460   0.000000624127789
Si    2.03662   2.03662  15.61412   0.000002688290944   0.000002688290667  -0.000006644932807
Si    2.03662   4.75212  12.89862  -0.000003493725469  -0.000003103308281   0.000002217016997
Si    0.67887   0.67888  16.97187  -0.000000480289731  -0.000000480289774   0.000001530405880
Si    3.39437   0.67888  19.68737  -0.000004818928095  -0.000001247321636  -0.000001210064232
Si    0.67887   3.39438  19.68737  -0.000001247321867  -0.000004818927975  -0.000001210064111
Si    3.39437   3.39438  16.97187   0.000000597311385   0.000000597311353  -0.000003536488508
Si    4.75212   2.03662  18.32963   0.000000696128144   0.000004149219634   0.000000658568680
Si    4.75212   4.75212  21.04512   0.000002607025230   0.000002607025169  -0.000003464472203
Si    2.03662   2.03662  21.04512  -0.000001560472250  -0.000001560472587  -0.000000008247980
Si    2.03662   4.75212  18.32963   0.000004149219735   0.000000696128132   0.000000658568775
Si    0.67887   6.10987   0.67887  -0.000003879275046   0.000006574811579  -0.000003883715184
Si    3.39437   6.10987   3.39437   0.000000069615081   0.000004299459360   0.000000070298352
Si    0.67887   8.82537   3.39437   0.000003010564785  -0.000002139964397  -0.000000005248829
Si    3.39437   8.82537   0.67887  -0.000000006594785  -0.000002134188890   0.000003014889529
Si    4.75212   7.46762   2.03662   0.000001801216245  -0.000003075033313   0.000008988045146
Si    4.75212  10.18313   4.75212  -0.000002299188460   0.000007474100849  -0.000002298794145
Si    2.03662   7.46762   4.75212   0.000008983357894  -0.000003080446857   0.000001799139602
Si    2.03662  10.18313   2.03662  -0.000001870145160   0.000005192123345  -0.000001868898568
Si    0.67887   6.10987   6.10987   0.000001069259793   0.000001180358777   0.000001176284753
Si    3.39437   6.10987   8.82537   0.000005750475200   0.000002243596339   0.000004212394692
Si    0.67887   8.82537   8.82537   0.000000526227566   0.000000591009191   0.000000596678726
Si    3.39437   8.82537   6.10987   0.000005744666267   0.000004214112816   0.000002246765255
Si    4.75212   7.46762   7.46762   0.000000162035678   0.000001757191355   0.000001753506360
Si    4.75212  10.18313  10.18313  -0.000002452195367  -0.000003028953222  -0.000003017679308
Si    2.03662   7.46762  10.18313   0.000002000153264   0.000004857496394  -0.000002432710020
Si    2.03662  10.18313   7.46762   0.000002006374707  -0.000002428406938   0.000004851916420
Si    0.67887   6.10987  11.54087   0.000004688431769  -0.000001695882670  -0.000002388499669
Si    3.39437   6.10987  14.25638  -0.000004054288891   0.000002169619702   0.000005257551514
Si    0.67887   8.82537  14.25638  -0.000001687814502  -0.000000894471117   0.000003040894536
Si    3.39437   8.82537  11.54087  -0.000001175238198  -0.000001146145429  -0.000007856363124
Si    4.75212   7.46762  12.89862   0.000001291427776   0.000006436214620   0.000003267969886
Si    4.75212  10.18313  15.61412  -0.000003341589949   0.000000876737038  -0.000003805673272
Si    2.03662   7.46762  15.61412  -0.000002804803388  -0.000000097438738  -0.000001228406880
Si    2.03662  10.18313  12.89862  -0.000002199332364  -0.000003101142619   0.000000562212937
Si    0.67887   6.10987  16.97187   0.000003741839601   0.000000294761653  -0.000000110576605
Si    3.39437   6.10987  19.68737   0.000000604138818  -0.000004495362169   0.000005005132392
Si    0.67887   8.82537  19.68737  -0.000002825876367   0.000003287519915   0.000000455097202
Si    3.39437   8.82537  16.97187   0.000000634347616  -0.000001562590574   0.000001075704173
Si    4.75212   7.46762  18.32963  -0.000000088563707  -0.000003257387099  -0.000001623808618
Si    4.75212  10.18313  21.04512   0.000005518893139   0.000005002128125  -0.000005117716888
Si    2.03662   7.46762  21.04512  -0.000006184439459  -0.000005164156473   0.000002242701414
Si    2.03662  10.18313  18.32963   0.000002237127185   0.000003226579494  -0.000000141090260
Si    0.67887  11.54087   0.67887   0.000001766742370   0.000004589140933   0.000001764329901
Si    3.39437  11.54087   3.39437   0.000004011768218  -0.000005765393189   0.000004015036222
Si    0.67887  14.25638   3.39437   0.000004540204302   0.000000848668232   0.000001378265903
Si    3.39437  14.25638   0.67887   0.000001379259314   0.000000847394007   0.000004539728318
Si    4.75212  12.89862   2.03662  -0.000003103513687   0.000002211657231  -0.000003492437028
Si    4.75212  15.61412   4.75212  -0.000000438173187   0.000000635131714  -0.000000429863201
Si    2.03662  12.89862   4.75212  -0.000003482956260   0.000002208045482  -0.000003097708024
Si    2.03662  15.61412   2.03662   0.000002693788701  -0.000006638789226   0.000002684260829
Si    0.67887  11.54087   6.10987   0.000004696314418  -0.000002386548413  -0.000001708059310
Si    3.39437  11.54087   8.82537  -0.000001177344245  -0.000007858399086  -0.000001145573647
Si    0.67887  14.25638   8.82537  -0.000001687189330   0.000003037767878  -0.000000897483993
Si    3.39437  14.25638   6.10987  -0.000004054162977   0.000005258236179   0.000002174633231
Si    4.75212  12.89862   7.46762   0.000001291086545   0.000003259539331   0.000006433742425
Si    4.75212  15.61412  10.18313  -0.000003331972804  -0.000003820414395   0.000000879583914
Si    2.03662  12.89862  10.18313  -0.000002212137485   0.000000577549864  -0.000003092289039
Si    2.03662  15.61412   7.46762  -0.000002803893161  -0.000001223541012  -0.000000101133475
Si    0.67887  11.54087  11.54087   0.000004552464354  -0.000003631303330  -0.000003632511146
Si    3.39437  11.54087  14.25638  -0.000004757282361   0.000006692424652  -0.000002435046511
Si    0.67887  14.25638  14.25638   0.000000519451280   0.000001641159472   0.000001644447502
Si    3.39437  14.25638  11.54087  -0.000004762692398  -0.000002431987293   0.000006693379374
Si    4.75212  12.89862  12.89862   0.000000018105954  -0.000001761130875  -0.000001764794269
Si    4.75212  15.61412  15.61412   0.000000292610227  -0.000001615084661  -0.000001616540238
Si    2.03662  12.89862  15.61412   0.000007187426573   0.000000515939391  -0.000000602577506
Si    2.03662  15.61412  12.89862   0.000007179691916  -0.000000609427041   0.000000516033589
Si    0.67887  11.54087  16.97187   0.000005125107090  -0.000004997686445  -0.000005524891200
Si    3.39437  11.54087  19.68737   0.000000133769557  -0.000003226442752  -0.000002242213992
Si    0.67887  14.25638  19.68737  -0.000002253177091   0.000005173683910   0.000006187624248
Si    3.39437  14.25638  16.97187   0.000001622618730   0.000003255841172   0.000000092999056
Si    4.75212  12.89862  18.32963  -0.000001073965056   0.000001568311987  -0.000000646409541
Si    4.75212  15.61412  21.04512   0.000000109971677  -0.000000300002072  -0.000003730984165
Si    2.03662  12.89862  21.04512  -0.000000453063654  -0.000003288480816   0.000002835755410
Si    2.03662  15.61412  18.32963  -0.000005010410355   0.000004495499449  -0.000000615379113
Si    0.67887  16.97187   0.67887  -0.000000465026715   0.000001535557953  -0.000000466705672
Si    3.39437  16.97187   3.39437   0.000000594193725  -0.000003535339959   0.000000600018521
Si    0.67887  19.68737   3.39437  -0.000001252996706  -0.000001213756504  -0.000004828715004
Si    3.39437  19.68737   0.67887  -0.000004824507732  -0.000001213738086  -0.000001249864264
Si    4.75212  18.32963   2.03662   0.000000710484329   0.000000649684400   0.000004144302538
Si    4.75212  21.04512   4.75212   0.000002615342405  -0.000003452270045   0.000002605070679
Si    2.03662  18.32963   4.75212   0.000004143343356   0.000000651453387   0.000000701832253
Si    2.03662  21.04512   2.03662  -0.000001574993152  -0.000000004057469  -0.000001562199097
Si    0.67887  16.97187   6.10987   0.000003735153070  -0.000000107938368   0.000000302273998
Si    3.39437  16.97187   8.82537   0.000000636155514   0.000001076968986  -0.000001558167126
Si    0.67887  19.68737   8.82537  -0.000002831996736   0.000000453331020   0.000003282222339
Si    3.39437  19.68737   6.10987   0.000000614798920   0.000005002542766  -0.000004499684331
Si    4.75212  18.32963   7.46762  -0.000000099235427  -0.000001630970477  -0.000003258291371
Si    4.75212  21.04512  10.18313   0.000005522460485  -0.000005124090590   0.000004994657927
Si    2.03662  18.32963  10.18313   0.000002236874024  -0.000000130315954   0.000003228353316
Si    2.03662  21.04512   7.46762  -0.000006180307789   0.000002239088467  -0.000005167260867
Si    0.67887  16.97187  11.54087   0.000005124090501  -0.000005522460151  -0.000004994657711
Si    3.39437  16.97187  14.25638   0.000001630970584   0.000000099235235   0.000003258291107
Si    0.67887  19.68737  14.25638  -0.000002239088680   0.000006180308101   0.000005167260874
Si    3.39437  19.68737  11.54087   0.000000130315928  -0.000002236874080  -0.000003228353582
Si    4.75212  18.32963  12.89862  -0.000001076969034  -0.000000636155220   0.000001558167238
Si    4.75212  21.04512  15.61412   0.000000107938645  -0.000003735153133  -0.000000302273982
Si    2.03662  18.32963  15.61412  -0.000005002542987  -0.000000614798850   0.000004499684393
Si    2.03662  21.04512  12.89862  -0.000000453330762   0.000002831996854  -0.000003282222157
Si    0.67887  16.97187  16.97187   0.000003452269951  -0.000002615342268  -0.000002605070771
Si    3.39437  16.97187  19.68737  -0.000000649684353  -0.000000710484453  -0.000004144302614
Si    0.67887  19.68737  19.68737   0.000000004057350   0.000001574993053   0.000001562199090
Si    3.39437  19.68737  16.97187  -0.000000651453306  -0.000004143343082  -0.000000701832380
Si    4.75212  18.32963  18.32963   0.000003535340196  -0.000000594193766  -0.000000600018411
Si    4.75212  21.04512  21.04512  -0.000001535557877   0.000000465026933   0.000000466705797
Si    2.03662  18.32963  21.04512   0.000001213737849   0.000004824507721   0.000001249864350
Si    2.03662  21.04512  18.32963   0.000001213756790   0.000001252996797   0.000004828715209
Si    6.10988   0.67888   0.67887   0.000006574811704  -0.000003879275042  -0.000003883714982
Si    8.82537   0.67888   3.39437  -0.000002139964337   0.000003010564886  -0.000000005248975
Si    6.10988   3.39438   3.39437   0.000004299459270   0.000000069614995   0.000000070298139
Si    8.82537   3.39438   0.67887  -0.000002134188667  -0.000000006594940   0.000003014889968
Si   10.18313   2.03662   2.03662   0.000005192123205  -0.000001870145241  -0.000001868898645
Si   10.18313   4.75212   4.75212   0.000007474101146  -0.000002299188774  -0.000002298794313
Si    7.46762   2.03662   4.75212  -0.000003080446964   0.000008983357807   0.000001799139680
Si    7.46762   4.75212   2.03662  -0.000003075033301   0.000001801216413   0.000008988045148
Si    6.10988   0.67888   6.10987   0.000001180358831   0.000001069260034   0.000001176284729
Si    8.82537   0.67888   8.82537   0.000000591009364   0.000000526227450   0.000000596678676
Si    6.10988   3.39438   8.82537   0.000002243596212   0.000005750475256   0.000004212394754
Si    8.82537   3.39438   6.10987   0.000004214112981   0.000005744666103   0.000002246765347
Si   10.18313   2.03662   7.46762  -0.000002428406843   0.000002006374666   0.000004851916278
Si   10.18313   4.75212  10.18313  -0.000003028953259  -0.000002452195720  -0.000003017679455
Si    7.46762   2.03662  10.18313   0.000004857496446   0.000002000153582  -0.000002432710082
Si    7.46762   4.75212   7.46762   0.000001757191415   0.000000162035668   0.000001753506529
Si    6.10988   0.67888  11.54087  -0.000001695882785   0.000004688431684  -0.000002388499577
Si    8.82537   0.67888  14.25638  -0.000000894471223  -0.000001687814515   0.000003040894356
Si    6.10988   3.39438  14.25638   0.000002169619914  -0.000004054288672   0.000005257551593
Si    8.82537   3.39438  11.54087  -0.000001146145029  -0.000001175238446  -0.000007856363072
Si   10.18313   2.03662  12.89862  -0.000003101142873  -0.000002199332324   0.000000562212722
Si   10.18313   4.75212  15.61412   0.000000876737060  -0.000003341590164  -0.000003805673164
Si    7.46762   2.03662  15.61412  -0.000000097438614  -0.000002804803238  -0.000001228406534
Si    7.46762   4.75212  12.89862   0.000006436214782   0.000001291427709   0.000003267970161
Si    6.10988   0.67888  16.97187   0.000000294761584   0.000003741839483  -0.000000110576549
Si    8.82537   0.67888  19.68737   0.000003287519723  -0.000002825875820   0.000000455097070
Si    6.10988   3.39438  19.68737  -0.000004495362384   0.000000604138726   0.000005005132293
Si    8.82537   3.39438  16.97187  -0.000001562590550   0.000000634347476   0.000001075703958
Si   10.18313   2.03662  18.32963   0.000003226579285   0.000002237127047  -0.000000141090261
Si   10.18313   4.75212  21.04512   0.000005002128188   0.000005518892958  -0.000005117716795
Si    7.46762   2.03662  21.04512  -0.000005164156146  -0.000006184439602   0.000002242701138
Si    7.46762   4.75212  18.32963  -0.000003257387284  -0.000000088563985  -0.000001623808835
Si    6.10988   6.10987   0.67887   0.000001169500215   0.000001169500205   0.000001074601837
Si    8.82537   6.10987   3.39437   0.000004219983232   0.000002241881414   0.000005740288337
Si    6.10988   8.82537   3.39437   0.000002241881559   0.000004219983224   0.000005740288525
Si    8.82537   8.82537   0.67887   0.000000602636024   0.000000602636230   0.000000532436754
Si   10.18313   7.46762   2.03662  -0.000002429878216   0.000004862003767   0.000001999105243
Si   10.18313  10.18313   4.75212  -0.000003026527542  -0.000003026527753  -0.000002459826860
Si    7.46762   7.46762   4.75212   0.000001746517585   0.000001746517545   0.000000164878309
Si    7.46762  10.18313   2.03662   0.000004862004006  -0.000002429878344   0.000001999105343
Si    6.10988   6.10987   6.10987   0.000002961696947   0.000002961697269   0.000002963100083
Si    8.82537   6.10987   8.82537  -0.000001790042048   0.000000807245613  -0.000001791697888
Si    6.10988   8.82537   8.82537   0.000000807245699  -0.000001790041985  -0.000001791697855
Si    8.82537   8.82537   6.10987  -0.000001788114795  -0.000001788114925   0.000000811735703
Si   10.18313   7.46762   7.46762  -0.000003344861307  -0.000000063453567  -0.000000061696414
Si   10.18313  10.18313  10.18313  -0.000003658645260  -0.000003658645340  -0.000003660468285
Si    7.46762   7.46762  10.18313  -0.000000058081424  -0.000000058081361  -0.000003348137085
Si    7.46762  10.18313   7.46762  -0.000000063453557  -0.000003344861561  -0.000000061696244
Si    6.10988   6.10987  11.54087   0.000004695748646   0.000004695748842   0.000000405193668
Si    8.82537   6.10987  14.25638   0.000000190266207   0.000000467355498   0.000003277447980
Si    6.10988   8.82537  14.25638   0.000000467355711   0.000000190266147   0.000003277448164
Si    8.82537   8.82537  11.54087   0.000003012125154   0.000003012125078   0.000000923285375
Si   10.18313   7.46762  12.89862  -0.000000336839374   0.000003662101135   0.000004568914953
Si   10.18313  10.18313  15.61412  -0.000000862946642  -0.000000862946802  -0.000000235340672
Si    7.46762   7.46762  15.61412   0.000000548482572   0.000000548482698   0.000003155441038
Si    7.46762  10.18313  12.89862   0.000003662100985  -0.000000336839531   0.000004568915040
Si    6.10988   6.10987  16.97187   0.000001635093073   0.000001635092987  -0.000000292047455
Si    8.82537   6.10987  19.68737  -0.000000532785181   0.000000615534544  -0.000007185289446
Si    6.10988   8.82537  19.68737   0.000000615534157  -0.000000532785120  -0.000007185289587
Si    8.82537   8.82537  16.97187   0.000001746510187   0.000001746510019  -0.000000010056775
Si   10.18313   7.46762  18.32963  -0.000006698031186   0.000002429960326   0.000004760986898
Si   10.18313  10.18313  21.04512   0.000003632629896   0.000003632629827  -0.000004560108150
Si    7.46762   7.46762  21.04512  -0.000001640695033  -0.000001640695269  -0.000000510766059
Si    7.46762  10.18313  18.32963   0.000002429960280  -0.000006698031351   0.000004760987056
Si    6.10988  11.54087   0.67887  -0.000001709873135  -0.000002389963717   0.000004698392979
Si    8.82537  11.54087   3.39437  -0.000001147720914  -0.000007860713925  -0.000001184239475
Si    6.10988  14.25638   3.39437   0.000002171924297   0.000005259438291  -0.000004056066428
Si    8.82537  14.25638   0.67887  -0.000000889714209   0.000003042379550  -0.000001688446137
Si   10.18313  12.89862   2.03662  -0.000003105553697   0.000000567543200  -0.000002198434744
Si   10.18313  15.61412   4.75212   0.000000863763436  -0.000003813739278  -0.000003340390055
Si    7.46762  12.89862   4.75212   0.000006448272337   0.000003272701936   0.000001295077795
Si    7.46762  15.61412   2.03662  -0.000000091294670  -0.000001233203221  -0.000002805200440
Si    6.10988  11.54087   6.10987   0.000004703846633   0.000000398666921   0.000004706228811
Si    8.82537  11.54087   8.82537   0.000003008944884   0.000000917714251   0.000003003323738
Si    6.10988  14.25638   8.82537   0.000000475863829   0.000003284340706   0.000000182771250
Si    8.82537  14.25638   6.10987   0.000000185704698   0.000003277796066   0.000000470886395
Si   10.18313  12.89862   7.46762  -0.000000332043262   0.000004567022619   0.000003665348225
Si   10.18313  15.61412  10.18313  -0.000000861972122  -0.000000231446388  -0.000000869801508
Si    7.46762  12.89862  10.18313   0.000003652696134   0.000004574895526  -0.000000335387631
Si    7.46762  15.61412   7.46762   0.000000547845762   0.000003162488546   0.000000548905374
Si    6.10988  11.54087  11.54087   0.000000231446297   0.000000861972216   0.000000869801398
Si    8.82537  11.54087  14.25638  -0.000004567022313   0.000000332043287  -0.000003665348115
Si    6.10988  14.25638  14.25638  -0.000003162488851  -0.000000547845860  -0.000000548905256
Si    8.82537  14.25638  11.54087  -0.000004574895147  -0.000003652696179   0.000000335387465
Si   10.18313  12.89862  12.89862  -0.000000917714099  -0.000003008944883  -0.000003003323894
Si   10.18313  15.61412  15.61412  -0.000000398666778  -0.000004703846757  -0.000004706228694
Si    7.46762  12.89862  15.61412  -0.000003277796086  -0.000000185704409  -0.000000470886536
Si    7.46762  15.61412  12.89862  -0.000003284340554  -0.000000475863922  -0.000000182770969
Si    6.10988  11.54087  16.97187   0.000003813739181  -0.000000863763589   0.000003340390040
Si    8.82537  11.54087  19.68737  -0.000000567543274   0.000003105553851   0.000002198434495
Si    6.10988  14.25638  19.68737   0.000001233203058   0.000000091294988   0.000002805200431
Si    8.82537  14.25638  16.97187  -0.000003272701827  -0.000006448272348  -0.000001295077956
Si   10.18313  12.89862  18.32963   0.000007860714219   0.000001147720921   0.000001184239447
Si   10.18313  15.61412  21.04512   0.000002389963809   0.000001709873011  -0.000004698392999
Si    7.46762  12.89862  21.04512  -0.000003042379301   0.000000889714284   0.000001688446212
Si    7.46762  15.61412  18.32963  -0.000005259438159  -0.000002171924228   0.000004056066564
Si    6.10988  16.97187   0.67887   0.000000300002030  -0.000000109971453   0.000003730984036
Si    8.82537  16.97187   3.39437  -0.000001568311839   0.000001073965244   0.000000646409351
Si    6.10988  19.68737   3.39437  -0.000004495499400   0.000005010410727   0.000000615379237
Si    8.82537  19.68737   0.67887   0.000003288480728   0.000000453063546  -0.000002835755325
Si   10.18313  18.32963   2.03662   0.000003226442633  -0.000000133769825   0.000002242214088
Si   10.18313  21.04512   4.75212   0.000004997686467  -0.000005125107376   0.000005524891295
Si    7.46762  18.32963   4.75212  -0.000003255841185  -0.000001622618886  -0.000000092998965
Si    7.46762  21.04512   2.03662  -0.000005173684069   0.000002253176980  -0.000006187624267
Si    6.10988  16.97187   6.10987   0.000001615084750  -0.000000292609670   0.000001616540328
Si    8.82537  16.97187   8.82537   0.000001761130792  -0.000000018105597   0.000001764794537
Si    6.10988  19.68737   8.82537   0.000000609427153  -0.000007179691710  -0.000000516033415
Si    8.82537  19.68737   6.10987  -0.000000515939051  -0.000007187426595   0.000000602577517
Si   10.18313  18.32963   7.46762  -0.000006692424934   0.000004757282309   0.000002435046277
Si   10.18313  21.04512  10.18313   0.000003631303370  -0.000004552464504   0.000003632511031
Si    7.46762  18.32963  10.18313   0.000002431987507   0.000004762692416  -0.000006693379636
Si    7.46762  21.04512   7.46762  -0.000001641159260  -0.000000519451383  -0.000001644447239
Si    6.10988  16.97187  11.54087   0.000003820414135   0.000003331972960  -0.000000879584115
Si    8.82537  16.97187  14.25638  -0.000003259539086  -0.000001291086699  -0.000006433742684
Si    6.10988  19.68737  14.25638   0.000001223540837   0.000002803893351   0.000000101133397
Si    8.82537  19.68737  11.54087  -0.000000577549959   0.000002212137501   0.000003092289038
Si   10.18313  18.32963  12.89862   0.000007858399139   0.000001177344232   0.000001145573577
Si   10.18313  21.04512  15.61412   0.000002386548353  -0.000004696314486   0.000001708059218
Si    7.46762  18.32963  15.61412  -0.000005258235706   0.000004054163231  -0.000002174632846
Si    7.46762  21.04512  12.89862  -0.000003037767826   0.000001687189213   0.000000897484053
Si    6.10988  16.97187  16.97187  -0.000000635131939   0.000000438173141   0.000000429863069
Si    8.82537  16.97187  19.68737  -0.000002211657135   0.000003103513923   0.000003492437031
Si    6.10988  19.68737  19.68737   0.000006638789117  -0.000002693788469  -0.000002684260887
Si    8.82537  19.68737  16.97187  -0.000002208045509   0.000003482956160   0.000003097707849
Si   10.18313  18.32963  18.32963   0.000005765393370  -0.000004011768231  -0.000004015036142
Si   10.18313  21.04512  21.04512  -0.000004589140624  -0.000001766742264  -0.000001764329721
Si    7.46762  18.32963  21.04512  -0.000000847393897  -0.000001379259396  -0.000004539728070
Si    7.46762  21.04512  18.32963  -0.000000848668037  -0.000004540204205  -0.000001378265930
Si   11.54087   0.67888   0.67887   0.000004589140846   0.000001766742205   0.000001764329762
Si   14.25638   0.67888   3.39437   0.000000848668077   0.000004540204081   0.000001378265911
Si   11.54087   3.39438   3.39437  -0.000005765393164   0.000004011768613   0.000004015036179
Si   14.25638   3.39438   0.67887   0.000000847394181   0.000001379259254   0.000004539728105
Si   15.61412   2.03662   2.03662  -0.000006638789029   0.000002693788751   0.000002684260933
Si   15.61412   4.75212   4.75212   0.000000635132088  -0.000000438173154  -0.000000429862977
Si   12.89862   2.03662   4.75212   0.000002208045376  -0.000003482956291  -0.000003097708054
Si   12.89862   4.75212   2.03662   0.000002211657137  -0.000003103513691  -0.000003492436861
Si   11.54087   0.67888   6.10987  -0.000002386548527   0.000004696314155  -0.000001708059296
Si   14.25638   0.67888   8.82537   0.000003037767745  -0.000001687189439  -0.000000897483821
Si   11.54087   3.39438   8.82537  -0.000007858399255  -0.000001177343994  -0.000001145573603
Si   14.25638   3.39438   6.10987   0.000005258236225  -0.000004054163171   0.000002174632984
Si   15.61412   2.03662   7.46762  -0.000001223540656  -0.000002803893106  -0.000000101133441
Si   15.61412   4.75212  10.18313  -0.000003820414053  -0.000003331973103   0.000000879584088
Si   12.89862   2.03662  10.18313   0.000000577549952  -0.000002212137727  -0.000003092288906
Si   12.89862   4.75212   7.46762   0.000003259539259   0.000001291086695   0.000006433742821
Si   11.54087   0.67888  11.54087  -0.000003631303176   0.000004552464446  -0.000003632510986
Si   14.25638   0.67888  14.25638   0.000001641159101   0.000000519451224   0.000001644447586
Si   11.54087   3.39438  14.25638   0.000006692424876  -0.000004757282190  -0.000002435046525
Si   14.25638   3.39438  11.54087  -0.000002431987228  -0.000004762692541   0.000006693379603
Si   15.61412   2.03662  12.89862  -0.000000609427018   0.000007179692000   0.000000516033419
Si   15.61412   4.75212  15.61412  -0.000001615084690   0.000000292609886  -0.000001616540450
Si   12.89862   2.03662  15.61412   0.000000515939451   0.000007187426674  -0.000000602577471
Si   12.89862   4.75212  12.89862  -0.000001761130933   0.000000018105762  -0.000001764794396
Si   11.54087   0.67888  16.97187  -0.000004997686210   0.000005125107198  -0.000005524891244
Si   14.25638   0.67888  19.68737   0.000005173683675  -0.000002253176945   0.000006187624185
Si   11.54087   3.39438  19.68737  -0.000003226442642   0.000000133769726  -0.000002242214155
Si   14.25638   3.39438  16.97187   0.000003255841405   0.000001622618689   0.000000092999309
Si   15.61412   2.03662  18.32963   0.000004495499286  -0.000005010410282  -0.000000615379539
Si   15.61412   4.75212  21.04512  -0.000000300001763   0.000000109971305  -0.000003730984338
Si   12.89862   2.03662  21.04512  -0.000003288480591  -0.000000453063757   0.000002835755297
Si   12.89862   4.75212  18.32963   0.000001568311923  -0.000001073965399  -0.000000646409548
Si   11.54087   6.10987   0.67887  -0.000002389963805  -0.000001709872935   0.000004698392945
Si   14.25638   6.10987   3.39437   0.000005259438454   0.000002171924168  -0.000004056066696
Si   11.54087   8.82537   3.39437  -0.000007860714128  -0.000001147720703  -0.000001184239293
Si   14.25638   8.82537   0.67887   0.000003042379495  -0.000000889714399  -0.000001688446466
Si   15.61412   7.46762   2.03662  -0.000001233203281  -0.000000091294816  -0.000002805200345
Si   15.61412  10.18313   4.75212  -0.000003813738913   0.000000863763539  -0.000003340390016
Si   12.89862   7.46762   4.75212   0.000003272701815   0.000006448272272   0.000001295077936
Si   12.89862  10.18313   2.03662   0.000000567543535  -0.000003105553501  -0.000002198434493
Si   11.54087   6.10987   6.10987   0.000000398666740   0.000004703846732   0.000004706228696
Si   14.25638   6.10987   8.82537   0.000003284340759   0.000000475863805   0.000000182770931
Si   11.54087   8.82537   8.82537   0.000000917714193   0.000003008944784   0.000003003323742
Si   14.25638   8.82537   6.10987   0.000003277796075   0.000000185704804   0.000000470886427
Si   15.61412   7.46762   7.46762   0.000003162488908   0.000000547845612   0.000000548905203
Si   15.61412  10.18313  10.18313  -0.000000231446231  -0.000000861972089  -0.000000869801313
Si   12.89862   7.46762  10.18313   0.000004574895205   0.000003652696166  -0.000000335387380
Si   12.89862  10.18313   7.46762   0.000004567022689  -0.000000332043324   0.000003665348234
Si   11.54087   6.10987  11.54087   0.000000861972290   0.000000231446343   0.000000869801467
Si   14.25638   6.10987  14.25638  -0.000000547845651  -0.000003162488680  -0.000000548905098
Si   11.54087   8.82537  14.25638   0.000000332043410  -0.000004567022418  -0.000003665348019
Si   14.25638   8.82537  11.54087  -0.000003652696157  -0.000004574895471   0.000000335387479
Si   15.61412   7.46762  12.89862  -0.000000475863886  -0.000003284340693  -0.000000182770982
Si   15.61412  10.18313  15.61412  -0.000004703846547  -0.000000398666865  -0.000004706228760
Si   12.89862   7.46762  15.61412  -0.000000185704534  -0.000003277795995  -0.000000470886550
Si   12.89862  10.18313  12.89862  -0.000003008944895  -0.000000917714316  -0.000003003323751
Si   11.54087   6.10987  16.97187  -0.000000863763616   0.000003813739219   0.000003340390014
Si   14.25638   6.10987  19.68737   0.000000091295086   0.000001233203250   0.000002805200435
Si   11.54087   8.82537  19.68737   0.000003105553607  -0.000000567543285   0.000002198434694
Si   14.25638   8.82537  16.97187  -0.000006448272209  -0.000003272702056  -0.000001295077865
Si   15.61412   7.46762  18.32963  -0.000002171924367  -0.000005259438347   0.000004056066430
Si   15.61412  10.18313  21.04512   0.000001709873266   0.000002389963708  -0.000004698392741
Si   12.89862   7.46762  21.04512   0.000000889714366  -0.000003042379481   0.000001688446188
Si   12.89862  10.18313  18.32963   0.000001147721025   0.000007860713885   0.000001184239313
Si   11.54087  11.54087   0.67887  -0.000003632629971  -0.000003632629724   0.000004560108167
Si   14.25638  11.54087   3.39437  -0.000002429960555   0.000006698031138  -0.000004760987119
Si   11.54087  14.25638   3.39437   0.000006698031380  -0.000002429960031  -0.000004760987158
Si   14.25638  14.25638   0.67887   0.000001640695310   0.000001640695151   0.000000510766187
Si   15.61412  12.89862   2.03662  -0.000000615534278   0.000000532785193   0.000007185289374
Si   15.61412  15.61412   4.75212  -0.000001635092743  -0.000001635093033   0.000000292047331
Si   12.89862  12.89862   4.75212  -0.000001746509789  -0.000001746510088   0.000000010056902
Si   12.89862  15.61412   2.03662   0.000000532785132  -0.000000615534211   0.000007185289836
Si   11.54087  11.54087   6.10987   0.000000862946696   0.000000862946652   0.000000235340513
Si   14.25638  11.54087   8.82537  -0.000003662101067   0.000000336839403  -0.000004568915218
Si   11.54087  14.25638   8.82537   0.000000336839169  -0.000003662100949  -0.000004568915103
Si   14.25638  14.25638   6.10987  -0.000000548482642  -0.000000548482654  -0.000003155441026
Si   15.61412  12.89862   7.46762  -0.000000467355538  -0.000000190266145  -0.000003277447990
Si   15.61412  15.61412  10.18313  -0.000004695748561  -0.000004695748646  -0.000000405193766
Si   12.89862  12.89862  10.18313  -0.000003012125023  -0.000003012125365  -0.000000923285043
Si   12.89862  15.61412   7.46762  -0.000000190266033  -0.000000467355588  -0.000003277447908
Si   11.54087  11.54087  11.54087   0.000003658645277   0.000003658645516   0.000003660468322
Si   14.25638  11.54087  14.25638   0.000000063453778   0.000003344861491   0.000000061696275
Si   11.54087  14.25638  14.25638   0.000003344861758   0.000000063453723   0.000000061696310
Si   14.25638  14.25638  11.54087   0.000000058081458   0.000000058081409   0.000003348137025
Si   15.61412  12.89862  12.89862  -0.000000807245529   0.000001790042010   0.000001791698013
Si   15.61412  15.61412  15.61412  -0.000002961697072  -0.000002961697179  -0.000002963100044
Si   12.89862  12.89862  15.61412   0.000001788114951   0.000001788115033  -0.000000811735788
Si   12.89862  15.61412  12.89862   0.000001790041926  -0.000000807245742   0.000001791698035
Si   11.54087  11.54087  16.97187   0.000003026527343   0.000003026527672   0.000002459827009
Si   14.25638  11.54087  19.68737  -0.000004862003849   0.000002429878315  -0.000001999105402
Si   11.54087  14.25638  19.68737   0.000002429878317  -0.000004862003709  -0.000001999105356
Si   14.25638  14.25638  16.97187  -0.000001746517448  -0.000001746517602  -0.000000164878301
Si   15.61412  12.89862  18.32963  -0.000002241881502  -0.000004219982960  -0.000005740288317
Si   15.61412  15.61412  21.04512  -0.000001169499985  -0.000001169500389  -0.000001074602093
Si   12.89862  12.89862  21.04512  -0.000000602636054  -0.000000602636124  -0.000000532436736
Si   12.89862  15.61412  18.32963  -0.000004219983116  -0.000002241881707  -0.000005740288121
Si   11.54087  16.97187   0.67887  -0.000005002128083  -0.000005518893145   0.000005117716782
Si   14.25638  16.97187   3.39437   0.000003257386899   0.000000088563783   0.000001623808650
Si   11.54087  19.68737   3.39437  -0.000003226579338  -0.000002237126844   0.000000141090293
Si   14.25638  19.68737   0.67887   0.000005164156357   0.000006184439426  -0.000002242701288
Si   15.61412  18.32963   2.03662   0.000004495362326  -0.000000604138837  -0.000005005132417
Si   15.61412  21.04512   4.75212  -0.000000294761558  -0.000003741839589   0.000000110576508
Si   12.89862  18.32963   4.75212   0.000001562590635  -0.000000634347666  -0.000001075704344
Si   12.89862  21.04512   2.03662  -0.000003287519794   0.000002825876156  -0.000000455097010
Si   11.54087  16.97187   6.10987  -0.000000876737048   0.000003341590032   0.000003805673182
Si   14.25638  16.97187   8.82537  -0.000006436214599  -0.000001291427636  -0.000003267969907
Si   11.54087  19.68737   8.82537   0.000003101142411   0.000002199332504  -0.000000562212751
Si   14.25638  19.68737   6.10987   0.000000097438705   0.000002804803459   0.000001228406717
Si   15.61412  18.32963   7.46762  -0.000002169619643   0.000004054288677  -0.000005257551482
Si   15.61412  21.04512  10.18313   0.000001695882700  -0.000004688431704   0.000002388499588
Si   12.89862  18.32963  10.18313   0.000001146145394   0.000001175238091   0.000007856363259
Si   12.89862  21.04512   7.46762   0.000000894471470   0.000001687814670  -0.000003040894481
Si   11.54087  16.97187  11.54087   0.000003028953173   0.000002452195486   0.000003017679436
Si   14.25638  16.97187  14.25638  -0.000001757191241  -0.000000162035723  -0.000001753506395
Si   11.54087  19.68737  14.25638   0.000002428406687  -0.000002006374546  -0.000004851916263
Si   14.25638  19.68737  11.54087  -0.000004857496102  -0.000002000153317   0.000002432709778
Si   15.61412  18.32963  12.89862  -0.000002243596411  -0.000005750475348  -0.000004212394629
Si   15.61412  21.04512  15.61412  -0.000001180358803  -0.000001069260077  -0.000001176284882
Si   12.89862  18.32963  15.61412  -0.000004214112690  -0.000005744666079  -0.000002246765243
Si   12.89862  21.04512  12.89862  -0.000000591009254  -0.000000526227483  -0.000000596678900
Si   11.54087  16.97187  16.97187  -0.000007474101134   0.000002299188437   0.000002298794005
Si   14.25638  16.97187  19.68737   0.000003075033173  -0.000001801216309  -0.000008988045113
Si   11.54087  19.68737  19.68737  -0.000005192123275   0.000001870145119   0.000001868898402
Si   14.25638  19.68737  16.97187   0.000003080447069  -0.000008983357796  -0.000001799139606
Si   15.61412  18.32963  18.32963  -0.000004299459420  -0.000000069614986  -0.000000070298372
Si   15.61412  21.04512  21.04512  -0.000006574811449   0.000003879275003   0.000003883715293
Si   12.89862  18.32963  21.04512   0.000002134188856   0.000000006595054  -0.000003014889778
Si   12.89862  21.04512  18.32963   0.000002139964572  -0.000003010565049   0.000000005248975
Si   16.97187   0.67888   0.67887   0.000001535557937  -0.000000465026803  -0.000000466705700
Si   19.68737   0.67888   3.39437  -0.000001213756408  -0.000001252996824  -0.000004828715122
Si   16.97187   3.39438   3.39437  -0.000003535340148   0.000000594193526   0.000000600018344
Si   19.68737   3.39438   0.67887  -0.000001213737790  -0.000004824507726  -0.000001249864269
Si   21.04512   2.03662   2.03662  -0.000000004057249  -0.000001574993134  -0.000001562199227
Si   21.04512   4.75212   4.75212  -0.000003452270002   0.000002615342228   0.000002605070757
Si   18.32963   2.03662   4.75212   0.000000651453295   0.000004143343481   0.000000701832275
Si   18.32963   4.75212   2.03662   0.000000649684541   0.000000710484328   0.000004144302562
Si   16.97187   0.67888   6.10987  -0.000000107938400   0.000003735153075   0.000000302274010
Si   19.68737   0.67888   8.82537   0.000000453331027  -0.000002831996486   0.000003282222146
Si   16.97187   3.39438   8.82537   0.000001076968798   0.000000636155398  -0.000001558167117
Si   19.68737   3.39438   6.10987   0.000005002542986   0.000000614798773  -0.000004499684414
Si   21.04512   2.03662   7.46762   0.000002239088791  -0.000006180307876  -0.000005167260713
Si   21.04512   4.75212  10.18313  -0.000005124090506   0.000005522460246   0.000004994657691
Si   18.32963   2.03662  10.18313  -0.000000130315729   0.000002236873959   0.000003228353322
Si   18.32963   4.75212   7.46762  -0.000001630970315  -0.000000099235279  -0.000003258291242
Si   16.97187   0.67888  11.54087  -0.000005522460372   0.000005124090577  -0.000004994657679
Si   19.68737   0.67888  14.25638   0.000006180307901  -0.000002239088524   0.000005167260698
Si   16.97187   3.39438  14.25638   0.000000099235359   0.000001630970443   0.000003258291371
Si   19.68737   3.39438  11.54087  -0.000002236873873   0.000000130316012  -0.000003228353260
Si   21.04512   2.03662  12.89862   0.000002831996651  -0.000000453331104  -0.000003282222387
Si   21.04512   4.75212  15.61412  -0.000003735153256   0.000000107938279  -0.000000302274029
Si   18.32963   2.03662  15.61412  -0.000000614798770  -0.000005002542859   0.000004499684262
Si   18.32963   4.75212  12.89862  -0.000000636155099  -0.000001076968959   0.000001558167151
Si   16.97187   0.67888  16.97187  -0.000002615342327   0.000003452270113  -0.000002605070626
Si   19.68737   0.67888  19.68737   0.000001574993148   0.000000004057386   0.000001562199087
Si   16.97187   3.39438  19.68737  -0.000000710484405  -0.000000649684368  -0.000004144302296
Si   19.68737   3.39438  16.97187  -0.000004143343186  -0.000000651453337  -0.000000701832415
Si   21.04512   2.03662  18.32963   0.000001252996842   0.000001213756706   0.000004828715203
Si   21.04512   4.75212  21.04512   0.000000465026893  -0.000001535558019   0.000000466705605
Si   18.32963   2.03662  21.04512   0.000004824507686   0.000001213738121   0.000001249864095
Si   18.32963   4.75212  18.32963  -0.000000594193632   0.000003535339858  -0.000000600018239
Si   16.97187   6.10987   0.67887  -0.000000109971591   0.000000300001943   0.000003730984137
Si   19.68737   6.10987   3.39437   0.000005010410512  -0.000004495499403   0.000000615379278
Si   16.97187   8.82537   3.39437   0.000001073965242  -0.000001568311718   0.000000646409479
Si   19.68737   8.82537   0.67887   0.000000453063626   0.000003288480597  -0.000002835755305
Si   21.04512   7.46762   2.03662   0.000002253176987  -0.000005173683686  -0.000006187624263
Si   21.04512  10.18313   4.75212  -0.000005125107288   0.000004997686122   0.000005524891131
Si   18.32963   7.46762   4.75212  -0.000001622618225  -0.000003255841128  -0.000000092998937
Si   18.32963  10.18313   2.03662  -0.000000133769630   0.000003226442535   0.000002242214213
Si   16.97187   6.10987   6.10987  -0.000000292610109   0.000001615084653   0.000001616540333
Si   19.68737   6.10987   8.82537  -0.000007179691902   0.000000609427263  -0.000000516033414
Si   16.97187   8.82537   8.82537  -0.000000018105914   0.000001761131165   0.000001764794334
Si   19.68737   8.82537   6.10987  -0.000007187426700  -0.000000515939556   0.000000602577313
Si   21.04512   7.46762   7.46762  -0.000000519451087  -0.000001641159074  -0.000001644447502
Si   21.04512  10.18313  10.18313  -0.000004552464116   0.000003631303262   0.000003632511188
Si   18.32963   7.46762  10.18313   0.000004762692697   0.000002431987150  -0.000006693379356
Si   18.32963  10.18313   7.46762   0.000004757282424  -0.000006692424740   0.000002435046531
Si   16.97187   6.10987  11.54087   0.000003331973014   0.000003820414266  -0.000000879584213
Si   19.68737   6.10987  14.25638   0.000002803893271   0.000001223540847   0.000000101133249
Si   16.97187   8.82537  14.25638  -0.000001291086692  -0.000003259538876  -0.000006433742713
Si   19.68737   8.82537  11.54087   0.000002212137650  -0.000000577550041   0.000003092288998
Si   21.04512   7.46762  12.89862   0.000001687189289  -0.000003037768000   0.000000897483915
Si   21.04512  10.18313  15.61412  -0.000004696314152   0.000002386548253   0.000001708059381
Si   18.32963   7.46762  15.61412   0.000004054163175  -0.000005258236373  -0.000002174632873
Si   18.32963  10.18313  12.89862   0.000001177343826   0.000007858399111   0.000001145573556
Si   16.97187   6.10987  16.97187   0.000000438173214  -0.000000635131515   0.000000429863064
Si   19.68737   6.10987  19.68737  -0.000002693788838   0.000006638789422  -0.000002684260664
Si   16.97187   8.82537  19.68737   0.000003103513843  -0.000002211656960   0.000003492437030
Si   19.68737   8.82537  16.97187   0.000003482956682  -0.000002208045388   0.000003097708080
Si   21.04512   7.46762  18.32963  -0.000004540204373  -0.000000848668110  -0.000001378266152
Si   21.04512  10.18313  21.04512  -0.000001766742169  -0.000004589141015  -0.000001764329850
Si   18.32963   7.46762  21.04512  -0.000001379259066  -0.000000847394132  -0.000004539728384
Si   18.32963  10.18313  18.32963  -0.000004011768415   0.000005765393067  -0.000004015035903
Si   16.97187  11.54087   0.67887  -0.000005518893239  -0.000005002128167   0.000005117716882
Si   19.68737  11.54087   3.39437  -0.000002237126972  -0.000003226579332   0.000000141090129
Si   16.97187  14.25638   3.39437   0.000000088564002   0.000003257387103   0.000001623808764
Si   19.68737  14.25638   0.67887   0.000006184439822   0.000005164156134  -0.000002242701220
Si   21.04512  12.89862   2.03662   0.000002825875895  -0.000003287519745  -0.000000455097215
Si   21.04512  15.61412   4.75212  -0.000003741839579  -0.000000294761775   0.000000110576604
Si   18.32963  12.89862   4.75212  -0.000000634347522   0.000001562590779  -0.000001075703998
Si   18.32963  15.61412   2.03662  -0.000000604138672   0.000004495362286  -0.000005005132161
Si   16.97187  11.54087   6.10987   0.000003341589958  -0.000000876737158   0.000003805673221
Si   19.68737  11.54087   8.82537   0.000002199332281   0.000003101142933  -0.000000562212868
Si   16.97187  14.25638   8.82537  -0.000001291427841  -0.000006436214708  -0.000003267969998
Si   19.68737  14.25638   6.10987   0.000002804803453   0.000000097438554   0.000001228406495
Si   21.04512  12.89862   7.46762   0.000001687814470   0.000000894471317  -0.000003040894499
Si   21.04512  15.61412  10.18313  -0.000004688431675   0.000001695882497   0.000002388499701
Si   18.32963  12.89862  10.18313   0.000001175238431   0.000001146145221   0.000007856362973
Si   18.32963  15.61412   7.46762   0.000004054288489  -0.000002169619887  -0.000005257551683
Si   16.97187  11.54087  11.54087   0.000002452195643   0.000003028953185   0.000003017679612
Si   19.68737  11.54087  14.25638  -0.000002006374493   0.000002428406806  -0.000004851916426
Si   16.97187  14.25638  14.25638  -0.000000162035834  -0.000001757191332  -0.000001753506584
Si   19.68737  14.25638  11.54087  -0.000002000153059  -0.000004857496263   0.000002432710211
Si   21.04512  12.89862  12.89862  -0.000000526227645  -0.000000591009331  -0.000000596678956
Si   21.04512  15.61412  15.61412  -0.000001069259810  -0.000001180359103  -0.000001176285036
Si   18.32963  12.89862  15.61412  -0.000005744666168  -0.000004214112807  -0.000002246765172
Si   18.32963  15.61412  12.89862  -0.000005750475332  -0.000002243596220  -0.000004212394635
Si   16.97187  11.54087  16.97187   0.000002299188473  -0.000007474100893   0.000002298793987
Si   19.68737  11.54087  19.68737   0.000001870145285  -0.000005192123383   0.000001868898361
Si   16.97187  14.25638  19.68737  -0.000001801216427   0.000003075033249  -0.000008988045046
Si   19.68737  14.25638  16.97187  -0.000008983357616   0.000003080446910  -0.000001799139495
Si   21.04512  12.89862  18.32963  -0.000003010564942   0.000002139964519   0.000000005248818
Si   21.04512  15.61412  21.04512   0.000003879274948  -0.000006574811821   0.000003883715151
Si   18.32963  12.89862  21.04512   0.000000006595111   0.000002134189158  -0.000003014889852
Si   18.32963  15.61412  18.32963  -0.000000069614914  -0.000004299459436  -0.000000070298210
Si   16.97187  16.97187   0.67887  -0.000002607025164  -0.000002607024986   0.000003464472097
Si   19.68737  16.97187   3.39437  -0.000004149219562  -0.000000696128226  -0.000000658568700
Si   16.97187  19.68737   3.39437  -0.000000696127990  -0.000004149219621  -0.000000658568527
Si   19.68737  19.68737   0.67887   0.000001560472383   0.000001560472304   0.000000008248300
Si   21.04512  18.32963   2.03662   0.000001247321657   0.000004818928150   0.000001210063945
Si   21.04512  21.04512   4.75212   0.000000480289809   0.000000480289652  -0.000001530406037
Si   18.32963  18.32963   4.75212  -0.000000597311483  -0.000000597311331   0.000003536488521
Si   18.32963  21.04512   2.03662   0.000004818928006   0.000001247321501   0.000001210064034
Si   16.97187  16.97187   6.10987   0.000000438578496   0.000000438578395  -0.000000624127907
Si   19.68737  16.97187   8.82537   0.000003493725421   0.000003103308645  -0.000002217016634
Si   16.97187  19.68737   8.82537   0.000003103308225   0.000003493725420  -0.000002217016755
Si   19.68737  19.68737   6.10987  -0.000002688290572  -0.000002688290727   0.000006644932954
Si   21.04512  18.32963   7.46762  -0.000004542293244  -0.000001378994221  -0.000000848716868
Si   21.04512  21.04512  10.18313  -0.000001773573669  -0.000001773573751  -0.000004589255439
Si   18.32963  18.32963  10.18313  -0.000004014460084  -0.000004014460348   0.000005766520496
Si   18.32963  21.04512   7.46762  -0.000001378994264  -0.000004542293414  -0.000000848716743
Si   16.97187  16.97187  11.54087   0.000002301510115   0.000002301510120  -0.000007467469578
Si   19.68737  16.97187  14.25638  -0.000008992283485  -0.000001799745593   0.000003068043320
Si   16.97187  19.68737  14.25638  -0.000001799745422  -0.000008992283546   0.000003068043501
Si   19.68737  19.68737  11.54087   0.000001858938703   0.000001858938938  -0.000005185788287
Si   21.04512  18.32963  12.89862  -0.000003014233914   0.000000014672077   0.000002137413472
Si   21.04512  21.04512  15.61412   0.000003885456922   0.000003885456716  -0.000006583521334
Si   18.32963  18.32963  15.61412  -0.000000077412484  -0.000000077412531  -0.000004295589174
Si   18.32963  21.04512  12.89862   0.000000014672324  -0.000003014234012   0.000002137413542
Si   16.97187  16.97187  16.97187   0.000001386600048   0.000001386600360   0.000001396098243
Si   19.68737  16.97187  19.68737   0.000004995985905  -0.000006174500840   0.000004988096546
Si   16.97187  19.68737  19.68737  -0.000006174500800   0.000004995985982   0.000004988096575
Si   19.68737  19.68737  16.97187   0.000005003844793   0.000005003844655  -0.000006163763600
Si   21.04512  18.32963  18.32963  -0.000008739305006   0.000000301263364   0.000000300153300
Si   21.04512  21.04512  21.04512  -0.000000287808447  -0.000000287808506  -0.000000281666624
Si   18.32963  18.32963  21.04512   0.000000304034839   0.000000304034874  -0.000008743778053
Si   18.32963  21.04512  18.32963   0.000000301263410  -0.000008739305250   0.000000300153462
