512 

Si    0.67887   0.67888   0.67887   0.000000287813316   0.000000287813359   0.000000281671434
Si    3.39437   0.67888   3.39437  -0.000000301268395   0.000008739324561  -0.000000300158227
Si    0.67887   3.39438   3.39437   0.000008739324218  -0.000000301268505  -0.000000300158530
Si    3.39437   3.39438   0.67887  -0.000000304039742  -0.000000304039694   0.000008743797338
Si    4.75212   2.03662   2.03662   0.000006174472219  -0.000004995965978  -0.000004988076404
Si    4.75212   4.75212   4.75212  -0.000001386634257  -0.000001386634496  -0.000001396132277
Si    2.03662   2.03662   4.75212  -0.000005003824708  -0.000005003824734   0.000006163735166
Si    2.03662   4.75212   2.03662  -0.000004995966134   0.000006174472218  -0.000004988076559
Si    0.67887   0.67888   6.10987  -0.000003885450432  -0.000003885450007   0.000006583501745
Si    3.39437   0.67888   8.82537  -0.000000014679187   0.000003014259885  -0.000002137387196
Si    0.67887   3.39438   8.82537   0.000003014259505  -0.000000014679337  -0.000002137387221
Si    3.39437   3.39438   6.10987   0.000000077409842   0.000000077410072   0.000004295551854
Si    4.75212   2.03662   7.46762   0.000001799718292   0.000008992304155  -0.000003068041836
Si    4.75212   4.75212  10.18313  -0.000002301551840  -0.000002301551821   0.000007467496885
Si    2.03662   2.03662  10.18313  -0.000001858904595  -0.000001858904501   0.000005185812396
Si    2.03662   4.75212   7.46762   0.000008992304017   0.000001799718523  -0.000003068042272
Si    0.67887   0.67888  11.54087   0.000001773594343   0.000001773594295   0.000004589255035
Si    3.39437   0.67888  14.25638   0.000001378977069   0.000004542325266   0.000000848717842
Si    0.67887   3.39438  14.25638   0.000004542324906   0.000001378977221   0.000000848717914
Si    3.39437   3.39438  11.54087   0.000004014463124   0.000004014463109  -0.000005766532172
Si    4.75212   2.03662  12.89862  -0.000003103358629  -0.000003493681706   0.000002216986768
Si    4.75212   4.75212  15.61412  -0.000000438620384  -0.000000438620526   0.000000624144687
Si    2.03662   2.03662  15.61412   0.000002688313852   0.000002688313956  -0.000006644906580
Si    2.03662   4.75212  12.89862  -0.000003493681865  -0.000003103358411   0.000002216986672
Si    0.67887   0.67888  16.97187  -0.000000480278282  -0.000000480277904   0.000001530422615
Si    3.39437   0.67888  19.68737  -0.000004818928714  -0.000001247308134  -0.000001210086928
Si    0.67887   3.39438  19.68737  -0.000001247308281  -0.000004818928910  -0.000001210086867
Si    3.39437   3.39438  16.97187   0.000000597300969   0.000000597301151  -0.000003536460993
Si    4.75212   2.03662  18.32963   0.000000696082269   0.000004149240199   0.000000658565974
Si    4.75212   4.75212  21.04512   0.000002606993571   0.000002606993929  -0.000003464478572
Si    2.03662   2.03662  21.04512  -0.000001560460675  -0.000001560460138  -0.000000008256643
Si    2.03662   4.75212  18.32963   0.000004149239996   0.000000696082312   0.000000658565812
Si    0.67887   6.10987   0.67887  -0.000003879268468   0.000006574791900  -0.000003883708384
Si    3.39437   6.10987   3.39437   0.000000069612389   0.000004299422343   0.000000070295743
Si    0.67887   8.82537   3.39437   0.000003010590387  -0.000002139938328  -0.000000005256098
Si    3.39437   8.82537   0.67887  -0.000000006602225  -0.000002134162556   0.000003014915724
Si    4.75212   7.46762   2.03662   0.000001801189316  -0.000003075032127   0.000008988065428
Si    4.75212  10.18313   4.75212  -0.000002299230386   0.000007474128342  -0.000002298835711
Si    2.03662   7.46762   4.75212   0.000008983377928  -0.000003080445741   0.000001799113045
Si    2.03662  10.18313   2.03662  -0.000001870110857   0.000005192147191  -0.000001868864159
Si    0.67887   6.10987   6.10987   0.000001069269577   0.000001180339399   0.000001176265318
Si    3.39437   6.10987   8.82537   0.000005750476949   0.000002243556866   0.000004212427028
Si    0.67887   8.82537   8.82537   0.000000526235776   0.000000591011730   0.000000596681357
Si    3.39437   8.82537   6.10987   0.000005744667813   0.000004214145079   0.000002246725749
Si    4.75212   7.46762   7.46762   0.000000162018856   0.000001757191520   0.000001753506684
Si    4.75212  10.18313  10.18313  -0.000002452224689  -0.000003028937093  -0.000003017663364
Si    2.03662   7.46762  10.18313   0.000002000183744   0.000004857484159  -0.000002432705641
Si    2.03662  10.18313   7.46762   0.000002006405457  -0.000002428402539   0.000004851904179
Si    0.67887   6.10987  11.54087   0.000004688456557  -0.000001695924303  -0.000002388513728
Si    3.39437   6.10987  14.25638  -0.000004054284221   0.000002169568386   0.000005257542831
Si    0.67887   8.82537  14.25638  -0.000001687805690  -0.000000894463182   0.000003040899264
Si    3.39437   8.82537  11.54087  -0.000001175222111  -0.000001146116879  -0.000007856383007
Si    4.75212   7.46762  12.89862   0.000001291412890   0.000006436206976   0.000003267942813
Si    4.75212  10.18313  15.61412  -0.000003341609682   0.000000876748963  -0.000003805647881
Si    2.03662   7.46762  15.61412  -0.000002804792185  -0.000000097446393  -0.000001228380999
Si    2.03662  10.18313  12.89862  -0.000002199298891  -0.000003101126863   0.000000562184576
Si    0.67887   6.10987  16.97187   0.000003741848732   0.000000294719338  -0.000000110547034
Si    3.39437   6.10987  19.68737   0.000000604125368  -0.000004495402662   0.000005005118320
Si    0.67887   8.82537  19.68737  -0.000002825876214   0.000003287536304   0.000000455089520
Si    3.39437   8.82537  16.97187   0.000000634343034  -0.000001562562374   0.000001075737913
Si    4.75212   7.46762  18.32963  -0.000000088592534  -0.000003257386756  -0.000001623803870
Si    4.75212  10.18313  21.04512   0.000005518857999   0.000005002139730  -0.000005117722768
Si    2.03662   7.46762  21.04512  -0.000006184441254  -0.000005164164398   0.000002242700462
Si    2.03662  10.18313  18.32963   0.000002237150050   0.000003226597936  -0.000000141079866
Si    0.67887  11.54087   0.67887   0.000001766762613   0.000004589140375   0.000001764350112
Si    3.39437  11.54087   3.39437   0.000004011771164  -0.000005765405149   0.000004015038826
Si    0.67887  14.25638   3.39437   0.000004540235865   0.000000848669144   0.000001378249065
Si    3.39437  14.25638   0.67887   0.000001379242297   0.000000847395431   0.000004539759829
Si    4.75212  12.89862   2.03662  -0.000003103563920   0.000002211627214  -0.000003492393433
Si    4.75212  15.61412   4.75212  -0.000000438215331   0.000000635148270  -0.000000429905009
Si    2.03662  12.89862   4.75212  -0.000003482913059   0.000002208015714  -0.000003097757830
Si    2.03662  15.61412   2.03662   0.000002693812066  -0.000006638762787   0.000002684284275
Si    0.67887  11.54087   6.10987   0.000004696339063  -0.000002386562620  -0.000001708101048
Si    3.39437  11.54087   8.82537  -0.000001177327985  -0.000007858419314  -0.000001145545158
Si    0.67887  14.25638   8.82537  -0.000001687180390   0.000003037772711  -0.000000897475601
Si    3.39437  14.25638   6.10987  -0.000004054158688   0.000005258227784   0.000002174581330
Si    4.75212  12.89862   7.46762   0.000001291072121   0.000003259512088   0.000006433735293
Si    4.75212  15.61412  10.18313  -0.000003331992624  -0.000003820388828   0.000000879596050
Si    2.03662  12.89862  10.18313  -0.000002212104224   0.000000577521704  -0.000003092273224
Si    2.03662  15.61412   7.46762  -0.000002803881855  -0.000001223515389  -0.000000101141192
Si    0.67887  11.54087  11.54087   0.000004552488335  -0.000003631310583  -0.000003632518545
Si    3.39437  11.54087  14.25638  -0.000004757278721   0.000006692414120  -0.000002435055997
Si    0.67887  14.25638  14.25638   0.000000519450331   0.000001641164236   0.000001644452519
Si    3.39437  14.25638  11.54087  -0.000004762688740  -0.000002431996515   0.000006693368842
Si    4.75212  12.89862  12.89862   0.000000018089071  -0.000001761156976  -0.000001764820511
Si    4.75212  15.61412  15.61412   0.000000292596993  -0.000001615059551  -0.000001616514957
Si    2.03662  12.89862  15.61412   0.000007187432722   0.000000515927488  -0.000000602554826
Si    2.03662  15.61412  12.89862   0.000007179697985  -0.000000609404304   0.000000516021324
Si    0.67887  11.54087  16.97187   0.000005125112634  -0.000004997697898  -0.000005524856487
Si    3.39437  11.54087  19.68737   0.000000133759343  -0.000003226461230  -0.000002242237164
Si    0.67887  14.25638  19.68737  -0.000002253176500   0.000005173691840   0.000006187625543
Si    3.39437  14.25638  16.97187   0.000001622613555   0.000003255840930   0.000000093027271
Si    4.75212  12.89862  18.32963  -0.000001073999217   0.000001568283504  -0.000000646404916
Si    4.75212  15.61412  21.04512   0.000000109941817  -0.000000299959812  -0.000003730993545
Si    2.03662  12.89862  21.04512  -0.000000453056081  -0.000003288497318   0.000002835755480
Si    2.03662  15.61412  18.32963  -0.000005010396275   0.000004495539769  -0.000000615365985
Si    0.67887  16.97187   0.67887  -0.000000465015335   0.000001535574709  -0.000000466693839
Si    3.39437  16.97187   3.39437   0.000000594183070  -0.000003535312238   0.000000600007973
Si    0.67887  19.68737   3.39437  -0.000001252983432  -0.000001213779502  -0.000004828715649
Si    3.39437  19.68737   0.67887  -0.000004824508545  -0.000001213760844  -0.000001249850343
Si    4.75212  18.32963   2.03662   0.000000710438612   0.000000649681842   0.000004144322913
Si    4.75212  21.04512   4.75212   0.000002615310827  -0.000003452276709   0.000002605039368
Si    2.03662  18.32963   4.75212   0.000004143363527   0.000000651450525   0.000000701786555
Si    2.03662  21.04512   2.03662  -0.000001574981160  -0.000000004065895  -0.000001562187174
Si    0.67887  16.97187   6.10987   0.000003735162357  -0.000000107908639   0.000000302231742
Si    3.39437  16.97187   8.82537   0.000000636150496   0.000001077002624  -0.000001558138720
Si    0.67887  19.68737   8.82537  -0.000002831997051   0.000000453323276   0.000003282239014
Si    3.39437  19.68737   6.10987   0.000000614785454   0.000005002529006  -0.000004499724578
Si    4.75212  18.32963   7.46762  -0.000000099263873  -0.000001630965344  -0.000003258290834
Si    4.75212  21.04512  10.18313   0.000005522425447  -0.000005124096436   0.000004994669041
Si    2.03662  18.32963  10.18313   0.000002236896716  -0.000000130305624   0.000003228371820
Si    2.03662  21.04512   7.46762  -0.000006180309230   0.000002239087631  -0.000005167269156
Si    0.67887  16.97187  11.54087   0.000005124096427  -0.000005522425524  -0.000004994669094
Si    3.39437  16.97187  14.25638   0.000001630965299   0.000000099263736   0.000003258290963
Si    0.67887  19.68737  14.25638  -0.000002239088063   0.000006180309205   0.000005167269081
Si    3.39437  19.68737  11.54087   0.000000130305336  -0.000002236896891  -0.000003228371569
Si    4.75212  18.32963  12.89862  -0.000001077002776  -0.000000636150879   0.000001558138553
Si    4.75212  21.04512  15.61412   0.000000107908553  -0.000003735162490  -0.000000302231658
Si    2.03662  18.32963  15.61412  -0.000005002529317  -0.000000614785636   0.000004499724654
Si    2.03662  21.04512  12.89862  -0.000000453323529   0.000002831996700  -0.000003282239106
Si    0.67887  16.97187  16.97187   0.000003452276621  -0.000002615310887  -0.000002605039479
Si    3.39437  16.97187  19.68737  -0.000000649681811  -0.000000710438859  -0.000004144322917
Si    0.67887  19.68737  19.68737   0.000000004065426   0.000001574980878   0.000001562187074
Si    3.39437  19.68737  16.97187  -0.000000651450595  -0.000004143363748  -0.000000701786552
Si    4.75212  18.32963  18.32963   0.000003535312232  -0.000000594183425  -0.000000600008116
Si    4.75212  21.04512  21.04512  -0.000001535574720   0.000000465015169   0.000000466693771
Si    2.03662  18.32963  21.04512   0.000001213760605   0.000004824508299   0.000001249850467
Si    2.03662  21.04512  18.32963   0.000001213779452   0.000001252983287   0.000004828715629
Si    6.10988   0.67888   0.67887   0.000006574791659  -0.000003879268255  -0.000003883708411
Si    8.82537   0.67888   3.39437  -0.000002139938458   0.000003010590668  -0.000000005255845
Si    6.10988   3.39438   3.39437   0.000004299421679   0.000000069612519   0.000000070295965
Si    8.82537   3.39438   0.67887  -0.000002134162840  -0.000000006602013   0.000003014915786
Si   10.18313   2.03662   2.03662   0.000005192147032  -0.000001870110798  -0.000001868864189
Si   10.18313   4.75212   4.75212   0.000007474128287  -0.000002299230292  -0.000002298835680
Si    7.46762   2.03662   4.75212  -0.000003080445783   0.000008983378014   0.000001799112804
Si    7.46762   4.75212   2.03662  -0.000003075031725   0.000001801189822   0.000008988065274
Si    6.10988   0.67888   6.10987   0.000001180339372   0.000001069269832   0.000001176265186
Si    8.82537   0.67888   8.82537   0.000000591011234   0.000000526236019   0.000000596681285
Si    6.10988   3.39438   8.82537   0.000002243556695   0.000005750477077   0.000004212427078
Si    8.82537   3.39438   6.10987   0.000004214145023   0.000005744668001   0.000002246726133
Si   10.18313   2.03662   7.46762  -0.000002428402738   0.000002006405706   0.000004851903966
Si   10.18313   4.75212  10.18313  -0.000003028937471  -0.000002452224396  -0.000003017663648
Si    7.46762   2.03662  10.18313   0.000004857484071   0.000002000183889  -0.000002432705884
Si    7.46762   4.75212   7.46762   0.000001757191602   0.000000162019138   0.000001753506682
Si    6.10988   0.67888  11.54087  -0.000001695924338   0.000004688456794  -0.000002388513790
Si    8.82537   0.67888  14.25638  -0.000000894463531  -0.000001687805522   0.000003040899143
Si    6.10988   3.39438  14.25638   0.000002169567954  -0.000004054284252   0.000005257543157
Si    8.82537   3.39438  11.54087  -0.000001146116883  -0.000001175222132  -0.000007856383041
Si   10.18313   2.03662  12.89862  -0.000003101127046  -0.000002199298534   0.000000562184605
Si   10.18313   4.75212  15.61412   0.000000876748718  -0.000003341609482  -0.000003805647939
Si    7.46762   2.03662  15.61412  -0.000000097446696  -0.000002804792039  -0.000001228381198
Si    7.46762   4.75212  12.89862   0.000006436206987   0.000001291413440   0.000003267942609
Si    6.10988   0.67888  16.97187   0.000000294719432   0.000003741848954  -0.000000110547133
Si    8.82537   0.67888  19.68737   0.000003287536200  -0.000002825875926   0.000000455089593
Si    6.10988   3.39438  19.68737  -0.000004495402612   0.000000604125385   0.000005005118307
Si    8.82537   3.39438  16.97187  -0.000001562562411   0.000000634343019   0.000001075738012
Si   10.18313   2.03662  18.32963   0.000003226597631   0.000002237150167  -0.000000141079901
Si   10.18313   4.75212  21.04512   0.000005002139459   0.000005518858282  -0.000005117722975
Si    7.46762   2.03662  21.04512  -0.000005164164470  -0.000006184441171   0.000002242699938
Si    7.46762   4.75212  18.32963  -0.000003257386590  -0.000000088592395  -0.000001623803629
Si    6.10988   6.10987   0.67887   0.000001169480553   0.000001169480610   0.000001074611756
Si    8.82537   6.10987   3.39437   0.000004220014962   0.000002241842115   0.000005740290177
Si    6.10988   8.82537   3.39437   0.000002241842067   0.000004220015442   0.000005740290138
Si    8.82537   8.82537   0.67887   0.000000602638193   0.000000602638577   0.000000532445333
Si   10.18313   7.46762   2.03662  -0.000002429874067   0.000004861991609   0.000001999136026
Si   10.18313  10.18313   4.75212  -0.000003026511623  -0.000003026511684  -0.000002459856091
Si    7.46762   7.46762   4.75212   0.000001746518099   0.000001746517882   0.000000164861711
Si    7.46762  10.18313   2.03662   0.000004861991755  -0.000002429874336   0.000001999136167
Si    6.10988   6.10987   6.10987   0.000002961673536   0.000002961673482   0.000002963076363
Si    8.82537   6.10987   8.82537  -0.000001790023114   0.000000807215499  -0.000001791679000
Si    6.10988   8.82537   8.82537   0.000000807215818  -0.000001790022809  -0.000001791678886
Si    8.82537   8.82537   6.10987  -0.000001788096261  -0.000001788096067   0.000000811706036
Si   10.18313   7.46762   7.46762  -0.000003344854039  -0.000000063454612  -0.000000061697487
Si   10.18313  10.18313  10.18313  -0.000003658622998  -0.000003658622720  -0.000003660445505
Si    7.46762   7.46762  10.18313  -0.000000058082683  -0.000000058082636  -0.000003348129389
Si    7.46762  10.18313   7.46762  -0.000000063454896  -0.000003344853855  -0.000000061697563
Si    6.10988   6.10987  11.54087   0.000004695710954   0.000004695710810   0.000000405185663
Si    8.82537   6.10987  14.25638   0.000000190275458   0.000000467343289   0.000003277445022
Si    6.10988   8.82537  14.25638   0.000000467343250   0.000000190275454   0.000003277445296
Si    8.82537   8.82537  11.54087   0.000003012153394   0.000003012153783   0.000000923271808
Si   10.18313   7.46762  12.89862  -0.000000336832733   0.000003662101239   0.000004568892607
Si   10.18313  10.18313  15.61412  -0.000000862930601  -0.000000862930481  -0.000000235304861
Si    7.46762   7.46762  15.61412   0.000000548484284   0.000000548484466   0.000003155447396
Si    7.46762  10.18313  12.89862   0.000003662101519  -0.000000336832646   0.000004568892597
Si    6.10988   6.10987  16.97187   0.000001635067560   0.000001635067604  -0.000000292034753
Si    8.82537   6.10987  19.68737  -0.000000532773637   0.000000615511686  -0.000007185295543
Si    6.10988   8.82537  19.68737   0.000000615511895  -0.000000532773031  -0.000007185295596
Si    8.82537   8.82537  16.97187   0.000001746536087   0.000001746536393  -0.000000010040113
Si   10.18313   7.46762  18.32963  -0.000006698020746   0.000002429969821   0.000004760983420
Si   10.18313  10.18313  21.04512   0.000003632636895   0.000003632636948  -0.000004560132439
Si    7.46762   7.46762  21.04512  -0.000001640700091  -0.000001640700421  -0.000000510765596
Si    7.46762  10.18313  18.32963   0.000002429969895  -0.000006698020942   0.000004760983567
Si    6.10988  11.54087   0.67887  -0.000001709914895  -0.000002389977669   0.000004698417878
Si    8.82537  11.54087   3.39437  -0.000001147692592  -0.000007860734027  -0.000001184222896
Si    6.10988  14.25638   3.39437   0.000002171872431   0.000005259429793  -0.000004056061689
Si    8.82537  14.25638   0.67887  -0.000000889706489   0.000003042384407  -0.000001688436741
Si   10.18313  12.89862   2.03662  -0.000003105537828   0.000000567515130  -0.000002198401109
Si   10.18313  15.61412   4.75212   0.000000863775075  -0.000003813713870  -0.000003340409494
Si    7.46762  12.89862   4.75212   0.000006448264554   0.000003272674558   0.000001295063402
Si    7.46762  15.61412   2.03662  -0.000000091302538  -0.000001233177553  -0.000002805189365
Si    6.10988  11.54087   6.10987   0.000004703808938   0.000000398659087   0.000004706191146
Si    8.82537  11.54087   8.82537   0.000003008973209   0.000000917700766   0.000003003352299
Si    6.10988  14.25638   8.82537   0.000000475851460   0.000003284337694   0.000000182780584
Si    8.82537  14.25638   6.10987   0.000000185714033   0.000003277793209   0.000000470874398
Si   10.18313  12.89862   7.46762  -0.000000332036759   0.000004567000233   0.000003665348249
Si   10.18313  15.61412  10.18313  -0.000000861955967  -0.000000231410496  -0.000000869785084
Si    7.46762  12.89862  10.18313   0.000003652696256   0.000004574872803  -0.000000335380959
Si    7.46762  15.61412   7.46762   0.000000547847582   0.000003162495212   0.000000548906982
Si    6.10988  11.54087  11.54087   0.000000231410233   0.000000861955834   0.000000869784846
Si    8.82537  11.54087  14.25638  -0.000004567000243   0.000000332036364  -0.000003665348263
Si    6.10988  14.25638  14.25638  -0.000003162495548  -0.000000547847610  -0.000000548906901
Si    8.82537  14.25638  11.54087  -0.000004574873068  -0.000003652696335   0.000000335380790
Si   10.18313  12.89862  12.89862  -0.000000917701008  -0.000003008973001  -0.000003003352259
Si   10.18313  15.61412  15.61412  -0.000000398659065  -0.000004703809097  -0.000004706190904
Si    7.46762  12.89862  15.61412  -0.000003277793370  -0.000000185714014  -0.000000470874174
Si    7.46762  15.61412  12.89862  -0.000003284337419  -0.000000475851223  -0.000000182780588
Si    6.10988  11.54087  16.97187   0.000003813713821  -0.000000863775201   0.000003340409254
Si    8.82537  11.54087  19.68737  -0.000000567515604   0.000003105537648   0.000002198401112
Si    6.10988  14.25638  19.68737   0.000001233177382   0.000000091302684   0.000002805189297
Si    8.82537  14.25638  16.97187  -0.000003272674934  -0.000006448264606  -0.000001295063329
Si   10.18313  12.89862  18.32963   0.000007860733844   0.000001147692701   0.000001184222848
Si   10.18313  15.61412  21.04512   0.000002389977827   0.000001709914679  -0.000004698417980
Si    7.46762  12.89862  21.04512  -0.000003042384166   0.000000889706153   0.000001688436741
Si    7.46762  15.61412  18.32963  -0.000005259429508  -0.000002171872557   0.000004056061830
Si    6.10988  16.97187   0.67887   0.000000299959688  -0.000000109942151   0.000003730993275
Si    8.82537  16.97187   3.39437  -0.000001568283561   0.000001073999078   0.000000646405026
Si    6.10988  19.68737   3.39437  -0.000004495539822   0.000005010396314   0.000000615366199
Si    8.82537  19.68737   0.67887   0.000003288497088   0.000000453056106  -0.000002835755248
Si   10.18313  18.32963   2.03662   0.000003226460923  -0.000000133759380   0.000002242237147
Si   10.18313  21.04512   4.75212   0.000004997697749  -0.000005125113020   0.000005524856381
Si    7.46762  18.32963   4.75212  -0.000003255840892  -0.000001622613601  -0.000000093027592
Si    7.46762  21.04512   2.03662  -0.000005173691858   0.000002253176017  -0.000006187625752
Si    6.10988  16.97187   6.10987   0.000001615059437  -0.000000292597052   0.000001616515094
Si    8.82537  16.97187   8.82537   0.000001761156797  -0.000000018089436   0.000001764820577
Si    6.10988  19.68737   8.82537   0.000000609404435  -0.000007179698182  -0.000000516021273
Si    8.82537  19.68737   6.10987  -0.000000515927591  -0.000007187432832   0.000000602555137
Si   10.18313  18.32963   7.46762  -0.000006692414567   0.000004757278956   0.000002435055618
Si   10.18313  21.04512  10.18313   0.000003631310505  -0.000004552488679   0.000003632518586
Si    7.46762  18.32963  10.18313   0.000002431996959   0.000004762689062  -0.000006693368751
Si    7.46762  21.04512   7.46762  -0.000001641164132  -0.000000519450638  -0.000001644452507
Si    6.10988  16.97187  11.54087   0.000003820388705   0.000003331992220  -0.000000879596094
Si    8.82537  16.97187  14.25638  -0.000003259512455  -0.000001291072127  -0.000006433735088
Si    6.10988  19.68737  14.25638   0.000001223515223   0.000002803881861   0.000000101141282
Si    8.82537  19.68737  11.54087  -0.000000577522154   0.000002212103930   0.000003092273037
Si   10.18313  18.32963  12.89862   0.000007858418935   0.000001177327943   0.000001145545065
Si   10.18313  21.04512  15.61412   0.000002386562715  -0.000004696339446   0.000001708101021
Si    7.46762  18.32963  15.61412  -0.000005258227620   0.000004054158462  -0.000002174581218
Si    7.46762  21.04512  12.89862  -0.000003037772326   0.000001687180169   0.000000897475723
Si    6.10988  16.97187  16.97187  -0.000000635148420   0.000000438215319   0.000000429904872
Si    8.82537  16.97187  19.68737  -0.000002211627761   0.000003103563809   0.000003492393276
Si    6.10988  19.68737  19.68737   0.000006638762755  -0.000002693811980  -0.000002684284105
Si    8.82537  19.68737  16.97187  -0.000002208015894   0.000003482912825   0.000003097758144
Si   10.18313  18.32963  18.32963   0.000005765404948  -0.000004011771178  -0.000004015039218
Si   10.18313  21.04512  21.04512  -0.000004589140597  -0.000001766762877  -0.000001764350192
Si    7.46762  18.32963  21.04512  -0.000000847395232  -0.000001379242541  -0.000004539760022
Si    7.46762  21.04512  18.32963  -0.000000848669342  -0.000004540236337  -0.000001378249261
Si   11.54087   0.67888   0.67887   0.000004589140221   0.000001766762698   0.000001764350110
Si   14.25638   0.67888   3.39437   0.000000848669330   0.000004540236008   0.000001378248837
Si   11.54087   3.39438   3.39437  -0.000005765405573   0.000004011771237   0.000004015039119
Si   14.25638   3.39438   0.67887   0.000000847395482   0.000001379242346   0.000004539760001
Si   15.61412   2.03662   2.03662  -0.000006638762980   0.000002693812256   0.000002684284307
Si   15.61412   4.75212   4.75212   0.000000635148462  -0.000000438215400  -0.000000429904972
Si   12.89862   2.03662   4.75212   0.000002208015504  -0.000003482912702  -0.000003097757782
Si   12.89862   4.75212   2.03662   0.000002211627177  -0.000003103563445  -0.000003492393546
Si   11.54087   0.67888   6.10987  -0.000002386562985   0.000004696339439  -0.000001708100857
Si   14.25638   0.67888   8.82537   0.000003037772656  -0.000001687180083  -0.000000897475790
Si   11.54087   3.39438   8.82537  -0.000007858419592  -0.000001177328094  -0.000001145545219
Si   14.25638   3.39438   6.10987   0.000005258227524  -0.000004054158469   0.000002174581265
Si   15.61412   2.03662   7.46762  -0.000001223515553  -0.000002803881845  -0.000000101141062
Si   15.61412   4.75212  10.18313  -0.000003820389107  -0.000003331992637   0.000000879595729
Si   12.89862   2.03662  10.18313   0.000000577521740  -0.000002212104115  -0.000003092272905
Si   12.89862   4.75212   7.46762   0.000003259512229   0.000001291072133   0.000006433735028
Si   11.54087   0.67888  11.54087  -0.000003631310703   0.000004552488522  -0.000003632518537
Si   14.25638   0.67888  14.25638   0.000001641164182   0.000000519450759   0.000001644452232
Si   11.54087   3.39438  14.25638   0.000006692414006  -0.000004757278895  -0.000002435055744
Si   14.25638   3.39438  11.54087  -0.000002431996588  -0.000004762688752   0.000006693368663
Si   15.61412   2.03662  12.89862  -0.000000609404748   0.000007179698024   0.000000516021454
Si   15.61412   4.75212  15.61412  -0.000001615059504   0.000000292596839  -0.000001616514981
Si   12.89862   2.03662  15.61412   0.000000515927117   0.000007187432934  -0.000000602554866
Si   12.89862   4.75212  12.89862  -0.000001761157179   0.000000018089283  -0.000001764820535
Si   11.54087   0.67888  16.97187  -0.000004997698256   0.000005125112997  -0.000005524856683
Si   14.25638   0.67888  19.68737   0.000005173691936  -0.000002253176247   0.000006187625578
Si   11.54087   3.39438  19.68737  -0.000003226461519   0.000000133759433  -0.000002242236930
Si   14.25638   3.39438  16.97187   0.000003255840737   0.000001622613820   0.000000093027328
Si   15.61412   2.03662  18.32963   0.000004495539757  -0.000005010396433  -0.000000615365745
Si   15.61412   4.75212  21.04512  -0.000000299959792   0.000000109942081  -0.000003730993221
Si   12.89862   2.03662  21.04512  -0.000003288497435  -0.000000453056156   0.000002835755155
Si   12.89862   4.75212  18.32963   0.000001568283469  -0.000001073999028  -0.000000646405040
Si   11.54087   6.10987   0.67887  -0.000002389977869  -0.000001709914660   0.000004698418275
Si   14.25638   6.10987   3.39437   0.000005259429621   0.000002171872752  -0.000004056061822
Si   11.54087   8.82537   3.39437  -0.000007860734411  -0.000001147692533  -0.000001184223040
Si   14.25638   8.82537   0.67887   0.000003042384065  -0.000000889706064  -0.000001688436622
Si   15.61412   7.46762   2.03662  -0.000001233177779  -0.000000091302770  -0.000002805189248
Si   15.61412  10.18313   4.75212  -0.000003813714246   0.000000863775184  -0.000003340409432
Si   12.89862   7.46762   4.75212   0.000003272674415   0.000006448264498   0.000001295063360
Si   12.89862  10.18313   2.03662   0.000000567515035  -0.000003105537736  -0.000002198401272
Si   11.54087   6.10987   6.10987   0.000000398658814   0.000004703809136   0.000004706191107
Si   14.25638   6.10987   8.82537   0.000003284337739   0.000000475851409   0.000000182780723
Si   11.54087   8.82537   8.82537   0.000000917700537   0.000003008973119   0.000003003352246
Si   14.25638   8.82537   6.10987   0.000003277793247   0.000000185714212   0.000000470874343
Si   15.61412   7.46762   7.46762   0.000003162494954   0.000000547847391   0.000000548906989
Si   15.61412  10.18313  10.18313  -0.000000231410703  -0.000000861955764  -0.000000869785251
Si   12.89862   7.46762  10.18313   0.000004574872645   0.000003652696368  -0.000000335380842
Si   12.89862  10.18313   7.46762   0.000004566999988  -0.000000332036435   0.000003665348328
Si   11.54087   6.10987  11.54087   0.000000861955597   0.000000231410701   0.000000869785173
Si   14.25638   6.10987  14.25638  -0.000000547847749  -0.000003162494958  -0.000000548907135
Si   11.54087   8.82537  14.25638   0.000000332036297  -0.000004567000078  -0.000003665348337
Si   14.25638   8.82537  11.54087  -0.000003652696589  -0.000004574872915   0.000000335380975
Si   15.61412   7.46762  12.89862  -0.000000475851642  -0.000003284337689  -0.000000182780699
Si   15.61412  10.18313  15.61412  -0.000004703809161  -0.000000398658870  -0.000004706191187
Si   12.89862   7.46762  15.61412  -0.000000185714407  -0.000003277793320  -0.000000470874311
Si   12.89862  10.18313  12.89862  -0.000003008973406  -0.000000917701013  -0.000003003352361
Si   11.54087   6.10987  16.97187  -0.000000863775346   0.000003813714124   0.000003340409500
Si   14.25638   6.10987  19.68737   0.000000091302393   0.000001233177635   0.000002805189055
Si   11.54087   8.82537  19.68737   0.000003105537356  -0.000000567515264   0.000002198401177
Si   14.25638   8.82537  16.97187  -0.000006448264686  -0.000003272674715  -0.000001295063277
Si   15.61412   7.46762  18.32963  -0.000002171872871  -0.000005259429667   0.000004056061951
Si   15.61412  10.18313  21.04512   0.000001709914571   0.000002389977839  -0.000004698418349
Si   12.89862   7.46762  21.04512   0.000000889705889  -0.000003042384297   0.000001688436876
Si   12.89862  10.18313  18.32963   0.000001147692505   0.000007860733941   0.000001184222947
Si   11.54087  11.54087   0.67887  -0.000003632637025  -0.000003632637029   0.000004560132391
Si   14.25638  11.54087   3.39437  -0.000002429969791   0.000006698020787  -0.000004760983523
Si   11.54087  14.25638   3.39437   0.000006698020428  -0.000002429969646  -0.000004760983452
Si   14.25638  14.25638   0.67887   0.000001640700242   0.000001640700185   0.000000510765838
Si   15.61412  12.89862   2.03662  -0.000000615512071   0.000000532773317   0.000007185295666
Si   15.61412  15.61412   4.75212  -0.000001635067601  -0.000001635067740   0.000000292034678
Si   12.89862  12.89862   4.75212  -0.000001746536471  -0.000001746536361   0.000000010040264
Si   12.89862  15.61412   2.03662   0.000000532773169  -0.000000615511842   0.000007185295557
Si   11.54087  11.54087   6.10987   0.000000862930094   0.000000862930448   0.000000235304954
Si   14.25638  11.54087   8.82537  -0.000003662101265   0.000000336832487  -0.000004568892562
Si   11.54087  14.25638   8.82537   0.000000336832327  -0.000003662101500  -0.000004568892472
Si   14.25638  14.25638   6.10987  -0.000000548484542  -0.000000548484340  -0.000003155447437
Si   15.61412  12.89862   7.46762  -0.000000467343460  -0.000000190275631  -0.000003277445108
Si   15.61412  15.61412  10.18313  -0.000004695711292  -0.000004695710939  -0.000000405185484
Si   12.89862  12.89862  10.18313  -0.000003012153935  -0.000003012153373  -0.000000923271963
Si   12.89862  15.61412   7.46762  -0.000000190275849  -0.000000467343403  -0.000003277445271
Si   11.54087  11.54087  11.54087   0.000003658622596   0.000003658622679   0.000003660445542
Si   14.25638  11.54087  14.25638   0.000000063454767   0.000003344853991   0.000000061697634
Si   11.54087  14.25638  14.25638   0.000003344853618   0.000000063454663   0.000000061697343
Si   14.25638  14.25638  11.54087   0.000000058082726   0.000000058082756   0.000003348129498
Si   15.61412  12.89862  12.89862  -0.000000807215997   0.000001790022922   0.000001791678946
Si   15.61412  15.61412  15.61412  -0.000002961673433  -0.000002961673686  -0.000002963076453
Si   12.89862  12.89862  15.61412   0.000001788095809   0.000001788095761  -0.000000811705891
Si   12.89862  15.61412  12.89862   0.000001790022786  -0.000000807215927   0.000001791678793
Si   11.54087  11.54087  16.97187   0.000003026511304   0.000003026511733   0.000002459855937
Si   14.25638  11.54087  19.68737  -0.000004861991408   0.000002429874149  -0.000001999135955
Si   11.54087  14.25638  19.68737   0.000002429873776  -0.000004861991563  -0.000001999135988
Si   14.25638  14.25638  16.97187  -0.000001746517953  -0.000001746517712  -0.000000164861543
Si   15.61412  12.89862  18.32963  -0.000002241842465  -0.000004220015279  -0.000005740289946
Si   15.61412  15.61412  21.04512  -0.000001169480707  -0.000001169480682  -0.000001074612004
Si   12.89862  12.89862  21.04512  -0.000000602638711  -0.000000602638601  -0.000000532445247
Si   12.89862  15.61412  18.32963  -0.000004220015416  -0.000002241842237  -0.000005740290372
Si   11.54087  16.97187   0.67887  -0.000005002140019  -0.000005518858414   0.000005117722742
Si   14.25638  16.97187   3.39437   0.000003257386611   0.000000088592430   0.000001623803577
Si   11.54087  19.68737   3.39437  -0.000003226598326  -0.000002237150053   0.000000141079964
Si   14.25638  19.68737   0.67887   0.000005164164482   0.000006184440880  -0.000002242700250
Si   15.61412  18.32963   2.03662   0.000004495402359  -0.000000604125469  -0.000005005118341
Si   15.61412  21.04512   4.75212  -0.000000294719464  -0.000003741848690   0.000000110547158
Si   12.89862  18.32963   4.75212   0.000001562562076  -0.000000634343010  -0.000001075737645
Si   12.89862  21.04512   2.03662  -0.000003287536438   0.000002825875963  -0.000000455089580
Si   11.54087  16.97187   6.10987  -0.000000876748927   0.000003341609537   0.000003805648010
Si   14.25638  16.97187   8.82537  -0.000006436207111  -0.000001291413210  -0.000003267942851
Si   11.54087  19.68737   8.82537   0.000003101126615   0.000002199298745  -0.000000562184638
Si   14.25638  19.68737   6.10987   0.000000097446435   0.000002804791906   0.000001228381253
Si   15.61412  18.32963   7.46762  -0.000002169568488   0.000004054284060  -0.000005257543118
Si   15.61412  21.04512  10.18313   0.000001695923885  -0.000004688456839   0.000002388513701
Si   12.89862  18.32963  10.18313   0.000001146116517   0.000001175222188   0.000007856383230
Si   12.89862  21.04512   7.46762   0.000000894463172   0.000001687805302  -0.000003040899176
Si   11.54087  16.97187  11.54087   0.000003028937040   0.000002452224582   0.000003017663475
Si   14.25638  16.97187  14.25638  -0.000001757191702  -0.000000162018597  -0.000001753506777
Si   11.54087  19.68737  14.25638   0.000002428402263  -0.000002006405401  -0.000004851904138
Si   14.25638  19.68737  11.54087  -0.000004857484098  -0.000002000183879   0.000002432705898
Si   15.61412  18.32963  12.89862  -0.000002243557075  -0.000005750477195  -0.000004212427062
Si   15.61412  21.04512  15.61412  -0.000001180339535  -0.000001069270025  -0.000001176265319
Si   12.89862  18.32963  15.61412  -0.000004214145366  -0.000005744667986  -0.000002246725688
Si   12.89862  21.04512  12.89862  -0.000000591011754  -0.000000526236257  -0.000000596681315
Si   11.54087  16.97187  16.97187  -0.000007474128786   0.000002299230259   0.000002298835717
Si   14.25638  16.97187  19.68737   0.000003075031933  -0.000001801189572  -0.000008988065456
Si   11.54087  19.68737  19.68737  -0.000005192147684   0.000001870110867   0.000001868864224
Si   14.25638  19.68737  16.97187   0.000003080445582  -0.000008983378208  -0.000001799112960
Si   15.61412  18.32963  18.32963  -0.000004299422112  -0.000000069612559  -0.000000070295855
Si   15.61412  21.04512  21.04512  -0.000006574792011   0.000003879268384   0.000003883708500
Si   12.89862  18.32963  21.04512   0.000002134162377   0.000000006602286  -0.000003014915461
Si   12.89862  21.04512  18.32963   0.000002139938365  -0.000003010590662   0.000000005256131
Si   16.97187   0.67888   0.67887   0.000001535574234  -0.000000465015088  -0.000000466694186
Si   19.68737   0.67888   3.39437  -0.000001213779706  -0.000001252983377  -0.000004828715564
Si   16.97187   3.39438   3.39437  -0.000003535312865   0.000000594183214   0.000000600008192
Si   19.68737   3.39438   0.67887  -0.000001213761054  -0.000004824508282  -0.000001249850560
Si   21.04512   2.03662   2.03662  -0.000000004065876  -0.000001574980771  -0.000001562187065
Si   21.04512   4.75212   4.75212  -0.000003452276925   0.000002615310902   0.000002605039643
Si   18.32963   2.03662   4.75212   0.000000651450486   0.000004143363941   0.000000701786725
Si   18.32963   4.75212   2.03662   0.000000649682118   0.000000710439038   0.000004144323065
Si   16.97187   0.67888   6.10987  -0.000000107908944   0.000003735162478   0.000000302231475
Si   19.68737   0.67888   8.82537   0.000000453322949  -0.000002831996742   0.000003282238927
Si   16.97187   3.39438   8.82537   0.000001077002388   0.000000636150819  -0.000001558138473
Si   19.68737   3.39438   6.10987   0.000005002528783   0.000000614785541  -0.000004499724624
Si   21.04512   2.03662   7.46762   0.000002239087480  -0.000006180309037  -0.000005167269286
Si   21.04512   4.75212  10.18313  -0.000005124096452   0.000005522425557   0.000004994669412
Si   18.32963   2.03662  10.18313  -0.000000130305450   0.000002236896973   0.000003228371701
Si   18.32963   4.75212   7.46762  -0.000001630965176  -0.000000099263604  -0.000003258290962
Si   16.97187   0.67888  11.54087  -0.000005522425803   0.000005124096603  -0.000004994669515
Si   19.68737   0.67888  14.25638   0.000006180309128  -0.000002239087699   0.000005167269221
Si   16.97187   3.39438  14.25638   0.000000099263422   0.000001630965456   0.000003258291097
Si   19.68737   3.39438  11.54087  -0.000002236897315   0.000000130305713  -0.000003228371692
Si   21.04512   2.03662  12.89862   0.000002831996587  -0.000000453323425  -0.000003282238924
Si   21.04512   4.75212  15.61412  -0.000003735162627   0.000000107908898  -0.000000302231727
Si   18.32963   2.03662  15.61412  -0.000000614785581  -0.000005002529173   0.000004499724691
Si   18.32963   4.75212  12.89862  -0.000000636150667  -0.000001077002569   0.000001558138416
Si   16.97187   0.67888  16.97187  -0.000002615311067   0.000003452276906  -0.000002605039406
Si   19.68737   0.67888  19.68737   0.000001574981000   0.000000004065636   0.000001562187090
Si   16.97187   3.39438  19.68737  -0.000000710438782  -0.000000649681854  -0.000004144323064
Si   19.68737   3.39438  16.97187  -0.000004143363940  -0.000000651450630  -0.000000701786507
Si   21.04512   2.03662  18.32963   0.000001252982952   0.000001213779656   0.000004828715592
Si   21.04512   4.75212  21.04512   0.000000465014951  -0.000001535574473   0.000000466693932
Si   18.32963   2.03662  21.04512   0.000004824508193   0.000001213760780   0.000001249850384
Si   18.32963   4.75212  18.32963  -0.000000594183232   0.000003535312485  -0.000000600008130
Si   16.97187   6.10987   0.67887  -0.000000109942235   0.000000299959394   0.000003730993177
Si   19.68737   6.10987   3.39437   0.000005010396059  -0.000004495539742   0.000000615365934
Si   16.97187   8.82537   3.39437   0.000001073998861  -0.000001568283459   0.000000646405137
Si   19.68737   8.82537   0.67887   0.000000453055675   0.000003288497152  -0.000002835755354
Si   21.04512   7.46762   2.03662   0.000002253175868  -0.000005173691993  -0.000006187625654
Si   21.04512  10.18313   4.75212  -0.000005125112912   0.000004997697844   0.000005524856648
Si   18.32963   7.46762   4.75212  -0.000001622613657  -0.000003255840963  -0.000000093027222
Si   18.32963  10.18313   2.03662  -0.000000133759021   0.000003226461291   0.000002242237081
Si   16.97187   6.10987   6.10987  -0.000000292596975   0.000001615059505   0.000001616514867
Si   19.68737   6.10987   8.82537  -0.000007179698573   0.000000609404672  -0.000000516021591
Si   16.97187   8.82537   8.82537  -0.000000018089286   0.000001761157208   0.000001764820701
Si   19.68737   8.82537   6.10987  -0.000007187433090  -0.000000515927317   0.000000602555168
Si   21.04512   7.46762   7.46762  -0.000000519450955  -0.000001641164172  -0.000001644452618
Si   21.04512  10.18313  10.18313  -0.000004552488730   0.000003631310435   0.000003632518488
Si   18.32963   7.46762  10.18313   0.000004762688973   0.000002431996346  -0.000006693368875
Si   18.32963  10.18313   7.46762   0.000004757278759  -0.000006692414454   0.000002435055571
Si   16.97187   6.10987  11.54087   0.000003331992506   0.000003820388789  -0.000000879595995
Si   19.68737   6.10987  14.25638   0.000002803881786   0.000001223515419   0.000000101141194
Si   16.97187   8.82537  14.25638  -0.000001291072212  -0.000003259512191  -0.000006433734830
Si   19.68737   8.82537  11.54087   0.000002212103856  -0.000000577521740   0.000003092273173
Si   21.04512   7.46762  12.89862   0.000001687179780  -0.000003037772659   0.000000897475772
Si   21.04512  10.18313  15.61412  -0.000004696339596   0.000002386562609   0.000001708100744
Si   18.32963   7.46762  15.61412   0.000004054158530  -0.000005258227569  -0.000002174581594
Si   18.32963  10.18313  12.89862   0.000001177328055   0.000007858419080   0.000001145544972
Si   16.97187   6.10987  16.97187   0.000000438215251  -0.000000635148490   0.000000429905082
Si   19.68737   6.10987  19.68737  -0.000002693812391   0.000006638762634  -0.000002684284247
Si   16.97187   8.82537  19.68737   0.000003103563620  -0.000002211627363   0.000003492393611
Si   19.68737   8.82537  16.97187   0.000003482912585  -0.000002208015586   0.000003097758088
Si   21.04512   7.46762  18.32963  -0.000004540236436  -0.000000848669133  -0.000001378249199
Si   21.04512  10.18313  21.04512  -0.000001766762814  -0.000004589140544  -0.000001764350075
Si   18.32963   7.46762  21.04512  -0.000001379241928  -0.000000847395157  -0.000004539759915
Si   18.32963  10.18313  18.32963  -0.000004011771117   0.000005765405238  -0.000004015039121
Si   16.97187  11.54087   0.67887  -0.000005518858438  -0.000005002139758   0.000005117722676
Si   19.68737  11.54087   3.39437  -0.000002237150412  -0.000003226598138   0.000000141079845
Si   16.97187  14.25638   3.39437   0.000000088592017   0.000003257386571   0.000001623803893
Si   19.68737  14.25638   0.67887   0.000006184440861   0.000005164164444  -0.000002242700263
Si   21.04512  12.89862   2.03662   0.000002825875778  -0.000003287536076  -0.000000455089552
Si   21.04512  15.61412   4.75212  -0.000003741848966  -0.000000294719292   0.000000110547099
Si   18.32963  12.89862   4.75212  -0.000000634343320   0.000001562562249  -0.000001075737879
Si   18.32963  15.61412   2.03662  -0.000000604125483   0.000004495402908  -0.000005005118559
Si   16.97187  11.54087   6.10987   0.000003341609627  -0.000000876748729   0.000003805647944
Si   19.68737  11.54087   8.82537   0.000002199298620   0.000003101126928  -0.000000562184580
Si   16.97187  14.25638   8.82537  -0.000001291413142  -0.000006436207081  -0.000003267942839
Si   19.68737  14.25638   6.10987   0.000002804791874   0.000000097446434   0.000001228381369
Si   21.04512  12.89862   7.46762   0.000001687805004   0.000000894463271  -0.000003040899192
Si   21.04512  15.61412  10.18313  -0.000004688457133   0.000001695924134   0.000002388513494
Si   18.32963  12.89862  10.18313   0.000001175222107   0.000001146116612   0.000007856382719
Si   18.32963  15.61412   7.46762   0.000004054284238  -0.000002169568365  -0.000005257542888
Si   16.97187  11.54087  11.54087   0.000002452224345   0.000003028937218   0.000003017663443
Si   19.68737  11.54087  14.25638  -0.000002006405521   0.000002428402516  -0.000004851903883
Si   16.97187  14.25638  14.25638  -0.000000162019281  -0.000001757191576  -0.000001753506583
Si   19.68737  14.25638  11.54087  -0.000002000184179  -0.000004857483907   0.000002432705942
Si   21.04512  12.89862  12.89862  -0.000000526236419  -0.000000591011674  -0.000000596681335
Si   21.04512  15.61412  15.61412  -0.000001069270072  -0.000001180339433  -0.000001176265277
Si   18.32963  12.89862  15.61412  -0.000005744668045  -0.000004214145265  -0.000002246725902
Si   18.32963  15.61412  12.89862  -0.000005750476751  -0.000002243556589  -0.000004212427226
Si   16.97187  11.54087  16.97187   0.000002299230225  -0.000007474128513   0.000002298835621
Si   19.68737  11.54087  19.68737   0.000001870110355  -0.000005192147431   0.000001868864146
Si   16.97187  14.25638  19.68737  -0.000001801189730   0.000003075032034  -0.000008988065410
Si   19.68737  14.25638  16.97187  -0.000008983378249   0.000003080445758  -0.000001799112557
Si   21.04512  12.89862  18.32963  -0.000003010590898   0.000002139938643   0.000000005255903
Si   21.04512  15.61412  21.04512   0.000003879268001  -0.000006574791705   0.000003883708220
Si   18.32963  12.89862  21.04512   0.000000006602172   0.000002134162562  -0.000003014915713
Si   18.32963  15.61412  18.32963  -0.000000069612462  -0.000004299421831  -0.000000070295882
Si   16.97187  16.97187   0.67887  -0.000002606993929  -0.000002606994099   0.000003464478749
Si   19.68737  16.97187   3.39437  -0.000004149240414  -0.000000696082422  -0.000000658566048
Si   16.97187  19.68737   3.39437  -0.000000696082469  -0.000004149240396  -0.000000658565796
Si   19.68737  19.68737   0.67887   0.000001560460139   0.000001560460481   0.000000008256484
Si   21.04512  18.32963   2.03662   0.000001247307899   0.000004818928668   0.000001210087001
Si   21.04512  21.04512   4.75212   0.000000480277778   0.000000480277891  -0.000001530422560
Si   18.32963  18.32963   4.75212  -0.000000597301220  -0.000000597301012   0.000003536460918
Si   18.32963  21.04512   2.03662   0.000004818928929   0.000001247307972   0.000001210086994
Si   16.97187  16.97187   6.10987   0.000000438620326   0.000000438620350  -0.000000624144777
Si   19.68737  16.97187   8.82537   0.000003493681412   0.000003103358259  -0.000002216986640
Si   16.97187  19.68737   8.82537   0.000003103358476   0.000003493681990  -0.000002216986717
Si   19.68737  19.68737   6.10987  -0.000002688314236  -0.000002688313927   0.000006644906757
Si   21.04512  18.32963   7.46762  -0.000004542325273  -0.000001378977037  -0.000000848717981
Si   21.04512  21.04512  10.18313  -0.000001773594437  -0.000001773594370  -0.000004589255082
Si   18.32963  18.32963  10.18313  -0.000004014463009  -0.000004014463345   0.000005766532396
Si   18.32963  21.04512   7.46762  -0.000001378976991  -0.000004542325423  -0.000000848717823
Si   16.97187  16.97187  11.54087   0.000002301551690   0.000002301551743  -0.000007467497107
Si   19.68737  16.97187  14.25638  -0.000008992304452  -0.000001799718652   0.000003068042088
Si   16.97187  19.68737  14.25638  -0.000001799718692  -0.000008992303984   0.000003068042078
Si   19.68737  19.68737  11.54087   0.000001858904091   0.000001858904494  -0.000005185812303
Si   21.04512  18.32963  12.89862  -0.000003014259797   0.000000014679369   0.000002137387248
Si   21.04512  21.04512  15.61412   0.000003885450112   0.000003885450071  -0.000006583501888
Si   18.32963  18.32963  15.61412  -0.000000077409717  -0.000000077409944  -0.000004295551727
Si   18.32963  21.04512  12.89862   0.000000014679532  -0.000003014260056   0.000002137387393
Si   16.97187  16.97187  16.97187   0.000001386634372   0.000001386634308   0.000001396132213
Si   19.68737  16.97187  19.68737   0.000004995965787  -0.000006174472684   0.000004988076371
Si   16.97187  19.68737  19.68737  -0.000006174472336   0.000004995966095   0.000004988076472
Si   19.68737  19.68737  16.97187   0.000005003824261   0.000005003824455  -0.000006163735033
Si   21.04512  18.32963  18.32963  -0.000008739324638   0.000000301268549   0.000000300158387
Si   21.04512  21.04512  21.04512  -0.000000287813687  -0.000000287813385  -0.000000281671395
Si   18.32963  18.32963  21.04512   0.000000304039816   0.000000304039850  -0.000008743797270
Si   18.32963  21.04512  18.32963   0.000000301268279  -0.000008739324442   0.000000300158306
