512 

Si    0.67887   0.67888   0.67887   0.000000287813308   0.000000287813553   0.000000281671491
Si    3.39437   0.67888   3.39437  -0.000000301268363   0.000008739324619  -0.000000300158286
Si    0.67887   3.39438   3.39437   0.000008739324320  -0.000000301268123  -0.000000300158538
Si    3.39437   3.39438   0.67887  -0.000000304039886  -0.000000304039946   0.000008743797340
Si    4.75212   2.03662   2.03662   0.000006174472178  -0.000004995966041  -0.000004988076444
Si    4.75212   4.75212   4.75212  -0.000001386634280  -0.000001386634433  -0.000001396132220
Si    2.03662   2.03662   4.75212  -0.000005003824540  -0.000005003824805   0.000006163735179
Si    2.03662   4.75212   2.03662  -0.000004995966275   0.000006174472208  -0.000004988076606
Si    0.67887   0.67888   6.10987  -0.000003885450437  -0.000003885450079   0.000006583501787
Si    3.39437   0.67888   8.82537  -0.000000014679751   0.000003014259890  -0.000002137387498
Si    0.67887   3.39438   8.82537   0.000003014259670  -0.000000014679501  -0.000002137387148
Si    3.39437   3.39438   6.10987   0.000000077409964   0.000000077409966   0.000004295551817
Si    4.75212   2.03662   7.46762   0.000001799718535   0.000008992304007  -0.000003068042170
Si    4.75212   4.75212  10.18313  -0.000002301551924  -0.000002301551731   0.000007467496997
Si    2.03662   2.03662  10.18313  -0.000001858904726  -0.000001858904440   0.000005185812301
Si    2.03662   4.75212   7.46762   0.000008992304075   0.000001799718851  -0.000003068041976
Si    0.67887   0.67888  11.54087   0.000001773594151   0.000001773594139   0.000004589255082
Si    3.39437   0.67888  14.25638   0.000001378977121   0.000004542325081   0.000000848717764
Si    0.67887   3.39438  14.25638   0.000004542324672   0.000001378977348   0.000000848718057
Si    3.39437   3.39438  11.54087   0.000004014463169   0.000004014463052  -0.000005766532497
Si    4.75212   2.03662  12.89862  -0.000003103358508  -0.000003493681748   0.000002216986839
Si    4.75212   4.75212  15.61412  -0.000000438620531  -0.000000438620387   0.000000624144470
Si    2.03662   2.03662  15.61412   0.000002688313952   0.000002688314092  -0.000006644906740
Si    2.03662   4.75212  12.89862  -0.000003493681934  -0.000003103358342   0.000002216986779
Si    0.67887   0.67888  16.97187  -0.000000480278385  -0.000000480277978   0.000001530422548
Si    3.39437   0.67888  19.68737  -0.000004818928981  -0.000001247307950  -0.000001210087121
Si    0.67887   3.39438  19.68737  -0.000001247308443  -0.000004818928715  -0.000001210086904
Si    3.39437   3.39438  16.97187   0.000000597301059   0.000000597300965  -0.000003536461082
Si    4.75212   2.03662  18.32963   0.000000696082356   0.000004149240282   0.000000658565927
Si    4.75212   4.75212  21.04512   0.000002606993844   0.000002606993909  -0.000003464478692
Si    2.03662   2.03662  21.04512  -0.000001560460501  -0.000001560460493  -0.000000008256571
Si    2.03662   4.75212  18.32963   0.000004149239990   0.000000696082504   0.000000658566101
Si    0.67887   6.10987   0.67887  -0.000003879268390   0.000006574791980  -0.000003883708125
Si    3.39437   6.10987   3.39437   0.000000069612459   0.000004299422329   0.000000070296092
Si    0.67887   8.82537   3.39437   0.000003010590623  -0.000002139938463  -0.000000005256066
Si    3.39437   8.82537   0.67887  -0.000000006602222  -0.000002134162751   0.000003014915753
Si    4.75212   7.46762   2.03662   0.000001801189622  -0.000003075032009   0.000008988065486
Si    4.75212  10.18313   4.75212  -0.000002299230290   0.000007474128609  -0.000002298835502
Si    2.03662   7.46762   4.75212   0.000008983378076  -0.000003080445569   0.000001799112686
Si    2.03662  10.18313   2.03662  -0.000001870111351   0.000005192147135  -0.000001868864364
Si    0.67887   6.10987   6.10987   0.000001069269706   0.000001180339294   0.000001176265435
Si    3.39437   6.10987   8.82537   0.000005750476935   0.000002243556717   0.000004212426995
Si    0.67887   8.82537   8.82537   0.000000526236051   0.000000591011619   0.000000596681416
Si    3.39437   8.82537   6.10987   0.000005744667875   0.000004214145223   0.000002246725818
Si    4.75212   7.46762   7.46762   0.000000162018771   0.000001757191578   0.000001753506788
Si    4.75212  10.18313  10.18313  -0.000002452224351  -0.000003028937145  -0.000003017663453
Si    2.03662   7.46762  10.18313   0.000002000183919   0.000004857484047  -0.000002432705852
Si    2.03662  10.18313   7.46762   0.000002006405563  -0.000002428402444   0.000004851904043
Si    0.67887   6.10987  11.54087   0.000004688456756  -0.000001695924127  -0.000002388513431
Si    3.39437   6.10987  14.25638  -0.000004054284307   0.000002169568263   0.000005257543027
Si    0.67887   8.82537  14.25638  -0.000001687805417  -0.000000894463561   0.000003040899300
Si    3.39437   8.82537  11.54087  -0.000001175222357  -0.000001146117170  -0.000007856382881
Si    4.75212   7.46762  12.89862   0.000001291413241   0.000006436206875   0.000003267942720
Si    4.75212  10.18313  15.61412  -0.000003341609418   0.000000876748851  -0.000003805647731
Si    2.03662   7.46762  15.61412  -0.000002804792416  -0.000000097446510  -0.000001228381328
Si    2.03662  10.18313  12.89862  -0.000002199298817  -0.000003101126709   0.000000562184577
Si    0.67887   6.10987  16.97187   0.000003741848542   0.000000294719585  -0.000000110547210
Si    3.39437   6.10987  19.68737   0.000000604125593  -0.000004495402788   0.000005005118456
Si    0.67887   8.82537  19.68737  -0.000002825876148   0.000003287536234   0.000000455089681
Si    3.39437   8.82537  16.97187   0.000000634342893  -0.000001562562310   0.000001075737820
Si    4.75212   7.46762  18.32963  -0.000000088592384  -0.000003257386559  -0.000001623803806
Si    4.75212  10.18313  21.04512   0.000005518858265   0.000005002139960  -0.000005117722615
Si    2.03662   7.46762  21.04512  -0.000006184441455  -0.000005164164257   0.000002242700105
Si    2.03662  10.18313  18.32963   0.000002237149968   0.000003226597860  -0.000000141079761
Si    0.67887  11.54087   0.67887   0.000001766762632   0.000004589140527   0.000001764350136
Si    3.39437  11.54087   3.39437   0.000004011771511  -0.000005765404989   0.000004015039223
Si    0.67887  14.25638   3.39437   0.000004540235882   0.000000848669232   0.000001378248933
Si    3.39437  14.25638   0.67887   0.000001379242299   0.000000847394953   0.000004539759963
Si    4.75212  12.89862   2.03662  -0.000003103564034   0.000002211627495  -0.000003492393500
Si    4.75212  15.61412   4.75212  -0.000000438215239   0.000000635148199  -0.000000429904864
Si    2.03662  12.89862   4.75212  -0.000003482912868   0.000002208015641  -0.000003097757623
Si    2.03662  15.61412   2.03662   0.000002693812039  -0.000006638762963   0.000002684284191
Si    0.67887  11.54087   6.10987   0.000004696339143  -0.000002386562386  -0.000001708101023
Si    3.39437  11.54087   8.82537  -0.000001177328074  -0.000007858419095  -0.000001145545431
Si    0.67887  14.25638   8.82537  -0.000001687180365   0.000003037772488  -0.000000897475769
Si    3.39437  14.25638   6.10987  -0.000004054158530   0.000005258227390   0.000002174581245
Si    4.75212  12.89862   7.46762   0.000001291072046   0.000003259512088   0.000006433734776
Si    4.75212  15.61412  10.18313  -0.000003331992425  -0.000003820388933   0.000000879595960
Si    2.03662  12.89862  10.18313  -0.000002212104313   0.000000577521988  -0.000003092273203
Si    2.03662  15.61412   7.46762  -0.000002803882164  -0.000001223515104  -0.000000101141019
Si    0.67887  11.54087  11.54087   0.000004552488689  -0.000003631310737  -0.000003632518515
Si    3.39437  11.54087  14.25638  -0.000004757278873   0.000006692414187  -0.000002435055934
Si    0.67887  14.25638  14.25638   0.000000519450612   0.000001641164132   0.000001644452470
Si    3.39437  14.25638  11.54087  -0.000004762688903  -0.000002431996607   0.000006693368692
Si    4.75212  12.89862  12.89862   0.000000018089247  -0.000001761156986  -0.000001764820597
Si    4.75212  15.61412  15.61412   0.000000292597098  -0.000001615059564  -0.000001616515078
Si    2.03662  12.89862  15.61412   0.000007187432697   0.000000515927403  -0.000000602554818
Si    2.03662  15.61412  12.89862   0.000007179697886  -0.000000609404665   0.000000516021403
Si    0.67887  11.54087  16.97187   0.000005125112828  -0.000004997697897  -0.000005524856545
Si    3.39437  11.54087  19.68737   0.000000133759277  -0.000003226460980  -0.000002242237043
Si    0.67887  14.25638  19.68737  -0.000002253176198   0.000005173691811   0.000006187625763
Si    3.39437  14.25638  16.97187   0.000001622613476   0.000003255840716   0.000000093027473
Si    4.75212  12.89862  18.32963  -0.000001073999068   0.000001568283494  -0.000000646404914
Si    4.75212  15.61412  21.04512   0.000000109941942  -0.000000299959676  -0.000003730993243
Si    2.03662  12.89862  21.04512  -0.000000453056264  -0.000003288497300   0.000002835755394
Si    2.03662  15.61412  18.32963  -0.000005010396395   0.000004495539638  -0.000000615366098
Si    0.67887  16.97187   0.67887  -0.000000465015285   0.000001535574646  -0.000000466694005
Si    3.39437  16.97187   3.39437   0.000000594183192  -0.000003535312297   0.000000600008220
Si    0.67887  19.68737   3.39437  -0.000001252983351  -0.000001213779507  -0.000004828715807
Si    3.39437  19.68737   0.67887  -0.000004824508380  -0.000001213760897  -0.000001249850569
Si    4.75212  18.32963   2.03662   0.000000710438660   0.000000649681835   0.000004144322968
Si    4.75212  21.04512   4.75212   0.000002615310826  -0.000003452276792   0.000002605039571
Si    2.03662  18.32963   4.75212   0.000004143363794   0.000000651450555   0.000000701786867
Si    2.03662  21.04512   2.03662  -0.000001574981251  -0.000000004065745  -0.000001562187173
Si    0.67887  16.97187   6.10987   0.000003735162313  -0.000000107909041   0.000000302231701
Si    3.39437  16.97187   8.82537   0.000000636150612   0.000001077002442  -0.000001558138847
Si    0.67887  19.68737   8.82537  -0.000002831996936   0.000000453323121   0.000003282238756
Si    3.39437  19.68737   6.10987   0.000000614785443   0.000005002528915  -0.000004499724818
Si    4.75212  18.32963   7.46762  -0.000000099263757  -0.000001630965329  -0.000003258290930
Si    4.75212  21.04512  10.18313   0.000005522425482  -0.000005124096591   0.000004994669433
Si    2.03662  18.32963  10.18313   0.000002236896693  -0.000000130305612   0.000003228371669
Si    2.03662  21.04512   7.46762  -0.000006180309243   0.000002239087852  -0.000005167268767
Si    0.67887  16.97187  11.54087   0.000005124096163  -0.000005522425627  -0.000004994669360
Si    3.39437  16.97187  14.25638   0.000001630965297   0.000000099263554   0.000003258290906
Si    0.67887  19.68737  14.25638  -0.000002239088066   0.000006180308956   0.000005167268707
Si    3.39437  19.68737  11.54087   0.000000130305479  -0.000002236896987  -0.000003228371744
Si    4.75212  18.32963  12.89862  -0.000001077002386  -0.000000636150692   0.000001558138731
Si    4.75212  21.04512  15.61412   0.000000107908841  -0.000003735162420  -0.000000302231472
Si    2.03662  18.32963  15.61412  -0.000005002529001  -0.000000614785395   0.000004499724777
Si    2.03662  21.04512  12.89862  -0.000000453323528   0.000002831997011  -0.000003282238929
Si    0.67887  16.97187  16.97187   0.000003452276398  -0.000002615310974  -0.000002605039643
Si    3.39437  16.97187  19.68737  -0.000000649681803  -0.000000710438786  -0.000004144322835
Si    0.67887  19.68737  19.68737   0.000000004065662   0.000001574981067   0.000001562187059
Si    3.39437  19.68737  16.97187  -0.000000651450822  -0.000004143363773  -0.000000701786915
Si    4.75212  18.32963  18.32963   0.000003535312283  -0.000000594183339  -0.000000600007977
Si    4.75212  21.04512  21.04512  -0.000001535574688   0.000000465014990   0.000000466694247
Si    2.03662  18.32963  21.04512   0.000001213760689   0.000004824508291   0.000001249850642
Si    2.03662  21.04512  18.32963   0.000001213779545   0.000001252983406   0.000004828715963
Si    6.10988   0.67888   0.67887   0.000006574791527  -0.000003879268130  -0.000003883708228
Si    8.82537   0.67888   3.39437  -0.000002139938091   0.000003010590718  -0.000000005256089
Si    6.10988   3.39438   3.39437   0.000004299421843   0.000000069612302   0.000000070295828
Si    8.82537   3.39438   0.67887  -0.000002134162560  -0.000000006602469   0.000003014915581
Si   10.18313   2.03662   2.03662   0.000005192146872  -0.000001870110434  -0.000001868864107
Si   10.18313   4.75212   4.75212   0.000007474128452  -0.000002299229983  -0.000002298835579
Si    7.46762   2.03662   4.75212  -0.000003080445828   0.000008983378576   0.000001799112737
Si    7.46762   4.75212   2.03662  -0.000003075031991   0.000001801189740   0.000008988065720
Si    6.10988   0.67888   6.10987   0.000001180338885   0.000001069269958   0.000001176265408
Si    8.82537   0.67888   8.82537   0.000000591011557   0.000000526236650   0.000000596681339
Si    6.10988   3.39438   8.82537   0.000002243556748   0.000005750477170   0.000004212426794
Si    8.82537   3.39438   6.10987   0.000004214144859   0.000005744667941   0.000002246725973
Si   10.18313   2.03662   7.46762  -0.000002428402595   0.000002006405293   0.000004851903928
Si   10.18313   4.75212  10.18313  -0.000003028937531  -0.000002452224395  -0.000003017663310
Si    7.46762   2.03662  10.18313   0.000004857484033   0.000002000184149  -0.000002432705836
Si    7.46762   4.75212   7.46762   0.000001757191529   0.000000162018761   0.000001753506856
Si    6.10988   0.67888  11.54087  -0.000001695924535   0.000004688456947  -0.000002388513384
Si    8.82537   0.67888  14.25638  -0.000000894463296  -0.000001687805065   0.000003040899170
Si    6.10988   3.39438  14.25638   0.000002169568004  -0.000004054284268   0.000005257542730
Si    8.82537   3.39438  11.54087  -0.000001146116879  -0.000001175221968  -0.000007856383194
Si   10.18313   2.03662  12.89862  -0.000003101127130  -0.000002199298858   0.000000562184859
Si   10.18313   4.75212  15.61412   0.000000876748674  -0.000003341609629  -0.000003805647705
Si    7.46762   2.03662  15.61412  -0.000000097446346  -0.000002804791920  -0.000001228381223
Si    7.46762   4.75212  12.89862   0.000006436206744   0.000001291413279   0.000003267942944
Si    6.10988   0.67888  16.97187   0.000000294719002   0.000003741848722  -0.000000110547256
Si    8.82537   0.67888  19.68737   0.000003287536256  -0.000002825876000   0.000000455089639
Si    6.10988   3.39438  19.68737  -0.000004495402813   0.000000604125405   0.000005005118391
Si    8.82537   3.39438  16.97187  -0.000001562562330   0.000000634343075   0.000001075737487
Si   10.18313   2.03662  18.32963   0.000003226598053   0.000002237149936  -0.000000141079915
Si   10.18313   4.75212  21.04512   0.000005002139832   0.000005518858385  -0.000005117722500
Si    7.46762   2.03662  21.04512  -0.000005164164581  -0.000006184440867   0.000002242700193
Si    7.46762   4.75212  18.32963  -0.000003257386847  -0.000000088592215  -0.000001623803687
Si    6.10988   6.10987   0.67887   0.000001169480230   0.000001169480647   0.000001074612037
Si    8.82537   6.10987   3.39437   0.000004220014958   0.000002241841960   0.000005740289943
Si    6.10988   8.82537   3.39437   0.000002241841922   0.000004220015178   0.000005740290194
Si    8.82537   8.82537   0.67887   0.000000602638482   0.000000602638450   0.000000532445291
Si   10.18313   7.46762   2.03662  -0.000002429873733   0.000004861991662   0.000001999136144
Si   10.18313  10.18313   4.75212  -0.000003026511729  -0.000003026511580  -0.000002459855641
Si    7.46762   7.46762   4.75212   0.000001746517715   0.000001746517967   0.000000164861853
Si    7.46762  10.18313   2.03662   0.000004861991126  -0.000002429873947   0.000001999136054
Si    6.10988   6.10987   6.10987   0.000002961673283   0.000002961673468   0.000002963076236
Si    8.82537   6.10987   8.82537  -0.000001790023003   0.000000807216116  -0.000001791679103
Si    6.10988   8.82537   8.82537   0.000000807215659  -0.000001790022989  -0.000001791679091
Si    8.82537   8.82537   6.10987  -0.000001788096049  -0.000001788096000   0.000000811705947
Si   10.18313   7.46762   7.46762  -0.000003344854068  -0.000000063455074  -0.000000061697426
Si   10.18313  10.18313  10.18313  -0.000003658622789  -0.000003658622904  -0.000003660445452
Si    7.46762   7.46762  10.18313  -0.000000058082779  -0.000000058082800  -0.000003348129212
Si    7.46762  10.18313   7.46762  -0.000000063455255  -0.000003344854020  -0.000000061697686
Si    6.10988   6.10987  11.54087   0.000004695710864   0.000004695711244   0.000000405185754
Si    8.82537   6.10987  14.25638   0.000000190275326   0.000000467343223   0.000003277444904
Si    6.10988   8.82537  14.25638   0.000000467343225   0.000000190275640   0.000003277445193
Si    8.82537   8.82537  11.54087   0.000003012153508   0.000003012153516   0.000000923271910
Si   10.18313   7.46762  12.89862  -0.000000336832770   0.000003662101345   0.000004568892544
Si   10.18313  10.18313  15.61412  -0.000000862930554  -0.000000862930440  -0.000000235304771
Si    7.46762   7.46762  15.61412   0.000000548484259   0.000000548484537   0.000003155447449
Si    7.46762  10.18313  12.89862   0.000003662101094  -0.000000336832656   0.000004568892531
Si    6.10988   6.10987  16.97187   0.000001635067442   0.000001635067607  -0.000000292034637
Si    8.82537   6.10987  19.68737  -0.000000532773240   0.000000615511757  -0.000007185295881
Si    6.10988   8.82537  19.68737   0.000000615511716  -0.000000532773251  -0.000007185295919
Si    8.82537   8.82537  16.97187   0.000001746536168   0.000001746536213  -0.000000010040520
Si   10.18313   7.46762  18.32963  -0.000006698020608   0.000002429969643   0.000004760983497
Si   10.18313  10.18313  21.04512   0.000003632636937   0.000003632637159  -0.000004560132201
Si    7.46762   7.46762  21.04512  -0.000001640700483  -0.000001640700066  -0.000000510765415
Si    7.46762  10.18313  18.32963   0.000002429969170  -0.000006698020579   0.000004760983371
Si    6.10988  11.54087   0.67887  -0.000001709914878  -0.000002389977784   0.000004698418133
Si    8.82537  11.54087   3.39437  -0.000001147692612  -0.000007860733938  -0.000001184223163
Si    6.10988  14.25638   3.39437   0.000002171872432   0.000005259429537  -0.000004056061908
Si    8.82537  14.25638   0.67887  -0.000000889706404   0.000003042384241  -0.000001688436768
Si   10.18313  12.89862   2.03662  -0.000003105537888   0.000000567515659  -0.000002198401067
Si   10.18313  15.61412   4.75212   0.000000863775056  -0.000003813714228  -0.000003340409542
Si    7.46762  12.89862   4.75212   0.000006448264318   0.000003272674895   0.000001295063560
Si    7.46762  15.61412   2.03662  -0.000000091302751  -0.000001233177576  -0.000002805189360
Si    6.10988  11.54087   6.10987   0.000004703808607   0.000000398658877   0.000004706191121
Si    8.82537  11.54087   8.82537   0.000003008972987   0.000000917701234   0.000003003352386
Si    6.10988  14.25638   8.82537   0.000000475851327   0.000003284337925   0.000000182780515
Si    8.82537  14.25638   6.10987   0.000000185713974   0.000003277793290   0.000000470874214
Si   10.18313  12.89862   7.46762  -0.000000332036415   0.000004567000043   0.000003665348259
Si   10.18313  15.61412  10.18313  -0.000000861956028  -0.000000231410671  -0.000000869785182
Si    7.46762  12.89862  10.18313   0.000003652696334   0.000004574872982  -0.000000335380885
Si    7.46762  15.61412   7.46762   0.000000547847316   0.000003162494678   0.000000548906909
Si    6.10988  11.54087  11.54087   0.000000231410330   0.000000861955926   0.000000869785107
Si    8.82537  11.54087  14.25638  -0.000004567000236   0.000000332036676  -0.000003665348531
Si    6.10988  14.25638  14.25638  -0.000003162495155  -0.000000547847520  -0.000000548907097
Si    8.82537  14.25638  11.54087  -0.000004574873045  -0.000003652696388   0.000000335380783
Si   10.18313  12.89862  12.89862  -0.000000917701136  -0.000003008973112  -0.000003003352055
Si   10.18313  15.61412  15.61412  -0.000000398659024  -0.000004703809135  -0.000004706190948
Si    7.46762  12.89862  15.61412  -0.000003277793213  -0.000000185713903  -0.000000470874203
Si    7.46762  15.61412  12.89862  -0.000003284337850  -0.000000475851699  -0.000000182780460
Si    6.10988  11.54087  16.97187   0.000003813713708  -0.000000863775257   0.000003340409323
Si    8.82537  11.54087  19.68737  -0.000000567515516   0.000003105537919   0.000002198401027
Si    6.10988  14.25638  19.68737   0.000001233177435   0.000000091302453   0.000002805189028
Si    8.82537  14.25638  16.97187  -0.000003272674903  -0.000006448264388  -0.000001295063592
Si   10.18313  12.89862  18.32963   0.000007860734065   0.000001147692473   0.000001184223152
Si   10.18313  15.61412  21.04512   0.000002389977433   0.000001709914627  -0.000004698418202
Si    7.46762  12.89862  21.04512  -0.000003042384468   0.000000889706458   0.000001688436887
Si    7.46762  15.61412  18.32963  -0.000005259429649  -0.000002171872824   0.000004056061928
Si    6.10988  16.97187   0.67887   0.000000299959802  -0.000000109942202   0.000003730993272
Si    8.82537  16.97187   3.39437  -0.000001568283819   0.000001073999004   0.000000646404842
Si    6.10988  19.68737   3.39437  -0.000004495539978   0.000005010396410   0.000000615366044
Si    8.82537  19.68737   0.67887   0.000003288497264   0.000000453056047  -0.000002835755198
Si   10.18313  18.32963   2.03662   0.000003226460959  -0.000000133759242   0.000002242236930
Si   10.18313  21.04512   4.75212   0.000004997697636  -0.000005125112865   0.000005524856519
Si    7.46762  18.32963   4.75212  -0.000003255840752  -0.000001622613829  -0.000000093027363
Si    7.46762  21.04512   2.03662  -0.000005173692113   0.000002253175881  -0.000006187625927
Si    6.10988  16.97187   6.10987   0.000001615058977  -0.000000292597053   0.000001616515053
Si    8.82537  16.97187   8.82537   0.000001761156900  -0.000000018089243   0.000001764820701
Si    6.10988  19.68737   8.82537   0.000000609404262  -0.000007179698015  -0.000000516021650
Si    8.82537  19.68737   6.10987  -0.000000515927432  -0.000007187433011   0.000000602554943
Si   10.18313  18.32963   7.46762  -0.000006692414243   0.000004757278670   0.000002435055611
Si   10.18313  21.04512  10.18313   0.000003631310729  -0.000004552488523   0.000003632518386
Si    7.46762  18.32963  10.18313   0.000002431996630   0.000004762688768  -0.000006693368571
Si    7.46762  21.04512   7.46762  -0.000001641164600  -0.000000519450799  -0.000001644452526
Si    6.10988  16.97187  11.54087   0.000003820388638   0.000003331992490  -0.000000879595861
Si    8.82537  16.97187  14.25638  -0.000003259512470  -0.000001291072219  -0.000006433734864
Si    6.10988  19.68737  14.25638   0.000001223515135   0.000002803881795   0.000000101140860
Si    8.82537  19.68737  11.54087  -0.000000577521999   0.000002212103899   0.000003092273281
Si   10.18313  18.32963  12.89862   0.000007858419165   0.000001177328098   0.000001145545036
Si   10.18313  21.04512  15.61412   0.000002386562470  -0.000004696339519   0.000001708101066
Si    7.46762  18.32963  15.61412  -0.000005258227514   0.000004054158492  -0.000002174581388
Si    7.46762  21.04512  12.89862  -0.000003037772825   0.000001687179934   0.000000897475741
Si    6.10988  16.97187  16.97187  -0.000000635148469   0.000000438215184   0.000000429904849
Si    8.82537  16.97187  19.68737  -0.000002211627333   0.000003103563745   0.000003492393359
Si    6.10988  19.68737  19.68737   0.000006638762755  -0.000002693812114  -0.000002684284350
Si    8.82537  19.68737  16.97187  -0.000002208015731   0.000003482912650   0.000003097757966
Si   10.18313  18.32963  18.32963   0.000005765405002  -0.000004011771225  -0.000004015039261
Si   10.18313  21.04512  21.04512  -0.000004589140629  -0.000001766762787  -0.000001764350338
Si    7.46762  18.32963  21.04512  -0.000000847395252  -0.000001379242389  -0.000004539759717
Si    7.46762  21.04512  18.32963  -0.000000848669382  -0.000004540236135  -0.000001378249024
Si   11.54087   0.67888   0.67887   0.000004589140640   0.000001766762555   0.000001764350126
Si   14.25638   0.67888   3.39437   0.000000848669100   0.000004540236148   0.000001378248815
Si   11.54087   3.39438   3.39437  -0.000005765405225   0.000004011771116   0.000004015039048
Si   14.25638   3.39438   0.67887   0.000000847395187   0.000001379242210   0.000004539759930
Si   15.61412   2.03662   2.03662  -0.000006638763076   0.000002693812170   0.000002684284175
Si   15.61412   4.75212   4.75212   0.000000635148324  -0.000000438215328  -0.000000429905049
Si   12.89862   2.03662   4.75212   0.000002208015500  -0.000003482912766  -0.000003097757793
Si   12.89862   4.75212   2.03662   0.000002211627073  -0.000003103563799  -0.000003492393490
Si   11.54087   0.67888   6.10987  -0.000002386562636   0.000004696339532  -0.000001708100972
Si   14.25638   0.67888   8.82537   0.000003037772671  -0.000001687179890  -0.000000897475918
Si   11.54087   3.39438   8.82537  -0.000007858419176  -0.000001177328014  -0.000001145545184
Si   14.25638   3.39438   6.10987   0.000005258227309  -0.000004054158670   0.000002174581524
Si   15.61412   2.03662   7.46762  -0.000001223515538  -0.000002803881981  -0.000000101141090
Si   15.61412   4.75212  10.18313  -0.000003820389113  -0.000003331992366   0.000000879595931
Si   12.89862   2.03662  10.18313   0.000000577521659  -0.000002212104070  -0.000003092273217
Si   12.89862   4.75212   7.46762   0.000003259512111   0.000001291072105   0.000006433734813
Si   11.54087   0.67888  11.54087  -0.000003631310681   0.000004552488605  -0.000003632518531
Si   14.25638   0.67888  14.25638   0.000001641164521   0.000000519450826   0.000001644452642
Si   11.54087   3.39438  14.25638   0.000006692413953  -0.000004757278721  -0.000002435055824
Si   14.25638   3.39438  11.54087  -0.000002431996554  -0.000004762689109   0.000006693368722
Si   15.61412   2.03662  12.89862  -0.000000609404860   0.000007179698299   0.000000516021382
Si   15.61412   4.75212  15.61412  -0.000001615059465   0.000000292596988  -0.000001616514911
Si   12.89862   2.03662  15.61412   0.000000515927337   0.000007187432892  -0.000000602554648
Si   12.89862   4.75212  12.89862  -0.000001761157151   0.000000018089352  -0.000001764820600
Si   11.54087   0.67888  16.97187  -0.000004997698286   0.000005125113041  -0.000005524856578
Si   14.25638   0.67888  19.68737   0.000005173691722  -0.000002253176121   0.000006187625519
Si   11.54087   3.39438  19.68737  -0.000003226461429   0.000000133759122  -0.000002242236895
Si   14.25638   3.39438  16.97187   0.000003255840856   0.000001622613528   0.000000093027206
Si   15.61412   2.03662  18.32963   0.000004495539606  -0.000005010396460  -0.000000615366133
Si   15.61412   4.75212  21.04512  -0.000000299959737   0.000000109942110  -0.000003730993229
Si   12.89862   2.03662  21.04512  -0.000003288497544  -0.000000453055963   0.000002835755389
Si   12.89862   4.75212  18.32963   0.000001568283275  -0.000001073998589  -0.000000646404865
Si   11.54087   6.10987   0.67887  -0.000002389977931  -0.000001709914821   0.000004698418143
Si   14.25638   6.10987   3.39437   0.000005259429507   0.000002171872571  -0.000004056061866
Si   11.54087   8.82537   3.39437  -0.000007860734331  -0.000001147692988  -0.000001184223304
Si   14.25638   8.82537   0.67887   0.000003042384253  -0.000000889706379  -0.000001688436884
Si   15.61412   7.46762   2.03662  -0.000001233177515  -0.000000091302610  -0.000002805189165
Si   15.61412  10.18313   4.75212  -0.000003813714074   0.000000863775175  -0.000003340409105
Si   12.89862   7.46762   4.75212   0.000003272674743   0.000006448264649   0.000001295063567
Si   12.89862  10.18313   2.03662   0.000000567515148  -0.000003105537637  -0.000002198401090
Si   11.54087   6.10987   6.10987   0.000000398658651   0.000004703809098   0.000004706190969
Si   14.25638   6.10987   8.82537   0.000003284337678   0.000000475851588   0.000000182780702
Si   11.54087   8.82537   8.82537   0.000000917700845   0.000003008973182   0.000003003352132
Si   14.25638   8.82537   6.10987   0.000003277792978   0.000000185714077   0.000000470874092
Si   15.61412   7.46762   7.46762   0.000003162494782   0.000000547847455   0.000000548907127
Si   15.61412  10.18313  10.18313  -0.000000231410832  -0.000000861955966  -0.000000869784804
Si   12.89862   7.46762  10.18313   0.000004574872788   0.000003652696336  -0.000000335380763
Si   12.89862  10.18313   7.46762   0.000004567000153  -0.000000332036401   0.000003665348636
Si   11.54087   6.10987  11.54087   0.000000861955658   0.000000231410836   0.000000869785019
Si   14.25638   6.10987  14.25638  -0.000000547847614  -0.000003162494796  -0.000000548906858
Si   11.54087   8.82537  14.25638   0.000000332036442  -0.000004567000158  -0.000003665348495
Si   14.25638   8.82537  11.54087  -0.000003652696415  -0.000004574873004   0.000000335380841
Si   15.61412   7.46762  12.89862  -0.000000475851703  -0.000003284337648  -0.000000182780564
Si   15.61412  10.18313  15.61412  -0.000004703809215  -0.000000398659058  -0.000004706191041
Si   12.89862   7.46762  15.61412  -0.000000185714046  -0.000003277793211  -0.000000470874125
Si   12.89862  10.18313  12.89862  -0.000003008973361  -0.000000917700963  -0.000003003352219
Si   11.54087   6.10987  16.97187  -0.000000863775305   0.000003813713871   0.000003340409372
Si   14.25638   6.10987  19.68737   0.000000091302520   0.000001233177606   0.000002805189035
Si   11.54087   8.82537  19.68737   0.000003105537696  -0.000000567515563   0.000002198400917
Si   14.25638   8.82537  16.97187  -0.000006448264596  -0.000003272674823  -0.000001295063613
Si   15.61412   7.46762  18.32963  -0.000002171872776  -0.000005259429552   0.000004056061859
Si   15.61412  10.18313  21.04512   0.000001709914675   0.000002389977509  -0.000004698418091
Si   12.89862   7.46762  21.04512   0.000000889706068  -0.000003042384334   0.000001688436802
Si   12.89862  10.18313  18.32963   0.000001147692724   0.000007860734086   0.000001184223256
Si   11.54087  11.54087   0.67887  -0.000003632637186  -0.000003632637195   0.000004560132385
Si   14.25638  11.54087   3.39437  -0.000002429969725   0.000006698020520  -0.000004760983504
Si   11.54087  14.25638   3.39437   0.000006698020113  -0.000002429969464  -0.000004760983192
Si   14.25638  14.25638   0.67887   0.000001640700264   0.000001640700153   0.000000510765443
Si   15.61412  12.89862   2.03662  -0.000000615511938   0.000000532773298   0.000007185295744
Si   15.61412  15.61412   4.75212  -0.000001635067807  -0.000001635067670   0.000000292034664
Si   12.89862  12.89862   4.75212  -0.000001746536345  -0.000001746536192   0.000000010040365
Si   12.89862  15.61412   2.03662   0.000000532773126  -0.000000615511788   0.000007185295677
Si   11.54087  11.54087   6.10987   0.000000862930004   0.000000862930382   0.000000235305030
Si   14.25638  11.54087   8.82537  -0.000003662101532   0.000000336832763  -0.000004568892810
Si   11.54087  14.25638   8.82537   0.000000336832266  -0.000003662101299  -0.000004568892572
Si   14.25638  14.25638   6.10987  -0.000000548484405  -0.000000548484470  -0.000003155447310
Si   15.61412  12.89862   7.46762  -0.000000467343444  -0.000000190275459  -0.000003277445074
Si   15.61412  15.61412  10.18313  -0.000004695711038  -0.000004695711024  -0.000000405185676
Si   12.89862  12.89862  10.18313  -0.000003012153664  -0.000003012153638  -0.000000923271982
Si   12.89862  15.61412   7.46762  -0.000000190275752  -0.000000467343310  -0.000003277444905
Si   11.54087  11.54087  11.54087   0.000003658622616   0.000003658622922   0.000003660445644
Si   14.25638  11.54087  14.25638   0.000000063454856   0.000003344853961   0.000000061697631
Si   11.54087  14.25638  14.25638   0.000003344853634   0.000000063455103   0.000000061697367
Si   14.25638  14.25638  11.54087   0.000000058082611   0.000000058082576   0.000003348129378
Si   15.61412  12.89862  12.89862  -0.000000807216049   0.000001790022879   0.000001791678911
Si   15.61412  15.61412  15.61412  -0.000002961673483  -0.000002961673670  -0.000002963076466
Si   12.89862  12.89862  15.61412   0.000001788095978   0.000001788095699  -0.000000811705906
Si   12.89862  15.61412  12.89862   0.000001790022649  -0.000000807215980   0.000001791678751
Si   11.54087  11.54087  16.97187   0.000003026511404   0.000003026511759   0.000002459855759
Si   14.25638  11.54087  19.68737  -0.000004861991838   0.000002429874054  -0.000001999136367
Si   11.54087  14.25638  19.68737   0.000002429873842  -0.000004861991586  -0.000001999136021
Si   14.25638  14.25638  16.97187  -0.000001746517879  -0.000001746517872  -0.000000164861671
Si   15.61412  12.89862  18.32963  -0.000002241842191  -0.000004220015494  -0.000005740290358
Si   15.61412  15.61412  21.04512  -0.000001169480820  -0.000001169480639  -0.000001074611955
Si   12.89862  12.89862  21.04512  -0.000000602638794  -0.000000602638477  -0.000000532445407
Si   12.89862  15.61412  18.32963  -0.000004220015417  -0.000002241841885  -0.000005740290175
Si   11.54087  16.97187   0.67887  -0.000005002139927  -0.000005518858183   0.000005117722873
Si   14.25638  16.97187   3.39437   0.000003257386507   0.000000088592282   0.000001623803873
Si   11.54087  19.68737   3.39437  -0.000003226597997  -0.000002237150234   0.000000141079924
Si   14.25638  19.68737   0.67887   0.000005164164123   0.000006184440831  -0.000002242700197
Si   15.61412  18.32963   2.03662   0.000004495402595  -0.000000604125490  -0.000005005118464
Si   15.61412  21.04512   4.75212  -0.000000294719374  -0.000003741848708   0.000000110547471
Si   12.89862  18.32963   4.75212   0.000001562561996  -0.000000634343097  -0.000001075737832
Si   12.89862  21.04512   2.03662  -0.000003287536414   0.000002825876328  -0.000000455089688
Si   11.54087  16.97187   6.10987  -0.000000876749039   0.000003341609639   0.000003805647972
Si   14.25638  16.97187   8.82537  -0.000006436206765  -0.000001291413426  -0.000003267942747
Si   11.54087  19.68737   8.82537   0.000003101126896   0.000002199298672  -0.000000562184590
Si   14.25638  19.68737   6.10987   0.000000097446315   0.000002804792083   0.000001228381306
Si   15.61412  18.32963   7.46762  -0.000002169568366   0.000004054284243  -0.000005257542940
Si   15.61412  21.04512  10.18313   0.000001695924215  -0.000004688456710   0.000002388513715
Si   12.89862  18.32963  10.18313   0.000001146116546   0.000001175222225   0.000007856382791
Si   12.89862  21.04512   7.46762   0.000000894463299   0.000001687805276  -0.000003040899117
Si   11.54087  16.97187  11.54087   0.000003028937170   0.000002452224441   0.000003017663827
Si   14.25638  16.97187  14.25638  -0.000001757191643  -0.000000162018744  -0.000001753506470
Si   11.54087  19.68737  14.25638   0.000002428402374  -0.000002006405634  -0.000004851903967
Si   14.25638  19.68737  11.54087  -0.000004857483964  -0.000002000184157   0.000002432705823
Si   15.61412  18.32963  12.89862  -0.000002243556754  -0.000005750477160  -0.000004212427092
Si   15.61412  21.04512  15.61412  -0.000001180339454  -0.000001069269820  -0.000001176265132
Si   12.89862  18.32963  15.61412  -0.000004214145284  -0.000005744667890  -0.000002246725984
Si   12.89862  21.04512  12.89862  -0.000000591012198  -0.000000526236386  -0.000000596681455
Si   11.54087  16.97187  16.97187  -0.000007474128729   0.000002299230134   0.000002298835789
Si   14.25638  16.97187  19.68737   0.000003075031814  -0.000001801189678  -0.000008988065579
Si   11.54087  19.68737  19.68737  -0.000005192147499   0.000001870110785   0.000001868864321
Si   14.25638  19.68737  16.97187   0.000003080445562  -0.000008983378135  -0.000001799112856
Si   15.61412  18.32963  18.32963  -0.000004299422280  -0.000000069612509  -0.000000070295764
Si   15.61412  21.04512  21.04512  -0.000006574791859   0.000003879268446   0.000003883708499
Si   12.89862  18.32963  21.04512   0.000002134162470   0.000000006602300  -0.000003014915764
Si   12.89862  21.04512  18.32963   0.000002139938395  -0.000003010590669   0.000000005256136
Si   16.97187   0.67888   0.67887   0.000001535574165  -0.000000465015026  -0.000000466693952
Si   19.68737   0.67888   3.39437  -0.000001213779633  -0.000001252983162  -0.000004828715842
Si   16.97187   3.39438   3.39437  -0.000003535312672   0.000000594183268   0.000000600007988
Si   19.68737   3.39438   0.67887  -0.000001213760964  -0.000004824508328  -0.000001249850657
Si   21.04512   2.03662   2.03662  -0.000000004065933  -0.000001574980983  -0.000001562186985
Si   21.04512   4.75212   4.75212  -0.000003452276787   0.000002615310950   0.000002605039629
Si   18.32963   2.03662   4.75212   0.000000651450560   0.000004143363946   0.000000701786804
Si   18.32963   4.75212   2.03662   0.000000649681592   0.000000710438686   0.000004144323070
Si   16.97187   0.67888   6.10987  -0.000000107909193   0.000003735162335   0.000000302231681
Si   19.68737   0.67888   8.82537   0.000000453323165  -0.000002831996702   0.000003282238849
Si   16.97187   3.39438   8.82537   0.000001077002270   0.000000636150569  -0.000001558138850
Si   19.68737   3.39438   6.10987   0.000005002528809   0.000000614785646  -0.000004499724782
Si   21.04512   2.03662   7.46762   0.000002239087794  -0.000006180309450  -0.000005167268869
Si   21.04512   4.75212  10.18313  -0.000005124096686   0.000005522425431   0.000004994669307
Si   18.32963   2.03662  10.18313  -0.000000130305699   0.000002236897025   0.000003228371771
Si   18.32963   4.75212   7.46762  -0.000001630965418  -0.000000099263825  -0.000003258290865
Si   16.97187   0.67888  11.54087  -0.000005522425716   0.000005124096344  -0.000004994669381
Si   19.68737   0.67888  14.25638   0.000006180309338  -0.000002239087673   0.000005167268849
Si   16.97187   3.39438  14.25638   0.000000099263396   0.000001630965302   0.000003258290870
Si   19.68737   3.39438  11.54087  -0.000002236897008   0.000000130305516  -0.000003228371650
Si   21.04512   2.03662  12.89862   0.000002831996742  -0.000000453323009  -0.000003282238889
Si   21.04512   4.75212  15.61412  -0.000003735162544   0.000000107908668  -0.000000302231913
Si   18.32963   2.03662  15.61412  -0.000000614785742  -0.000005002528845   0.000004499724752
Si   18.32963   4.75212  12.89862  -0.000000636150834  -0.000001077002429   0.000001558138524
Si   16.97187   0.67888  16.97187  -0.000002615311456   0.000003452276612  -0.000002605039469
Si   19.68737   0.67888  19.68737   0.000001574980891   0.000000004066021   0.000001562187293
Si   16.97187   3.39438  19.68737  -0.000000710439044  -0.000000649681543  -0.000004144323028
Si   19.68737   3.39438  16.97187  -0.000004143363858  -0.000000651450485  -0.000000701786760
Si   21.04512   2.03662  18.32963   0.000001252983377   0.000001213779403   0.000004828715600
Si   21.04512   4.75212  21.04512   0.000000465014928  -0.000001535574517   0.000000466693867
Si   18.32963   2.03662  21.04512   0.000004824508279   0.000001213760874   0.000001249850530
Si   18.32963   4.75212  18.32963  -0.000000594183471   0.000003535312175  -0.000000600008172
Si   16.97187   6.10987   0.67887  -0.000000109942422   0.000000299959788   0.000003730993335
Si   19.68737   6.10987   3.39437   0.000005010396048  -0.000004495539741   0.000000615366070
Si   16.97187   8.82537   3.39437   0.000001073998639  -0.000001568283638   0.000000646404668
Si   19.68737   8.82537   0.67887   0.000000453055935   0.000003288497109  -0.000002835755331
Si   21.04512   7.46762   2.03662   0.000002253176160  -0.000005173691732  -0.000006187625917
Si   21.04512  10.18313   4.75212  -0.000005125112993   0.000004997697907   0.000005524856621
Si   18.32963   7.46762   4.75212  -0.000001622613655  -0.000003255840917  -0.000000093027337
Si   18.32963  10.18313   2.03662  -0.000000133759449   0.000003226461004   0.000002242236865
Si   16.97187   6.10987   6.10987  -0.000000292597261   0.000001615059435   0.000001616514911
Si   19.68737   6.10987   8.82537  -0.000007179698135   0.000000609404583  -0.000000516021531
Si   16.97187   8.82537   8.82537  -0.000000018089551   0.000001761157059   0.000001764820430
Si   19.68737   8.82537   6.10987  -0.000007187432942  -0.000000515927549   0.000000602555005
Si   21.04512   7.46762   7.46762  -0.000000519450826  -0.000001641164239  -0.000001644452691
Si   21.04512  10.18313  10.18313  -0.000004552488694   0.000003631310525   0.000003632518349
Si   18.32963   7.46762  10.18313   0.000004762688847   0.000002431996438  -0.000006693368499
Si   18.32963  10.18313   7.46762   0.000004757278572  -0.000006692414195   0.000002435055737
Si   16.97187   6.10987  11.54087   0.000003331992485   0.000003820388868  -0.000000879595899
Si   19.68737   6.10987  14.25638   0.000002803881636   0.000001223515520   0.000000101141008
Si   16.97187   8.82537  14.25638  -0.000001291072420  -0.000003259512100  -0.000006433734891
Si   19.68737   8.82537  11.54087   0.000002212104021  -0.000000577521923   0.000003092273439
Si   21.04512   7.46762  12.89862   0.000001687179886  -0.000003037772591   0.000000897475780
Si   21.04512  10.18313  15.61412  -0.000004696339821   0.000002386562596   0.000001708100943
Si   18.32963   7.46762  15.61412   0.000004054158648  -0.000005258227658  -0.000002174581406
Si   18.32963  10.18313  12.89862   0.000001177327703   0.000007858418869   0.000001145545023
Si   16.97187   6.10987  16.97187   0.000000438214734  -0.000000635148259   0.000000429904982
Si   19.68737   6.10987  19.68737  -0.000002693812266   0.000006638763060  -0.000002684284076
Si   16.97187   8.82537  19.68737   0.000003103563468  -0.000002211627208   0.000003492393248
Si   19.68737   8.82537  16.97187   0.000003482912786  -0.000002208015805   0.000003097757932
Si   21.04512   7.46762  18.32963  -0.000004540236182  -0.000000848669283  -0.000001378249166
Si   21.04512  10.18313  21.04512  -0.000001766762584  -0.000004589140450  -0.000001764350256
Si   18.32963   7.46762  21.04512  -0.000001379242184  -0.000000847395300  -0.000004539759805
Si   18.32963  10.18313  18.32963  -0.000004011771601   0.000005765405015  -0.000004015039109
Si   16.97187  11.54087   0.67887  -0.000005518858600  -0.000005002139725   0.000005117722902
Si   19.68737  11.54087   3.39437  -0.000002237149956  -0.000003226597601   0.000000141079802
Si   16.97187  14.25638   3.39437   0.000000088592015   0.000003257386557   0.000001623803605
Si   19.68737  14.25638   0.67887   0.000006184441094   0.000005164164516  -0.000002242700485
Si   21.04512  12.89862   2.03662   0.000002825875920  -0.000003287536438  -0.000000455089410
Si   21.04512  15.61412   4.75212  -0.000003741848893  -0.000000294719562   0.000000110547490
Si   18.32963  12.89862   4.75212  -0.000000634342923   0.000001562562460  -0.000001075737759
Si   18.32963  15.61412   2.03662  -0.000000604125637   0.000004495402647  -0.000005005118236
Si   16.97187  11.54087   6.10987   0.000003341609049  -0.000000876748850   0.000003805647954
Si   19.68737  11.54087   8.82537   0.000002199298692   0.000003101127064  -0.000000562184663
Si   16.97187  14.25638   8.82537  -0.000001291413454  -0.000006436206959  -0.000003267942812
Si   19.68737  14.25638   6.10987   0.000002804792056   0.000000097446486   0.000001228380978
Si   21.04512  12.89862   7.46762   0.000001687805481   0.000000894463253  -0.000003040899287
Si   21.04512  15.61412  10.18313  -0.000004688456850   0.000001695924318   0.000002388513814
Si   18.32963  12.89862  10.18313   0.000001175221914   0.000001146117131   0.000007856382888
Si   18.32963  15.61412   7.46762   0.000004054283960  -0.000002169568196  -0.000005257542803
Si   16.97187  11.54087  11.54087   0.000002452223992   0.000003028937420   0.000003017663721
Si   19.68737  11.54087  14.25638  -0.000002006405270   0.000002428402452  -0.000004851903980
Si   16.97187  14.25638  14.25638  -0.000000162019232  -0.000001757191796  -0.000001753506735
Si   19.68737  14.25638  11.54087  -0.000002000184036  -0.000004857484204   0.000002432705647
Si   21.04512  12.89862  12.89862  -0.000000526236670  -0.000000591011285  -0.000000596681217
Si   21.04512  15.61412  15.61412  -0.000001069269989  -0.000001180339153  -0.000001176265230
Si   18.32963  12.89862  15.61412  -0.000005744668188  -0.000004214144783  -0.000002246725911
Si   18.32963  15.61412  12.89862  -0.000005750477125  -0.000002243556659  -0.000004212426857
Si   16.97187  11.54087  16.97187   0.000002299229719  -0.000007474128467   0.000002298835794
Si   19.68737  11.54087  19.68737   0.000001870110733  -0.000005192146878   0.000001868864221
Si   16.97187  14.25638  19.68737  -0.000001801189627   0.000003075032048  -0.000008988065762
Si   19.68737  14.25638  16.97187  -0.000008983378479   0.000003080445623  -0.000001799112682
Si   21.04512  12.89862  18.32963  -0.000003010590851   0.000002139938109   0.000000005256012
Si   21.04512  15.61412  21.04512   0.000003879268043  -0.000006574791919   0.000003883708630
Si   18.32963  12.89862  21.04512   0.000000006602288   0.000002134162706  -0.000003014915753
Si   18.32963  15.61412  18.32963  -0.000000069612588  -0.000004299422305  -0.000000070295732
Si   16.97187  16.97187   0.67887  -0.000002606994051  -0.000002606993709   0.000003464478744
Si   19.68737  16.97187   3.39437  -0.000004149240415  -0.000000696082616  -0.000000658566107
Si   16.97187  19.68737   3.39437  -0.000000696082573  -0.000004149240115  -0.000000658565825
Si   19.68737  19.68737   0.67887   0.000001560460362   0.000001560460361   0.000000008256520
Si   21.04512  18.32963   2.03662   0.000001247307942   0.000004818928791   0.000001210086863
Si   21.04512  21.04512   4.75212   0.000000480277828   0.000000480277951  -0.000001530422335
Si   18.32963  18.32963   4.75212  -0.000000597301216  -0.000000597300909   0.000003536461219
Si   18.32963  21.04512   2.03662   0.000004818928537   0.000001247308056   0.000001210086855
Si   16.97187  16.97187   6.10987   0.000000438620142   0.000000438620291  -0.000000624144450
Si   19.68737  16.97187   8.82537   0.000003493681817   0.000003103358335  -0.000002216987000
Si   16.97187  19.68737   8.82537   0.000003103358293   0.000003493681777  -0.000002216987050
Si   19.68737  19.68737   6.10987  -0.000002688314108  -0.000002688314060   0.000006644906611
Si   21.04512  18.32963   7.46762  -0.000004542325203  -0.000001378977184  -0.000000848717784
Si   21.04512  21.04512  10.18313  -0.000001773594380  -0.000001773594180  -0.000004589254936
Si   18.32963  18.32963  10.18313  -0.000004014463359  -0.000004014462987   0.000005766532538
Si   18.32963  21.04512   7.46762  -0.000001378977634  -0.000004542325135  -0.000000848717897
Si   16.97187  16.97187  11.54087   0.000002301551347   0.000002301551767  -0.000007467496927
Si   19.68737  16.97187  14.25638  -0.000008992304518  -0.000001799718758   0.000003068041762
Si   16.97187  19.68737  14.25638  -0.000001799718804  -0.000008992304328   0.000003068042015
Si   19.68737  19.68737  11.54087   0.000001858904440   0.000001858904389  -0.000005185812432
Si   21.04512  18.32963  12.89862  -0.000003014259581   0.000000014679574   0.000002137387282
Si   21.04512  21.04512  15.61412   0.000003885450091   0.000003885450271  -0.000006583501640
Si   18.32963  18.32963  15.61412  -0.000000077410106  -0.000000077409887  -0.000004295551645
Si   18.32963  21.04512  12.89862   0.000000014679033  -0.000003014259790   0.000002137387181
Si   16.97187  16.97187  16.97187   0.000001386634046   0.000001386634251   0.000001396132037
Si   19.68737  16.97187  19.68737   0.000004995965909  -0.000006174472082   0.000004988076266
Si   16.97187  19.68737  19.68737  -0.000006174472543   0.000004995965918   0.000004988076266
Si   19.68737  19.68737  16.97187   0.000005003824457   0.000005003824527  -0.000006163735155
Si   21.04512  18.32963  18.32963  -0.000008739324767   0.000000301268129   0.000000300158481
Si   21.04512  21.04512  21.04512  -0.000000287813449  -0.000000287813534  -0.000000281671305
Si   18.32963  18.32963  21.04512   0.000000304039747   0.000000304039713  -0.000008743797187
Si   18.32963  21.04512  18.32963   0.000000301267984  -0.000008739324695   0.000000300158224
