216 

Si    0.67888   0.67888   0.67888   0.000008974336530   0.000008974336343   0.000008955832601
Si    3.39437   0.67888   3.39437  -0.000008974336969   0.000008974336569  -0.000008955832737
Si    0.67888   3.39437   3.39437   0.000008974336527  -0.000008974336602  -0.000008955832896
Si    3.39437   3.39437   0.67888  -0.000008974337059  -0.000008974336871   0.000008955832698
Si    4.75213   2.03662   2.03662   0.000007118414460   0.000000000000062  -0.000000000000026
Si    4.75213   4.75213   4.75213   0.000008157318720   0.000008157318694   0.000008161418142
Si    2.03662   2.03662   4.75213   0.000000000000930   0.000000000000156   0.000007124878579
Si    2.03662   4.75213   2.03662   0.000000000000746   0.000007118414541   0.000000000000228
Si    0.67888   0.67888   6.10987   0.000002872606200   0.000002872606608   0.000000869889554
Si    3.39437   0.67888   8.82538  -0.000008157319193   0.000008157318868   0.000008161418583
Si    0.67888   3.39437   8.82538   0.000008157318340  -0.000008157318901   0.000008161418203
Si    3.39437   3.39437   6.10987  -0.000002872606827  -0.000002872606882   0.000000869889342
Si    4.75213   2.03662   7.46762   0.000002889834855   0.000000875492259  -0.000002885567609
Si    4.75213   4.75213  10.18313   0.000002872606651   0.000002872606571  -0.000000869889268
Si    2.03662   2.03662  10.18313   0.000000000000609  -0.000000000000164  -0.000000000000073
Si    2.03662   4.75213   7.46762   0.000000875492651   0.000002889834909  -0.000002885567282
Si    0.67888   0.67888  11.54087   0.000008157318660   0.000008157318949  -0.000008161418179
Si    3.39437   0.67888  14.25638  -0.000002872607120   0.000002872606548  -0.000000869889579
Si    0.67888   3.39437  14.25638   0.000002872606288  -0.000002872606609  -0.000000869889549
Si    3.39437   3.39437  11.54087  -0.000008157318817  -0.000008157318983  -0.000008161418327
Si    4.75213   2.03662  12.89863   0.000002889834768  -0.000000875492285   0.000002885567424
Si    4.75213   4.75213  15.61412   0.000008974336568   0.000008974336463  -0.000008955832544
Si    2.03662   2.03662  15.61412   0.000000000000956  -0.000000000000288  -0.000007124878421
Si    2.03662   4.75213  12.89863  -0.000000875491625   0.000002889834899   0.000002885567314
Si    0.67888   6.10987   0.67888   0.000002889834712   0.000000875492449   0.000002885567374
Si    3.39437   6.10987   3.39437  -0.000002889835438   0.000000875492310  -0.000002885567222
Si    0.67888   8.82538   3.39437   0.000008157318538   0.000008157318890  -0.000008161418153
Si    3.39437   8.82538   0.67888  -0.000008157319219   0.000008157319027   0.000008161418364
Si    4.75213   7.46762   2.03662   0.000002872606413  -0.000002872606928   0.000000869889298
Si    4.75213  10.18313   4.75213   0.000002889834535  -0.000000875492159   0.000002885567014
Si    2.03662   7.46762   4.75213   0.000000875492602  -0.000002889835080   0.000002885567079
Si    2.03662  10.18313   2.03662   0.000000000000573   0.000000000000231  -0.000000000000042
Si    0.67888   6.10987   6.10987   0.000007118414381   0.000000000000228  -0.000000000000230
Si    3.39437   6.10987   8.82538  -0.000002889835152  -0.000000875492310   0.000002885567070
Si    0.67888   8.82538   8.82538   0.000008974336172   0.000008974336951   0.000008955832724
Si    3.39437   8.82538   6.10987  -0.000002872607031   0.000002872606738  -0.000000869889624
Si    4.75213   7.46762   7.46762   0.000008157318774  -0.000008157318682  -0.000008161418230
Si    4.75213  10.18313  10.18313   0.000007118414201   0.000000000000116   0.000000000000097
Si    2.03662   7.46762  10.18313   0.000000000000731  -0.000007118414546  -0.000000000000066
Si    2.03662  10.18313   7.46762   0.000000000000589  -0.000000000000008  -0.000007124878778
Si    0.67888   6.10987  11.54087   0.000002889834247  -0.000000875492324  -0.000002885567305
Si    3.39437   6.10987  14.25638  -0.000007118414710   0.000000000000142   0.000000000000044
Si    0.67888   8.82538  14.25638   0.000002872606220   0.000002872607011   0.000000869889648
Si    3.39437   8.82538  11.54087  -0.000008974336924   0.000008974336864  -0.000008955832580
Si    4.75213   7.46762  12.89863   0.000008974336222  -0.000008974336635   0.000008955832674
Si    4.75213  10.18313  15.61412   0.000002889834433   0.000000875492194  -0.000002885567151
Si    2.03662   7.46762  15.61412  -0.000000875491596  -0.000002889834905  -0.000002885567046
Si    2.03662  10.18313  12.89863   0.000000000000606   0.000000000000066   0.000007124878776
Si    0.67888  11.54087   0.67888   0.000008157318539  -0.000008157318762   0.000008161418278
Si    3.39437  11.54087   3.39437  -0.000008157319319  -0.000008157318795  -0.000008161418367
Si    0.67888  14.25638   3.39437   0.000002889834529  -0.000000875492318  -0.000002885567315
Si    3.39437  14.25638   0.67888  -0.000002889835424  -0.000000875492470   0.000002885567295
Si    4.75213  12.89863   2.03662   0.000002872606139   0.000002872606865  -0.000000869889358
Si    4.75213  15.61412   4.75213   0.000008974336254  -0.000008974336567   0.000008955832541
Si    2.03662  12.89863   4.75213  -0.000000875491429   0.000002889834919   0.000002885566814
Si    2.03662  15.61412   2.03662   0.000000000000728  -0.000007118414540  -0.000000000000063
Si    0.67888  11.54087   6.10987   0.000002872606263  -0.000002872606793  -0.000000869889536
Si    3.39437  11.54087   8.82538  -0.000008974337263  -0.000008974336691   0.000008955832824
Si    0.67888  14.25638   8.82538   0.000002889834423   0.000000875492121   0.000002885567508
Si    3.39437  14.25638   6.10987  -0.000007118414972   0.000000000000032  -0.000000000000069
Si    4.75213  12.89863   7.46762   0.000008974336190   0.000008974336635  -0.000008955832806
Si    4.75213  15.61412  10.18313   0.000002872606434  -0.000002872606750   0.000000869889518
Si    2.03662  12.89863  10.18313   0.000000000000739   0.000007118414646   0.000000000000172
Si    2.03662  15.61412   7.46762  -0.000000875491458  -0.000002889834966  -0.000002885567462
Si    0.67888  11.54087  11.54087   0.000008974336298  -0.000008974336648  -0.000008955832777
Si    3.39437  11.54087  14.25638  -0.000002872607052  -0.000002872606422   0.000000869889694
Si    0.67888  14.25638  14.25638   0.000007118414253  -0.000000000000203   0.000000000000159
Si    3.39437  14.25638  11.54087  -0.000002889835429   0.000000875492276  -0.000002885567104
Si    4.75213  12.89863  12.89863   0.000008157318537   0.000008157318896   0.000008161418364
Si    4.75213  15.61412  15.61412   0.000008157318605  -0.000008157318668  -0.000008161418368
Si    2.03662  12.89863  15.61412   0.000000875492721   0.000002889834969  -0.000002885567209
Si    2.03662  15.61412  12.89863   0.000000875493043  -0.000002889835053   0.000002885567378
Si    6.10987   0.67888   0.67888   0.000000875492893   0.000002889834928   0.000002885567493
Si    8.82538   0.67888   3.39437   0.000008157318472   0.000008157319251  -0.000008161418208
Si    6.10987   3.39437   3.39437   0.000000875492878  -0.000002889835060  -0.000002885567274
Si    8.82538   3.39437   0.67888   0.000008157318464  -0.000008157318983   0.000008161418237
Si   10.18313   2.03662   2.03662   0.000000000000652   0.000000000000057   0.000000000000118
Si   10.18313   4.75213   4.75213  -0.000000875491655   0.000002889835034   0.000002885567376
Si    7.46762   2.03662   4.75213  -0.000002889835357   0.000000875492128   0.000002885567336
Si    7.46762   4.75213   2.03662  -0.000002872607195   0.000002872606958   0.000000869889564
Si    6.10987   0.67888   6.10987   0.000000000000793   0.000007118414869  -0.000000000000042
Si    8.82538   0.67888   8.82538   0.000008974336367   0.000008974336737   0.000008955832961
Si    6.10987   3.39437   8.82538  -0.000000875491088  -0.000002889835060   0.000002885567382
Si    8.82538   3.39437   6.10987   0.000002872606379  -0.000002872606763  -0.000000869889518
Si   10.18313   2.03662   7.46762   0.000000000000551   0.000000000000106  -0.000007124878464
Si   10.18313   4.75213  10.18313   0.000000000000526   0.000007118414370   0.000000000000047
Si    7.46762   2.03662  10.18313  -0.000007118414746   0.000000000000131   0.000000000000047
Si    7.46762   4.75213   7.46762  -0.000008157318920   0.000008157319000  -0.000008161418073
Si    6.10987   0.67888  11.54087  -0.000000875491209   0.000002889835110  -0.000002885567300
Si    8.82538   0.67888  14.25638   0.000002872606307   0.000002872606930   0.000000869889489
Si    6.10987   3.39437  14.25638   0.000000000000978  -0.000007118414611   0.000000000000006
Si    8.82538   3.39437  11.54087   0.000008974336268  -0.000008974336624  -0.000008955832822
Si   10.18313   2.03662  12.89863   0.000000000000511   0.000000000000164   0.000007124878276
Si   10.18313   4.75213  15.61412   0.000000875492726   0.000002889834979  -0.000002885567488
Si    7.46762   2.03662  15.61412  -0.000002889835387  -0.000000875492062  -0.000002885567442
Si    7.46762   4.75213  12.89863  -0.000008974336810   0.000008974336319   0.000008955832537
Si    6.10987   6.10987   0.67888   0.000000000000952  -0.000000000000147   0.000007124878902
Si    8.82538   6.10987   3.39437   0.000002889834434  -0.000000875492518  -0.000002885567250
Si    6.10987   8.82538   3.39437  -0.000000875491417   0.000002889835031  -0.000002885567028
Si    8.82538   8.82538   0.67888   0.000008974336231   0.000008974336677   0.000008955832863
Si   10.18313   7.46762   2.03662   0.000000000000658  -0.000007118414449  -0.000000000000137
Si   10.18313  10.18313   4.75213   0.000000000000845  -0.000000000000150   0.000007124878693
Si    7.46762   7.46762   4.75213  -0.000008157319051  -0.000008157318977   0.000008161418242
Si    7.46762  10.18313   2.03662  -0.000007118414750  -0.000000000000224   0.000000000000035
Si    6.10987   6.10987   6.10987   0.000000000000809  -0.000000000000167  -0.000000000000063
Si    8.82538   6.10987   8.82538   0.000002889834578   0.000000875492202   0.000002885567387
Si    6.10987   8.82538   8.82538   0.000000875493388   0.000002889834752   0.000002885567161
Si    8.82538   8.82538   6.10987   0.000002872606481   0.000002872606566   0.000000869889528
Si   10.18313   7.46762   7.46762  -0.000000875491660  -0.000002889835058  -0.000002885567066
Si   10.18313  10.18313  10.18313   0.000000000000974   0.000000000000033   0.000000000000245
Si    7.46762   7.46762  10.18313  -0.000002872606959  -0.000002872606852  -0.000000869889600
Si    7.46762  10.18313   7.46762  -0.000002889835389  -0.000000875492326  -0.000002885566946
Si    6.10987   6.10987  11.54087   0.000000000001177  -0.000000000000078  -0.000007124878820
Si    8.82538   6.10987  14.25638   0.000007118414028  -0.000000000000124   0.000000000000122
Si    6.10987   8.82538  14.25638   0.000000000000910   0.000007118414518   0.000000000000012
Si    8.82538   8.82538  11.54087   0.000008157318773   0.000008157318572  -0.000008161418441
Si   10.18313   7.46762  12.89863   0.000000875493058  -0.000002889834896   0.000002885566871
Si   10.18313  10.18313  15.61412   0.000000000000790  -0.000000000000125  -0.000007124878749
Si    7.46762   7.46762  15.61412  -0.000008974336935  -0.000008974336720  -0.000008955832741
Si    7.46762  10.18313  12.89863  -0.000002889835274   0.000000875492330   0.000002885567275
Si    6.10987  11.54087   0.67888  -0.000000875491671  -0.000002889834871   0.000002885566996
Si    8.82538  11.54087   3.39437   0.000008974336268  -0.000008974336683  -0.000008955832815
Si    6.10987  14.25638   3.39437   0.000000000000582   0.000000000000292  -0.000007124878968
Si    8.82538  14.25638   0.67888   0.000002889834441   0.000000875492211   0.000002885567261
Si   10.18313  12.89863   2.03662   0.000000000000543   0.000007118414568   0.000000000000018
Si   10.18313  15.61412   4.75213   0.000000875493005  -0.000002889834951   0.000002885567380
Si    7.46762  12.89863   4.75213  -0.000008974337021   0.000008974336572   0.000008955832717
Si    7.46762  15.61412   2.03662  -0.000002872607254  -0.000002872606840  -0.000000869889661
Si    6.10987  11.54087   6.10987   0.000000000000836  -0.000007118414614  -0.000000000000078
Si    8.82538  11.54087   8.82538   0.000008157318814  -0.000008157318801   0.000008161418164
Si    6.10987  14.25638   8.82538   0.000000000001027   0.000000000000086   0.000007124878944
Si    8.82538  14.25638   6.10987   0.000007118414266   0.000000000000049   0.000000000000117
Si   10.18313  12.89863   7.46762   0.000000875493071   0.000002889834967  -0.000002885566961
Si   10.18313  15.61412  10.18313   0.000000000000595  -0.000007118414466  -0.000000000000161
Si    7.46762  12.89863  10.18313  -0.000002872607209   0.000002872606595   0.000000869889663
Si    7.46762  15.61412   7.46762  -0.000008974336945  -0.000008974336367  -0.000008955832751
Si    6.10987  11.54087  11.54087   0.000000875493233  -0.000002889834745  -0.000002885567252
Si    8.82538  11.54087  14.25638   0.000002872606258  -0.000002872606688  -0.000000869889712
Si    6.10987  14.25638  14.25638   0.000000000000570  -0.000000000000114  -0.000000000000013
Si    8.82538  14.25638  11.54087   0.000002889834836  -0.000000875492119  -0.000002885567287
Si   10.18313  12.89863  12.89863  -0.000000875491515   0.000002889834819   0.000002885567099
Si   10.18313  15.61412  15.61412  -0.000000875491697  -0.000002889834957  -0.000002885567279
Si    7.46762  12.89863  15.61412  -0.000008157319060   0.000008157318982  -0.000008161418235
Si    7.46762  15.61412  12.89863  -0.000008157319201  -0.000008157318733   0.000008161418171
Si   11.54087   0.67888   0.67888  -0.000008157319332   0.000008157318913   0.000008161418202
Si   14.25638   0.67888   3.39437  -0.000000875491110   0.000002889834810  -0.000002885567193
Si   11.54087   3.39437   3.39437  -0.000008157319422  -0.000008157318846  -0.000008161418264
Si   14.25638   3.39437   0.67888  -0.000000875491009  -0.000002889834963   0.000002885567085
Si   15.61412   2.03662   2.03662  -0.000007118415072   0.000000000000047   0.000000000000136
Si   15.61412   4.75213   4.75213  -0.000008974337016   0.000008974336517   0.000008955832865
Si   12.89863   2.03662   4.75213   0.000002889834469  -0.000000875492090   0.000002885567253
Si   12.89863   4.75213   2.03662   0.000002872606381   0.000002872606737  -0.000000869889088
Si   11.54087   0.67888   6.10987  -0.000002872607026   0.000002872606781  -0.000000869889448
Si   14.25638   0.67888   8.82538   0.000000875492891   0.000002889835124   0.000002885567228
Si   11.54087   3.39437   8.82538  -0.000008974337050  -0.000008974336700   0.000008955832768
Si   14.25638   3.39437   6.10987   0.000000000000784  -0.000007118414522   0.000000000000040
Si   15.61412   2.03662   7.46762  -0.000002889835150  -0.000000875492141  -0.000002885567081
Si   15.61412   4.75213  10.18313  -0.000002872607008   0.000002872606776   0.000000869889466
Si   12.89863   2.03662  10.18313   0.000007118414002  -0.000000000000145   0.000000000000128
Si   12.89863   4.75213   7.46762   0.000008974336223   0.000008974336732  -0.000008955832556
Si   11.54087   0.67888  11.54087  -0.000008974336990   0.000008974336894  -0.000008955832640
Si   14.25638   0.67888  14.25638   0.000000000000817   0.000007118414526  -0.000000000000164
Si   11.54087   3.39437  14.25638  -0.000002872607141  -0.000002872606687   0.000000869889323
Si   14.25638   3.39437  11.54087   0.000000875492807  -0.000002889834862  -0.000002885567300
Si   15.61412   2.03662  12.89863  -0.000002889835421   0.000000875491902   0.000002885567226
Si   15.61412   4.75213  15.61412  -0.000008157319244   0.000008157318790  -0.000008161418291
Si   12.89863   2.03662  15.61412   0.000002889834648   0.000000875492123  -0.000002885567386
Si   12.89863   4.75213  12.89863   0.000008157318363   0.000008157318641   0.000008161418087
Si   11.54087   6.10987   0.67888  -0.000002889835558  -0.000000875492238   0.000002885567305
Si   14.25638   6.10987   3.39437   0.000000000000878   0.000000000000351  -0.000007124878690
Si   11.54087   8.82538   3.39437  -0.000008974336901   0.000008974336722  -0.000008955832613
Si   14.25638   8.82538   0.67888   0.000000875493243   0.000002889834987   0.000002885567579
Si   15.61412   7.46762   2.03662  -0.000002872607108  -0.000002872606514  -0.000000869889558
Si   15.61412  10.18313   4.75213  -0.000002889835333   0.000000875492188   0.000002885567115
Si   12.89863   7.46762   4.75213   0.000008974336420  -0.000008974336583   0.000008955832813
Si   12.89863  10.18313   2.03662   0.000007118414389   0.000000000000053  -0.000000000000123
Si   11.54087   6.10987   6.10987  -0.000007118414878  -0.000000000000056  -0.000000000000006
Si   14.25638   6.10987   8.82538   0.000000000000528  -0.000000000000045   0.000007124878797
Si   11.54087   8.82538   8.82538  -0.000008157319498   0.000008157318746   0.000008161418477
Si   14.25638   8.82538   6.10987   0.000000000000789   0.000007118414582  -0.000000000000033
Si   15.61412   7.46762   7.46762  -0.000008974337206  -0.000008974336582  -0.000008955832949
Si   15.61412  10.18313  10.18313  -0.000007118415167   0.000000000000017  -0.000000000000094
Si   12.89863   7.46762  10.18313   0.000002872606338  -0.000002872606762   0.000000869889275
Si   12.89863  10.18313   7.46762   0.000002889834853   0.000000875492295  -0.000002885567432
Si   11.54087   6.10987  11.54087  -0.000002889835439   0.000000875492303  -0.000002885567311
Si   14.25638   6.10987  14.25638   0.000000000000847   0.000000000000144  -0.000000000000051
Si   11.54087   8.82538  14.25638  -0.000002872606901   0.000002872606692  -0.000000869889524
Si   14.25638   8.82538  11.54087  -0.000000875491481   0.000002889835210  -0.000002885567079
Si   15.61412   7.46762  12.89863  -0.000008157319263  -0.000008157318833   0.000008161418349
Si   15.61412  10.18313  15.61412  -0.000002889835140  -0.000000875491987  -0.000002885567290
Si   12.89863   7.46762  15.61412   0.000008157318510  -0.000008157318565  -0.000008161418547
Si   12.89863  10.18313  12.89863   0.000002889834702  -0.000000875492067   0.000002885567186
Si   11.54087  11.54087   0.67888  -0.000008974336768  -0.000008974336871   0.000008955832828
Si   14.25638  11.54087   3.39437   0.000000875493146  -0.000002889834898  -0.000002885567345
Si   11.54087  14.25638   3.39437  -0.000002889835136   0.000000875492324  -0.000002885567187
Si   14.25638  14.25638   0.67888   0.000000000001115  -0.000000000000352   0.000007124878685
Si   15.61412  12.89863   2.03662  -0.000002872606826   0.000002872606573   0.000000869889507
Si   15.61412  15.61412   4.75213  -0.000008157319030  -0.000008157319081   0.000008161418077
Si   12.89863  12.89863   4.75213   0.000008157318576   0.000008157318490   0.000008161418419
Si   12.89863  15.61412   2.03662   0.000002872606357  -0.000002872606769   0.000000869889616
Si   11.54087  11.54087   6.10987  -0.000002872606852  -0.000002872606701   0.000000869889519
Si   14.25638  11.54087   8.82538  -0.000000875491435  -0.000002889835117   0.000002885567470
Si   11.54087  14.25638   8.82538  -0.000002889835424  -0.000000875492222   0.000002885567280
Si   14.25638  14.25638   6.10987   0.000000000000978  -0.000000000000024  -0.000000000000107
Si   15.61412  12.89863   7.46762  -0.000008157319212   0.000008157318917  -0.000008161418395
Si   15.61412  15.61412  10.18313  -0.000002872607069  -0.000002872606956  -0.000000869889542
Si   12.89863  12.89863  10.18313   0.000002872606563   0.000002872606768  -0.000000869889384
Si   12.89863  15.61412   7.46762   0.000008157318312  -0.000008157318924  -0.000008161418055
Si   11.54087  11.54087  11.54087  -0.000008157319350  -0.000008157318980  -0.000008161418314
Si   14.25638  11.54087  14.25638   0.000000000000679  -0.000007118414776   0.000000000000095
Si   11.54087  14.25638  14.25638  -0.000007118414886  -0.000000000000009  -0.000000000000248
Si   14.25638  14.25638  11.54087   0.000000000000618  -0.000000000000130  -0.000007124878803
Si   15.61412  12.89863  12.89863  -0.000008974336865   0.000008974336859   0.000008955832835
Si   15.61412  15.61412  15.61412  -0.000008974336720  -0.000008974336658  -0.000008955832640
Si   12.89863  12.89863  15.61412   0.000008974336621   0.000008974336546  -0.000008955832828
Si   12.89863  15.61412  12.89863   0.000008974336491  -0.000008974336603   0.000008955832484
