12 

C    0.57033   1.27502   0.00000  -0.000385420143814  -0.000938282214011   0.000000000000005
C    1.38939   0.14359   0.00000  -0.001095362555922  -0.000271998562463  -0.000000000000001
C    0.81904  -1.13144   0.00000  -0.000662283022678   0.000741206225807  -0.000000000000032
C   -0.57034  -1.27502   0.00000   0.000370778019204   0.000937175360190   0.000000000000002
C   -1.38939  -0.14359   0.00000   0.001100161156166   0.000269937810743   0.000000000000017
C   -0.81904   1.13144   0.00000   0.000674608610716  -0.000747358562352  -0.000000000000022
H    1.02076   2.28199   0.00000  -0.026528036099869  -0.059377632456025  -0.000000000000007
H    2.48665   0.25700   0.00000  -0.064669584670998  -0.006693733206021   0.000000000000010
H    1.46588  -2.02500   0.00000  -0.038103991888901   0.052660289551108   0.000000000000013
H   -1.02076  -2.28199   0.00000   0.026529665140953   0.059381022478846   0.000000000000002
H   -2.48665  -0.25700   0.00000   0.064669618868728   0.006693384021630   0.000000000000001
H   -1.46588   2.02501   0.00000   0.038099940935699  -0.052654044346871   0.000000000000009
