CRYSTAL
PRIMVEC
  11.895558   0.000000   0.000000
   0.000000   9.912965   0.000000
   0.000000   0.000000   9.912965
PRIMCOORD
9602 1
Cr    0.00000   0.00000   0.00000   0.0 0.0 0.0
Cr    2.00000   0.00000   0.00000   0.0 0.0 0.0
X    -4.886E+00    -4.895E+00    -4.895E+00     0.000E+00     0.000E+00     0.000E+00
X    -4.886E+00    -4.895E+00    -4.399E+00     0.000E+00     0.000E+00     0.000E+00
X    -4.886E+00    -4.895E+00    -3.903E+00     0.000E+00     0.000E+00     0.000E+00
X    -4.886E+00    -4.895E+00    -3.408E+00     0.000E+00     0.000E+00     0.000E+00
X    -4.886E+00    -4.895E+00    -2.912E+00     0.000E+00     0.000E+00     0.000E+00
X    -4.886E+00    -4.895E+00    -2.416E+00     0.000E+00     0.000E+00     0.000E+00
X    -4.886E+00    -4.895E+00    -1.921E+00     0.000E+00     0.000E+00     0.000E+00
X    -4.886E+00    -4.895E+00    -1.425E+00     0.000E+00     0.000E+00     0.000E+00
X    -4.886E+00    -4.895E+00    -9.293E-01     0.000E+00     0.000E+00     0.000E+00
X    -4.886E+00    -4.895E+00    -4.337E-01     0.000E+00     0.000E+00     0.000E+00
X    -4.886E+00    -4.895E+00     6.196E-02     0.000E+00     0.000E+00     0.000E+00
X    -4.886E+00    -4.895E+00     5.576E-01     0.000E+00     0.000E+00     0.000E+00
X    -4.886E+00    -4.895E+00     1.053E+00     0.000E+00     0.000E+00     0.000E+00
X    -4.886E+00    -4.895E+00     1.549E+00     0.000E+00     0.000E+00     0.000E+00
X    -4.886E+00    -4.895E+00     2.045E+00     0.000E+00     0.000E+00     0.000E+00
X    -4.886E+00    -4.895E+00     2.540E+00     0.000E+00     0.000E+00     0.000E+00
X    -4.886E+00    -4.895E+00     3.036E+00     0.000E+00     0.000E+00     0.000E+00
X    -4.886E+00    -4.895E+00     3.531E+00     0.000E+00     0.000E+00     0.000E+00
X    -4.886E+00    -4.895E+00     4.027E+00     0.000E+00     0.000E+00     0.000E+00
X    -4.886E+00    -4.895E+00     4.523E+00     0.000E+00     0.000E+00     0.000E+00
X    -4.886E+00    -4.399E+00    -4.895E+00     0.000E+00     0.000E+00     0.000E+00
X    -4.886E+00    -4.399E+00    -4.399E+00     0.000E+00     0.000E+00     0.000E+00
X    -4.886E+00    -4.399E+00    -3.903E+00     0.000E+00     0.000E+00     0.000E+00
X    -4.886E+00    -4.399E+00    -3.408E+00     0.000E+00     0.000E+00     0.000E+00
X    -4.886E+00    -4.399E+00    -2.912E+00     0.000E+00     0.000E+00     0.000E+00
X    -4.886E+00    -4.399E+00    -2.416E+00     0.000E+00     0.000E+00     0.000E+00
X    -4.886E+00    -4.399E+00    -1.921E+00     0.000E+00     0.000E+00     0.000E+00
X    -4.886E+00    -4.399E+00    -1.425E+00     0.000E+00     0.000E+00     0.000E+00
X    -4.886E+00    -4.399E+00    -9.293E-01     0.000E+00     0.000E+00     0.000E+00
X    -4.886E+00    -4.399E+00    -4.337E-01     0.000E+00     0.000E+00     0.000E+00
X    -4.886E+00    -4.399E+00     6.196E-02     0.000E+00     0.000E+00     0.000E+00
X    -4.886E+00    -4.399E+00     5.576E-01     0.000E+00     0.000E+00     0.000E+00
X    -4.886E+00    -4.399E+00     1.053E+00     0.000E+00     0.000E+00     0.000E+00
X    -4.886E+00    -4.399E+00     1.549E+00     0.000E+00     0.000E+00     0.000E+00
X    -4.886E+00    -4.399E+00     2.045E+00     0.000E+00     0.000E+00     0.000E+00
X    -4.886E+00    -4.399E+00     2.540E+00     0.000E+00     0.000E+00     0.000E+00
X    -4.886E+00    -4.399E+00     3.036E+00     0.000E+00     0.000E+00     0.000E+00
X    -4.886E+00    -4.399E+00     3.531E+00     0.000E+00     0.000E+00     0.000E+00
X    -4.886E+00    -4.399E+00     4.027E+00     0.000E+00     0.000E+00     0.000E+00
X    -4.886E+00    -4.399E+00     4.523E+00     0.000E+00     0.000E+00     0.000E+00
X    -4.886E+00    -3.903E+00    -4.895E+00     0.000E+00     0.000E+00     0.000E+00
X    -4.886E+00    -3.903E+00    -4.399E+00     0.000E+00     0.000E+00     0.000E+00
X    -4.886E+00    -3.903E+00    -3.903E+00     0.000E+00     0.000E+00     0.000E+00
X    -4.886E+00    -3.903E+00    -3.408E+00     0.000E+00     0.000E+00     0.000E+00
X    -4.886E+00    -3.903E+00    -2.912E+00     0.000E+00     0.000E+00     0.000E+00
X    -4.886E+00    -3.903E+00    -2.416E+00     0.000E+00     0.000E+00     0.000E+00
X    -4.886E+00    -3.903E+00    -1.921E+00     0.000E+00     0.000E+00     0.000E+00
X    -4.886E+00    -3.903E+00    -1.425E+00     0.000E+00     0.000E+00     0.000E+00
X    -4.886E+00    -3.903E+00    -9.293E-01     0.000E+00     0.000E+00     0.000E+00
X    -4.886E+00    -3.903E+00    -4.337E-01     0.000E+00     0.000E+00     0.000E+00
X    -4.886E+00    -3.903E+00     6.196E-02     0.000E+00     0.000E+00     0.000E+00
X    -4.886E+00    -3.903E+00     5.576E-01     0.000E+00     0.000E+00     0.000E+00
X    -4.886E+00    -3.903E+00     1.053E+00     0.000E+00     0.000E+00     0.000E+00
X    -4.886E+00    -3.903E+00     1.549E+00     0.000E+00     0.000E+00     0.000E+00
X    -4.886E+00    -3.903E+00     2.045E+00     0.000E+00     0.000E+00     0.000E+00
X    -4.886E+00    -3.903E+00     2.540E+00     0.000E+00     0.000E+00     0.000E+00
X    -4.886E+00    -3.903E+00     3.036E+00     0.000E+00     0.000E+00     0.000E+00
X    -4.886E+00    -3.903E+00     3.531E+00     0.000E+00     0.000E+00     0.000E+00
X    -4.886E+00    -3.903E+00     4.027E+00     0.000E+00     0.000E+00     0.000E+00
X    -4.886E+00    -3.903E+00     4.523E+00     0.000E+00     0.000E+00     0.000E+00
X    -4.886E+00    -3.408E+00    -4.895E+00     0.000E+00     0.000E+00     0.000E+00
X    -4.886E+00    -3.408E+00    -4.399E+00     0.000E+00     0.000E+00     0.000E+00
X    -4.886E+00    -3.408E+00    -3.903E+00     0.000E+00     0.000E+00     0.000E+00
X    -4.886E+00    -3.408E+00    -3.408E+00     0.000E+00     0.000E+00     0.000E+00
X    -4.886E+00    -3.408E+00    -2.912E+00     0.000E+00     0.000E+00     0.000E+00
X    -4.886E+00    -3.408E+00    -2.416E+00     0.000E+00     0.000E+00     0.000E+00
X    -4.886E+00    -3.408E+00    -1.921E+00     0.000E+00     0.000E+00     0.000E+00
X    -4.886E+00    -3.408E+00    -1.425E+00     0.000E+00     0.000E+00     0.000E+00
X    -4.886E+00    -3.408E+00    -9.293E-01     0.000E+00     0.000E+00     0.000E+00
X    -4.886E+00    -3.408E+00    -4.337E-01     0.000E+00     0.000E+00     0.000E+00
X    -4.886E+00    -3.408E+00     6.196E-02     0.000E+00     0.000E+00     0.000E+00
X    -4.886E+00    -3.408E+00     5.576E-01     0.000E+00     0.000E+00     0.000E+00
X    -4.886E+00    -3.408E+00     1.053E+00     0.000E+00     0.000E+00     0.000E+00
X    -4.886E+00    -3.408E+00     1.549E+00     0.000E+00     0.000E+00     0.000E+00
X    -4.886E+00    -3.408E+00     2.045E+00     0.000E+00     0.000E+00     0.000E+00
X    -4.886E+00    -3.408E+00     2.540E+00     0.000E+00     0.000E+00     0.000E+00
X    -4.886E+00    -3.408E+00     3.036E+00     0.000E+00     0.000E+00     0.000E+00
X    -4.886E+00    -3.408E+00     3.531E+00     0.000E+00     0.000E+00     0.000E+00
X    -4.886E+00    -3.408E+00     4.027E+00     0.000E+00     0.000E+00     0.000E+00
X    -4.886E+00    -3.408E+00     4.523E+00     0.000E+00     0.000E+00     0.000E+00
X    -4.886E+00    -2.912E+00    -4.895E+00     0.000E+00     0.000E+00     0.000E+00
X    -4.886E+00    -2.912E+00    -4.399E+00     0.000E+00     0.000E+00     0.000E+00
X    -4.886E+00    -2.912E+00    -3.903E+00     0.000E+00     0.000E+00     0.000E+00
X    -4.886E+00    -2.912E+00    -3.408E+00     0.000E+00     0.000E+00     0.000E+00
X    -4.886E+00    -2.912E+00    -2.912E+00     0.000E+00     0.000E+00     0.000E+00
X    -4.886E+00    -2.912E+00    -2.416E+00     0.000E+00     0.000E+00     0.000E+00
X    -4.886E+00    -2.912E+00    -1.921E+00     0.000E+00     0.000E+00     0.000E+00
X    -4.886E+00    -2.912E+00    -1.425E+00     0.000E+00     0.000E+00     0.000E+00
X    -4.886E+00    -2.912E+00    -9.293E-01     0.000E+00     0.000E+00     0.000E+00
X    -4.886E+00    -2.912E+00    -4.337E-01     0.000E+00     0.000E+00     0.000E+00
X    -4.886E+00    -2.912E+00     6.196E-02     0.000E+00     0.000E+00     0.000E+00
X    -4.886E+00    -2.912E+00     5.576E-01     0.000E+00     0.000E+00     0.000E+00
X    -4.886E+00    -2.912E+00     1.053E+00     0.000E+00     0.000E+00     0.000E+00
X    -4.886E+00    -2.912E+00     1.549E+00     0.000E+00     0.000E+00     0.000E+00
X    -4.886E+00    -2.912E+00     2.045E+00     0.000E+00     0.000E+00     0.000E+00
X    -4.886E+00    -2.912E+00     2.540E+00     0.000E+00     0.000E+00     0.000E+00
X    -4.886E+00    -2.912E+00     3.036E+00     0.000E+00     0.000E+00     0.000E+00
X    -4.886E+00    -2.912E+00     3.531E+00     0.000E+00     0.000E+00     0.000E+00
X    -4.886E+00    -2.912E+00     4.027E+00     0.000E+00     0.000E+00     0.000E+00
X    -4.886E+00    -2.912E+00     4.523E+00     0.000E+00     0.000E+00     0.000E+00
X    -4.886E+00    -2.416E+00    -4.895E+00     0.000E+00     0.000E+00     0.000E+00
X    -4.886E+00    -2.416E+00    -4.399E+00     0.000E+00     0.000E+00     0.000E+00
X    -4.886E+00    -2.416E+00    -3.903E+00     0.000E+00     0.000E+00     0.000E+00
X    -4.886E+00    -2.416E+00    -3.408E+00     0.000E+00     0.000E+00     0.000E+00
X    -4.886E+00    -2.416E+00    -2.912E+00     0.000E+00     0.000E+00     0.000E+00
X    -4.886E+00    -2.416E+00    -2.416E+00     0.000E+00     0.000E+00     0.000E+00
X    -4.886E+00    -2.416E+00    -1.921E+00     0.000E+00     0.000E+00     0.000E+00
X    -4.886E+00    -2.416E+00    -1.425E+00     0.000E+00     0.000E+00     0.000E+00
X    -4.886E+00    -2.416E+00    -9.293E-01     0.000E+00     0.000E+00     0.000E+00
X    -4.886E+00    -2.416E+00    -4.337E-01     0.000E+00     0.000E+00     0.000E+00
X    -4.886E+00    -2.416E+00     6.196E-02     0.000E+00     0.000E+00     0.000E+00
X    -4.886E+00    -2.416E+00     5.576E-01     0.000E+00     0.000E+00     0.000E+00
X    -4.886E+00    -2.416E+00     1.053E+00     0.000E+00     0.000E+00     0.000E+00
X    -4.886E+00    -2.416E+00     1.549E+00     0.000E+00     0.000E+00     0.000E+00
X    -4.886E+00    -2.416E+00     2.045E+00     0.000E+00     0.000E+00     0.000E+00
X    -4.886E+00    -2.416E+00     2.540E+00     0.000E+00     0.000E+00     0.000E+00
X    -4.886E+00    -2.416E+00     3.036E+00     0.000E+00     0.000E+00     0.000E+00
X    -4.886E+00    -2.416E+00     3.531E+00     0.000E+00     0.000E+00     0.000E+00
X    -4.886E+00    -2.416E+00     4.027E+00     0.000E+00     0.000E+00     0.000E+00
X    -4.886E+00    -2.416E+00     4.523E+00     0.000E+00     0.000E+00     0.000E+00
X    -4.886E+00    -1.921E+00    -4.895E+00     0.000E+00     0.000E+00     0.000E+00
X    -4.886E+00    -1.921E+00    -4.399E+00     0.000E+00     0.000E+00     0.000E+00
X    -4.886E+00    -1.921E+00    -3.903E+00     0.000E+00     0.000E+00     0.000E+00
X    -4.886E+00    -1.921E+00    -3.408E+00     0.000E+00     0.000E+00     0.000E+00
X    -4.886E+00    -1.921E+00    -2.912E+00     0.000E+00     0.000E+00     0.000E+00
X    -4.886E+00    -1.921E+00    -2.416E+00     0.000E+00     0.000E+00     0.000E+00
X    -4.886E+00    -1.921E+00    -1.921E+00     0.000E+00     0.000E+00     0.000E+00
X    -4.886E+00    -1.921E+00    -1.425E+00     0.000E+00     0.000E+00     0.000E+00
X    -4.886E+00    -1.921E+00    -9.293E-01     0.000E+00     0.000E+00     0.000E+00
X    -4.886E+00    -1.921E+00    -4.337E-01     0.000E+00     0.000E+00     0.000E+00
X    -4.886E+00    -1.921E+00     6.196E-02     0.000E+00     0.000E+00     0.000E+00
X    -4.886E+00    -1.921E+00     5.576E-01     0.000E+00     0.000E+00     0.000E+00
X    -4.886E+00    -1.921E+00     1.053E+00     0.000E+00     0.000E+00     0.000E+00
X    -4.886E+00    -1.921E+00     1.549E+00     0.000E+00     0.000E+00     0.000E+00
X    -4.886E+00    -1.921E+00     2.045E+00     0.000E+00     0.000E+00     0.000E+00
X    -4.886E+00    -1.921E+00     2.540E+00     0.000E+00     0.000E+00     0.000E+00
X    -4.886E+00    -1.921E+00     3.036E+00     0.000E+00     0.000E+00     0.000E+00
X    -4.886E+00    -1.921E+00     3.531E+00     0.000E+00     0.000E+00     0.000E+00
X    -4.886E+00    -1.921E+00     4.027E+00     0.000E+00     0.000E+00     0.000E+00
X    -4.886E+00    -1.921E+00     4.523E+00     0.000E+00     0.000E+00     0.000E+00
X    -4.886E+00    -1.425E+00    -4.895E+00     0.000E+00     0.000E+00     0.000E+00
X    -4.886E+00    -1.425E+00    -4.399E+00     0.000E+00     0.000E+00     0.000E+00
X    -4.886E+00    -1.425E+00    -3.903E+00     0.000E+00     0.000E+00     0.000E+00
X    -4.886E+00    -1.425E+00    -3.408E+00     0.000E+00     0.000E+00     0.000E+00
X    -4.886E+00    -1.425E+00    -2.912E+00     0.000E+00     0.000E+00     0.000E+00
X    -4.886E+00    -1.425E+00    -2.416E+00     0.000E+00     0.000E+00     0.000E+00
X    -4.886E+00    -1.425E+00    -1.921E+00     0.000E+00     0.000E+00     0.000E+00
X    -4.886E+00    -1.425E+00    -1.425E+00     0.000E+00     0.000E+00     0.000E+00
X    -4.886E+00    -1.425E+00    -9.293E-01     0.000E+00     0.000E+00     0.000E+00
X    -4.886E+00    -1.425E+00    -4.337E-01     0.000E+00     0.000E+00     0.000E+00
X    -4.886E+00    -1.425E+00     6.196E-02     0.000E+00     0.000E+00     0.000E+00
X    -4.886E+00    -1.425E+00     5.576E-01     0.000E+00     0.000E+00     0.000E+00
X    -4.886E+00    -1.425E+00     1.053E+00     0.000E+00     0.000E+00     0.000E+00
X    -4.886E+00    -1.425E+00     1.549E+00     0.000E+00     0.000E+00     0.000E+00
X    -4.886E+00    -1.425E+00     2.045E+00     0.000E+00     0.000E+00     0.000E+00
X    -4.886E+00    -1.425E+00     2.540E+00     0.000E+00     0.000E+00     0.000E+00
X    -4.886E+00    -1.425E+00     3.036E+00     0.000E+00     0.000E+00     0.000E+00
X    -4.886E+00    -1.425E+00     3.531E+00     0.000E+00     0.000E+00     0.000E+00
X    -4.886E+00    -1.425E+00     4.027E+00     0.000E+00     0.000E+00     0.000E+00
X    -4.886E+00    -1.425E+00     4.523E+00     0.000E+00     0.000E+00     0.000E+00
X    -4.886E+00    -9.293E-01    -4.895E+00     0.000E+00     0.000E+00     0.000E+00
X    -4.886E+00    -9.293E-01    -4.399E+00     0.000E+00     0.000E+00     0.000E+00
X    -4.886E+00    -9.293E-01    -3.903E+00     0.000E+00     0.000E+00     0.000E+00
X    -4.886E+00    -9.293E-01    -3.408E+00     0.000E+00     0.000E+00     0.000E+00
X    -4.886E+00    -9.293E-01    -2.912E+00     0.000E+00     0.000E+00     0.000E+00
X    -4.886E+00    -9.293E-01    -2.416E+00     0.000E+00     0.000E+00     0.000E+00
X    -4.886E+00    -9.293E-01    -1.921E+00     0.000E+00     0.000E+00     0.000E+00
X    -4.886E+00    -9.293E-01    -1.425E+00     0.000E+00     0.000E+00     0.000E+00
X    -4.886E+00    -9.293E-01    -9.293E-01     0.000E+00     0.000E+00     0.000E+00
X    -4.886E+00    -9.293E-01    -4.337E-01     0.000E+00     0.000E+00     0.000E+00
X    -4.886E+00    -9.293E-01     6.196E-02     0.000E+00     0.000E+00     0.000E+00
X    -4.886E+00    -9.293E-01     5.576E-01     0.000E+00     0.000E+00     0.000E+00
X    -4.886E+00    -9.293E-01     1.053E+00     0.000E+00     0.000E+00     0.000E+00
X    -4.886E+00    -9.293E-01     1.549E+00     0.000E+00     0.000E+00     0.000E+00
X    -4.886E+00    -9.293E-01     2.045E+00     0.000E+00     0.000E+00     0.000E+00
X    -4.886E+00    -9.293E-01     2.540E+00     0.000E+00     0.000E+00     0.000E+00
X    -4.886E+00    -9.293E-01     3.036E+00     0.000E+00     0.000E+00     0.000E+00
X    -4.886E+00    -9.293E-01     3.531E+00     0.000E+00     0.000E+00     0.000E+00
X    -4.886E+00    -9.293E-01     4.027E+00     0.000E+00     0.000E+00     0.000E+00
X    -4.886E+00    -9.293E-01     4.523E+00     0.000E+00     0.000E+00     0.000E+00
X    -4.886E+00    -4.337E-01    -4.895E+00     0.000E+00     0.000E+00     0.000E+00
X    -4.886E+00    -4.337E-01    -4.399E+00     0.000E+00     0.000E+00     0.000E+00
X    -4.886E+00    -4.337E-01    -3.903E+00     0.000E+00     0.000E+00     0.000E+00
X    -4.886E+00    -4.337E-01    -3.408E+00     0.000E+00     0.000E+00     0.000E+00
X    -4.886E+00    -4.337E-01    -2.912E+00     0.000E+00     0.000E+00     0.000E+00
X    -4.886E+00    -4.337E-01    -2.416E+00     0.000E+00     0.000E+00     0.000E+00
X    -4.886E+00    -4.337E-01    -1.921E+00     0.000E+00     0.000E+00     0.000E+00
X    -4.886E+00    -4.337E-01    -1.425E+00     0.000E+00     0.000E+00     0.000E+00
X    -4.886E+00    -4.337E-01    -9.293E-01     0.000E+00     0.000E+00     0.000E+00
X    -4.886E+00    -4.337E-01    -4.337E-01     0.000E+00     0.000E+00     0.000E+00
X    -4.886E+00    -4.337E-01     6.196E-02     0.000E+00     0.000E+00     0.000E+00
X    -4.886E+00    -4.337E-01     5.576E-01     0.000E+00     0.000E+00     0.000E+00
X    -4.886E+00    -4.337E-01     1.053E+00     0.000E+00     0.000E+00     0.000E+00
X    -4.886E+00    -4.337E-01     1.549E+00     0.000E+00     0.000E+00     0.000E+00
X    -4.886E+00    -4.337E-01     2.045E+00     0.000E+00     0.000E+00     0.000E+00
X    -4.886E+00    -4.337E-01     2.540E+00     0.000E+00     0.000E+00     0.000E+00
X    -4.886E+00    -4.337E-01     3.036E+00     0.000E+00     0.000E+00     0.000E+00
X    -4.886E+00    -4.337E-01     3.531E+00     0.000E+00     0.000E+00     0.000E+00
X    -4.886E+00    -4.337E-01     4.027E+00     0.000E+00     0.000E+00     0.000E+00
X    -4.886E+00    -4.337E-01     4.523E+00     0.000E+00     0.000E+00     0.000E+00
X    -4.886E+00     6.196E-02    -4.895E+00     0.000E+00     0.000E+00     0.000E+00
X    -4.886E+00     6.196E-02    -4.399E+00     0.000E+00     0.000E+00     0.000E+00
X    -4.886E+00     6.196E-02    -3.903E+00     0.000E+00     0.000E+00     0.000E+00
X    -4.886E+00     6.196E-02    -3.408E+00     0.000E+00     0.000E+00     0.000E+00
X    -4.886E+00     6.196E-02    -2.912E+00     0.000E+00     0.000E+00     0.000E+00
X    -4.886E+00     6.196E-02    -2.416E+00     0.000E+00     0.000E+00     0.000E+00
X    -4.886E+00     6.196E-02    -1.921E+00     0.000E+00     0.000E+00     0.000E+00
X    -4.886E+00     6.196E-02    -1.425E+00     0.000E+00     0.000E+00     0.000E+00
X    -4.886E+00     6.196E-02    -9.293E-01     0.000E+00     0.000E+00     0.000E+00
X    -4.886E+00     6.196E-02    -4.337E-01     0.000E+00     0.000E+00     0.000E+00
X    -4.886E+00     6.196E-02     6.196E-02     0.000E+00     0.000E+00     0.000E+00
X    -4.886E+00     6.196E-02     5.576E-01     0.000E+00     0.000E+00     0.000E+00
X    -4.886E+00     6.196E-02     1.053E+00     0.000E+00     0.000E+00     0.000E+00
X    -4.886E+00     6.196E-02     1.549E+00     0.000E+00     0.000E+00     0.000E+00
X    -4.886E+00     6.196E-02     2.045E+00     0.000E+00     0.000E+00     0.000E+00
X    -4.886E+00     6.196E-02     2.540E+00     0.000E+00     0.000E+00     0.000E+00
X    -4.886E+00     6.196E-02     3.036E+00     0.000E+00     0.000E+00     0.000E+00
X    -4.886E+00     6.196E-02     3.531E+00     0.000E+00     0.000E+00     0.000E+00
X    -4.886E+00     6.196E-02     4.027E+00     0.000E+00     0.000E+00     0.000E+00
X    -4.886E+00     6.196E-02     4.523E+00     0.000E+00     0.000E+00     0.000E+00
X    -4.886E+00     5.576E-01    -4.895E+00     0.000E+00     0.000E+00     0.000E+00
X    -4.886E+00     5.576E-01    -4.399E+00     0.000E+00     0.000E+00     0.000E+00
X    -4.886E+00     5.576E-01    -3.903E+00     0.000E+00     0.000E+00     0.000E+00
X    -4.886E+00     5.576E-01    -3.408E+00     0.000E+00     0.000E+00     0.000E+00
X    -4.886E+00     5.576E-01    -2.912E+00     0.000E+00     0.000E+00     0.000E+00
X    -4.886E+00     5.576E-01    -2.416E+00     0.000E+00     0.000E+00     0.000E+00
X    -4.886E+00     5.576E-01    -1.921E+00     0.000E+00     0.000E+00     0.000E+00
X    -4.886E+00     5.576E-01    -1.425E+00     0.000E+00     0.000E+00     0.000E+00
X    -4.886E+00     5.576E-01    -9.293E-01     0.000E+00     0.000E+00     0.000E+00
X    -4.886E+00     5.576E-01    -4.337E-01     0.000E+00     0.000E+00     0.000E+00
X    -4.886E+00     5.576E-01     6.196E-02     0.000E+00     0.000E+00     0.000E+00
X    -4.886E+00     5.576E-01     5.576E-01     0.000E+00     0.000E+00     0.000E+00
X    -4.886E+00     5.576E-01     1.053E+00     0.000E+00     0.000E+00     0.000E+00
X    -4.886E+00     5.576E-01     1.549E+00     0.000E+00     0.000E+00     0.000E+00
X    -4.886E+00     5.576E-01     2.045E+00     0.000E+00     0.000E+00     0.000E+00
X    -4.886E+00     5.576E-01     2.540E+00     0.000E+00     0.000E+00     0.000E+00
X    -4.886E+00     5.576E-01     3.036E+00     0.000E+00     0.000E+00     0.000E+00
X    -4.886E+00     5.576E-01     3.531E+00     0.000E+00     0.000E+00     0.000E+00
X    -4.886E+00     5.576E-01     4.027E+00     0.000E+00     0.000E+00     0.000E+00
X    -4.886E+00     5.576E-01     4.523E+00     0.000E+00     0.000E+00     0.000E+00
X    -4.886E+00     1.053E+00    -4.895E+00     0.000E+00     0.000E+00     0.000E+00
X    -4.886E+00     1.053E+00    -4.399E+00     0.000E+00     0.000E+00     0.000E+00
X    -4.886E+00     1.053E+00    -3.903E+00     0.000E+00     0.000E+00     0.000E+00
X    -4.886E+00     1.053E+00    -3.408E+00     0.000E+00     0.000E+00     0.000E+00
X    -4.886E+00     1.053E+00    -2.912E+00     0.000E+00     0.000E+00     0.000E+00
X    -4.886E+00     1.053E+00    -2.416E+00     0.000E+00     0.000E+00     0.000E+00
X    -4.886E+00     1.053E+00    -1.921E+00     0.000E+00     0.000E+00     0.000E+00
X    -4.886E+00     1.053E+00    -1.425E+00     0.000E+00     0.000E+00     0.000E+00
X    -4.886E+00     1.053E+00    -9.293E-01     0.000E+00     0.000E+00     0.000E+00
X    -4.886E+00     1.053E+00    -4.337E-01     0.000E+00     0.000E+00     0.000E+00
X    -4.886E+00     1.053E+00     6.196E-02     0.000E+00     0.000E+00     0.000E+00
X    -4.886E+00     1.053E+00     5.576E-01     0.000E+00     0.000E+00     0.000E+00
X    -4.886E+00     1.053E+00     1.053E+00     0.000E+00     0.000E+00     0.000E+00
X    -4.886E+00     1.053E+00     1.549E+00     0.000E+00     0.000E+00     0.000E+00
X    -4.886E+00     1.053E+00     2.045E+00     0.000E+00     0.000E+00     0.000E+00
X    -4.886E+00     1.053E+00     2.540E+00     0.000E+00     0.000E+00     0.000E+00
X    -4.886E+00     1.053E+00     3.036E+00     0.000E+00     0.000E+00     0.000E+00
X    -4.886E+00     1.053E+00     3.531E+00     0.000E+00     0.000E+00     0.000E+00
X    -4.886E+00     1.053E+00     4.027E+00     0.000E+00     0.000E+00     0.000E+00
X    -4.886E+00     1.053E+00     4.523E+00     0.000E+00     0.000E+00     0.000E+00
X    -4.886E+00     1.549E+00    -4.895E+00     0.000E+00     0.000E+00     0.000E+00
X    -4.886E+00     1.549E+00    -4.399E+00     0.000E+00     0.000E+00     0.000E+00
X    -4.886E+00     1.549E+00    -3.903E+00     0.000E+00     0.000E+00     0.000E+00
X    -4.886E+00     1.549E+00    -3.408E+00     0.000E+00     0.000E+00     0.000E+00
X    -4.886E+00     1.549E+00    -2.912E+00     0.000E+00     0.000E+00     0.000E+00
X    -4.886E+00     1.549E+00    -2.416E+00     0.000E+00     0.000E+00     0.000E+00
X    -4.886E+00     1.549E+00    -1.921E+00     0.000E+00     0.000E+00     0.000E+00
X    -4.886E+00     1.549E+00    -1.425E+00     0.000E+00     0.000E+00     0.000E+00
X    -4.886E+00     1.549E+00    -9.293E-01     0.000E+00     0.000E+00     0.000E+00
X    -4.886E+00     1.549E+00    -4.337E-01     0.000E+00     0.000E+00     0.000E+00
X    -4.886E+00     1.549E+00     6.196E-02     0.000E+00     0.000E+00     0.000E+00
X    -4.886E+00     1.549E+00     5.576E-01     0.000E+00     0.000E+00     0.000E+00
X    -4.886E+00     1.549E+00     1.053E+00     0.000E+00     0.000E+00     0.000E+00
X    -4.886E+00     1.549E+00     1.549E+00     0.000E+00     0.000E+00     0.000E+00
X    -4.886E+00     1.549E+00     2.045E+00     0.000E+00     0.000E+00     0.000E+00
X    -4.886E+00     1.549E+00     2.540E+00     0.000E+00     0.000E+00     0.000E+00
X    -4.886E+00     1.549E+00     3.036E+00     0.000E+00     0.000E+00     0.000E+00
X    -4.886E+00     1.549E+00     3.531E+00     0.000E+00     0.000E+00     0.000E+00
X    -4.886E+00     1.549E+00     4.027E+00     0.000E+00     0.000E+00     0.000E+00
X    -4.886E+00     1.549E+00     4.523E+00     0.000E+00     0.000E+00     0.000E+00
X    -4.886E+00     2.045E+00    -4.895E+00     0.000E+00     0.000E+00     0.000E+00
X    -4.886E+00     2.045E+00    -4.399E+00     0.000E+00     0.000E+00     0.000E+00
X    -4.886E+00     2.045E+00    -3.903E+00     0.000E+00     0.000E+00     0.000E+00
X    -4.886E+00     2.045E+00    -3.408E+00     0.000E+00     0.000E+00     0.000E+00
X    -4.886E+00     2.045E+00    -2.912E+00     0.000E+00     0.000E+00     0.000E+00
X    -4.886E+00     2.045E+00    -2.416E+00     0.000E+00     0.000E+00     0.000E+00
X    -4.886E+00     2.045E+00    -1.921E+00     0.000E+00     0.000E+00     0.000E+00
X    -4.886E+00     2.045E+00    -1.425E+00     0.000E+00     0.000E+00     0.000E+00
X    -4.886E+00     2.045E+00    -9.293E-01     0.000E+00     0.000E+00     0.000E+00
X    -4.886E+00     2.045E+00    -4.337E-01     0.000E+00     0.000E+00     0.000E+00
X    -4.886E+00     2.045E+00     6.196E-02     0.000E+00     0.000E+00     0.000E+00
X    -4.886E+00     2.045E+00     5.576E-01     0.000E+00     0.000E+00     0.000E+00
X    -4.886E+00     2.045E+00     1.053E+00     0.000E+00     0.000E+00     0.000E+00
X    -4.886E+00     2.045E+00     1.549E+00     0.000E+00     0.000E+00     0.000E+00
X    -4.886E+00     2.045E+00     2.045E+00     0.000E+00     0.000E+00     0.000E+00
X    -4.886E+00     2.045E+00     2.540E+00     0.000E+00     0.000E+00     0.000E+00
X    -4.886E+00     2.045E+00     3.036E+00     0.000E+00     0.000E+00     0.000E+00
X    -4.886E+00     2.045E+00     3.531E+00     0.000E+00     0.000E+00     0.000E+00
X    -4.886E+00     2.045E+00     4.027E+00     0.000E+00     0.000E+00     0.000E+00
X    -4.886E+00     2.045E+00     4.523E+00     0.000E+00     0.000E+00     0.000E+00
X    -4.886E+00     2.540E+00    -4.895E+00     0.000E+00     0.000E+00     0.000E+00
X    -4.886E+00     2.540E+00    -4.399E+00     0.000E+00     0.000E+00     0.000E+00
X    -4.886E+00     2.540E+00    -3.903E+00     0.000E+00     0.000E+00     0.000E+00
X    -4.886E+00     2.540E+00    -3.408E+00     0.000E+00     0.000E+00     0.000E+00
X    -4.886E+00     2.540E+00    -2.912E+00     0.000E+00     0.000E+00     0.000E+00
X    -4.886E+00     2.540E+00    -2.416E+00     0.000E+00     0.000E+00     0.000E+00
X    -4.886E+00     2.540E+00    -1.921E+00     0.000E+00     0.000E+00     0.000E+00
X    -4.886E+00     2.540E+00    -1.425E+00     0.000E+00     0.000E+00     0.000E+00
X    -4.886E+00     2.540E+00    -9.293E-01     0.000E+00     0.000E+00     0.000E+00
X    -4.886E+00     2.540E+00    -4.337E-01     0.000E+00     0.000E+00     0.000E+00
X    -4.886E+00     2.540E+00     6.196E-02     0.000E+00     0.000E+00     0.000E+00
X    -4.886E+00     2.540E+00     5.576E-01     0.000E+00     0.000E+00     0.000E+00
X    -4.886E+00     2.540E+00     1.053E+00     0.000E+00     0.000E+00     0.000E+00
X    -4.886E+00     2.540E+00     1.549E+00     0.000E+00     0.000E+00     0.000E+00
X    -4.886E+00     2.540E+00     2.045E+00     0.000E+00     0.000E+00     0.000E+00
X    -4.886E+00     2.540E+00     2.540E+00     0.000E+00     0.000E+00     0.000E+00
X    -4.886E+00     2.540E+00     3.036E+00     0.000E+00     0.000E+00     0.000E+00
X    -4.886E+00     2.540E+00     3.531E+00     0.000E+00     0.000E+00     0.000E+00
X    -4.886E+00     2.540E+00     4.027E+00     0.000E+00     0.000E+00     0.000E+00
X    -4.886E+00     2.540E+00     4.523E+00     0.000E+00     0.000E+00     0.000E+00
X    -4.886E+00     3.036E+00    -4.895E+00     0.000E+00     0.000E+00     0.000E+00
X    -4.886E+00     3.036E+00    -4.399E+00     0.000E+00     0.000E+00     0.000E+00
X    -4.886E+00     3.036E+00    -3.903E+00     0.000E+00     0.000E+00     0.000E+00
X    -4.886E+00     3.036E+00    -3.408E+00     0.000E+00     0.000E+00     0.000E+00
X    -4.886E+00     3.036E+00    -2.912E+00     0.000E+00     0.000E+00     0.000E+00
X    -4.886E+00     3.036E+00    -2.416E+00     0.000E+00     0.000E+00     0.000E+00
X    -4.886E+00     3.036E+00    -1.921E+00     0.000E+00     0.000E+00     0.000E+00
X    -4.886E+00     3.036E+00    -1.425E+00     0.000E+00     0.000E+00     0.000E+00
X    -4.886E+00     3.036E+00    -9.293E-01     0.000E+00     0.000E+00     0.000E+00
X    -4.886E+00     3.036E+00    -4.337E-01     0.000E+00     0.000E+00     0.000E+00
X    -4.886E+00     3.036E+00     6.196E-02     0.000E+00     0.000E+00     0.000E+00
X    -4.886E+00     3.036E+00     5.576E-01     0.000E+00     0.000E+00     0.000E+00
X    -4.886E+00     3.036E+00     1.053E+00     0.000E+00     0.000E+00     0.000E+00
X    -4.886E+00     3.036E+00     1.549E+00     0.000E+00     0.000E+00     0.000E+00
X    -4.886E+00     3.036E+00     2.045E+00     0.000E+00     0.000E+00     0.000E+00
X    -4.886E+00     3.036E+00     2.540E+00     0.000E+00     0.000E+00     0.000E+00
X    -4.886E+00     3.036E+00     3.036E+00     0.000E+00     0.000E+00     0.000E+00
X    -4.886E+00     3.036E+00     3.531E+00     0.000E+00     0.000E+00     0.000E+00
X    -4.886E+00     3.036E+00     4.027E+00     0.000E+00     0.000E+00     0.000E+00
X    -4.886E+00     3.036E+00     4.523E+00     0.000E+00     0.000E+00     0.000E+00
X    -4.886E+00     3.531E+00    -4.895E+00     0.000E+00     0.000E+00     0.000E+00
X    -4.886E+00     3.531E+00    -4.399E+00     0.000E+00     0.000E+00     0.000E+00
X    -4.886E+00     3.531E+00    -3.903E+00     0.000E+00     0.000E+00     0.000E+00
X    -4.886E+00     3.531E+00    -3.408E+00     0.000E+00     0.000E+00     0.000E+00
X    -4.886E+00     3.531E+00    -2.912E+00     0.000E+00     0.000E+00     0.000E+00
X    -4.886E+00     3.531E+00    -2.416E+00     0.000E+00     0.000E+00     0.000E+00
X    -4.886E+00     3.531E+00    -1.921E+00     0.000E+00     0.000E+00     0.000E+00
X    -4.886E+00     3.531E+00    -1.425E+00     0.000E+00     0.000E+00     0.000E+00
X    -4.886E+00     3.531E+00    -9.293E-01     0.000E+00     0.000E+00     0.000E+00
X    -4.886E+00     3.531E+00    -4.337E-01     0.000E+00     0.000E+00     0.000E+00
X    -4.886E+00     3.531E+00     6.196E-02     0.000E+00     0.000E+00     0.000E+00
X    -4.886E+00     3.531E+00     5.576E-01     0.000E+00     0.000E+00     0.000E+00
X    -4.886E+00     3.531E+00     1.053E+00     0.000E+00     0.000E+00     0.000E+00
X    -4.886E+00     3.531E+00     1.549E+00     0.000E+00     0.000E+00     0.000E+00
X    -4.886E+00     3.531E+00     2.045E+00     0.000E+00     0.000E+00     0.000E+00
X    -4.886E+00     3.531E+00     2.540E+00     0.000E+00     0.000E+00     0.000E+00
X    -4.886E+00     3.531E+00     3.036E+00     0.000E+00     0.000E+00     0.000E+00
X    -4.886E+00     3.531E+00     3.531E+00     0.000E+00     0.000E+00     0.000E+00
X    -4.886E+00     3.531E+00     4.027E+00     0.000E+00     0.000E+00     0.000E+00
X    -4.886E+00     3.531E+00     4.523E+00     0.000E+00     0.000E+00     0.000E+00
X    -4.886E+00     4.027E+00    -4.895E+00     0.000E+00     0.000E+00     0.000E+00
X    -4.886E+00     4.027E+00    -4.399E+00     0.000E+00     0.000E+00     0.000E+00
X    -4.886E+00     4.027E+00    -3.903E+00     0.000E+00     0.000E+00     0.000E+00
X    -4.886E+00     4.027E+00    -3.408E+00     0.000E+00     0.000E+00     0.000E+00
X    -4.886E+00     4.027E+00    -2.912E+00     0.000E+00     0.000E+00     0.000E+00
X    -4.886E+00     4.027E+00    -2.416E+00     0.000E+00     0.000E+00     0.000E+00
X    -4.886E+00     4.027E+00    -1.921E+00     0.000E+00     0.000E+00     0.000E+00
X    -4.886E+00     4.027E+00    -1.425E+00     0.000E+00     0.000E+00     0.000E+00
X    -4.886E+00     4.027E+00    -9.293E-01     0.000E+00     0.000E+00     0.000E+00
X    -4.886E+00     4.027E+00    -4.337E-01     0.000E+00     0.000E+00     0.000E+00
X    -4.886E+00     4.027E+00     6.196E-02     0.000E+00     0.000E+00     0.000E+00
X    -4.886E+00     4.027E+00     5.576E-01     0.000E+00     0.000E+00     0.000E+00
X    -4.886E+00     4.027E+00     1.053E+00     0.000E+00     0.000E+00     0.000E+00
X    -4.886E+00     4.027E+00     1.549E+00     0.000E+00     0.000E+00     0.000E+00
X    -4.886E+00     4.027E+00     2.045E+00     0.000E+00     0.000E+00     0.000E+00
X    -4.886E+00     4.027E+00     2.540E+00     0.000E+00     0.000E+00     0.000E+00
X    -4.886E+00     4.027E+00     3.036E+00     0.000E+00     0.000E+00     0.000E+00
X    -4.886E+00     4.027E+00     3.531E+00     0.000E+00     0.000E+00     0.000E+00
X    -4.886E+00     4.027E+00     4.027E+00     0.000E+00     0.000E+00     0.000E+00
X    -4.886E+00     4.027E+00     4.523E+00     0.000E+00     0.000E+00     0.000E+00
X    -4.886E+00     4.523E+00    -4.895E+00     0.000E+00     0.000E+00     0.000E+00
X    -4.886E+00     4.523E+00    -4.399E+00     0.000E+00     0.000E+00     0.000E+00
X    -4.886E+00     4.523E+00    -3.903E+00     0.000E+00     0.000E+00     0.000E+00
X    -4.886E+00     4.523E+00    -3.408E+00     0.000E+00     0.000E+00     0.000E+00
X    -4.886E+00     4.523E+00    -2.912E+00     0.000E+00     0.000E+00     0.000E+00
X    -4.886E+00     4.523E+00    -2.416E+00     0.000E+00     0.000E+00     0.000E+00
X    -4.886E+00     4.523E+00    -1.921E+00     0.000E+00     0.000E+00     0.000E+00
X    -4.886E+00     4.523E+00    -1.425E+00     0.000E+00     0.000E+00     0.000E+00
X    -4.886E+00     4.523E+00    -9.293E-01     0.000E+00     0.000E+00     0.000E+00
X    -4.886E+00     4.523E+00    -4.337E-01     0.000E+00     0.000E+00     0.000E+00
X    -4.886E+00     4.523E+00     6.196E-02     0.000E+00     0.000E+00     0.000E+00
X    -4.886E+00     4.523E+00     5.576E-01     0.000E+00     0.000E+00     0.000E+00
X    -4.886E+00     4.523E+00     1.053E+00     0.000E+00     0.000E+00     0.000E+00
X    -4.886E+00     4.523E+00     1.549E+00     0.000E+00     0.000E+00     0.000E+00
X    -4.886E+00     4.523E+00     2.045E+00     0.000E+00     0.000E+00     0.000E+00
X    -4.886E+00     4.523E+00     2.540E+00     0.000E+00     0.000E+00     0.000E+00
X    -4.886E+00     4.523E+00     3.036E+00     0.000E+00     0.000E+00     0.000E+00
X    -4.886E+00     4.523E+00     3.531E+00     0.000E+00     0.000E+00     0.000E+00
X    -4.886E+00     4.523E+00     4.027E+00     0.000E+00     0.000E+00     0.000E+00
X    -4.886E+00     4.523E+00     4.523E+00     0.000E+00     0.000E+00     0.000E+00
X    -4.390E+00    -4.895E+00    -4.895E+00     0.000E+00     0.000E+00     0.000E+00
X    -4.390E+00    -4.895E+00    -4.399E+00     0.000E+00     0.000E+00     0.000E+00
X    -4.390E+00    -4.895E+00    -3.903E+00     0.000E+00     0.000E+00     0.000E+00
X    -4.390E+00    -4.895E+00    -3.408E+00     0.000E+00     0.000E+00     0.000E+00
X    -4.390E+00    -4.895E+00    -2.912E+00     0.000E+00     0.000E+00     0.000E+00
X    -4.390E+00    -4.895E+00    -2.416E+00     0.000E+00     0.000E+00     0.000E+00
X    -4.390E+00    -4.895E+00    -1.921E+00     0.000E+00     0.000E+00     0.000E+00
X    -4.390E+00    -4.895E+00    -1.425E+00     0.000E+00     0.000E+00     0.000E+00
X    -4.390E+00    -4.895E+00    -9.293E-01     0.000E+00     0.000E+00     0.000E+00
X    -4.390E+00    -4.895E+00    -4.337E-01     0.000E+00     0.000E+00     0.000E+00
X    -4.390E+00    -4.895E+00     6.196E-02     0.000E+00     0.000E+00     0.000E+00
X    -4.390E+00    -4.895E+00     5.576E-01     0.000E+00     0.000E+00     0.000E+00
X    -4.390E+00    -4.895E+00     1.053E+00     0.000E+00     0.000E+00     0.000E+00
X    -4.390E+00    -4.895E+00     1.549E+00     0.000E+00     0.000E+00     0.000E+00
X    -4.390E+00    -4.895E+00     2.045E+00     0.000E+00     0.000E+00     0.000E+00
X    -4.390E+00    -4.895E+00     2.540E+00     0.000E+00     0.000E+00     0.000E+00
X    -4.390E+00    -4.895E+00     3.036E+00     0.000E+00     0.000E+00     0.000E+00
X    -4.390E+00    -4.895E+00     3.531E+00     0.000E+00     0.000E+00     0.000E+00
X    -4.390E+00    -4.895E+00     4.027E+00     0.000E+00     0.000E+00     0.000E+00
X    -4.390E+00    -4.895E+00     4.523E+00     0.000E+00     0.000E+00     0.000E+00
X    -4.390E+00    -4.399E+00    -4.895E+00     0.000E+00     0.000E+00     0.000E+00
X    -4.390E+00    -4.399E+00    -4.399E+00     0.000E+00     0.000E+00     0.000E+00
X    -4.390E+00    -4.399E+00    -3.903E+00     0.000E+00     0.000E+00     0.000E+00
X    -4.390E+00    -4.399E+00    -3.408E+00     0.000E+00     0.000E+00     0.000E+00
X    -4.390E+00    -4.399E+00    -2.912E+00     0.000E+00     0.000E+00     0.000E+00
X    -4.390E+00    -4.399E+00    -2.416E+00     0.000E+00     0.000E+00     0.000E+00
X    -4.390E+00    -4.399E+00    -1.921E+00     0.000E+00     0.000E+00     0.000E+00
X    -4.390E+00    -4.399E+00    -1.425E+00     0.000E+00     0.000E+00     0.000E+00
X    -4.390E+00    -4.399E+00    -9.293E-01     0.000E+00     0.000E+00     0.000E+00
X    -4.390E+00    -4.399E+00    -4.337E-01     0.000E+00     0.000E+00     0.000E+00
X    -4.390E+00    -4.399E+00     6.196E-02     0.000E+00     0.000E+00     0.000E+00
X    -4.390E+00    -4.399E+00     5.576E-01     0.000E+00     0.000E+00     0.000E+00
X    -4.390E+00    -4.399E+00     1.053E+00     0.000E+00     0.000E+00     0.000E+00
X    -4.390E+00    -4.399E+00     1.549E+00     0.000E+00     0.000E+00     0.000E+00
X    -4.390E+00    -4.399E+00     2.045E+00     0.000E+00     0.000E+00     0.000E+00
X    -4.390E+00    -4.399E+00     2.540E+00     0.000E+00     0.000E+00     0.000E+00
X    -4.390E+00    -4.399E+00     3.036E+00     0.000E+00     0.000E+00     0.000E+00
X    -4.390E+00    -4.399E+00     3.531E+00     0.000E+00     0.000E+00     0.000E+00
X    -4.390E+00    -4.399E+00     4.027E+00     0.000E+00     0.000E+00     0.000E+00
X    -4.390E+00    -4.399E+00     4.523E+00     0.000E+00     0.000E+00     0.000E+00
X    -4.390E+00    -3.903E+00    -4.895E+00     0.000E+00     0.000E+00     0.000E+00
X    -4.390E+00    -3.903E+00    -4.399E+00     0.000E+00     0.000E+00     0.000E+00
X    -4.390E+00    -3.903E+00    -3.903E+00     0.000E+00     0.000E+00     0.000E+00
X    -4.390E+00    -3.903E+00    -3.408E+00     0.000E+00     0.000E+00     0.000E+00
X    -4.390E+00    -3.903E+00    -2.912E+00     0.000E+00     0.000E+00     0.000E+00
X    -4.390E+00    -3.903E+00    -2.416E+00     0.000E+00     0.000E+00     0.000E+00
X    -4.390E+00    -3.903E+00    -1.921E+00     0.000E+00     0.000E+00     0.000E+00
X    -4.390E+00    -3.903E+00    -1.425E+00     0.000E+00     0.000E+00     0.000E+00
X    -4.390E+00    -3.903E+00    -9.293E-01     0.000E+00     0.000E+00     0.000E+00
X    -4.390E+00    -3.903E+00    -4.337E-01     0.000E+00     0.000E+00     0.000E+00
X    -4.390E+00    -3.903E+00     6.196E-02     0.000E+00     0.000E+00     0.000E+00
X    -4.390E+00    -3.903E+00     5.576E-01     0.000E+00     0.000E+00     0.000E+00
X    -4.390E+00    -3.903E+00     1.053E+00     0.000E+00     0.000E+00     0.000E+00
X    -4.390E+00    -3.903E+00     1.549E+00     0.000E+00     0.000E+00     0.000E+00
X    -4.390E+00    -3.903E+00     2.045E+00     0.000E+00     0.000E+00     0.000E+00
X    -4.390E+00    -3.903E+00     2.540E+00     0.000E+00     0.000E+00     0.000E+00
X    -4.390E+00    -3.903E+00     3.036E+00     0.000E+00     0.000E+00     0.000E+00
X    -4.390E+00    -3.903E+00     3.531E+00     0.000E+00     0.000E+00     0.000E+00
X    -4.390E+00    -3.903E+00     4.027E+00     0.000E+00     0.000E+00     0.000E+00
X    -4.390E+00    -3.903E+00     4.523E+00     0.000E+00     0.000E+00     0.000E+00
X    -4.390E+00    -3.408E+00    -4.895E+00     0.000E+00     0.000E+00     0.000E+00
X    -4.390E+00    -3.408E+00    -4.399E+00     0.000E+00     0.000E+00     0.000E+00
X    -4.390E+00    -3.408E+00    -3.903E+00     0.000E+00     0.000E+00     0.000E+00
X    -4.390E+00    -3.408E+00    -3.408E+00     0.000E+00     0.000E+00     0.000E+00
X    -4.390E+00    -3.408E+00    -2.912E+00     0.000E+00     0.000E+00     0.000E+00
X    -4.390E+00    -3.408E+00    -2.416E+00     0.000E+00     0.000E+00     0.000E+00
X    -4.390E+00    -3.408E+00    -1.921E+00     0.000E+00     0.000E+00     0.000E+00
X    -4.390E+00    -3.408E+00    -1.425E+00     0.000E+00     0.000E+00     0.000E+00
X    -4.390E+00    -3.408E+00    -9.293E-01     0.000E+00     0.000E+00     0.000E+00
X    -4.390E+00    -3.408E+00    -4.337E-01     0.000E+00     0.000E+00     0.000E+00
X    -4.390E+00    -3.408E+00     6.196E-02     0.000E+00     0.000E+00     0.000E+00
X    -4.390E+00    -3.408E+00     5.576E-01     0.000E+00     0.000E+00     0.000E+00
X    -4.390E+00    -3.408E+00     1.053E+00     0.000E+00     0.000E+00     0.000E+00
X    -4.390E+00    -3.408E+00     1.549E+00     0.000E+00     0.000E+00     0.000E+00
X    -4.390E+00    -3.408E+00     2.045E+00     0.000E+00     0.000E+00     0.000E+00
X    -4.390E+00    -3.408E+00     2.540E+00     0.000E+00     0.000E+00     0.000E+00
X    -4.390E+00    -3.408E+00     3.036E+00     0.000E+00     0.000E+00     0.000E+00
X    -4.390E+00    -3.408E+00     3.531E+00     0.000E+00     0.000E+00     0.000E+00
X    -4.390E+00    -3.408E+00     4.027E+00     0.000E+00     0.000E+00     0.000E+00
X    -4.390E+00    -3.408E+00     4.523E+00     0.000E+00     0.000E+00     0.000E+00
X    -4.390E+00    -2.912E+00    -4.895E+00     0.000E+00     0.000E+00     0.000E+00
X    -4.390E+00    -2.912E+00    -4.399E+00     0.000E+00     0.000E+00     0.000E+00
X    -4.390E+00    -2.912E+00    -3.903E+00     0.000E+00     0.000E+00     0.000E+00
X    -4.390E+00    -2.912E+00    -3.408E+00     0.000E+00     0.000E+00     0.000E+00
X    -4.390E+00    -2.912E+00    -2.912E+00     0.000E+00     0.000E+00     0.000E+00
X    -4.390E+00    -2.912E+00    -2.416E+00     0.000E+00     0.000E+00     0.000E+00
X    -4.390E+00    -2.912E+00    -1.921E+00     0.000E+00     0.000E+00     0.000E+00
X    -4.390E+00    -2.912E+00    -1.425E+00     0.000E+00     0.000E+00     0.000E+00
X    -4.390E+00    -2.912E+00    -9.293E-01     0.000E+00     0.000E+00     0.000E+00
X    -4.390E+00    -2.912E+00    -4.337E-01     0.000E+00     0.000E+00     0.000E+00
X    -4.390E+00    -2.912E+00     6.196E-02     0.000E+00     0.000E+00     0.000E+00
X    -4.390E+00    -2.912E+00     5.576E-01     0.000E+00     0.000E+00     0.000E+00
X    -4.390E+00    -2.912E+00     1.053E+00     0.000E+00     0.000E+00     0.000E+00
X    -4.390E+00    -2.912E+00     1.549E+00     0.000E+00     0.000E+00     0.000E+00
X    -4.390E+00    -2.912E+00     2.045E+00     0.000E+00     0.000E+00     0.000E+00
X    -4.390E+00    -2.912E+00     2.540E+00     0.000E+00     0.000E+00     0.000E+00
X    -4.390E+00    -2.912E+00     3.036E+00     0.000E+00     0.000E+00     0.000E+00
X    -4.390E+00    -2.912E+00     3.531E+00     0.000E+00     0.000E+00     0.000E+00
X    -4.390E+00    -2.912E+00     4.027E+00     0.000E+00     0.000E+00     0.000E+00
X    -4.390E+00    -2.912E+00     4.523E+00     0.000E+00     0.000E+00     0.000E+00
X    -4.390E+00    -2.416E+00    -4.895E+00     0.000E+00     0.000E+00     0.000E+00
X    -4.390E+00    -2.416E+00    -4.399E+00     0.000E+00     0.000E+00     0.000E+00
X    -4.390E+00    -2.416E+00    -3.903E+00     0.000E+00     0.000E+00     0.000E+00
X    -4.390E+00    -2.416E+00    -3.408E+00     0.000E+00     0.000E+00     0.000E+00
X    -4.390E+00    -2.416E+00    -2.912E+00     0.000E+00     0.000E+00     0.000E+00
X    -4.390E+00    -2.416E+00    -2.416E+00     0.000E+00     0.000E+00     0.000E+00
X    -4.390E+00    -2.416E+00    -1.921E+00     0.000E+00     0.000E+00     0.000E+00
X    -4.390E+00    -2.416E+00    -1.425E+00     0.000E+00     0.000E+00     0.000E+00
X    -4.390E+00    -2.416E+00    -9.293E-01     0.000E+00     0.000E+00     0.000E+00
X    -4.390E+00    -2.416E+00    -4.337E-01     0.000E+00     0.000E+00     0.000E+00
X    -4.390E+00    -2.416E+00     6.196E-02     0.000E+00     0.000E+00     0.000E+00
X    -4.390E+00    -2.416E+00     5.576E-01     0.000E+00     0.000E+00     0.000E+00
X    -4.390E+00    -2.416E+00     1.053E+00     0.000E+00     0.000E+00     0.000E+00
X    -4.390E+00    -2.416E+00     1.549E+00     0.000E+00     0.000E+00     0.000E+00
X    -4.390E+00    -2.416E+00     2.045E+00     0.000E+00     0.000E+00     0.000E+00
X    -4.390E+00    -2.416E+00     2.540E+00     0.000E+00     0.000E+00     0.000E+00
X    -4.390E+00    -2.416E+00     3.036E+00     0.000E+00     0.000E+00     0.000E+00
X    -4.390E+00    -2.416E+00     3.531E+00     0.000E+00     0.000E+00     0.000E+00
X    -4.390E+00    -2.416E+00     4.027E+00     0.000E+00     0.000E+00     0.000E+00
X    -4.390E+00    -2.416E+00     4.523E+00     0.000E+00     0.000E+00     0.000E+00
X    -4.390E+00    -1.921E+00    -4.895E+00     0.000E+00     0.000E+00     0.000E+00
X    -4.390E+00    -1.921E+00    -4.399E+00     0.000E+00     0.000E+00     0.000E+00
X    -4.390E+00    -1.921E+00    -3.903E+00     0.000E+00     0.000E+00     0.000E+00
X    -4.390E+00    -1.921E+00    -3.408E+00     0.000E+00     0.000E+00     0.000E+00
X    -4.390E+00    -1.921E+00    -2.912E+00     0.000E+00     0.000E+00     0.000E+00
X    -4.390E+00    -1.921E+00    -2.416E+00     0.000E+00     0.000E+00     0.000E+00
X    -4.390E+00    -1.921E+00    -1.921E+00     0.000E+00     0.000E+00     0.000E+00
X    -4.390E+00    -1.921E+00    -1.425E+00     0.000E+00     0.000E+00     0.000E+00
X    -4.390E+00    -1.921E+00    -9.293E-01     0.000E+00     0.000E+00     0.000E+00
X    -4.390E+00    -1.921E+00    -4.337E-01     0.000E+00     0.000E+00     0.000E+00
X    -4.390E+00    -1.921E+00     6.196E-02     0.000E+00     0.000E+00     0.000E+00
X    -4.390E+00    -1.921E+00     5.576E-01     0.000E+00     0.000E+00     0.000E+00
X    -4.390E+00    -1.921E+00     1.053E+00     0.000E+00     0.000E+00     0.000E+00
X    -4.390E+00    -1.921E+00     1.549E+00     0.000E+00     0.000E+00     0.000E+00
X    -4.390E+00    -1.921E+00     2.045E+00     0.000E+00     0.000E+00     0.000E+00
X    -4.390E+00    -1.921E+00     2.540E+00     0.000E+00     0.000E+00     0.000E+00
X    -4.390E+00    -1.921E+00     3.036E+00     0.000E+00     0.000E+00     0.000E+00
X    -4.390E+00    -1.921E+00     3.531E+00     0.000E+00     0.000E+00     0.000E+00
X    -4.390E+00    -1.921E+00     4.027E+00     0.000E+00     0.000E+00     0.000E+00
X    -4.390E+00    -1.921E+00     4.523E+00     0.000E+00     0.000E+00     0.000E+00
X    -4.390E+00    -1.425E+00    -4.895E+00     0.000E+00     0.000E+00     0.000E+00
X    -4.390E+00    -1.425E+00    -4.399E+00     0.000E+00     0.000E+00     0.000E+00
X    -4.390E+00    -1.425E+00    -3.903E+00     0.000E+00     0.000E+00     0.000E+00
X    -4.390E+00    -1.425E+00    -3.408E+00     0.000E+00     0.000E+00     0.000E+00
X    -4.390E+00    -1.425E+00    -2.912E+00     0.000E+00     0.000E+00     0.000E+00
X    -4.390E+00    -1.425E+00    -2.416E+00     0.000E+00     0.000E+00     0.000E+00
X    -4.390E+00    -1.425E+00    -1.921E+00     0.000E+00     0.000E+00     0.000E+00
X    -4.390E+00    -1.425E+00    -1.425E+00     0.000E+00     0.000E+00     0.000E+00
X    -4.390E+00    -1.425E+00    -9.293E-01     0.000E+00     0.000E+00     0.000E+00
X    -4.390E+00    -1.425E+00    -4.337E-01     0.000E+00     0.000E+00     0.000E+00
X    -4.390E+00    -1.425E+00     6.196E-02     0.000E+00     0.000E+00     0.000E+00
X    -4.390E+00    -1.425E+00     5.576E-01     0.000E+00     0.000E+00     0.000E+00
X    -4.390E+00    -1.425E+00     1.053E+00     0.000E+00     0.000E+00     0.000E+00
X    -4.390E+00    -1.425E+00     1.549E+00     0.000E+00     0.000E+00     0.000E+00
X    -4.390E+00    -1.425E+00     2.045E+00     0.000E+00     0.000E+00     0.000E+00
X    -4.390E+00    -1.425E+00     2.540E+00     0.000E+00     0.000E+00     0.000E+00
X    -4.390E+00    -1.425E+00     3.036E+00     0.000E+00     0.000E+00     0.000E+00
X    -4.390E+00    -1.425E+00     3.531E+00     0.000E+00     0.000E+00     0.000E+00
X    -4.390E+00    -1.425E+00     4.027E+00     0.000E+00     0.000E+00     0.000E+00
X    -4.390E+00    -1.425E+00     4.523E+00     0.000E+00     0.000E+00     0.000E+00
X    -4.390E+00    -9.293E-01    -4.895E+00     0.000E+00     0.000E+00     0.000E+00
X    -4.390E+00    -9.293E-01    -4.399E+00     0.000E+00     0.000E+00     0.000E+00
X    -4.390E+00    -9.293E-01    -3.903E+00     0.000E+00     0.000E+00     0.000E+00
X    -4.390E+00    -9.293E-01    -3.408E+00     0.000E+00     0.000E+00     0.000E+00
X    -4.390E+00    -9.293E-01    -2.912E+00     0.000E+00     0.000E+00     0.000E+00
X    -4.390E+00    -9.293E-01    -2.416E+00     0.000E+00     0.000E+00     0.000E+00
X    -4.390E+00    -9.293E-01    -1.921E+00     0.000E+00     0.000E+00     0.000E+00
X    -4.390E+00    -9.293E-01    -1.425E+00     0.000E+00     0.000E+00     0.000E+00
X    -4.390E+00    -9.293E-01    -9.293E-01     0.000E+00     0.000E+00     0.000E+00
X    -4.390E+00    -9.293E-01    -4.337E-01     0.000E+00     0.000E+00     0.000E+00
X    -4.390E+00    -9.293E-01     6.196E-02     0.000E+00     0.000E+00     0.000E+00
X    -4.390E+00    -9.293E-01     5.576E-01     0.000E+00     0.000E+00     0.000E+00
X    -4.390E+00    -9.293E-01     1.053E+00     0.000E+00     0.000E+00     0.000E+00
X    -4.390E+00    -9.293E-01     1.549E+00     0.000E+00     0.000E+00     0.000E+00
X    -4.390E+00    -9.293E-01     2.045E+00     0.000E+00     0.000E+00     0.000E+00
X    -4.390E+00    -9.293E-01     2.540E+00     0.000E+00     0.000E+00     0.000E+00
X    -4.390E+00    -9.293E-01     3.036E+00     0.000E+00     0.000E+00     0.000E+00
X    -4.390E+00    -9.293E-01     3.531E+00     0.000E+00     0.000E+00     0.000E+00
X    -4.390E+00    -9.293E-01     4.027E+00     0.000E+00     0.000E+00     0.000E+00
X    -4.390E+00    -9.293E-01     4.523E+00     0.000E+00     0.000E+00     0.000E+00
X    -4.390E+00    -4.337E-01    -4.895E+00     0.000E+00     0.000E+00     0.000E+00
X    -4.390E+00    -4.337E-01    -4.399E+00     0.000E+00     0.000E+00     0.000E+00
X    -4.390E+00    -4.337E-01    -3.903E+00     0.000E+00     0.000E+00     0.000E+00
X    -4.390E+00    -4.337E-01    -3.408E+00     0.000E+00     0.000E+00     0.000E+00
X    -4.390E+00    -4.337E-01    -2.912E+00     0.000E+00     0.000E+00     0.000E+00
X    -4.390E+00    -4.337E-01    -2.416E+00     0.000E+00     0.000E+00     0.000E+00
X    -4.390E+00    -4.337E-01    -1.921E+00     0.000E+00     0.000E+00     0.000E+00
X    -4.390E+00    -4.337E-01    -1.425E+00     0.000E+00     0.000E+00     0.000E+00
X    -4.390E+00    -4.337E-01    -9.293E-01     0.000E+00     0.000E+00     0.000E+00
X    -4.390E+00    -4.337E-01    -4.337E-01     0.000E+00     0.000E+00     0.000E+00
X    -4.390E+00    -4.337E-01     6.196E-02     0.000E+00     0.000E+00     0.000E+00
X    -4.390E+00    -4.337E-01     5.576E-01     0.000E+00     0.000E+00     0.000E+00
X    -4.390E+00    -4.337E-01     1.053E+00     0.000E+00     0.000E+00     0.000E+00
X    -4.390E+00    -4.337E-01     1.549E+00     0.000E+00     0.000E+00     0.000E+00
X    -4.390E+00    -4.337E-01     2.045E+00     0.000E+00     0.000E+00     0.000E+00
X    -4.390E+00    -4.337E-01     2.540E+00     0.000E+00     0.000E+00     0.000E+00
X    -4.390E+00    -4.337E-01     3.036E+00     0.000E+00     0.000E+00     0.000E+00
X    -4.390E+00    -4.337E-01     3.531E+00     0.000E+00     0.000E+00     0.000E+00
X    -4.390E+00    -4.337E-01     4.027E+00     0.000E+00     0.000E+00     0.000E+00
X    -4.390E+00    -4.337E-01     4.523E+00     0.000E+00     0.000E+00     0.000E+00
X    -4.390E+00     6.196E-02    -4.895E+00     0.000E+00     0.000E+00     0.000E+00
X    -4.390E+00     6.196E-02    -4.399E+00     0.000E+00     0.000E+00     0.000E+00
X    -4.390E+00     6.196E-02    -3.903E+00     0.000E+00     0.000E+00     0.000E+00
X    -4.390E+00     6.196E-02    -3.408E+00     0.000E+00     0.000E+00     0.000E+00
X    -4.390E+00     6.196E-02    -2.912E+00     0.000E+00     0.000E+00     0.000E+00
X    -4.390E+00     6.196E-02    -2.416E+00     0.000E+00     0.000E+00     0.000E+00
X    -4.390E+00     6.196E-02    -1.921E+00     0.000E+00     0.000E+00     0.000E+00
X    -4.390E+00     6.196E-02    -1.425E+00     0.000E+00     0.000E+00     0.000E+00
X    -4.390E+00     6.196E-02    -9.293E-01     0.000E+00     0.000E+00     0.000E+00
X    -4.390E+00     6.196E-02    -4.337E-01     0.000E+00     0.000E+00     0.000E+00
X    -4.390E+00     6.196E-02     6.196E-02     0.000E+00     0.000E+00     0.000E+00
X    -4.390E+00     6.196E-02     5.576E-01     0.000E+00     0.000E+00     0.000E+00
X    -4.390E+00     6.196E-02     1.053E+00     0.000E+00     0.000E+00     0.000E+00
X    -4.390E+00     6.196E-02     1.549E+00     0.000E+00     0.000E+00     0.000E+00
X    -4.390E+00     6.196E-02     2.045E+00     0.000E+00     0.000E+00     0.000E+00
X    -4.390E+00     6.196E-02     2.540E+00     0.000E+00     0.000E+00     0.000E+00
X    -4.390E+00     6.196E-02     3.036E+00     0.000E+00     0.000E+00     0.000E+00
X    -4.390E+00     6.196E-02     3.531E+00     0.000E+00     0.000E+00     0.000E+00
X    -4.390E+00     6.196E-02     4.027E+00     0.000E+00     0.000E+00     0.000E+00
X    -4.390E+00     6.196E-02     4.523E+00     0.000E+00     0.000E+00     0.000E+00
X    -4.390E+00     5.576E-01    -4.895E+00     0.000E+00     0.000E+00     0.000E+00
X    -4.390E+00     5.576E-01    -4.399E+00     0.000E+00     0.000E+00     0.000E+00
X    -4.390E+00     5.576E-01    -3.903E+00     0.000E+00     0.000E+00     0.000E+00
X    -4.390E+00     5.576E-01    -3.408E+00     0.000E+00     0.000E+00     0.000E+00
X    -4.390E+00     5.576E-01    -2.912E+00     0.000E+00     0.000E+00     0.000E+00
X    -4.390E+00     5.576E-01    -2.416E+00     0.000E+00     0.000E+00     0.000E+00
X    -4.390E+00     5.576E-01    -1.921E+00     0.000E+00     0.000E+00     0.000E+00
X    -4.390E+00     5.576E-01    -1.425E+00     0.000E+00     0.000E+00     0.000E+00
X    -4.390E+00     5.576E-01    -9.293E-01     0.000E+00     0.000E+00     0.000E+00
X    -4.390E+00     5.576E-01    -4.337E-01     0.000E+00     0.000E+00     0.000E+00
X    -4.390E+00     5.576E-01     6.196E-02     0.000E+00     0.000E+00     0.000E+00
X    -4.390E+00     5.576E-01     5.576E-01     0.000E+00     0.000E+00     0.000E+00
X    -4.390E+00     5.576E-01     1.053E+00     0.000E+00     0.000E+00     0.000E+00
X    -4.390E+00     5.576E-01     1.549E+00     0.000E+00     0.000E+00     0.000E+00
X    -4.390E+00     5.576E-01     2.045E+00     0.000E+00     0.000E+00     0.000E+00
X    -4.390E+00     5.576E-01     2.540E+00     0.000E+00     0.000E+00     0.000E+00
X    -4.390E+00     5.576E-01     3.036E+00     0.000E+00     0.000E+00     0.000E+00
X    -4.390E+00     5.576E-01     3.531E+00     0.000E+00     0.000E+00     0.000E+00
X    -4.390E+00     5.576E-01     4.027E+00     0.000E+00     0.000E+00     0.000E+00
X    -4.390E+00     5.576E-01     4.523E+00     0.000E+00     0.000E+00     0.000E+00
X    -4.390E+00     1.053E+00    -4.895E+00     0.000E+00     0.000E+00     0.000E+00
X    -4.390E+00     1.053E+00    -4.399E+00     0.000E+00     0.000E+00     0.000E+00
X    -4.390E+00     1.053E+00    -3.903E+00     0.000E+00     0.000E+00     0.000E+00
X    -4.390E+00     1.053E+00    -3.408E+00     0.000E+00     0.000E+00     0.000E+00
X    -4.390E+00     1.053E+00    -2.912E+00     0.000E+00     0.000E+00     0.000E+00
X    -4.390E+00     1.053E+00    -2.416E+00     0.000E+00     0.000E+00     0.000E+00
X    -4.390E+00     1.053E+00    -1.921E+00     0.000E+00     0.000E+00     0.000E+00
X    -4.390E+00     1.053E+00    -1.425E+00     0.000E+00     0.000E+00     0.000E+00
X    -4.390E+00     1.053E+00    -9.293E-01     0.000E+00     0.000E+00     0.000E+00
X    -4.390E+00     1.053E+00    -4.337E-01     0.000E+00     0.000E+00     0.000E+00
X    -4.390E+00     1.053E+00     6.196E-02     0.000E+00     0.000E+00     0.000E+00
X    -4.390E+00     1.053E+00     5.576E-01     0.000E+00     0.000E+00     0.000E+00
X    -4.390E+00     1.053E+00     1.053E+00     0.000E+00     0.000E+00     0.000E+00
X    -4.390E+00     1.053E+00     1.549E+00     0.000E+00     0.000E+00     0.000E+00
X    -4.390E+00     1.053E+00     2.045E+00     0.000E+00     0.000E+00     0.000E+00
X    -4.390E+00     1.053E+00     2.540E+00     0.000E+00     0.000E+00     0.000E+00
X    -4.390E+00     1.053E+00     3.036E+00     0.000E+00     0.000E+00     0.000E+00
X    -4.390E+00     1.053E+00     3.531E+00     0.000E+00     0.000E+00     0.000E+00
X    -4.390E+00     1.053E+00     4.027E+00     0.000E+00     0.000E+00     0.000E+00
X    -4.390E+00     1.053E+00     4.523E+00     0.000E+00     0.000E+00     0.000E+00
X    -4.390E+00     1.549E+00    -4.895E+00     0.000E+00     0.000E+00     0.000E+00
X    -4.390E+00     1.549E+00    -4.399E+00     0.000E+00     0.000E+00     0.000E+00
X    -4.390E+00     1.549E+00    -3.903E+00     0.000E+00     0.000E+00     0.000E+00
X    -4.390E+00     1.549E+00    -3.408E+00     0.000E+00     0.000E+00     0.000E+00
X    -4.390E+00     1.549E+00    -2.912E+00     0.000E+00     0.000E+00     0.000E+00
X    -4.390E+00     1.549E+00    -2.416E+00     0.000E+00     0.000E+00     0.000E+00
X    -4.390E+00     1.549E+00    -1.921E+00     0.000E+00     0.000E+00     0.000E+00
X    -4.390E+00     1.549E+00    -1.425E+00     0.000E+00     0.000E+00     0.000E+00
X    -4.390E+00     1.549E+00    -9.293E-01     0.000E+00     0.000E+00     0.000E+00
X    -4.390E+00     1.549E+00    -4.337E-01     0.000E+00     0.000E+00     0.000E+00
X    -4.390E+00     1.549E+00     6.196E-02     0.000E+00     0.000E+00     0.000E+00
X    -4.390E+00     1.549E+00     5.576E-01     0.000E+00     0.000E+00     0.000E+00
X    -4.390E+00     1.549E+00     1.053E+00     0.000E+00     0.000E+00     0.000E+00
X    -4.390E+00     1.549E+00     1.549E+00     0.000E+00     0.000E+00     0.000E+00
X    -4.390E+00     1.549E+00     2.045E+00     0.000E+00     0.000E+00     0.000E+00
X    -4.390E+00     1.549E+00     2.540E+00     0.000E+00     0.000E+00     0.000E+00
X    -4.390E+00     1.549E+00     3.036E+00     0.000E+00     0.000E+00     0.000E+00
X    -4.390E+00     1.549E+00     3.531E+00     0.000E+00     0.000E+00     0.000E+00
X    -4.390E+00     1.549E+00     4.027E+00     0.000E+00     0.000E+00     0.000E+00
X    -4.390E+00     1.549E+00     4.523E+00     0.000E+00     0.000E+00     0.000E+00
X    -4.390E+00     2.045E+00    -4.895E+00     0.000E+00     0.000E+00     0.000E+00
X    -4.390E+00     2.045E+00    -4.399E+00     0.000E+00     0.000E+00     0.000E+00
X    -4.390E+00     2.045E+00    -3.903E+00     0.000E+00     0.000E+00     0.000E+00
X    -4.390E+00     2.045E+00    -3.408E+00     0.000E+00     0.000E+00     0.000E+00
X    -4.390E+00     2.045E+00    -2.912E+00     0.000E+00     0.000E+00     0.000E+00
X    -4.390E+00     2.045E+00    -2.416E+00     0.000E+00     0.000E+00     0.000E+00
X    -4.390E+00     2.045E+00    -1.921E+00     0.000E+00     0.000E+00     0.000E+00
X    -4.390E+00     2.045E+00    -1.425E+00     0.000E+00     0.000E+00     0.000E+00
X    -4.390E+00     2.045E+00    -9.293E-01     0.000E+00     0.000E+00     0.000E+00
X    -4.390E+00     2.045E+00    -4.337E-01     0.000E+00     0.000E+00     0.000E+00
X    -4.390E+00     2.045E+00     6.196E-02     0.000E+00     0.000E+00     0.000E+00
X    -4.390E+00     2.045E+00     5.576E-01     0.000E+00     0.000E+00     0.000E+00
X    -4.390E+00     2.045E+00     1.053E+00     0.000E+00     0.000E+00     0.000E+00
X    -4.390E+00     2.045E+00     1.549E+00     0.000E+00     0.000E+00     0.000E+00
X    -4.390E+00     2.045E+00     2.045E+00     0.000E+00     0.000E+00     0.000E+00
X    -4.390E+00     2.045E+00     2.540E+00     0.000E+00     0.000E+00     0.000E+00
X    -4.390E+00     2.045E+00     3.036E+00     0.000E+00     0.000E+00     0.000E+00
X    -4.390E+00     2.045E+00     3.531E+00     0.000E+00     0.000E+00     0.000E+00
X    -4.390E+00     2.045E+00     4.027E+00     0.000E+00     0.000E+00     0.000E+00
X    -4.390E+00     2.045E+00     4.523E+00     0.000E+00     0.000E+00     0.000E+00
X    -4.390E+00     2.540E+00    -4.895E+00     0.000E+00     0.000E+00     0.000E+00
X    -4.390E+00     2.540E+00    -4.399E+00     0.000E+00     0.000E+00     0.000E+00
X    -4.390E+00     2.540E+00    -3.903E+00     0.000E+00     0.000E+00     0.000E+00
X    -4.390E+00     2.540E+00    -3.408E+00     0.000E+00     0.000E+00     0.000E+00
X    -4.390E+00     2.540E+00    -2.912E+00     0.000E+00     0.000E+00     0.000E+00
X    -4.390E+00     2.540E+00    -2.416E+00     0.000E+00     0.000E+00     0.000E+00
X    -4.390E+00     2.540E+00    -1.921E+00     0.000E+00     0.000E+00     0.000E+00
X    -4.390E+00     2.540E+00    -1.425E+00     0.000E+00     0.000E+00     0.000E+00
X    -4.390E+00     2.540E+00    -9.293E-01     0.000E+00     0.000E+00     0.000E+00
X    -4.390E+00     2.540E+00    -4.337E-01     0.000E+00     0.000E+00     0.000E+00
X    -4.390E+00     2.540E+00     6.196E-02     0.000E+00     0.000E+00     0.000E+00
X    -4.390E+00     2.540E+00     5.576E-01     0.000E+00     0.000E+00     0.000E+00
X    -4.390E+00     2.540E+00     1.053E+00     0.000E+00     0.000E+00     0.000E+00
X    -4.390E+00     2.540E+00     1.549E+00     0.000E+00     0.000E+00     0.000E+00
X    -4.390E+00     2.540E+00     2.045E+00     0.000E+00     0.000E+00     0.000E+00
X    -4.390E+00     2.540E+00     2.540E+00     0.000E+00     0.000E+00     0.000E+00
X    -4.390E+00     2.540E+00     3.036E+00     0.000E+00     0.000E+00     0.000E+00
X    -4.390E+00     2.540E+00     3.531E+00     0.000E+00     0.000E+00     0.000E+00
X    -4.390E+00     2.540E+00     4.027E+00     0.000E+00     0.000E+00     0.000E+00
X    -4.390E+00     2.540E+00     4.523E+00     0.000E+00     0.000E+00     0.000E+00
X    -4.390E+00     3.036E+00    -4.895E+00     0.000E+00     0.000E+00     0.000E+00
X    -4.390E+00     3.036E+00    -4.399E+00     0.000E+00     0.000E+00     0.000E+00
X    -4.390E+00     3.036E+00    -3.903E+00     0.000E+00     0.000E+00     0.000E+00
X    -4.390E+00     3.036E+00    -3.408E+00     0.000E+00     0.000E+00     0.000E+00
X    -4.390E+00     3.036E+00    -2.912E+00     0.000E+00     0.000E+00     0.000E+00
X    -4.390E+00     3.036E+00    -2.416E+00     0.000E+00     0.000E+00     0.000E+00
X    -4.390E+00     3.036E+00    -1.921E+00     0.000E+00     0.000E+00     0.000E+00
X    -4.390E+00     3.036E+00    -1.425E+00     0.000E+00     0.000E+00     0.000E+00
X    -4.390E+00     3.036E+00    -9.293E-01     0.000E+00     0.000E+00     0.000E+00
X    -4.390E+00     3.036E+00    -4.337E-01     0.000E+00     0.000E+00     0.000E+00
X    -4.390E+00     3.036E+00     6.196E-02     0.000E+00     0.000E+00     0.000E+00
X    -4.390E+00     3.036E+00     5.576E-01     0.000E+00     0.000E+00     0.000E+00
X    -4.390E+00     3.036E+00     1.053E+00     0.000E+00     0.000E+00     0.000E+00
X    -4.390E+00     3.036E+00     1.549E+00     0.000E+00     0.000E+00     0.000E+00
X    -4.390E+00     3.036E+00     2.045E+00     0.000E+00     0.000E+00     0.000E+00
X    -4.390E+00     3.036E+00     2.540E+00     0.000E+00     0.000E+00     0.000E+00
X    -4.390E+00     3.036E+00     3.036E+00     0.000E+00     0.000E+00     0.000E+00
X    -4.390E+00     3.036E+00     3.531E+00     0.000E+00     0.000E+00     0.000E+00
X    -4.390E+00     3.036E+00     4.027E+00     0.000E+00     0.000E+00     0.000E+00
X    -4.390E+00     3.036E+00     4.523E+00     0.000E+00     0.000E+00     0.000E+00
X    -4.390E+00     3.531E+00    -4.895E+00     0.000E+00     0.000E+00     0.000E+00
X    -4.390E+00     3.531E+00    -4.399E+00     0.000E+00     0.000E+00     0.000E+00
X    -4.390E+00     3.531E+00    -3.903E+00     0.000E+00     0.000E+00     0.000E+00
X    -4.390E+00     3.531E+00    -3.408E+00     0.000E+00     0.000E+00     0.000E+00
X    -4.390E+00     3.531E+00    -2.912E+00     0.000E+00     0.000E+00     0.000E+00
X    -4.390E+00     3.531E+00    -2.416E+00     0.000E+00     0.000E+00     0.000E+00
X    -4.390E+00     3.531E+00    -1.921E+00     0.000E+00     0.000E+00     0.000E+00
X    -4.390E+00     3.531E+00    -1.425E+00     0.000E+00     0.000E+00     0.000E+00
X    -4.390E+00     3.531E+00    -9.293E-01     0.000E+00     0.000E+00     0.000E+00
X    -4.390E+00     3.531E+00    -4.337E-01     0.000E+00     0.000E+00     0.000E+00
X    -4.390E+00     3.531E+00     6.196E-02     0.000E+00     0.000E+00     0.000E+00
X    -4.390E+00     3.531E+00     5.576E-01     0.000E+00     0.000E+00     0.000E+00
X    -4.390E+00     3.531E+00     1.053E+00     0.000E+00     0.000E+00     0.000E+00
X    -4.390E+00     3.531E+00     1.549E+00     0.000E+00     0.000E+00     0.000E+00
X    -4.390E+00     3.531E+00     2.045E+00     0.000E+00     0.000E+00     0.000E+00
X    -4.390E+00     3.531E+00     2.540E+00     0.000E+00     0.000E+00     0.000E+00
X    -4.390E+00     3.531E+00     3.036E+00     0.000E+00     0.000E+00     0.000E+00
X    -4.390E+00     3.531E+00     3.531E+00     0.000E+00     0.000E+00     0.000E+00
X    -4.390E+00     3.531E+00     4.027E+00     0.000E+00     0.000E+00     0.000E+00
X    -4.390E+00     3.531E+00     4.523E+00     0.000E+00     0.000E+00     0.000E+00
X    -4.390E+00     4.027E+00    -4.895E+00     0.000E+00     0.000E+00     0.000E+00
X    -4.390E+00     4.027E+00    -4.399E+00     0.000E+00     0.000E+00     0.000E+00
X    -4.390E+00     4.027E+00    -3.903E+00     0.000E+00     0.000E+00     0.000E+00
X    -4.390E+00     4.027E+00    -3.408E+00     0.000E+00     0.000E+00     0.000E+00
X    -4.390E+00     4.027E+00    -2.912E+00     0.000E+00     0.000E+00     0.000E+00
X    -4.390E+00     4.027E+00    -2.416E+00     0.000E+00     0.000E+00     0.000E+00
X    -4.390E+00     4.027E+00    -1.921E+00     0.000E+00     0.000E+00     0.000E+00
X    -4.390E+00     4.027E+00    -1.425E+00     0.000E+00     0.000E+00     0.000E+00
X    -4.390E+00     4.027E+00    -9.293E-01     0.000E+00     0.000E+00     0.000E+00
X    -4.390E+00     4.027E+00    -4.337E-01     0.000E+00     0.000E+00     0.000E+00
X    -4.390E+00     4.027E+00     6.196E-02     0.000E+00     0.000E+00     0.000E+00
X    -4.390E+00     4.027E+00     5.576E-01     0.000E+00     0.000E+00     0.000E+00
X    -4.390E+00     4.027E+00     1.053E+00     0.000E+00     0.000E+00     0.000E+00
X    -4.390E+00     4.027E+00     1.549E+00     0.000E+00     0.000E+00     0.000E+00
X    -4.390E+00     4.027E+00     2.045E+00     0.000E+00     0.000E+00     0.000E+00
X    -4.390E+00     4.027E+00     2.540E+00     0.000E+00     0.000E+00     0.000E+00
X    -4.390E+00     4.027E+00     3.036E+00     0.000E+00     0.000E+00     0.000E+00
X    -4.390E+00     4.027E+00     3.531E+00     0.000E+00     0.000E+00     0.000E+00
X    -4.390E+00     4.027E+00     4.027E+00     0.000E+00     0.000E+00     0.000E+00
X    -4.390E+00     4.027E+00     4.523E+00     0.000E+00     0.000E+00     0.000E+00
X    -4.390E+00     4.523E+00    -4.895E+00     0.000E+00     0.000E+00     0.000E+00
X    -4.390E+00     4.523E+00    -4.399E+00     0.000E+00     0.000E+00     0.000E+00
X    -4.390E+00     4.523E+00    -3.903E+00     0.000E+00     0.000E+00     0.000E+00
X    -4.390E+00     4.523E+00    -3.408E+00     0.000E+00     0.000E+00     0.000E+00
X    -4.390E+00     4.523E+00    -2.912E+00     0.000E+00     0.000E+00     0.000E+00
X    -4.390E+00     4.523E+00    -2.416E+00     0.000E+00     0.000E+00     0.000E+00
X    -4.390E+00     4.523E+00    -1.921E+00     0.000E+00     0.000E+00     0.000E+00
X    -4.390E+00     4.523E+00    -1.425E+00     0.000E+00     0.000E+00     0.000E+00
X    -4.390E+00     4.523E+00    -9.293E-01     0.000E+00     0.000E+00     0.000E+00
X    -4.390E+00     4.523E+00    -4.337E-01     0.000E+00     0.000E+00     0.000E+00
X    -4.390E+00     4.523E+00     6.196E-02     0.000E+00     0.000E+00     0.000E+00
X    -4.390E+00     4.523E+00     5.576E-01     0.000E+00     0.000E+00     0.000E+00
X    -4.390E+00     4.523E+00     1.053E+00     0.000E+00     0.000E+00     0.000E+00
X    -4.390E+00     4.523E+00     1.549E+00     0.000E+00     0.000E+00     0.000E+00
X    -4.390E+00     4.523E+00     2.045E+00     0.000E+00     0.000E+00     0.000E+00
X    -4.390E+00     4.523E+00     2.540E+00     0.000E+00     0.000E+00     0.000E+00
X    -4.390E+00     4.523E+00     3.036E+00     0.000E+00     0.000E+00     0.000E+00
X    -4.390E+00     4.523E+00     3.531E+00     0.000E+00     0.000E+00     0.000E+00
X    -4.390E+00     4.523E+00     4.027E+00     0.000E+00     0.000E+00     0.000E+00
X    -4.390E+00     4.523E+00     4.523E+00     0.000E+00     0.000E+00     0.000E+00
X    -3.895E+00    -4.895E+00    -4.895E+00     0.000E+00     0.000E+00     0.000E+00
X    -3.895E+00    -4.895E+00    -4.399E+00     0.000E+00     0.000E+00     0.000E+00
X    -3.895E+00    -4.895E+00    -3.903E+00     0.000E+00     0.000E+00     0.000E+00
X    -3.895E+00    -4.895E+00    -3.408E+00     0.000E+00     0.000E+00     0.000E+00
X    -3.895E+00    -4.895E+00    -2.912E+00     0.000E+00     0.000E+00     0.000E+00
X    -3.895E+00    -4.895E+00    -2.416E+00     0.000E+00     0.000E+00     0.000E+00
X    -3.895E+00    -4.895E+00    -1.921E+00     0.000E+00     0.000E+00     0.000E+00
X    -3.895E+00    -4.895E+00    -1.425E+00     0.000E+00     0.000E+00     0.000E+00
X    -3.895E+00    -4.895E+00    -9.293E-01     0.000E+00     0.000E+00     0.000E+00
X    -3.895E+00    -4.895E+00    -4.337E-01     0.000E+00     0.000E+00     0.000E+00
X    -3.895E+00    -4.895E+00     6.196E-02     0.000E+00     0.000E+00     0.000E+00
X    -3.895E+00    -4.895E+00     5.576E-01     0.000E+00     0.000E+00     0.000E+00
X    -3.895E+00    -4.895E+00     1.053E+00     0.000E+00     0.000E+00     0.000E+00
X    -3.895E+00    -4.895E+00     1.549E+00     0.000E+00     0.000E+00     0.000E+00
X    -3.895E+00    -4.895E+00     2.045E+00     0.000E+00     0.000E+00     0.000E+00
X    -3.895E+00    -4.895E+00     2.540E+00     0.000E+00     0.000E+00     0.000E+00
X    -3.895E+00    -4.895E+00     3.036E+00     0.000E+00     0.000E+00     0.000E+00
X    -3.895E+00    -4.895E+00     3.531E+00     0.000E+00     0.000E+00     0.000E+00
X    -3.895E+00    -4.895E+00     4.027E+00     0.000E+00     0.000E+00     0.000E+00
X    -3.895E+00    -4.895E+00     4.523E+00     0.000E+00     0.000E+00     0.000E+00
X    -3.895E+00    -4.399E+00    -4.895E+00     0.000E+00     0.000E+00     0.000E+00
X    -3.895E+00    -4.399E+00    -4.399E+00     0.000E+00     0.000E+00     0.000E+00
X    -3.895E+00    -4.399E+00    -3.903E+00     0.000E+00     0.000E+00     0.000E+00
X    -3.895E+00    -4.399E+00    -3.408E+00     0.000E+00     0.000E+00     0.000E+00
X    -3.895E+00    -4.399E+00    -2.912E+00     0.000E+00     0.000E+00     0.000E+00
X    -3.895E+00    -4.399E+00    -2.416E+00     0.000E+00     0.000E+00     0.000E+00
X    -3.895E+00    -4.399E+00    -1.921E+00     0.000E+00     0.000E+00     0.000E+00
X    -3.895E+00    -4.399E+00    -1.425E+00     0.000E+00     0.000E+00     0.000E+00
X    -3.895E+00    -4.399E+00    -9.293E-01     0.000E+00     0.000E+00     0.000E+00
X    -3.895E+00    -4.399E+00    -4.337E-01     0.000E+00     0.000E+00     0.000E+00
X    -3.895E+00    -4.399E+00     6.196E-02     0.000E+00     0.000E+00     0.000E+00
X    -3.895E+00    -4.399E+00     5.576E-01     0.000E+00     0.000E+00     0.000E+00
X    -3.895E+00    -4.399E+00     1.053E+00     0.000E+00     0.000E+00     0.000E+00
X    -3.895E+00    -4.399E+00     1.549E+00     0.000E+00     0.000E+00     0.000E+00
X    -3.895E+00    -4.399E+00     2.045E+00     0.000E+00     0.000E+00     0.000E+00
X    -3.895E+00    -4.399E+00     2.540E+00     0.000E+00     0.000E+00     0.000E+00
X    -3.895E+00    -4.399E+00     3.036E+00     0.000E+00     0.000E+00     0.000E+00
X    -3.895E+00    -4.399E+00     3.531E+00     0.000E+00     0.000E+00     0.000E+00
X    -3.895E+00    -4.399E+00     4.027E+00     0.000E+00     0.000E+00     0.000E+00
X    -3.895E+00    -4.399E+00     4.523E+00     0.000E+00     0.000E+00     0.000E+00
X    -3.895E+00    -3.903E+00    -4.895E+00     0.000E+00     0.000E+00     0.000E+00
X    -3.895E+00    -3.903E+00    -4.399E+00     0.000E+00     0.000E+00     0.000E+00
X    -3.895E+00    -3.903E+00    -3.903E+00     0.000E+00     0.000E+00     0.000E+00
X    -3.895E+00    -3.903E+00    -3.408E+00     0.000E+00     0.000E+00     0.000E+00
X    -3.895E+00    -3.903E+00    -2.912E+00     0.000E+00     0.000E+00     0.000E+00
X    -3.895E+00    -3.903E+00    -2.416E+00     0.000E+00     0.000E+00     0.000E+00
X    -3.895E+00    -3.903E+00    -1.921E+00     0.000E+00     0.000E+00     0.000E+00
X    -3.895E+00    -3.903E+00    -1.425E+00     0.000E+00     0.000E+00     0.000E+00
X    -3.895E+00    -3.903E+00    -9.293E-01     0.000E+00     0.000E+00     0.000E+00
X    -3.895E+00    -3.903E+00    -4.337E-01     0.000E+00     0.000E+00     0.000E+00
X    -3.895E+00    -3.903E+00     6.196E-02     0.000E+00     0.000E+00     0.000E+00
X    -3.895E+00    -3.903E+00     5.576E-01     0.000E+00     0.000E+00     0.000E+00
X    -3.895E+00    -3.903E+00     1.053E+00     0.000E+00     0.000E+00     0.000E+00
X    -3.895E+00    -3.903E+00     1.549E+00     0.000E+00     0.000E+00     0.000E+00
X    -3.895E+00    -3.903E+00     2.045E+00     0.000E+00     0.000E+00     0.000E+00
X    -3.895E+00    -3.903E+00     2.540E+00     0.000E+00     0.000E+00     0.000E+00
X    -3.895E+00    -3.903E+00     3.036E+00     0.000E+00     0.000E+00     0.000E+00
X    -3.895E+00    -3.903E+00     3.531E+00     0.000E+00     0.000E+00     0.000E+00
X    -3.895E+00    -3.903E+00     4.027E+00     0.000E+00     0.000E+00     0.000E+00
X    -3.895E+00    -3.903E+00     4.523E+00     0.000E+00     0.000E+00     0.000E+00
X    -3.895E+00    -3.408E+00    -4.895E+00     0.000E+00     0.000E+00     0.000E+00
X    -3.895E+00    -3.408E+00    -4.399E+00     0.000E+00     0.000E+00     0.000E+00
X    -3.895E+00    -3.408E+00    -3.903E+00     0.000E+00     0.000E+00     0.000E+00
X    -3.895E+00    -3.408E+00    -3.408E+00     0.000E+00     0.000E+00     0.000E+00
X    -3.895E+00    -3.408E+00    -2.912E+00     0.000E+00     0.000E+00     0.000E+00
X    -3.895E+00    -3.408E+00    -2.416E+00     0.000E+00     0.000E+00     0.000E+00
X    -3.895E+00    -3.408E+00    -1.921E+00     0.000E+00     0.000E+00     0.000E+00
X    -3.895E+00    -3.408E+00    -1.425E+00     0.000E+00     0.000E+00     0.000E+00
X    -3.895E+00    -3.408E+00    -9.293E-01     0.000E+00     0.000E+00     0.000E+00
X    -3.895E+00    -3.408E+00    -4.337E-01     0.000E+00     0.000E+00     0.000E+00
X    -3.895E+00    -3.408E+00     6.196E-02     0.000E+00     0.000E+00     0.000E+00
X    -3.895E+00    -3.408E+00     5.576E-01     0.000E+00     0.000E+00     0.000E+00
X    -3.895E+00    -3.408E+00     1.053E+00     0.000E+00     0.000E+00     0.000E+00
X    -3.895E+00    -3.408E+00     1.549E+00     0.000E+00     0.000E+00     0.000E+00
X    -3.895E+00    -3.408E+00     2.045E+00     0.000E+00     0.000E+00     0.000E+00
X    -3.895E+00    -3.408E+00     2.540E+00     0.000E+00     0.000E+00     0.000E+00
X    -3.895E+00    -3.408E+00     3.036E+00     0.000E+00     0.000E+00     0.000E+00
X    -3.895E+00    -3.408E+00     3.531E+00     0.000E+00     0.000E+00     0.000E+00
X    -3.895E+00    -3.408E+00     4.027E+00     0.000E+00     0.000E+00     0.000E+00
X    -3.895E+00    -3.408E+00     4.523E+00     0.000E+00     0.000E+00     0.000E+00
X    -3.895E+00    -2.912E+00    -4.895E+00     0.000E+00     0.000E+00     0.000E+00
X    -3.895E+00    -2.912E+00    -4.399E+00     0.000E+00     0.000E+00     0.000E+00
X    -3.895E+00    -2.912E+00    -3.903E+00     0.000E+00     0.000E+00     0.000E+00
X    -3.895E+00    -2.912E+00    -3.408E+00     0.000E+00     0.000E+00     0.000E+00
X    -3.895E+00    -2.912E+00    -2.912E+00     0.000E+00     0.000E+00     0.000E+00
X    -3.895E+00    -2.912E+00    -2.416E+00     0.000E+00     0.000E+00     0.000E+00
X    -3.895E+00    -2.912E+00    -1.921E+00     0.000E+00     0.000E+00     0.000E+00
X    -3.895E+00    -2.912E+00    -1.425E+00     0.000E+00     0.000E+00     0.000E+00
X    -3.895E+00    -2.912E+00    -9.293E-01     0.000E+00     0.000E+00     0.000E+00
X    -3.895E+00    -2.912E+00    -4.337E-01     0.000E+00     0.000E+00     0.000E+00
X    -3.895E+00    -2.912E+00     6.196E-02     0.000E+00     0.000E+00     0.000E+00
X    -3.895E+00    -2.912E+00     5.576E-01     0.000E+00     0.000E+00     0.000E+00
X    -3.895E+00    -2.912E+00     1.053E+00     0.000E+00     0.000E+00     0.000E+00
X    -3.895E+00    -2.912E+00     1.549E+00     0.000E+00     0.000E+00     0.000E+00
X    -3.895E+00    -2.912E+00     2.045E+00     0.000E+00     0.000E+00     0.000E+00
X    -3.895E+00    -2.912E+00     2.540E+00     0.000E+00     0.000E+00     0.000E+00
X    -3.895E+00    -2.912E+00     3.036E+00     0.000E+00     0.000E+00     0.000E+00
X    -3.895E+00    -2.912E+00     3.531E+00     0.000E+00     0.000E+00     0.000E+00
X    -3.895E+00    -2.912E+00     4.027E+00     0.000E+00     0.000E+00     0.000E+00
X    -3.895E+00    -2.912E+00     4.523E+00     0.000E+00     0.000E+00     0.000E+00
X    -3.895E+00    -2.416E+00    -4.895E+00     0.000E+00     0.000E+00     0.000E+00
X    -3.895E+00    -2.416E+00    -4.399E+00     0.000E+00     0.000E+00     0.000E+00
X    -3.895E+00    -2.416E+00    -3.903E+00     0.000E+00     0.000E+00     0.000E+00
X    -3.895E+00    -2.416E+00    -3.408E+00     0.000E+00     0.000E+00     0.000E+00
X    -3.895E+00    -2.416E+00    -2.912E+00     0.000E+00     0.000E+00     0.000E+00
X    -3.895E+00    -2.416E+00    -2.416E+00     0.000E+00     0.000E+00     0.000E+00
X    -3.895E+00    -2.416E+00    -1.921E+00     0.000E+00     0.000E+00     0.000E+00
X    -3.895E+00    -2.416E+00    -1.425E+00     0.000E+00     0.000E+00     0.000E+00
X    -3.895E+00    -2.416E+00    -9.293E-01     0.000E+00     0.000E+00     0.000E+00
X    -3.895E+00    -2.416E+00    -4.337E-01     0.000E+00     0.000E+00     0.000E+00
X    -3.895E+00    -2.416E+00     6.196E-02     0.000E+00     0.000E+00     0.000E+00
X    -3.895E+00    -2.416E+00     5.576E-01     0.000E+00     0.000E+00     0.000E+00
X    -3.895E+00    -2.416E+00     1.053E+00     0.000E+00     0.000E+00     0.000E+00
X    -3.895E+00    -2.416E+00     1.549E+00     0.000E+00     0.000E+00     0.000E+00
X    -3.895E+00    -2.416E+00     2.045E+00     0.000E+00     0.000E+00     0.000E+00
X    -3.895E+00    -2.416E+00     2.540E+00     0.000E+00     0.000E+00     0.000E+00
X    -3.895E+00    -2.416E+00     3.036E+00     0.000E+00     0.000E+00     0.000E+00
X    -3.895E+00    -2.416E+00     3.531E+00     0.000E+00     0.000E+00     0.000E+00
X    -3.895E+00    -2.416E+00     4.027E+00     0.000E+00     0.000E+00     0.000E+00
X    -3.895E+00    -2.416E+00     4.523E+00     0.000E+00     0.000E+00     0.000E+00
X    -3.895E+00    -1.921E+00    -4.895E+00     0.000E+00     0.000E+00     0.000E+00
X    -3.895E+00    -1.921E+00    -4.399E+00     0.000E+00     0.000E+00     0.000E+00
X    -3.895E+00    -1.921E+00    -3.903E+00     0.000E+00     0.000E+00     0.000E+00
X    -3.895E+00    -1.921E+00    -3.408E+00     0.000E+00     0.000E+00     0.000E+00
X    -3.895E+00    -1.921E+00    -2.912E+00     0.000E+00     0.000E+00     0.000E+00
X    -3.895E+00    -1.921E+00    -2.416E+00     0.000E+00     0.000E+00     0.000E+00
X    -3.895E+00    -1.921E+00    -1.921E+00     0.000E+00     0.000E+00     0.000E+00
X    -3.895E+00    -1.921E+00    -1.425E+00     0.000E+00     0.000E+00     0.000E+00
X    -3.895E+00    -1.921E+00    -9.293E-01     0.000E+00     0.000E+00     0.000E+00
X    -3.895E+00    -1.921E+00    -4.337E-01     0.000E+00     0.000E+00     0.000E+00
X    -3.895E+00    -1.921E+00     6.196E-02     0.000E+00     0.000E+00     0.000E+00
X    -3.895E+00    -1.921E+00     5.576E-01     0.000E+00     0.000E+00     0.000E+00
X    -3.895E+00    -1.921E+00     1.053E+00     0.000E+00     0.000E+00     0.000E+00
X    -3.895E+00    -1.921E+00     1.549E+00     0.000E+00     0.000E+00     0.000E+00
X    -3.895E+00    -1.921E+00     2.045E+00     0.000E+00     0.000E+00     0.000E+00
X    -3.895E+00    -1.921E+00     2.540E+00     0.000E+00     0.000E+00     0.000E+00
X    -3.895E+00    -1.921E+00     3.036E+00     0.000E+00     0.000E+00     0.000E+00
X    -3.895E+00    -1.921E+00     3.531E+00     0.000E+00     0.000E+00     0.000E+00
X    -3.895E+00    -1.921E+00     4.027E+00     0.000E+00     0.000E+00     0.000E+00
X    -3.895E+00    -1.921E+00     4.523E+00     0.000E+00     0.000E+00     0.000E+00
X    -3.895E+00    -1.425E+00    -4.895E+00     0.000E+00     0.000E+00     0.000E+00
X    -3.895E+00    -1.425E+00    -4.399E+00     0.000E+00     0.000E+00     0.000E+00
X    -3.895E+00    -1.425E+00    -3.903E+00     0.000E+00     0.000E+00     0.000E+00
X    -3.895E+00    -1.425E+00    -3.408E+00     0.000E+00     0.000E+00     0.000E+00
X    -3.895E+00    -1.425E+00    -2.912E+00     0.000E+00     0.000E+00     0.000E+00
X    -3.895E+00    -1.425E+00    -2.416E+00     0.000E+00     0.000E+00     0.000E+00
X    -3.895E+00    -1.425E+00    -1.921E+00     0.000E+00     0.000E+00     0.000E+00
X    -3.895E+00    -1.425E+00    -1.425E+00     0.000E+00     0.000E+00     0.000E+00
X    -3.895E+00    -1.425E+00    -9.293E-01     0.000E+00     0.000E+00     0.000E+00
X    -3.895E+00    -1.425E+00    -4.337E-01    -5.097E-11    -2.632E-10    -2.978E-10
X    -3.895E+00    -1.425E+00     6.196E-02    -2.967E-10    -1.531E-09    -1.731E-09
X    -3.895E+00    -1.425E+00     5.576E-01    -1.722E-11    -8.870E-11    -1.003E-10
X    -3.895E+00    -1.425E+00     1.053E+00     0.000E+00     0.000E+00     0.000E+00
X    -3.895E+00    -1.425E+00     1.549E+00     0.000E+00     0.000E+00     0.000E+00
X    -3.895E+00    -1.425E+00     2.045E+00     0.000E+00     0.000E+00     0.000E+00
X    -3.895E+00    -1.425E+00     2.540E+00     0.000E+00     0.000E+00     0.000E+00
X    -3.895E+00    -1.425E+00     3.036E+00     0.000E+00     0.000E+00     0.000E+00
X    -3.895E+00    -1.425E+00     3.531E+00     0.000E+00     0.000E+00     0.000E+00
X    -3.895E+00    -1.425E+00     4.027E+00     0.000E+00     0.000E+00     0.000E+00
X    -3.895E+00    -1.425E+00     4.523E+00     0.000E+00     0.000E+00     0.000E+00
X    -3.895E+00    -9.293E-01    -4.895E+00     0.000E+00     0.000E+00     0.000E+00
X    -3.895E+00    -9.293E-01    -4.399E+00     0.000E+00     0.000E+00     0.000E+00
X    -3.895E+00    -9.293E-01    -3.903E+00     0.000E+00     0.000E+00     0.000E+00
X    -3.895E+00    -9.293E-01    -3.408E+00     0.000E+00     0.000E+00     0.000E+00
X    -3.895E+00    -9.293E-01    -2.912E+00     0.000E+00     0.000E+00     0.000E+00
X    -3.895E+00    -9.293E-01    -2.416E+00     0.000E+00     0.000E+00     0.000E+00
X    -3.895E+00    -9.293E-01    -1.921E+00     0.000E+00     0.000E+00     0.000E+00
X    -3.895E+00    -9.293E-01    -1.425E+00     0.000E+00     0.000E+00     0.000E+00
X    -3.895E+00    -9.293E-01    -9.293E-01    -3.818E-09    -1.973E-08    -2.232E-08
X    -3.895E+00    -9.293E-01    -4.337E-01    -5.371E-08    -2.773E-07    -3.137E-07
X    -3.895E+00    -9.293E-01     6.196E-02    -7.664E-08    -3.951E-07    -4.470E-07
X    -3.895E+00    -9.293E-01     5.576E-01    -4.093E-08    -2.107E-07    -2.384E-07
X    -3.895E+00    -9.293E-01     1.053E+00    -5.249E-10    -2.698E-09    -3.053E-09
X    -3.895E+00    -9.293E-01     1.549E+00     0.000E+00     0.000E+00     0.000E+00
X    -3.895E+00    -9.293E-01     2.045E+00     0.000E+00     0.000E+00     0.000E+00
X    -3.895E+00    -9.293E-01     2.540E+00     0.000E+00     0.000E+00     0.000E+00
X    -3.895E+00    -9.293E-01     3.036E+00     0.000E+00     0.000E+00     0.000E+00
X    -3.895E+00    -9.293E-01     3.531E+00     0.000E+00     0.000E+00     0.000E+00
X    -3.895E+00    -9.293E-01     4.027E+00     0.000E+00     0.000E+00     0.000E+00
X    -3.895E+00    -9.293E-01     4.523E+00     0.000E+00     0.000E+00     0.000E+00
X    -3.895E+00    -4.337E-01    -4.895E+00     0.000E+00     0.000E+00     0.000E+00
X    -3.895E+00    -4.337E-01    -4.399E+00     0.000E+00     0.000E+00     0.000E+00
X    -3.895E+00    -4.337E-01    -3.903E+00     0.000E+00     0.000E+00     0.000E+00
X    -3.895E+00    -4.337E-01    -3.408E+00     0.000E+00     0.000E+00     0.000E+00
X    -3.895E+00    -4.337E-01    -2.912E+00     0.000E+00     0.000E+00     0.000E+00
X    -3.895E+00    -4.337E-01    -2.416E+00     0.000E+00     0.000E+00     0.000E+00
X    -3.895E+00    -4.337E-01    -1.921E+00     0.000E+00     0.000E+00     0.000E+00
X    -3.895E+00    -4.337E-01    -1.425E+00    -5.096E-11    -2.632E-10    -2.978E-10
X    -3.895E+00    -4.337E-01    -9.293E-01    -5.370E-08    -2.773E-07    -3.137E-07
X    -3.895E+00    -4.337E-01    -4.337E-01    -1.587E-07    -8.183E-07    -9.258E-07
X    -3.895E+00    -4.337E-01     6.196E-02    -1.979E-07    -1.019E-06    -1.153E-06
X    -3.895E+00    -4.337E-01     5.576E-01    -1.357E-07    -6.974E-07    -7.890E-07
X    -3.895E+00    -4.337E-01     1.053E+00    -2.952E-08    -1.516E-07    -1.715E-07
X    -3.895E+00    -4.337E-01     1.549E+00    -8.142E-15    -4.178E-14    -4.726E-14
X    -3.895E+00    -4.337E-01     2.045E+00     0.000E+00     0.000E+00     0.000E+00
X    -3.895E+00    -4.337E-01     2.540E+00     0.000E+00     0.000E+00     0.000E+00
X    -3.895E+00    -4.337E-01     3.036E+00     0.000E+00     0.000E+00     0.000E+00
X    -3.895E+00    -4.337E-01     3.531E+00     0.000E+00     0.000E+00     0.000E+00
X    -3.895E+00    -4.337E-01     4.027E+00     0.000E+00     0.000E+00     0.000E+00
X    -3.895E+00    -4.337E-01     4.523E+00     0.000E+00     0.000E+00     0.000E+00
X    -3.895E+00     6.196E-02    -4.895E+00     0.000E+00     0.000E+00     0.000E+00
X    -3.895E+00     6.196E-02    -4.399E+00     0.000E+00     0.000E+00     0.000E+00
X    -3.895E+00     6.196E-02    -3.903E+00     0.000E+00     0.000E+00     0.000E+00
X    -3.895E+00     6.196E-02    -3.408E+00     0.000E+00     0.000E+00     0.000E+00
X    -3.895E+00     6.196E-02    -2.912E+00     0.000E+00     0.000E+00     0.000E+00
X    -3.895E+00     6.196E-02    -2.416E+00     0.000E+00     0.000E+00     0.000E+00
X    -3.895E+00     6.196E-02    -1.921E+00     0.000E+00     0.000E+00     0.000E+00
X    -3.895E+00     6.196E-02    -1.425E+00    -2.966E-10    -1.530E-09    -1.732E-09
X    -3.895E+00     6.196E-02    -9.293E-01    -7.662E-08    -3.951E-07    -4.470E-07
X    -3.895E+00     6.196E-02    -4.337E-01    -1.978E-07    -1.019E-06    -1.153E-06
X    -3.895E+00     6.196E-02     6.196E-02    -2.420E-07    -1.244E-06    -1.408E-06
X    -3.895E+00     6.196E-02     5.576E-01    -1.719E-07    -8.825E-07    -9.984E-07
X    -3.895E+00     6.196E-02     1.053E+00    -4.735E-08    -2.428E-07    -2.747E-07
X    -3.895E+00     6.196E-02     1.549E+00    -1.016E-11    -5.210E-11    -5.894E-11
X    -3.895E+00     6.196E-02     2.045E+00     0.000E+00     0.000E+00     0.000E+00
X    -3.895E+00     6.196E-02     2.540E+00     0.000E+00     0.000E+00     0.000E+00
X    -3.895E+00     6.196E-02     3.036E+00     0.000E+00     0.000E+00     0.000E+00
X    -3.895E+00     6.196E-02     3.531E+00     0.000E+00     0.000E+00     0.000E+00
X    -3.895E+00     6.196E-02     4.027E+00     0.000E+00     0.000E+00     0.000E+00
X    -3.895E+00     6.196E-02     4.523E+00     0.000E+00     0.000E+00     0.000E+00
X    -3.895E+00     5.576E-01    -4.895E+00     0.000E+00     0.000E+00     0.000E+00
X    -3.895E+00     5.576E-01    -4.399E+00     0.000E+00     0.000E+00     0.000E+00
X    -3.895E+00     5.576E-01    -3.903E+00     0.000E+00     0.000E+00     0.000E+00
X    -3.895E+00     5.576E-01    -3.408E+00     0.000E+00     0.000E+00     0.000E+00
X    -3.895E+00     5.576E-01    -2.912E+00     0.000E+00     0.000E+00     0.000E+00
X    -3.895E+00     5.576E-01    -2.416E+00     0.000E+00     0.000E+00     0.000E+00
X    -3.895E+00     5.576E-01    -1.921E+00     0.000E+00     0.000E+00     0.000E+00
X    -3.895E+00     5.576E-01    -1.425E+00    -1.721E-11    -8.868E-11    -1.004E-10
X    -3.895E+00     5.576E-01    -9.293E-01    -4.091E-08    -2.107E-07    -2.384E-07
X    -3.895E+00     5.576E-01    -4.337E-01    -1.356E-07    -6.974E-07    -7.891E-07
X    -3.895E+00     5.576E-01     6.196E-02    -1.719E-07    -8.824E-07    -9.984E-07
X    -3.895E+00     5.576E-01     5.576E-01    -1.144E-07    -5.866E-07    -6.636E-07
X    -3.895E+00     5.576E-01     1.053E+00    -1.936E-08    -9.915E-08    -1.122E-07
X    -3.895E+00     5.576E-01     1.549E+00    -4.086E-12    -2.092E-11    -2.367E-11
X    -3.895E+00     5.576E-01     2.045E+00     0.000E+00     0.000E+00     0.000E+00
X    -3.895E+00     5.576E-01     2.540E+00     0.000E+00     0.000E+00     0.000E+00
X    -3.895E+00     5.576E-01     3.036E+00     0.000E+00     0.000E+00     0.000E+00
X    -3.895E+00     5.576E-01     3.531E+00     0.000E+00     0.000E+00     0.000E+00
X    -3.895E+00     5.576E-01     4.027E+00     0.000E+00     0.000E+00     0.000E+00
X    -3.895E+00     5.576E-01     4.523E+00     0.000E+00     0.000E+00     0.000E+00
X    -3.895E+00     1.053E+00    -4.895E+00     0.000E+00     0.000E+00     0.000E+00
X    -3.895E+00     1.053E+00    -4.399E+00     0.000E+00     0.000E+00     0.000E+00
X    -3.895E+00     1.053E+00    -3.903E+00     0.000E+00     0.000E+00     0.000E+00
X    -3.895E+00     1.053E+00    -3.408E+00     0.000E+00     0.000E+00     0.000E+00
X    -3.895E+00     1.053E+00    -2.912E+00     0.000E+00     0.000E+00     0.000E+00
X    -3.895E+00     1.053E+00    -2.416E+00     0.000E+00     0.000E+00     0.000E+00
X    -3.895E+00     1.053E+00    -1.921E+00     0.000E+00     0.000E+00     0.000E+00
X    -3.895E+00     1.053E+00    -1.425E+00     0.000E+00     0.000E+00     0.000E+00
X    -3.895E+00     1.053E+00    -9.293E-01    -5.246E-10    -2.698E-09    -3.053E-09
X    -3.895E+00     1.053E+00    -4.337E-01    -2.950E-08    -1.515E-07    -1.715E-07
X    -3.895E+00     1.053E+00     6.196E-02    -4.733E-08    -2.428E-07    -2.747E-07
X    -3.895E+00     1.053E+00     5.576E-01    -1.935E-08    -9.915E-08    -1.122E-07
X    -3.895E+00     1.053E+00     1.053E+00    -5.140E-11    -2.632E-10    -2.978E-10
X    -3.895E+00     1.053E+00     1.549E+00     0.000E+00     0.000E+00     0.000E+00
X    -3.895E+00     1.053E+00     2.045E+00     0.000E+00     0.000E+00     0.000E+00
X    -3.895E+00     1.053E+00     2.540E+00     0.000E+00     0.000E+00     0.000E+00
X    -3.895E+00     1.053E+00     3.036E+00     0.000E+00     0.000E+00     0.000E+00
X    -3.895E+00     1.053E+00     3.531E+00     0.000E+00     0.000E+00     0.000E+00
X    -3.895E+00     1.053E+00     4.027E+00     0.000E+00     0.000E+00     0.000E+00
X    -3.895E+00     1.053E+00     4.523E+00     0.000E+00     0.000E+00     0.000E+00
X    -3.895E+00     1.549E+00    -4.895E+00     0.000E+00     0.000E+00     0.000E+00
X    -3.895E+00     1.549E+00    -4.399E+00     0.000E+00     0.000E+00     0.000E+00
X    -3.895E+00     1.549E+00    -3.903E+00     0.000E+00     0.000E+00     0.000E+00
X    -3.895E+00     1.549E+00    -3.408E+00     0.000E+00     0.000E+00     0.000E+00
X    -3.895E+00     1.549E+00    -2.912E+00     0.000E+00     0.000E+00     0.000E+00
X    -3.895E+00     1.549E+00    -2.416E+00     0.000E+00     0.000E+00     0.000E+00
X    -3.895E+00     1.549E+00    -1.921E+00     0.000E+00     0.000E+00     0.000E+00
X    -3.895E+00     1.549E+00    -1.425E+00     0.000E+00     0.000E+00     0.000E+00
X    -3.895E+00     1.549E+00    -9.293E-01     0.000E+00     0.000E+00     0.000E+00
X    -3.895E+00     1.549E+00    -4.337E-01    -8.138E-15    -4.177E-14    -4.727E-14
X    -3.895E+00     1.549E+00     6.196E-02    -1.016E-11    -5.209E-11    -5.894E-11
X    -3.895E+00     1.549E+00     5.576E-01    -4.085E-12    -2.092E-11    -2.367E-11
X    -3.895E+00     1.549E+00     1.053E+00     0.000E+00     0.000E+00     0.000E+00
X    -3.895E+00     1.549E+00     1.549E+00     0.000E+00     0.000E+00     0.000E+00
X    -3.895E+00     1.549E+00     2.045E+00     0.000E+00     0.000E+00     0.000E+00
X    -3.895E+00     1.549E+00     2.540E+00     0.000E+00     0.000E+00     0.000E+00
X    -3.895E+00     1.549E+00     3.036E+00     0.000E+00     0.000E+00     0.000E+00
X    -3.895E+00     1.549E+00     3.531E+00     0.000E+00     0.000E+00     0.000E+00
X    -3.895E+00     1.549E+00     4.027E+00     0.000E+00     0.000E+00     0.000E+00
X    -3.895E+00     1.549E+00     4.523E+00     0.000E+00     0.000E+00     0.000E+00
X    -3.895E+00     2.045E+00    -4.895E+00     0.000E+00     0.000E+00     0.000E+00
X    -3.895E+00     2.045E+00    -4.399E+00     0.000E+00     0.000E+00     0.000E+00
X    -3.895E+00     2.045E+00    -3.903E+00     0.000E+00     0.000E+00     0.000E+00
X    -3.895E+00     2.045E+00    -3.408E+00     0.000E+00     0.000E+00     0.000E+00
X    -3.895E+00     2.045E+00    -2.912E+00     0.000E+00     0.000E+00     0.000E+00
X    -3.895E+00     2.045E+00    -2.416E+00     0.000E+00     0.000E+00     0.000E+00
X    -3.895E+00     2.045E+00    -1.921E+00     0.000E+00     0.000E+00     0.000E+00
X    -3.895E+00     2.045E+00    -1.425E+00     0.000E+00     0.000E+00     0.000E+00
X    -3.895E+00     2.045E+00    -9.293E-01     0.000E+00     0.000E+00     0.000E+00
X    -3.895E+00     2.045E+00    -4.337E-01     0.000E+00     0.000E+00     0.000E+00
X    -3.895E+00     2.045E+00     6.196E-02     0.000E+00     0.000E+00     0.000E+00
X    -3.895E+00     2.045E+00     5.576E-01     0.000E+00     0.000E+00     0.000E+00
X    -3.895E+00     2.045E+00     1.053E+00     0.000E+00     0.000E+00     0.000E+00
X    -3.895E+00     2.045E+00     1.549E+00     0.000E+00     0.000E+00     0.000E+00
X    -3.895E+00     2.045E+00     2.045E+00     0.000E+00     0.000E+00     0.000E+00
X    -3.895E+00     2.045E+00     2.540E+00     0.000E+00     0.000E+00     0.000E+00
X    -3.895E+00     2.045E+00     3.036E+00     0.000E+00     0.000E+00     0.000E+00
X    -3.895E+00     2.045E+00     3.531E+00     0.000E+00     0.000E+00     0.000E+00
X    -3.895E+00     2.045E+00     4.027E+00     0.000E+00     0.000E+00     0.000E+00
X    -3.895E+00     2.045E+00     4.523E+00     0.000E+00     0.000E+00     0.000E+00
X    -3.895E+00     2.540E+00    -4.895E+00     0.000E+00     0.000E+00     0.000E+00
X    -3.895E+00     2.540E+00    -4.399E+00     0.000E+00     0.000E+00     0.000E+00
X    -3.895E+00     2.540E+00    -3.903E+00     0.000E+00     0.000E+00     0.000E+00
X    -3.895E+00     2.540E+00    -3.408E+00     0.000E+00     0.000E+00     0.000E+00
X    -3.895E+00     2.540E+00    -2.912E+00     0.000E+00     0.000E+00     0.000E+00
X    -3.895E+00     2.540E+00    -2.416E+00     0.000E+00     0.000E+00     0.000E+00
X    -3.895E+00     2.540E+00    -1.921E+00     0.000E+00     0.000E+00     0.000E+00
X    -3.895E+00     2.540E+00    -1.425E+00     0.000E+00     0.000E+00     0.000E+00
X    -3.895E+00     2.540E+00    -9.293E-01     0.000E+00     0.000E+00     0.000E+00
X    -3.895E+00     2.540E+00    -4.337E-01     0.000E+00     0.000E+00     0.000E+00
X    -3.895E+00     2.540E+00     6.196E-02     0.000E+00     0.000E+00     0.000E+00
X    -3.895E+00     2.540E+00     5.576E-01     0.000E+00     0.000E+00     0.000E+00
X    -3.895E+00     2.540E+00     1.053E+00     0.000E+00     0.000E+00     0.000E+00
X    -3.895E+00     2.540E+00     1.549E+00     0.000E+00     0.000E+00     0.000E+00
X    -3.895E+00     2.540E+00     2.045E+00     0.000E+00     0.000E+00     0.000E+00
X    -3.895E+00     2.540E+00     2.540E+00     0.000E+00     0.000E+00     0.000E+00
X    -3.895E+00     2.540E+00     3.036E+00     0.000E+00     0.000E+00     0.000E+00
X    -3.895E+00     2.540E+00     3.531E+00     0.000E+00     0.000E+00     0.000E+00
X    -3.895E+00     2.540E+00     4.027E+00     0.000E+00     0.000E+00     0.000E+00
X    -3.895E+00     2.540E+00     4.523E+00     0.000E+00     0.000E+00     0.000E+00
X    -3.895E+00     3.036E+00    -4.895E+00     0.000E+00     0.000E+00     0.000E+00
X    -3.895E+00     3.036E+00    -4.399E+00     0.000E+00     0.000E+00     0.000E+00
X    -3.895E+00     3.036E+00    -3.903E+00     0.000E+00     0.000E+00     0.000E+00
X    -3.895E+00     3.036E+00    -3.408E+00     0.000E+00     0.000E+00     0.000E+00
X    -3.895E+00     3.036E+00    -2.912E+00     0.000E+00     0.000E+00     0.000E+00
X    -3.895E+00     3.036E+00    -2.416E+00     0.000E+00     0.000E+00     0.000E+00
X    -3.895E+00     3.036E+00    -1.921E+00     0.000E+00     0.000E+00     0.000E+00
X    -3.895E+00     3.036E+00    -1.425E+00     0.000E+00     0.000E+00     0.000E+00
X    -3.895E+00     3.036E+00    -9.293E-01     0.000E+00     0.000E+00     0.000E+00
X    -3.895E+00     3.036E+00    -4.337E-01     0.000E+00     0.000E+00     0.000E+00
X    -3.895E+00     3.036E+00     6.196E-02     0.000E+00     0.000E+00     0.000E+00
X    -3.895E+00     3.036E+00     5.576E-01     0.000E+00     0.000E+00     0.000E+00
X    -3.895E+00     3.036E+00     1.053E+00     0.000E+00     0.000E+00     0.000E+00
X    -3.895E+00     3.036E+00     1.549E+00     0.000E+00     0.000E+00     0.000E+00
X    -3.895E+00     3.036E+00     2.045E+00     0.000E+00     0.000E+00     0.000E+00
X    -3.895E+00     3.036E+00     2.540E+00     0.000E+00     0.000E+00     0.000E+00
X    -3.895E+00     3.036E+00     3.036E+00     0.000E+00     0.000E+00     0.000E+00
X    -3.895E+00     3.036E+00     3.531E+00     0.000E+00     0.000E+00     0.000E+00
X    -3.895E+00     3.036E+00     4.027E+00     0.000E+00     0.000E+00     0.000E+00
X    -3.895E+00     3.036E+00     4.523E+00     0.000E+00     0.000E+00     0.000E+00
X    -3.895E+00     3.531E+00    -4.895E+00     0.000E+00     0.000E+00     0.000E+00
X    -3.895E+00     3.531E+00    -4.399E+00     0.000E+00     0.000E+00     0.000E+00
X    -3.895E+00     3.531E+00    -3.903E+00     0.000E+00     0.000E+00     0.000E+00
X    -3.895E+00     3.531E+00    -3.408E+00     0.000E+00     0.000E+00     0.000E+00
X    -3.895E+00     3.531E+00    -2.912E+00     0.000E+00     0.000E+00     0.000E+00
X    -3.895E+00     3.531E+00    -2.416E+00     0.000E+00     0.000E+00     0.000E+00
X    -3.895E+00     3.531E+00    -1.921E+00     0.000E+00     0.000E+00     0.000E+00
X    -3.895E+00     3.531E+00    -1.425E+00     0.000E+00     0.000E+00     0.000E+00
X    -3.895E+00     3.531E+00    -9.293E-01     0.000E+00     0.000E+00     0.000E+00
X    -3.895E+00     3.531E+00    -4.337E-01     0.000E+00     0.000E+00     0.000E+00
X    -3.895E+00     3.531E+00     6.196E-02     0.000E+00     0.000E+00     0.000E+00
X    -3.895E+00     3.531E+00     5.576E-01     0.000E+00     0.000E+00     0.000E+00
X    -3.895E+00     3.531E+00     1.053E+00     0.000E+00     0.000E+00     0.000E+00
X    -3.895E+00     3.531E+00     1.549E+00     0.000E+00     0.000E+00     0.000E+00
X    -3.895E+00     3.531E+00     2.045E+00     0.000E+00     0.000E+00     0.000E+00
X    -3.895E+00     3.531E+00     2.540E+00     0.000E+00     0.000E+00     0.000E+00
X    -3.895E+00     3.531E+00     3.036E+00     0.000E+00     0.000E+00     0.000E+00
X    -3.895E+00     3.531E+00     3.531E+00     0.000E+00     0.000E+00     0.000E+00
X    -3.895E+00     3.531E+00     4.027E+00     0.000E+00     0.000E+00     0.000E+00
X    -3.895E+00     3.531E+00     4.523E+00     0.000E+00     0.000E+00     0.000E+00
X    -3.895E+00     4.027E+00    -4.895E+00     0.000E+00     0.000E+00     0.000E+00
X    -3.895E+00     4.027E+00    -4.399E+00     0.000E+00     0.000E+00     0.000E+00
X    -3.895E+00     4.027E+00    -3.903E+00     0.000E+00     0.000E+00     0.000E+00
X    -3.895E+00     4.027E+00    -3.408E+00     0.000E+00     0.000E+00     0.000E+00
X    -3.895E+00     4.027E+00    -2.912E+00     0.000E+00     0.000E+00     0.000E+00
X    -3.895E+00     4.027E+00    -2.416E+00     0.000E+00     0.000E+00     0.000E+00
X    -3.895E+00     4.027E+00    -1.921E+00     0.000E+00     0.000E+00     0.000E+00
X    -3.895E+00     4.027E+00    -1.425E+00     0.000E+00     0.000E+00     0.000E+00
X    -3.895E+00     4.027E+00    -9.293E-01     0.000E+00     0.000E+00     0.000E+00
X    -3.895E+00     4.027E+00    -4.337E-01     0.000E+00     0.000E+00     0.000E+00
X    -3.895E+00     4.027E+00     6.196E-02     0.000E+00     0.000E+00     0.000E+00
X    -3.895E+00     4.027E+00     5.576E-01     0.000E+00     0.000E+00     0.000E+00
X    -3.895E+00     4.027E+00     1.053E+00     0.000E+00     0.000E+00     0.000E+00
X    -3.895E+00     4.027E+00     1.549E+00     0.000E+00     0.000E+00     0.000E+00
X    -3.895E+00     4.027E+00     2.045E+00     0.000E+00     0.000E+00     0.000E+00
X    -3.895E+00     4.027E+00     2.540E+00     0.000E+00     0.000E+00     0.000E+00
X    -3.895E+00     4.027E+00     3.036E+00     0.000E+00     0.000E+00     0.000E+00
X    -3.895E+00     4.027E+00     3.531E+00     0.000E+00     0.000E+00     0.000E+00
X    -3.895E+00     4.027E+00     4.027E+00     0.000E+00     0.000E+00     0.000E+00
X    -3.895E+00     4.027E+00     4.523E+00     0.000E+00     0.000E+00     0.000E+00
X    -3.895E+00     4.523E+00    -4.895E+00     0.000E+00     0.000E+00     0.000E+00
X    -3.895E+00     4.523E+00    -4.399E+00     0.000E+00     0.000E+00     0.000E+00
X    -3.895E+00     4.523E+00    -3.903E+00     0.000E+00     0.000E+00     0.000E+00
X    -3.895E+00     4.523E+00    -3.408E+00     0.000E+00     0.000E+00     0.000E+00
X    -3.895E+00     4.523E+00    -2.912E+00     0.000E+00     0.000E+00     0.000E+00
X    -3.895E+00     4.523E+00    -2.416E+00     0.000E+00     0.000E+00     0.000E+00
X    -3.895E+00     4.523E+00    -1.921E+00     0.000E+00     0.000E+00     0.000E+00
X    -3.895E+00     4.523E+00    -1.425E+00     0.000E+00     0.000E+00     0.000E+00
X    -3.895E+00     4.523E+00    -9.293E-01     0.000E+00     0.000E+00     0.000E+00
X    -3.895E+00     4.523E+00    -4.337E-01     0.000E+00     0.000E+00     0.000E+00
X    -3.895E+00     4.523E+00     6.196E-02     0.000E+00     0.000E+00     0.000E+00
X    -3.895E+00     4.523E+00     5.576E-01     0.000E+00     0.000E+00     0.000E+00
X    -3.895E+00     4.523E+00     1.053E+00     0.000E+00     0.000E+00     0.000E+00
X    -3.895E+00     4.523E+00     1.549E+00     0.000E+00     0.000E+00     0.000E+00
X    -3.895E+00     4.523E+00     2.045E+00     0.000E+00     0.000E+00     0.000E+00
X    -3.895E+00     4.523E+00     2.540E+00     0.000E+00     0.000E+00     0.000E+00
X    -3.895E+00     4.523E+00     3.036E+00     0.000E+00     0.000E+00     0.000E+00
X    -3.895E+00     4.523E+00     3.531E+00     0.000E+00     0.000E+00     0.000E+00
X    -3.895E+00     4.523E+00     4.027E+00     0.000E+00     0.000E+00     0.000E+00
X    -3.895E+00     4.523E+00     4.523E+00     0.000E+00     0.000E+00     0.000E+00
X    -3.399E+00    -4.895E+00    -4.895E+00     0.000E+00     0.000E+00     0.000E+00
X    -3.399E+00    -4.895E+00    -4.399E+00     0.000E+00     0.000E+00     0.000E+00
X    -3.399E+00    -4.895E+00    -3.903E+00     0.000E+00     0.000E+00     0.000E+00
X    -3.399E+00    -4.895E+00    -3.408E+00     0.000E+00     0.000E+00     0.000E+00
X    -3.399E+00    -4.895E+00    -2.912E+00     0.000E+00     0.000E+00     0.000E+00
X    -3.399E+00    -4.895E+00    -2.416E+00     0.000E+00     0.000E+00     0.000E+00
X    -3.399E+00    -4.895E+00    -1.921E+00     0.000E+00     0.000E+00     0.000E+00
X    -3.399E+00    -4.895E+00    -1.425E+00     0.000E+00     0.000E+00     0.000E+00
X    -3.399E+00    -4.895E+00    -9.293E-01     0.000E+00     0.000E+00     0.000E+00
X    -3.399E+00    -4.895E+00    -4.337E-01     0.000E+00     0.000E+00     0.000E+00
X    -3.399E+00    -4.895E+00     6.196E-02     0.000E+00     0.000E+00     0.000E+00
X    -3.399E+00    -4.895E+00     5.576E-01     0.000E+00     0.000E+00     0.000E+00
X    -3.399E+00    -4.895E+00     1.053E+00     0.000E+00     0.000E+00     0.000E+00
X    -3.399E+00    -4.895E+00     1.549E+00     0.000E+00     0.000E+00     0.000E+00
X    -3.399E+00    -4.895E+00     2.045E+00     0.000E+00     0.000E+00     0.000E+00
X    -3.399E+00    -4.895E+00     2.540E+00     0.000E+00     0.000E+00     0.000E+00
X    -3.399E+00    -4.895E+00     3.036E+00     0.000E+00     0.000E+00     0.000E+00
X    -3.399E+00    -4.895E+00     3.531E+00     0.000E+00     0.000E+00     0.000E+00
X    -3.399E+00    -4.895E+00     4.027E+00     0.000E+00     0.000E+00     0.000E+00
X    -3.399E+00    -4.895E+00     4.523E+00     0.000E+00     0.000E+00     0.000E+00
X    -3.399E+00    -4.399E+00    -4.895E+00     0.000E+00     0.000E+00     0.000E+00
X    -3.399E+00    -4.399E+00    -4.399E+00     0.000E+00     0.000E+00     0.000E+00
X    -3.399E+00    -4.399E+00    -3.903E+00     0.000E+00     0.000E+00     0.000E+00
X    -3.399E+00    -4.399E+00    -3.408E+00     0.000E+00     0.000E+00     0.000E+00
X    -3.399E+00    -4.399E+00    -2.912E+00     0.000E+00     0.000E+00     0.000E+00
X    -3.399E+00    -4.399E+00    -2.416E+00     0.000E+00     0.000E+00     0.000E+00
X    -3.399E+00    -4.399E+00    -1.921E+00     0.000E+00     0.000E+00     0.000E+00
X    -3.399E+00    -4.399E+00    -1.425E+00     0.000E+00     0.000E+00     0.000E+00
X    -3.399E+00    -4.399E+00    -9.293E-01     0.000E+00     0.000E+00     0.000E+00
X    -3.399E+00    -4.399E+00    -4.337E-01     0.000E+00     0.000E+00     0.000E+00
X    -3.399E+00    -4.399E+00     6.196E-02     0.000E+00     0.000E+00     0.000E+00
X    -3.399E+00    -4.399E+00     5.576E-01     0.000E+00     0.000E+00     0.000E+00
X    -3.399E+00    -4.399E+00     1.053E+00     0.000E+00     0.000E+00     0.000E+00
X    -3.399E+00    -4.399E+00     1.549E+00     0.000E+00     0.000E+00     0.000E+00
X    -3.399E+00    -4.399E+00     2.045E+00     0.000E+00     0.000E+00     0.000E+00
X    -3.399E+00    -4.399E+00     2.540E+00     0.000E+00     0.000E+00     0.000E+00
X    -3.399E+00    -4.399E+00     3.036E+00     0.000E+00     0.000E+00     0.000E+00
X    -3.399E+00    -4.399E+00     3.531E+00     0.000E+00     0.000E+00     0.000E+00
X    -3.399E+00    -4.399E+00     4.027E+00     0.000E+00     0.000E+00     0.000E+00
X    -3.399E+00    -4.399E+00     4.523E+00     0.000E+00     0.000E+00     0.000E+00
X    -3.399E+00    -3.903E+00    -4.895E+00     0.000E+00     0.000E+00     0.000E+00
X    -3.399E+00    -3.903E+00    -4.399E+00     0.000E+00     0.000E+00     0.000E+00
X    -3.399E+00    -3.903E+00    -3.903E+00     0.000E+00     0.000E+00     0.000E+00
X    -3.399E+00    -3.903E+00    -3.408E+00     0.000E+00     0.000E+00     0.000E+00
X    -3.399E+00    -3.903E+00    -2.912E+00     0.000E+00     0.000E+00     0.000E+00
X    -3.399E+00    -3.903E+00    -2.416E+00     0.000E+00     0.000E+00     0.000E+00
X    -3.399E+00    -3.903E+00    -1.921E+00     0.000E+00     0.000E+00     0.000E+00
X    -3.399E+00    -3.903E+00    -1.425E+00     0.000E+00     0.000E+00     0.000E+00
X    -3.399E+00    -3.903E+00    -9.293E-01     0.000E+00     0.000E+00     0.000E+00
X    -3.399E+00    -3.903E+00    -4.337E-01     0.000E+00     0.000E+00     0.000E+00
X    -3.399E+00    -3.903E+00     6.196E-02     0.000E+00     0.000E+00     0.000E+00
X    -3.399E+00    -3.903E+00     5.576E-01     0.000E+00     0.000E+00     0.000E+00
X    -3.399E+00    -3.903E+00     1.053E+00     0.000E+00     0.000E+00     0.000E+00
X    -3.399E+00    -3.903E+00     1.549E+00     0.000E+00     0.000E+00     0.000E+00
X    -3.399E+00    -3.903E+00     2.045E+00     0.000E+00     0.000E+00     0.000E+00
X    -3.399E+00    -3.903E+00     2.540E+00     0.000E+00     0.000E+00     0.000E+00
X    -3.399E+00    -3.903E+00     3.036E+00     0.000E+00     0.000E+00     0.000E+00
X    -3.399E+00    -3.903E+00     3.531E+00     0.000E+00     0.000E+00     0.000E+00
X    -3.399E+00    -3.903E+00     4.027E+00     0.000E+00     0.000E+00     0.000E+00
X    -3.399E+00    -3.903E+00     4.523E+00     0.000E+00     0.000E+00     0.000E+00
X    -3.399E+00    -3.408E+00    -4.895E+00     0.000E+00     0.000E+00     0.000E+00
X    -3.399E+00    -3.408E+00    -4.399E+00     0.000E+00     0.000E+00     0.000E+00
X    -3.399E+00    -3.408E+00    -3.903E+00     0.000E+00     0.000E+00     0.000E+00
X    -3.399E+00    -3.408E+00    -3.408E+00     0.000E+00     0.000E+00     0.000E+00
X    -3.399E+00    -3.408E+00    -2.912E+00     0.000E+00     0.000E+00     0.000E+00
X    -3.399E+00    -3.408E+00    -2.416E+00     0.000E+00     0.000E+00     0.000E+00
X    -3.399E+00    -3.408E+00    -1.921E+00     0.000E+00     0.000E+00     0.000E+00
X    -3.399E+00    -3.408E+00    -1.425E+00     0.000E+00     0.000E+00     0.000E+00
X    -3.399E+00    -3.408E+00    -9.293E-01     0.000E+00     0.000E+00     0.000E+00
X    -3.399E+00    -3.408E+00    -4.337E-01     0.000E+00     0.000E+00     0.000E+00
X    -3.399E+00    -3.408E+00     6.196E-02     0.000E+00     0.000E+00     0.000E+00
X    -3.399E+00    -3.408E+00     5.576E-01     0.000E+00     0.000E+00     0.000E+00
X    -3.399E+00    -3.408E+00     1.053E+00     0.000E+00     0.000E+00     0.000E+00
X    -3.399E+00    -3.408E+00     1.549E+00     0.000E+00     0.000E+00     0.000E+00
X    -3.399E+00    -3.408E+00     2.045E+00     0.000E+00     0.000E+00     0.000E+00
X    -3.399E+00    -3.408E+00     2.540E+00     0.000E+00     0.000E+00     0.000E+00
X    -3.399E+00    -3.408E+00     3.036E+00     0.000E+00     0.000E+00     0.000E+00
X    -3.399E+00    -3.408E+00     3.531E+00     0.000E+00     0.000E+00     0.000E+00
X    -3.399E+00    -3.408E+00     4.027E+00     0.000E+00     0.000E+00     0.000E+00
X    -3.399E+00    -3.408E+00     4.523E+00     0.000E+00     0.000E+00     0.000E+00
X    -3.399E+00    -2.912E+00    -4.895E+00     0.000E+00     0.000E+00     0.000E+00
X    -3.399E+00    -2.912E+00    -4.399E+00     0.000E+00     0.000E+00     0.000E+00
X    -3.399E+00    -2.912E+00    -3.903E+00     0.000E+00     0.000E+00     0.000E+00
X    -3.399E+00    -2.912E+00    -3.408E+00     0.000E+00     0.000E+00     0.000E+00
X    -3.399E+00    -2.912E+00    -2.912E+00     0.000E+00     0.000E+00     0.000E+00
X    -3.399E+00    -2.912E+00    -2.416E+00     0.000E+00     0.000E+00     0.000E+00
X    -3.399E+00    -2.912E+00    -1.921E+00     0.000E+00     0.000E+00     0.000E+00
X    -3.399E+00    -2.912E+00    -1.425E+00     0.000E+00     0.000E+00     0.000E+00
X    -3.399E+00    -2.912E+00    -9.293E-01     0.000E+00     0.000E+00     0.000E+00
X    -3.399E+00    -2.912E+00    -4.337E-01     0.000E+00     0.000E+00     0.000E+00
X    -3.399E+00    -2.912E+00     6.196E-02     0.000E+00     0.000E+00     0.000E+00
X    -3.399E+00    -2.912E+00     5.576E-01     0.000E+00     0.000E+00     0.000E+00
X    -3.399E+00    -2.912E+00     1.053E+00     0.000E+00     0.000E+00     0.000E+00
X    -3.399E+00    -2.912E+00     1.549E+00     0.000E+00     0.000E+00     0.000E+00
X    -3.399E+00    -2.912E+00     2.045E+00     0.000E+00     0.000E+00     0.000E+00
X    -3.399E+00    -2.912E+00     2.540E+00     0.000E+00     0.000E+00     0.000E+00
X    -3.399E+00    -2.912E+00     3.036E+00     0.000E+00     0.000E+00     0.000E+00
X    -3.399E+00    -2.912E+00     3.531E+00     0.000E+00     0.000E+00     0.000E+00
X    -3.399E+00    -2.912E+00     4.027E+00     0.000E+00     0.000E+00     0.000E+00
X    -3.399E+00    -2.912E+00     4.523E+00     0.000E+00     0.000E+00     0.000E+00
X    -3.399E+00    -2.416E+00    -4.895E+00     0.000E+00     0.000E+00     0.000E+00
X    -3.399E+00    -2.416E+00    -4.399E+00     0.000E+00     0.000E+00     0.000E+00
X    -3.399E+00    -2.416E+00    -3.903E+00     0.000E+00     0.000E+00     0.000E+00
X    -3.399E+00    -2.416E+00    -3.408E+00     0.000E+00     0.000E+00     0.000E+00
X    -3.399E+00    -2.416E+00    -2.912E+00     0.000E+00     0.000E+00     0.000E+00
X    -3.399E+00    -2.416E+00    -2.416E+00     0.000E+00     0.000E+00     0.000E+00
X    -3.399E+00    -2.416E+00    -1.921E+00     0.000E+00     0.000E+00     0.000E+00
X    -3.399E+00    -2.416E+00    -1.425E+00     0.000E+00     0.000E+00     0.000E+00
X    -3.399E+00    -2.416E+00    -9.293E-01     0.000E+00     0.000E+00     0.000E+00
X    -3.399E+00    -2.416E+00    -4.337E-01    -9.750E-12    -5.030E-11    -5.690E-11
X    -3.399E+00    -2.416E+00     6.196E-02    -4.927E-11    -2.540E-10    -2.874E-10
X    -3.399E+00    -2.416E+00     5.576E-01    -1.470E-12    -7.575E-12    -8.569E-12
X    -3.399E+00    -2.416E+00     1.053E+00     0.000E+00     0.000E+00     0.000E+00
X    -3.399E+00    -2.416E+00     1.549E+00     0.000E+00     0.000E+00     0.000E+00
X    -3.399E+00    -2.416E+00     2.045E+00     0.000E+00     0.000E+00     0.000E+00
X    -3.399E+00    -2.416E+00     2.540E+00     0.000E+00     0.000E+00     0.000E+00
X    -3.399E+00    -2.416E+00     3.036E+00     0.000E+00     0.000E+00     0.000E+00
X    -3.399E+00    -2.416E+00     3.531E+00     0.000E+00     0.000E+00     0.000E+00
X    -3.399E+00    -2.416E+00     4.027E+00     0.000E+00     0.000E+00     0.000E+00
X    -3.399E+00    -2.416E+00     4.523E+00     0.000E+00     0.000E+00     0.000E+00
X    -3.399E+00    -1.921E+00    -4.895E+00     0.000E+00     0.000E+00     0.000E+00
X    -3.399E+00    -1.921E+00    -4.399E+00     0.000E+00     0.000E+00     0.000E+00
X    -3.399E+00    -1.921E+00    -3.903E+00     0.000E+00     0.000E+00     0.000E+00
X    -3.399E+00    -1.921E+00    -3.408E+00     0.000E+00     0.000E+00     0.000E+00
X    -3.399E+00    -1.921E+00    -2.912E+00     0.000E+00     0.000E+00     0.000E+00
X    -3.399E+00    -1.921E+00    -2.416E+00     0.000E+00     0.000E+00     0.000E+00
X    -3.399E+00    -1.921E+00    -1.921E+00     0.000E+00     0.000E+00     0.000E+00
X    -3.399E+00    -1.921E+00    -1.425E+00    -1.589E-10    -8.206E-10    -9.284E-10
X    -3.399E+00    -1.921E+00    -9.293E-01    -7.063E-08    -3.647E-07    -4.126E-07
X    -3.399E+00    -1.921E+00    -4.337E-01    -1.913E-07    -9.874E-07    -1.117E-06
X    -3.399E+00    -1.921E+00     6.196E-02    -2.355E-07    -1.215E-06    -1.374E-06
X    -3.399E+00    -1.921E+00     5.576E-01    -1.650E-07    -8.502E-07    -9.617E-07
X    -3.399E+00    -1.921E+00     1.053E+00    -4.202E-08    -2.163E-07    -2.447E-07
X    -3.399E+00    -1.921E+00     1.549E+00    -4.981E-12    -2.563E-11    -2.899E-11
X    -3.399E+00    -1.921E+00     2.045E+00     0.000E+00     0.000E+00     0.000E+00
X    -3.399E+00    -1.921E+00     2.540E+00     0.000E+00     0.000E+00     0.000E+00
X    -3.399E+00    -1.921E+00     3.036E+00     0.000E+00     0.000E+00     0.000E+00
X    -3.399E+00    -1.921E+00     3.531E+00     0.000E+00     0.000E+00     0.000E+00
X    -3.399E+00    -1.921E+00     4.027E+00     0.000E+00     0.000E+00     0.000E+00
X    -3.399E+00    -1.921E+00     4.523E+00     0.000E+00     0.000E+00     0.000E+00
X    -3.399E+00    -1.425E+00    -4.895E+00     0.000E+00     0.000E+00     0.000E+00
X    -3.399E+00    -1.425E+00    -4.399E+00     0.000E+00     0.000E+00     0.000E+00
X    -3.399E+00    -1.425E+00    -3.903E+00     0.000E+00     0.000E+00     0.000E+00
X    -3.399E+00    -1.425E+00    -3.408E+00     0.000E+00     0.000E+00     0.000E+00
X    -3.399E+00    -1.425E+00    -2.912E+00     0.000E+00     0.000E+00     0.000E+00
X    -3.399E+00    -1.425E+00    -2.416E+00     0.000E+00     0.000E+00     0.000E+00
X    -3.399E+00    -1.425E+00    -1.921E+00    -1.589E-10    -8.206E-10    -9.285E-10
X    -3.399E+00    -1.425E+00    -1.425E+00    -1.520E-07    -7.856E-07    -8.888E-07
X    -3.399E+00    -1.425E+00    -9.293E-01    -4.905E-07    -2.535E-06    -2.868E-06
X    -3.399E+00    -1.425E+00    -4.337E-01    -8.099E-07    -4.183E-06    -4.732E-06
X    -3.399E+00    -1.425E+00     6.196E-02    -9.188E-07    -4.741E-06    -5.363E-06
X    -3.399E+00    -1.425E+00     5.576E-01    -7.450E-07    -3.839E-06    -4.342E-06
X    -3.399E+00    -1.425E+00     1.053E+00    -4.013E-07    -2.065E-06    -2.336E-06
X    -3.399E+00    -1.425E+00     1.549E+00    -8.833E-08    -4.542E-07    -5.138E-07
X    -3.399E+00    -1.425E+00     2.045E+00    -1.407E-14    -7.231E-14    -8.181E-14
X    -3.399E+00    -1.425E+00     2.540E+00     0.000E+00     0.000E+00     0.000E+00
X    -3.399E+00    -1.425E+00     3.036E+00     0.000E+00     0.000E+00     0.000E+00
X    -3.399E+00    -1.425E+00     3.531E+00     0.000E+00     0.000E+00     0.000E+00
X    -3.399E+00    -1.425E+00     4.027E+00     0.000E+00     0.000E+00     0.000E+00
X    -3.399E+00    -1.425E+00     4.523E+00     0.000E+00     0.000E+00     0.000E+00
X    -3.399E+00    -9.293E-01    -4.895E+00     0.000E+00     0.000E+00     0.000E+00
X    -3.399E+00    -9.293E-01    -4.399E+00     0.000E+00     0.000E+00     0.000E+00
X    -3.399E+00    -9.293E-01    -3.903E+00     0.000E+00     0.000E+00     0.000E+00
X    -3.399E+00    -9.293E-01    -3.408E+00     0.000E+00     0.000E+00     0.000E+00
X    -3.399E+00    -9.293E-01    -2.912E+00     0.000E+00     0.000E+00     0.000E+00
X    -3.399E+00    -9.293E-01    -2.416E+00     0.000E+00     0.000E+00     0.000E+00
X    -3.399E+00    -9.293E-01    -1.921E+00    -7.062E-08    -3.647E-07    -4.127E-07
X    -3.399E+00    -9.293E-01    -1.425E+00    -4.904E-07    -2.535E-06    -2.868E-06
X    -3.399E+00    -9.293E-01    -9.293E-01    -1.121E-06    -5.794E-06    -6.555E-06
X    -3.399E+00    -9.293E-01    -4.337E-01    -1.693E-06    -8.743E-06    -9.891E-06
X    -3.399E+00    -9.293E-01     6.196E-02    -1.885E-06    -9.721E-06    -1.100E-05
X    -3.399E+00    -9.293E-01     5.576E-01    -1.580E-06    -8.135E-06    -9.203E-06
X    -3.399E+00    -9.293E-01     1.053E+00    -9.606E-07    -4.939E-06    -5.587E-06
X    -3.399E+00    -9.293E-01     1.549E+00    -3.608E-07    -1.853E-06    -2.096E-06
X    -3.399E+00    -9.293E-01     2.045E+00    -1.955E-08    -1.004E-07    -1.136E-07
X    -3.399E+00    -9.293E-01     2.540E+00     0.000E+00     0.000E+00     0.000E+00
X    -3.399E+00    -9.293E-01     3.036E+00     0.000E+00     0.000E+00     0.000E+00
X    -3.399E+00    -9.293E-01     3.531E+00     0.000E+00     0.000E+00     0.000E+00
X    -3.399E+00    -9.293E-01     4.027E+00     0.000E+00     0.000E+00     0.000E+00
X    -3.399E+00    -9.293E-01     4.523E+00     0.000E+00     0.000E+00     0.000E+00
X    -3.399E+00    -4.337E-01    -4.895E+00     0.000E+00     0.000E+00     0.000E+00
X    -3.399E+00    -4.337E-01    -4.399E+00     0.000E+00     0.000E+00     0.000E+00
X    -3.399E+00    -4.337E-01    -3.903E+00     0.000E+00     0.000E+00     0.000E+00
X    -3.399E+00    -4.337E-01    -3.408E+00     0.000E+00     0.000E+00     0.000E+00
X    -3.399E+00    -4.337E-01    -2.912E+00     0.000E+00     0.000E+00     0.000E+00
X    -3.399E+00    -4.337E-01    -2.416E+00    -9.748E-12    -5.029E-11    -5.691E-11
X    -3.399E+00    -4.337E-01    -1.921E+00    -1.912E-07    -9.873E-07    -1.117E-06
X    -3.399E+00    -4.337E-01    -1.425E+00    -8.096E-07    -4.183E-06    -4.733E-06
X    -3.399E+00    -4.337E-01    -9.293E-01    -1.693E-06    -8.742E-06    -9.892E-06
X    -3.399E+00    -4.337E-01    -4.337E-01    -2.470E-06    -1.275E-05    -1.442E-05
X    -3.399E+00    -4.337E-01     6.196E-02    -2.728E-06    -1.405E-05    -1.590E-05
X    -3.399E+00    -4.337E-01     5.576E-01    -2.320E-06    -1.193E-05    -1.349E-05
X    -3.399E+00    -4.337E-01     1.053E+00    -1.473E-06    -7.560E-06    -8.552E-06
X    -3.399E+00    -4.337E-01     1.549E+00    -6.261E-07    -3.212E-06    -3.634E-06
X    -3.399E+00    -4.337E-01     2.045E+00    -9.799E-08    -5.028E-07    -5.688E-07
X    -3.399E+00    -4.337E-01     2.540E+00     0.000E+00     0.000E+00     0.000E+00
X    -3.399E+00    -4.337E-01     3.036E+00     0.000E+00     0.000E+00     0.000E+00
X    -3.399E+00    -4.337E-01     3.531E+00     0.000E+00     0.000E+00     0.000E+00
X    -3.399E+00    -4.337E-01     4.027E+00     0.000E+00     0.000E+00     0.000E+00
X    -3.399E+00    -4.337E-01     4.523E+00     0.000E+00     0.000E+00     0.000E+00
X    -3.399E+00     6.196E-02    -4.895E+00     0.000E+00     0.000E+00     0.000E+00
X    -3.399E+00     6.196E-02    -4.399E+00     0.000E+00     0.000E+00     0.000E+00
X    -3.399E+00     6.196E-02    -3.903E+00     0.000E+00     0.000E+00     0.000E+00
X    -3.399E+00     6.196E-02    -3.408E+00     0.000E+00     0.000E+00     0.000E+00
X    -3.399E+00     6.196E-02    -2.912E+00     0.000E+00     0.000E+00     0.000E+00
X    -3.399E+00     6.196E-02    -2.416E+00    -4.925E-11    -2.540E-10    -2.874E-10
X    -3.399E+00     6.196E-02    -1.921E+00    -2.354E-07    -1.215E-06    -1.374E-06
X    -3.399E+00     6.196E-02    -1.425E+00    -9.184E-07    -4.740E-06    -5.364E-06
X    -3.399E+00     6.196E-02    -9.293E-01    -1.884E-06    -9.720E-06    -1.100E-05
X    -3.399E+00     6.196E-02    -4.337E-01    -2.728E-06    -1.405E-05    -1.590E-05
X    -3.399E+00     6.196E-02     6.196E-02    -3.007E-06    -1.546E-05    -1.749E-05
X    -3.399E+00     6.196E-02     5.576E-01    -2.566E-06    -1.317E-05    -1.490E-05
X    -3.399E+00     6.196E-02     1.053E+00    -1.645E-06    -8.434E-06    -9.541E-06
X    -3.399E+00     6.196E-02     1.549E+00    -7.169E-07    -3.674E-06    -4.156E-06
X    -3.399E+00     6.196E-02     2.045E+00    -1.296E-07    -6.645E-07    -7.517E-07
X    -3.399E+00     6.196E-02     2.540E+00     0.000E+00     0.000E+00     0.000E+00
X    -3.399E+00     6.196E-02     3.036E+00     0.000E+00     0.000E+00     0.000E+00
X    -3.399E+00     6.196E-02     3.531E+00     0.000E+00     0.000E+00     0.000E+00
X    -3.399E+00     6.196E-02     4.027E+00     0.000E+00     0.000E+00     0.000E+00
X    -3.399E+00     6.196E-02     4.523E+00     0.000E+00     0.000E+00     0.000E+00
X    -3.399E+00     5.576E-01    -4.895E+00     0.000E+00     0.000E+00     0.000E+00
X    -3.399E+00     5.576E-01    -4.399E+00     0.000E+00     0.000E+00     0.000E+00
X    -3.399E+00     5.576E-01    -3.903E+00     0.000E+00     0.000E+00     0.000E+00
X    -3.399E+00     5.576E-01    -3.408E+00     0.000E+00     0.000E+00     0.000E+00
X    -3.399E+00     5.576E-01    -2.912E+00     0.000E+00     0.000E+00     0.000E+00
X    -3.399E+00     5.576E-01    -2.416E+00    -1.470E-12    -7.574E-12    -8.571E-12
X    -3.399E+00     5.576E-01    -1.921E+00    -1.649E-07    -8.500E-07    -9.619E-07
X    -3.399E+00     5.576E-01    -1.425E+00    -7.446E-07    -3.838E-06    -4.343E-06
X    -3.399E+00     5.576E-01    -9.293E-01    -1.579E-06    -8.134E-06    -9.204E-06
X    -3.399E+00     5.576E-01    -4.337E-01    -2.319E-06    -1.193E-05    -1.350E-05
X    -3.399E+00     5.576E-01     6.196E-02    -2.566E-06    -1.317E-05    -1.490E-05
X    -3.399E+00     5.576E-01     5.576E-01    -2.176E-06    -1.115E-05    -1.262E-05
X    -3.399E+00     5.576E-01     1.053E+00    -1.370E-06    -7.017E-06    -7.939E-06
X    -3.399E+00     5.576E-01     1.549E+00    -5.718E-07    -2.928E-06    -3.313E-06
X    -3.399E+00     5.576E-01     2.045E+00    -7.964E-08    -4.081E-07    -4.617E-07
X    -3.399E+00     5.576E-01     2.540E+00     0.000E+00     0.000E+00     0.000E+00
X    -3.399E+00     5.576E-01     3.036E+00     0.000E+00     0.000E+00     0.000E+00
X    -3.399E+00     5.576E-01     3.531E+00     0.000E+00     0.000E+00     0.000E+00
X    -3.399E+00     5.576E-01     4.027E+00     0.000E+00     0.000E+00     0.000E+00
X    -3.399E+00     5.576E-01     4.523E+00     0.000E+00     0.000E+00     0.000E+00
X    -3.399E+00     1.053E+00    -4.895E+00     0.000E+00     0.000E+00     0.000E+00
X    -3.399E+00     1.053E+00    -4.399E+00     0.000E+00     0.000E+00     0.000E+00
X    -3.399E+00     1.053E+00    -3.903E+00     0.000E+00     0.000E+00     0.000E+00
X    -3.399E+00     1.053E+00    -3.408E+00     0.000E+00     0.000E+00     0.000E+00
X    -3.399E+00     1.053E+00    -2.912E+00     0.000E+00     0.000E+00     0.000E+00
X    -3.399E+00     1.053E+00    -2.416E+00     0.000E+00     0.000E+00     0.000E+00
X    -3.399E+00     1.053E+00    -1.921E+00    -4.200E-08    -2.163E-07    -2.448E-07
X    -3.399E+00     1.053E+00    -1.425E+00    -4.011E-07    -2.065E-06    -2.336E-06
X    -3.399E+00     1.053E+00    -9.293E-01    -9.600E-07    -4.938E-06    -5.587E-06
X    -3.399E+00     1.053E+00    -4.337E-01    -1.472E-06    -7.559E-06    -8.553E-06
X    -3.399E+00     1.053E+00     6.196E-02    -1.645E-06    -8.433E-06    -9.542E-06
X    -3.399E+00     1.053E+00     5.576E-01    -1.370E-06    -7.017E-06    -7.939E-06
X    -3.399E+00     1.053E+00     1.053E+00    -8.170E-07    -4.182E-06    -4.732E-06
X    -3.399E+00     1.053E+00     1.549E+00    -2.870E-07    -1.470E-06    -1.663E-06
X    -3.399E+00     1.053E+00     2.045E+00    -5.698E-09    -2.920E-08    -3.304E-08
X    -3.399E+00     1.053E+00     2.540E+00     0.000E+00     0.000E+00     0.000E+00
X    -3.399E+00     1.053E+00     3.036E+00     0.000E+00     0.000E+00     0.000E+00
X    -3.399E+00     1.053E+00     3.531E+00     0.000E+00     0.000E+00     0.000E+00
X    -3.399E+00     1.053E+00     4.027E+00     0.000E+00     0.000E+00     0.000E+00
X    -3.399E+00     1.053E+00     4.523E+00     0.000E+00     0.000E+00     0.000E+00
X    -3.399E+00     1.549E+00    -4.895E+00     0.000E+00     0.000E+00     0.000E+00
X    -3.399E+00     1.549E+00    -4.399E+00     0.000E+00     0.000E+00     0.000E+00
X    -3.399E+00     1.549E+00    -3.903E+00     0.000E+00     0.000E+00     0.000E+00
X    -3.399E+00     1.549E+00    -3.408E+00     0.000E+00     0.000E+00     0.000E+00
X    -3.399E+00     1.549E+00    -2.912E+00     0.000E+00     0.000E+00     0.000E+00
X    -3.399E+00     1.549E+00    -2.416E+00     0.000E+00     0.000E+00     0.000E+00
X    -3.399E+00     1.549E+00    -1.921E+00    -4.979E-12    -2.562E-11    -2.900E-11
X    -3.399E+00     1.549E+00    -1.425E+00    -8.829E-08    -4.541E-07    -5.139E-07
X    -3.399E+00     1.549E+00    -9.293E-01    -3.606E-07    -1.853E-06    -2.097E-06
X    -3.399E+00     1.549E+00    -4.337E-01    -6.258E-07    -3.212E-06    -3.634E-06
X    -3.399E+00     1.549E+00     6.196E-02    -7.166E-07    -3.674E-06    -4.157E-06
X    -3.399E+00     1.549E+00     5.576E-01    -5.717E-07    -2.928E-06    -3.313E-06
X    -3.399E+00     1.549E+00     1.053E+00    -2.870E-07    -1.469E-06    -1.663E-06
X    -3.399E+00     1.549E+00     1.549E+00    -4.222E-08    -2.163E-07    -2.447E-07
X    -3.399E+00     1.549E+00     2.045E+00     0.000E+00     0.000E+00     0.000E+00
X    -3.399E+00     1.549E+00     2.540E+00     0.000E+00     0.000E+00     0.000E+00
X    -3.399E+00     1.549E+00     3.036E+00     0.000E+00     0.000E+00     0.000E+00
X    -3.399E+00     1.549E+00     3.531E+00     0.000E+00     0.000E+00     0.000E+00
X    -3.399E+00     1.549E+00     4.027E+00     0.000E+00     0.000E+00     0.000E+00
X    -3.399E+00     1.549E+00     4.523E+00     0.000E+00     0.000E+00     0.000E+00
X    -3.399E+00     2.045E+00    -4.895E+00     0.000E+00     0.000E+00     0.000E+00
X    -3.399E+00     2.045E+00    -4.399E+00     0.000E+00     0.000E+00     0.000E+00
X    -3.399E+00     2.045E+00    -3.903E+00     0.000E+00     0.000E+00     0.000E+00
X    -3.399E+00     2.045E+00    -3.408E+00     0.000E+00     0.000E+00     0.000E+00
X    -3.399E+00     2.045E+00    -2.912E+00     0.000E+00     0.000E+00     0.000E+00
X    -3.399E+00     2.045E+00    -2.416E+00     0.000E+00     0.000E+00     0.000E+00
X    -3.399E+00     2.045E+00    -1.921E+00     0.000E+00     0.000E+00     0.000E+00
X    -3.399E+00     2.045E+00    -1.425E+00    -1.406E-14    -7.231E-14    -8.182E-14
X    -3.399E+00     2.045E+00    -9.293E-01    -1.955E-08    -1.004E-07    -1.136E-07
X    -3.399E+00     2.045E+00    -4.337E-01    -9.795E-08    -5.027E-07    -5.688E-07
X    -3.399E+00     2.045E+00     6.196E-02    -1.296E-07    -6.644E-07    -7.518E-07
X    -3.399E+00     2.045E+00     5.576E-01    -7.962E-08    -4.081E-07    -4.618E-07
X    -3.399E+00     2.045E+00     1.053E+00    -5.697E-09    -2.920E-08    -3.304E-08
X    -3.399E+00     2.045E+00     1.549E+00     0.000E+00     0.000E+00     0.000E+00
X    -3.399E+00     2.045E+00     2.045E+00     0.000E+00     0.000E+00     0.000E+00
X    -3.399E+00     2.045E+00     2.540E+00     0.000E+00     0.000E+00     0.000E+00
X    -3.399E+00     2.045E+00     3.036E+00     0.000E+00     0.000E+00     0.000E+00
X    -3.399E+00     2.045E+00     3.531E+00     0.000E+00     0.000E+00     0.000E+00
X    -3.399E+00     2.045E+00     4.027E+00     0.000E+00     0.000E+00     0.000E+00
X    -3.399E+00     2.045E+00     4.523E+00     0.000E+00     0.000E+00     0.000E+00
X    -3.399E+00     2.540E+00    -4.895E+00     0.000E+00     0.000E+00     0.000E+00
X    -3.399E+00     2.540E+00    -4.399E+00     0.000E+00     0.000E+00     0.000E+00
X    -3.399E+00     2.540E+00    -3.903E+00     0.000E+00     0.000E+00     0.000E+00
X    -3.399E+00     2.540E+00    -3.408E+00     0.000E+00     0.000E+00     0.000E+00
X    -3.399E+00     2.540E+00    -2.912E+00     0.000E+00     0.000E+00     0.000E+00
X    -3.399E+00     2.540E+00    -2.416E+00     0.000E+00     0.000E+00     0.000E+00
X    -3.399E+00     2.540E+00    -1.921E+00     0.000E+00     0.000E+00     0.000E+00
X    -3.399E+00     2.540E+00    -1.425E+00     0.000E+00     0.000E+00     0.000E+00
X    -3.399E+00     2.540E+00    -9.293E-01     0.000E+00     0.000E+00     0.000E+00
X    -3.399E+00     2.540E+00    -4.337E-01     0.000E+00     0.000E+00     0.000E+00
X    -3.399E+00     2.540E+00     6.196E-02     0.000E+00     0.000E+00     0.000E+00
X    -3.399E+00     2.540E+00     5.576E-01     0.000E+00     0.000E+00     0.000E+00
X    -3.399E+00     2.540E+00     1.053E+00     0.000E+00     0.000E+00     0.000E+00
X    -3.399E+00     2.540E+00     1.549E+00     0.000E+00     0.000E+00     0.000E+00
X    -3.399E+00     2.540E+00     2.045E+00     0.000E+00     0.000E+00     0.000E+00
X    -3.399E+00     2.540E+00     2.540E+00     0.000E+00     0.000E+00     0.000E+00
X    -3.399E+00     2.540E+00     3.036E+00     0.000E+00     0.000E+00     0.000E+00
X    -3.399E+00     2.540E+00     3.531E+00     0.000E+00     0.000E+00     0.000E+00
X    -3.399E+00     2.540E+00     4.027E+00     0.000E+00     0.000E+00     0.000E+00
X    -3.399E+00     2.540E+00     4.523E+00     0.000E+00     0.000E+00     0.000E+00
X    -3.399E+00     3.036E+00    -4.895E+00     0.000E+00     0.000E+00     0.000E+00
X    -3.399E+00     3.036E+00    -4.399E+00     0.000E+00     0.000E+00     0.000E+00
X    -3.399E+00     3.036E+00    -3.903E+00     0.000E+00     0.000E+00     0.000E+00
X    -3.399E+00     3.036E+00    -3.408E+00     0.000E+00     0.000E+00     0.000E+00
X    -3.399E+00     3.036E+00    -2.912E+00     0.000E+00     0.000E+00     0.000E+00
X    -3.399E+00     3.036E+00    -2.416E+00     0.000E+00     0.000E+00     0.000E+00
X    -3.399E+00     3.036E+00    -1.921E+00     0.000E+00     0.000E+00     0.000E+00
X    -3.399E+00     3.036E+00    -1.425E+00     0.000E+00     0.000E+00     0.000E+00
X    -3.399E+00     3.036E+00    -9.293E-01     0.000E+00     0.000E+00     0.000E+00
X    -3.399E+00     3.036E+00    -4.337E-01     0.000E+00     0.000E+00     0.000E+00
X    -3.399E+00     3.036E+00     6.196E-02     0.000E+00     0.000E+00     0.000E+00
X    -3.399E+00     3.036E+00     5.576E-01     0.000E+00     0.000E+00     0.000E+00
X    -3.399E+00     3.036E+00     1.053E+00     0.000E+00     0.000E+00     0.000E+00
X    -3.399E+00     3.036E+00     1.549E+00     0.000E+00     0.000E+00     0.000E+00
X    -3.399E+00     3.036E+00     2.045E+00     0.000E+00     0.000E+00     0.000E+00
X    -3.399E+00     3.036E+00     2.540E+00     0.000E+00     0.000E+00     0.000E+00
X    -3.399E+00     3.036E+00     3.036E+00     0.000E+00     0.000E+00     0.000E+00
X    -3.399E+00     3.036E+00     3.531E+00     0.000E+00     0.000E+00     0.000E+00
X    -3.399E+00     3.036E+00     4.027E+00     0.000E+00     0.000E+00     0.000E+00
X    -3.399E+00     3.036E+00     4.523E+00     0.000E+00     0.000E+00     0.000E+00
X    -3.399E+00     3.531E+00    -4.895E+00     0.000E+00     0.000E+00     0.000E+00
X    -3.399E+00     3.531E+00    -4.399E+00     0.000E+00     0.000E+00     0.000E+00
X    -3.399E+00     3.531E+00    -3.903E+00     0.000E+00     0.000E+00     0.000E+00
X    -3.399E+00     3.531E+00    -3.408E+00     0.000E+00     0.000E+00     0.000E+00
X    -3.399E+00     3.531E+00    -2.912E+00     0.000E+00     0.000E+00     0.000E+00
X    -3.399E+00     3.531E+00    -2.416E+00     0.000E+00     0.000E+00     0.000E+00
X    -3.399E+00     3.531E+00    -1.921E+00     0.000E+00     0.000E+00     0.000E+00
X    -3.399E+00     3.531E+00    -1.425E+00     0.000E+00     0.000E+00     0.000E+00
X    -3.399E+00     3.531E+00    -9.293E-01     0.000E+00     0.000E+00     0.000E+00
X    -3.399E+00     3.531E+00    -4.337E-01     0.000E+00     0.000E+00     0.000E+00
X    -3.399E+00     3.531E+00     6.196E-02     0.000E+00     0.000E+00     0.000E+00
X    -3.399E+00     3.531E+00     5.576E-01     0.000E+00     0.000E+00     0.000E+00
X    -3.399E+00     3.531E+00     1.053E+00     0.000E+00     0.000E+00     0.000E+00
X    -3.399E+00     3.531E+00     1.549E+00     0.000E+00     0.000E+00     0.000E+00
X    -3.399E+00     3.531E+00     2.045E+00     0.000E+00     0.000E+00     0.000E+00
X    -3.399E+00     3.531E+00     2.540E+00     0.000E+00     0.000E+00     0.000E+00
X    -3.399E+00     3.531E+00     3.036E+00     0.000E+00     0.000E+00     0.000E+00
X    -3.399E+00     3.531E+00     3.531E+00     0.000E+00     0.000E+00     0.000E+00
X    -3.399E+00     3.531E+00     4.027E+00     0.000E+00     0.000E+00     0.000E+00
X    -3.399E+00     3.531E+00     4.523E+00     0.000E+00     0.000E+00     0.000E+00
X    -3.399E+00     4.027E+00    -4.895E+00     0.000E+00     0.000E+00     0.000E+00
X    -3.399E+00     4.027E+00    -4.399E+00     0.000E+00     0.000E+00     0.000E+00
X    -3.399E+00     4.027E+00    -3.903E+00     0.000E+00     0.000E+00     0.000E+00
X    -3.399E+00     4.027E+00    -3.408E+00     0.000E+00     0.000E+00     0.000E+00
X    -3.399E+00     4.027E+00    -2.912E+00     0.000E+00     0.000E+00     0.000E+00
X    -3.399E+00     4.027E+00    -2.416E+00     0.000E+00     0.000E+00     0.000E+00
X    -3.399E+00     4.027E+00    -1.921E+00     0.000E+00     0.000E+00     0.000E+00
X    -3.399E+00     4.027E+00    -1.425E+00     0.000E+00     0.000E+00     0.000E+00
X    -3.399E+00     4.027E+00    -9.293E-01     0.000E+00     0.000E+00     0.000E+00
X    -3.399E+00     4.027E+00    -4.337E-01     0.000E+00     0.000E+00     0.000E+00
X    -3.399E+00     4.027E+00     6.196E-02     0.000E+00     0.000E+00     0.000E+00
X    -3.399E+00     4.027E+00     5.576E-01     0.000E+00     0.000E+00     0.000E+00
X    -3.399E+00     4.027E+00     1.053E+00     0.000E+00     0.000E+00     0.000E+00
X    -3.399E+00     4.027E+00     1.549E+00     0.000E+00     0.000E+00     0.000E+00
X    -3.399E+00     4.027E+00     2.045E+00     0.000E+00     0.000E+00     0.000E+00
X    -3.399E+00     4.027E+00     2.540E+00     0.000E+00     0.000E+00     0.000E+00
X    -3.399E+00     4.027E+00     3.036E+00     0.000E+00     0.000E+00     0.000E+00
X    -3.399E+00     4.027E+00     3.531E+00     0.000E+00     0.000E+00     0.000E+00
X    -3.399E+00     4.027E+00     4.027E+00     0.000E+00     0.000E+00     0.000E+00
X    -3.399E+00     4.027E+00     4.523E+00     0.000E+00     0.000E+00     0.000E+00
X    -3.399E+00     4.523E+00    -4.895E+00     0.000E+00     0.000E+00     0.000E+00
X    -3.399E+00     4.523E+00    -4.399E+00     0.000E+00     0.000E+00     0.000E+00
X    -3.399E+00     4.523E+00    -3.903E+00     0.000E+00     0.000E+00     0.000E+00
X    -3.399E+00     4.523E+00    -3.408E+00     0.000E+00     0.000E+00     0.000E+00
X    -3.399E+00     4.523E+00    -2.912E+00     0.000E+00     0.000E+00     0.000E+00
X    -3.399E+00     4.523E+00    -2.416E+00     0.000E+00     0.000E+00     0.000E+00
X    -3.399E+00     4.523E+00    -1.921E+00     0.000E+00     0.000E+00     0.000E+00
X    -3.399E+00     4.523E+00    -1.425E+00     0.000E+00     0.000E+00     0.000E+00
X    -3.399E+00     4.523E+00    -9.293E-01     0.000E+00     0.000E+00     0.000E+00
X    -3.399E+00     4.523E+00    -4.337E-01     0.000E+00     0.000E+00     0.000E+00
X    -3.399E+00     4.523E+00     6.196E-02     0.000E+00     0.000E+00     0.000E+00
X    -3.399E+00     4.523E+00     5.576E-01     0.000E+00     0.000E+00     0.000E+00
X    -3.399E+00     4.523E+00     1.053E+00     0.000E+00     0.000E+00     0.000E+00
X    -3.399E+00     4.523E+00     1.549E+00     0.000E+00     0.000E+00     0.000E+00
X    -3.399E+00     4.523E+00     2.045E+00     0.000E+00     0.000E+00     0.000E+00
X    -3.399E+00     4.523E+00     2.540E+00     0.000E+00     0.000E+00     0.000E+00
X    -3.399E+00     4.523E+00     3.036E+00     0.000E+00     0.000E+00     0.000E+00
X    -3.399E+00     4.523E+00     3.531E+00     0.000E+00     0.000E+00     0.000E+00
X    -3.399E+00     4.523E+00     4.027E+00     0.000E+00     0.000E+00     0.000E+00
X    -3.399E+00     4.523E+00     4.523E+00     0.000E+00     0.000E+00     0.000E+00
X    -2.903E+00    -4.895E+00    -4.895E+00     0.000E+00     0.000E+00     0.000E+00
X    -2.903E+00    -4.895E+00    -4.399E+00     0.000E+00     0.000E+00     0.000E+00
X    -2.903E+00    -4.895E+00    -3.903E+00     0.000E+00     0.000E+00     0.000E+00
X    -2.903E+00    -4.895E+00    -3.408E+00     0.000E+00     0.000E+00     0.000E+00
X    -2.903E+00    -4.895E+00    -2.912E+00     0.000E+00     0.000E+00     0.000E+00
X    -2.903E+00    -4.895E+00    -2.416E+00     0.000E+00     0.000E+00     0.000E+00
X    -2.903E+00    -4.895E+00    -1.921E+00     0.000E+00     0.000E+00     0.000E+00
X    -2.903E+00    -4.895E+00    -1.425E+00     0.000E+00     0.000E+00     0.000E+00
X    -2.903E+00    -4.895E+00    -9.293E-01     0.000E+00     0.000E+00     0.000E+00
X    -2.903E+00    -4.895E+00    -4.337E-01     0.000E+00     0.000E+00     0.000E+00
X    -2.903E+00    -4.895E+00     6.196E-02     0.000E+00     0.000E+00     0.000E+00
X    -2.903E+00    -4.895E+00     5.576E-01     0.000E+00     0.000E+00     0.000E+00
X    -2.903E+00    -4.895E+00     1.053E+00     0.000E+00     0.000E+00     0.000E+00
X    -2.903E+00    -4.895E+00     1.549E+00     0.000E+00     0.000E+00     0.000E+00
X    -2.903E+00    -4.895E+00     2.045E+00     0.000E+00     0.000E+00     0.000E+00
X    -2.903E+00    -4.895E+00     2.540E+00     0.000E+00     0.000E+00     0.000E+00
X    -2.903E+00    -4.895E+00     3.036E+00     0.000E+00     0.000E+00     0.000E+00
X    -2.903E+00    -4.895E+00     3.531E+00     0.000E+00     0.000E+00     0.000E+00
X    -2.903E+00    -4.895E+00     4.027E+00     0.000E+00     0.000E+00     0.000E+00
X    -2.903E+00    -4.895E+00     4.523E+00     0.000E+00     0.000E+00     0.000E+00
X    -2.903E+00    -4.399E+00    -4.895E+00     0.000E+00     0.000E+00     0.000E+00
X    -2.903E+00    -4.399E+00    -4.399E+00     0.000E+00     0.000E+00     0.000E+00
X    -2.903E+00    -4.399E+00    -3.903E+00     0.000E+00     0.000E+00     0.000E+00
X    -2.903E+00    -4.399E+00    -3.408E+00     0.000E+00     0.000E+00     0.000E+00
X    -2.903E+00    -4.399E+00    -2.912E+00     0.000E+00     0.000E+00     0.000E+00
X    -2.903E+00    -4.399E+00    -2.416E+00     0.000E+00     0.000E+00     0.000E+00
X    -2.903E+00    -4.399E+00    -1.921E+00     0.000E+00     0.000E+00     0.000E+00
X    -2.903E+00    -4.399E+00    -1.425E+00     0.000E+00     0.000E+00     0.000E+00
X    -2.903E+00    -4.399E+00    -9.293E-01     0.000E+00     0.000E+00     0.000E+00
X    -2.903E+00    -4.399E+00    -4.337E-01     0.000E+00     0.000E+00     0.000E+00
X    -2.903E+00    -4.399E+00     6.196E-02     0.000E+00     0.000E+00     0.000E+00
X    -2.903E+00    -4.399E+00     5.576E-01     0.000E+00     0.000E+00     0.000E+00
X    -2.903E+00    -4.399E+00     1.053E+00     0.000E+00     0.000E+00     0.000E+00
X    -2.903E+00    -4.399E+00     1.549E+00     0.000E+00     0.000E+00     0.000E+00
X    -2.903E+00    -4.399E+00     2.045E+00     0.000E+00     0.000E+00     0.000E+00
X    -2.903E+00    -4.399E+00     2.540E+00     0.000E+00     0.000E+00     0.000E+00
X    -2.903E+00    -4.399E+00     3.036E+00     0.000E+00     0.000E+00     0.000E+00
X    -2.903E+00    -4.399E+00     3.531E+00     0.000E+00     0.000E+00     0.000E+00
X    -2.903E+00    -4.399E+00     4.027E+00     0.000E+00     0.000E+00     0.000E+00
X    -2.903E+00    -4.399E+00     4.523E+00     0.000E+00     0.000E+00     0.000E+00
X    -2.903E+00    -3.903E+00    -4.895E+00     0.000E+00     0.000E+00     0.000E+00
X    -2.903E+00    -3.903E+00    -4.399E+00     0.000E+00     0.000E+00     0.000E+00
X    -2.903E+00    -3.903E+00    -3.903E+00     0.000E+00     0.000E+00     0.000E+00
X    -2.903E+00    -3.903E+00    -3.408E+00     0.000E+00     0.000E+00     0.000E+00
X    -2.903E+00    -3.903E+00    -2.912E+00     0.000E+00     0.000E+00     0.000E+00
X    -2.903E+00    -3.903E+00    -2.416E+00     0.000E+00     0.000E+00     0.000E+00
X    -2.903E+00    -3.903E+00    -1.921E+00     0.000E+00     0.000E+00     0.000E+00
X    -2.903E+00    -3.903E+00    -1.425E+00     0.000E+00     0.000E+00     0.000E+00
X    -2.903E+00    -3.903E+00    -9.293E-01     0.000E+00     0.000E+00     0.000E+00
X    -2.903E+00    -3.903E+00    -4.337E-01     0.000E+00     0.000E+00     0.000E+00
X    -2.903E+00    -3.903E+00     6.196E-02     0.000E+00     0.000E+00     0.000E+00
X    -2.903E+00    -3.903E+00     5.576E-01     0.000E+00     0.000E+00     0.000E+00
X    -2.903E+00    -3.903E+00     1.053E+00     0.000E+00     0.000E+00     0.000E+00
X    -2.903E+00    -3.903E+00     1.549E+00     0.000E+00     0.000E+00     0.000E+00
X    -2.903E+00    -3.903E+00     2.045E+00     0.000E+00     0.000E+00     0.000E+00
X    -2.903E+00    -3.903E+00     2.540E+00     0.000E+00     0.000E+00     0.000E+00
X    -2.903E+00    -3.903E+00     3.036E+00     0.000E+00     0.000E+00     0.000E+00
X    -2.903E+00    -3.903E+00     3.531E+00     0.000E+00     0.000E+00     0.000E+00
X    -2.903E+00    -3.903E+00     4.027E+00     0.000E+00     0.000E+00     0.000E+00
X    -2.903E+00    -3.903E+00     4.523E+00     0.000E+00     0.000E+00     0.000E+00
X    -2.903E+00    -3.408E+00    -4.895E+00     0.000E+00     0.000E+00     0.000E+00
X    -2.903E+00    -3.408E+00    -4.399E+00     0.000E+00     0.000E+00     0.000E+00
X    -2.903E+00    -3.408E+00    -3.903E+00     0.000E+00     0.000E+00     0.000E+00
X    -2.903E+00    -3.408E+00    -3.408E+00     0.000E+00     0.000E+00     0.000E+00
X    -2.903E+00    -3.408E+00    -2.912E+00     0.000E+00     0.000E+00     0.000E+00
X    -2.903E+00    -3.408E+00    -2.416E+00     0.000E+00     0.000E+00     0.000E+00
X    -2.903E+00    -3.408E+00    -1.921E+00     0.000E+00     0.000E+00     0.000E+00
X    -2.903E+00    -3.408E+00    -1.425E+00     0.000E+00     0.000E+00     0.000E+00
X    -2.903E+00    -3.408E+00    -9.293E-01     0.000E+00     0.000E+00     0.000E+00
X    -2.903E+00    -3.408E+00    -4.337E-01     0.000E+00     0.000E+00     0.000E+00
X    -2.903E+00    -3.408E+00     6.196E-02     0.000E+00     0.000E+00     0.000E+00
X    -2.903E+00    -3.408E+00     5.576E-01     0.000E+00     0.000E+00     0.000E+00
X    -2.903E+00    -3.408E+00     1.053E+00     0.000E+00     0.000E+00     0.000E+00
X    -2.903E+00    -3.408E+00     1.549E+00     0.000E+00     0.000E+00     0.000E+00
X    -2.903E+00    -3.408E+00     2.045E+00     0.000E+00     0.000E+00     0.000E+00
X    -2.903E+00    -3.408E+00     2.540E+00     0.000E+00     0.000E+00     0.000E+00
X    -2.903E+00    -3.408E+00     3.036E+00     0.000E+00     0.000E+00     0.000E+00
X    -2.903E+00    -3.408E+00     3.531E+00     0.000E+00     0.000E+00     0.000E+00
X    -2.903E+00    -3.408E+00     4.027E+00     0.000E+00     0.000E+00     0.000E+00
X    -2.903E+00    -3.408E+00     4.523E+00     0.000E+00     0.000E+00     0.000E+00
X    -2.903E+00    -2.912E+00    -4.895E+00     0.000E+00     0.000E+00     0.000E+00
X    -2.903E+00    -2.912E+00    -4.399E+00     0.000E+00     0.000E+00     0.000E+00
X    -2.903E+00    -2.912E+00    -3.903E+00     0.000E+00     0.000E+00     0.000E+00
X    -2.903E+00    -2.912E+00    -3.408E+00     0.000E+00     0.000E+00     0.000E+00
X    -2.903E+00    -2.912E+00    -2.912E+00     0.000E+00     0.000E+00     0.000E+00
X    -2.903E+00    -2.912E+00    -2.416E+00     0.000E+00     0.000E+00     0.000E+00
X    -2.903E+00    -2.912E+00    -1.921E+00     0.000E+00     0.000E+00     0.000E+00
X    -2.903E+00    -2.912E+00    -1.425E+00     0.000E+00     0.000E+00     0.000E+00
X    -2.903E+00    -2.912E+00    -9.293E-01    -1.073E-13    -5.524E-13    -6.249E-13
X    -2.903E+00    -2.912E+00    -4.337E-01    -8.465E-10    -4.360E-09    -4.933E-09
X    -2.903E+00    -2.912E+00     6.196E-02    -3.708E-09    -1.910E-08    -2.160E-08
X    -2.903E+00    -2.912E+00     5.576E-01    -2.754E-10    -1.418E-09    -1.604E-09
X    -2.903E+00    -2.912E+00     1.053E+00     0.000E+00     0.000E+00     0.000E+00
X    -2.903E+00    -2.912E+00     1.549E+00     0.000E+00     0.000E+00     0.000E+00
X    -2.903E+00    -2.912E+00     2.045E+00     0.000E+00     0.000E+00     0.000E+00
X    -2.903E+00    -2.912E+00     2.540E+00     0.000E+00     0.000E+00     0.000E+00
X    -2.903E+00    -2.912E+00     3.036E+00     0.000E+00     0.000E+00     0.000E+00
X    -2.903E+00    -2.912E+00     3.531E+00     0.000E+00     0.000E+00     0.000E+00
X    -2.903E+00    -2.912E+00     4.027E+00     0.000E+00     0.000E+00     0.000E+00
X    -2.903E+00    -2.912E+00     4.523E+00     0.000E+00     0.000E+00     0.000E+00
X    -2.903E+00    -2.416E+00    -4.895E+00     0.000E+00     0.000E+00     0.000E+00
X    -2.903E+00    -2.416E+00    -4.399E+00     0.000E+00     0.000E+00     0.000E+00
X    -2.903E+00    -2.416E+00    -3.903E+00     0.000E+00     0.000E+00     0.000E+00
X    -2.903E+00    -2.416E+00    -3.408E+00     0.000E+00     0.000E+00     0.000E+00
X    -2.903E+00    -2.416E+00    -2.912E+00     0.000E+00     0.000E+00     0.000E+00
X    -2.903E+00    -2.416E+00    -2.416E+00     0.000E+00     0.000E+00     0.000E+00
X    -2.903E+00    -2.416E+00    -1.921E+00     0.000E+00     0.000E+00     0.000E+00
X    -2.903E+00    -2.416E+00    -1.425E+00    -4.962E-08    -2.557E-07    -2.893E-07
X    -2.903E+00    -2.416E+00    -9.293E-01    -2.783E-07    -1.435E-06    -1.623E-06
X    -2.903E+00    -2.416E+00    -4.337E-01    -5.125E-07    -2.642E-06    -2.989E-06
X    -2.903E+00    -2.416E+00     6.196E-02    -5.929E-07    -3.056E-06    -3.457E-06
X    -2.903E+00    -2.416E+00     5.576E-01    -4.636E-07    -2.388E-06    -2.701E-06
X    -2.903E+00    -2.416E+00     1.053E+00    -2.135E-07    -1.099E-06    -1.243E-06
X    -2.903E+00    -2.416E+00     1.549E+00    -1.514E-08    -7.793E-08    -8.816E-08
X    -2.903E+00    -2.416E+00     2.045E+00     0.000E+00     0.000E+00     0.000E+00
X    -2.903E+00    -2.416E+00     2.540E+00     0.000E+00     0.000E+00     0.000E+00
X    -2.903E+00    -2.416E+00     3.036E+00     0.000E+00     0.000E+00     0.000E+00
X    -2.903E+00    -2.416E+00     3.531E+00     0.000E+00     0.000E+00     0.000E+00
X    -2.903E+00    -2.416E+00     4.027E+00     0.000E+00     0.000E+00     0.000E+00
X    -2.903E+00    -2.416E+00     4.523E+00     0.000E+00     0.000E+00     0.000E+00
X    -2.903E+00    -1.921E+00    -4.895E+00     0.000E+00     0.000E+00     0.000E+00
X    -2.903E+00    -1.921E+00    -4.399E+00     0.000E+00     0.000E+00     0.000E+00
X    -2.903E+00    -1.921E+00    -3.903E+00     0.000E+00     0.000E+00     0.000E+00
X    -2.903E+00    -1.921E+00    -3.408E+00     0.000E+00     0.000E+00     0.000E+00
X    -2.903E+00    -1.921E+00    -2.912E+00     0.000E+00     0.000E+00     0.000E+00
X    -2.903E+00    -1.921E+00    -2.416E+00     0.000E+00     0.000E+00     0.000E+00
X    -2.903E+00    -1.921E+00    -1.921E+00    -1.218E-07    -6.277E-07    -7.102E-07
X    -2.903E+00    -1.921E+00    -1.425E+00    -6.500E-07    -3.354E-06    -3.794E-06
X    -2.903E+00    -1.921E+00    -9.293E-01    -1.426E-06    -7.360E-06    -8.326E-06
X    -2.903E+00    -1.921E+00    -4.337E-01    -2.122E-06    -1.095E-05    -1.239E-05
X    -2.903E+00    -1.921E+00     6.196E-02    -2.353E-06    -1.214E-05    -1.373E-05
X    -2.903E+00    -1.921E+00     5.576E-01    -1.982E-06    -1.022E-05    -1.156E-05
X    -2.903E+00    -1.921E+00     1.053E+00    -1.226E-06    -6.312E-06    -7.140E-06
X    -2.903E+00    -1.921E+00     1.549E+00    -4.884E-07    -2.513E-06    -2.843E-06
X    -2.903E+00    -1.921E+00     2.045E+00    -4.972E-08    -2.557E-07    -2.893E-07
X    -2.903E+00    -1.921E+00     2.540E+00     0.000E+00     0.000E+00     0.000E+00
X    -2.903E+00    -1.921E+00     3.036E+00     0.000E+00     0.000E+00     0.000E+00
X    -2.903E+00    -1.921E+00     3.531E+00     0.000E+00     0.000E+00     0.000E+00
X    -2.903E+00    -1.921E+00     4.027E+00     0.000E+00     0.000E+00     0.000E+00
X    -2.903E+00    -1.921E+00     4.523E+00     0.000E+00     0.000E+00     0.000E+00
X    -2.903E+00    -1.425E+00    -4.895E+00     0.000E+00     0.000E+00     0.000E+00
X    -2.903E+00    -1.425E+00    -4.399E+00     0.000E+00     0.000E+00     0.000E+00
X    -2.903E+00    -1.425E+00    -3.903E+00     0.000E+00     0.000E+00     0.000E+00
X    -2.903E+00    -1.425E+00    -3.408E+00     0.000E+00     0.000E+00     0.000E+00
X    -2.903E+00    -1.425E+00    -2.912E+00     0.000E+00     0.000E+00     0.000E+00
X    -2.903E+00    -1.425E+00    -2.416E+00    -4.961E-08    -2.557E-07    -2.893E-07
X    -2.903E+00    -1.425E+00    -1.921E+00    -6.500E-07    -3.353E-06    -3.794E-06
X    -2.903E+00    -1.425E+00    -1.425E+00    -1.909E-06    -9.860E-06    -1.116E-05
X    -2.903E+00    -1.425E+00    -9.293E-01    -3.578E-06    -1.849E-05    -2.092E-05
X    -2.903E+00    -1.425E+00    -4.337E-01    -4.993E-06    -2.579E-05    -2.917E-05
X    -2.903E+00    -1.425E+00     6.196E-02    -5.460E-06    -2.817E-05    -3.187E-05
X    -2.903E+00    -1.425E+00     5.576E-01    -4.717E-06    -2.430E-05    -2.749E-05
X    -2.903E+00    -1.425E+00     1.053E+00    -3.168E-06    -1.630E-05    -1.844E-05
X    -2.903E+00    -1.425E+00     1.549E+00    -1.542E-06    -7.932E-06    -8.973E-06
X    -2.903E+00    -1.425E+00     2.045E+00    -4.409E-07    -2.267E-06    -2.564E-06
X    -2.903E+00    -1.425E+00     2.540E+00    -3.714E-09    -1.909E-08    -2.160E-08
X    -2.903E+00    -1.425E+00     3.036E+00     0.000E+00     0.000E+00     0.000E+00
X    -2.903E+00    -1.425E+00     3.531E+00     0.000E+00     0.000E+00     0.000E+00
X    -2.903E+00    -1.425E+00     4.027E+00     0.000E+00     0.000E+00     0.000E+00
X    -2.903E+00    -1.425E+00     4.523E+00     0.000E+00     0.000E+00     0.000E+00
X    -2.903E+00    -9.293E-01    -4.895E+00     0.000E+00     0.000E+00     0.000E+00
X    -2.903E+00    -9.293E-01    -4.399E+00     0.000E+00     0.000E+00     0.000E+00
X    -2.903E+00    -9.293E-01    -3.903E+00     0.000E+00     0.000E+00     0.000E+00
X    -2.903E+00    -9.293E-01    -3.408E+00     0.000E+00     0.000E+00     0.000E+00
X    -2.903E+00    -9.293E-01    -2.912E+00    -1.072E-13    -5.523E-13    -6.250E-13
X    -2.903E+00    -9.293E-01    -2.416E+00    -2.783E-07    -1.435E-06    -1.623E-06
X    -2.903E+00    -9.293E-01    -1.921E+00    -1.426E-06    -7.359E-06    -8.327E-06
X    -2.903E+00    -9.293E-01    -1.425E+00    -3.578E-06    -1.849E-05    -2.092E-05
X    -2.903E+00    -9.293E-01    -9.293E-01    -6.307E-06    -3.260E-05    -3.689E-05
X    -2.903E+00    -9.293E-01    -4.337E-01    -8.676E-06    -4.482E-05    -5.071E-05
X    -2.903E+00    -9.293E-01     6.196E-02    -9.473E-06    -4.887E-05    -5.528E-05
X    -2.903E+00    -9.293E-01     5.576E-01    -8.218E-06    -4.231E-05    -4.786E-05
X    -2.903E+00    -9.293E-01     1.053E+00    -5.643E-06    -2.901E-05    -3.282E-05
X    -2.903E+00    -9.293E-01     1.549E+00    -2.977E-06    -1.529E-05    -1.730E-05
X    -2.903E+00    -9.293E-01     2.045E+00    -1.048E-06    -5.382E-06    -6.089E-06
X    -2.903E+00    -9.293E-01     2.540E+00    -1.336E-07    -6.865E-07    -7.767E-07
X    -2.903E+00    -9.293E-01     3.036E+00     0.000E+00     0.000E+00     0.000E+00
X    -2.903E+00    -9.293E-01     3.531E+00     0.000E+00     0.000E+00     0.000E+00
X    -2.903E+00    -9.293E-01     4.027E+00     0.000E+00     0.000E+00     0.000E+00
X    -2.903E+00    -9.293E-01     4.523E+00     0.000E+00     0.000E+00     0.000E+00
X    -2.903E+00    -4.337E-01    -4.895E+00     0.000E+00     0.000E+00     0.000E+00
X    -2.903E+00    -4.337E-01    -4.399E+00     0.000E+00     0.000E+00     0.000E+00
X    -2.903E+00    -4.337E-01    -3.903E+00     0.000E+00     0.000E+00     0.000E+00
X    -2.903E+00    -4.337E-01    -3.408E+00     0.000E+00     0.000E+00     0.000E+00
X    -2.903E+00    -4.337E-01    -2.912E+00    -8.464E-10    -4.360E-09    -4.933E-09
X    -2.903E+00    -4.337E-01    -2.416E+00    -5.124E-07    -2.642E-06    -2.989E-06
X    -2.903E+00    -4.337E-01    -1.921E+00    -2.122E-06    -1.095E-05    -1.239E-05
X    -2.903E+00    -4.337E-01    -1.425E+00    -4.991E-06    -2.579E-05    -2.918E-05
X    -2.903E+00    -4.337E-01    -9.293E-01    -8.674E-06    -4.482E-05    -5.071E-05
X    -2.903E+00    -4.337E-01    -4.337E-01    -1.191E-05    -6.149E-05    -6.957E-05
X    -2.903E+00    -4.337E-01     6.196E-02    -1.301E-05    -6.700E-05    -7.580E-05
X    -2.903E+00    -4.337E-01     5.576E-01    -1.130E-05    -5.806E-05    -6.568E-05
X    -2.903E+00    -4.337E-01     1.053E+00    -7.780E-06    -3.993E-05    -4.518E-05
X    -2.903E+00    -4.337E-01     1.549E+00    -4.199E-06    -2.155E-05    -2.438E-05
X    -2.903E+00    -4.337E-01     2.045E+00    -1.603E-06    -8.230E-06    -9.311E-06
X    -2.903E+00    -4.337E-01     2.540E+00    -2.973E-07    -1.527E-06    -1.727E-06
X    -2.903E+00    -4.337E-01     3.036E+00    -2.316E-12    -1.190E-11    -1.347E-11
X    -2.903E+00    -4.337E-01     3.531E+00     0.000E+00     0.000E+00     0.000E+00
X    -2.903E+00    -4.337E-01     4.027E+00     0.000E+00     0.000E+00     0.000E+00
X    -2.903E+00    -4.337E-01     4.523E+00     0.000E+00     0.000E+00     0.000E+00
X    -2.903E+00     6.196E-02    -4.895E+00     0.000E+00     0.000E+00     0.000E+00
X    -2.903E+00     6.196E-02    -4.399E+00     0.000E+00     0.000E+00     0.000E+00
X    -2.903E+00     6.196E-02    -3.903E+00     0.000E+00     0.000E+00     0.000E+00
X    -2.903E+00     6.196E-02    -3.408E+00     0.000E+00     0.000E+00     0.000E+00
X    -2.903E+00     6.196E-02    -2.912E+00    -3.708E-09    -1.909E-08    -2.161E-08
X    -2.903E+00     6.196E-02    -2.416E+00    -5.928E-07    -3.055E-06    -3.457E-06
X    -2.903E+00     6.196E-02    -1.921E+00    -2.352E-06    -1.214E-05    -1.373E-05
X    -2.903E+00     6.196E-02    -1.425E+00    -5.458E-06    -2.817E-05    -3.188E-05
X    -2.903E+00     6.196E-02    -9.293E-01    -9.469E-06    -4.886E-05    -5.529E-05
X    -2.903E+00     6.196E-02    -4.337E-01    -1.300E-05    -6.700E-05    -7.580E-05
X    -2.903E+00     6.196E-02     6.196E-02    -1.420E-05    -7.300E-05    -8.259E-05
X    -2.903E+00     6.196E-02     5.576E-01    -1.233E-05    -6.327E-05    -7.158E-05
X    -2.903E+00     6.196E-02     1.053E+00    -8.498E-06    -4.355E-05    -4.926E-05
X    -2.903E+00     6.196E-02     1.549E+00    -4.602E-06    -2.358E-05    -2.668E-05
X    -2.903E+00     6.196E-02     2.045E+00    -1.790E-06    -9.180E-06    -1.039E-05
X    -2.903E+00     6.196E-02     2.540E+00    -3.550E-07    -1.823E-06    -2.062E-06
X    -2.903E+00     6.196E-02     3.036E+00    -4.600E-12    -2.364E-11    -2.675E-11
X    -2.903E+00     6.196E-02     3.531E+00     0.000E+00     0.000E+00     0.000E+00
X    -2.903E+00     6.196E-02     4.027E+00     0.000E+00     0.000E+00     0.000E+00
X    -2.903E+00     6.196E-02     4.523E+00     0.000E+00     0.000E+00     0.000E+00
X    -2.903E+00     5.576E-01    -4.895E+00     0.000E+00     0.000E+00     0.000E+00
X    -2.903E+00     5.576E-01    -4.399E+00     0.000E+00     0.000E+00     0.000E+00
X    -2.903E+00     5.576E-01    -3.903E+00     0.000E+00     0.000E+00     0.000E+00
X    -2.903E+00     5.576E-01    -3.408E+00     0.000E+00     0.000E+00     0.000E+00
X    -2.903E+00     5.576E-01    -2.912E+00    -2.753E-10    -1.418E-09    -1.604E-09
X    -2.903E+00     5.576E-01    -2.416E+00    -4.634E-07    -2.387E-06    -2.701E-06
X    -2.903E+00     5.576E-01    -1.921E+00    -1.982E-06    -1.021E-05    -1.156E-05
X    -2.903E+00     5.576E-01    -1.425E+00    -4.714E-06    -2.430E-05    -2.750E-05
X    -2.903E+00     5.576E-01    -9.293E-01    -8.213E-06    -4.230E-05    -4.787E-05
X    -2.903E+00     5.576E-01    -4.337E-01    -1.129E-05    -5.805E-05    -6.569E-05
X    -2.903E+00     5.576E-01     6.196E-02    -1.233E-05    -6.326E-05    -7.158E-05
X    -2.903E+00     5.576E-01     5.576E-01    -1.070E-05    -5.481E-05    -6.202E-05
X    -2.903E+00     5.576E-01     1.053E+00    -7.362E-06    -3.769E-05    -4.264E-05
X    -2.903E+00     5.576E-01     1.549E+00    -3.958E-06    -2.028E-05    -2.294E-05
X    -2.903E+00     5.576E-01     2.045E+00    -1.490E-06    -7.640E-06    -8.644E-06
X    -2.903E+00     5.576E-01     2.540E+00    -2.622E-07    -1.346E-06    -1.523E-06
X    -2.903E+00     5.576E-01     3.036E+00     0.000E+00     0.000E+00     0.000E+00
X    -2.903E+00     5.576E-01     3.531E+00     0.000E+00     0.000E+00     0.000E+00
X    -2.903E+00     5.576E-01     4.027E+00     0.000E+00     0.000E+00     0.000E+00
X    -2.903E+00     5.576E-01     4.523E+00     0.000E+00     0.000E+00     0.000E+00
X    -2.903E+00     1.053E+00    -4.895E+00     0.000E+00     0.000E+00     0.000E+00
X    -2.903E+00     1.053E+00    -4.399E+00     0.000E+00     0.000E+00     0.000E+00
X    -2.903E+00     1.053E+00    -3.903E+00     0.000E+00     0.000E+00     0.000E+00
X    -2.903E+00     1.053E+00    -3.408E+00     0.000E+00     0.000E+00     0.000E+00
X    -2.903E+00     1.053E+00    -2.912E+00     0.000E+00     0.000E+00     0.000E+00
X    -2.903E+00     1.053E+00    -2.416E+00    -2.135E-07    -1.099E-06    -1.244E-06
X    -2.903E+00     1.053E+00    -1.921E+00    -1.226E-06    -6.311E-06    -7.141E-06
X    -2.903E+00     1.053E+00    -1.425E+00    -3.167E-06    -1.630E-05    -1.845E-05
X    -2.903E+00     1.053E+00    -9.293E-01    -5.640E-06    -2.901E-05    -3.282E-05
X    -2.903E+00     1.053E+00    -4.337E-01    -7.776E-06    -3.993E-05    -4.518E-05
X    -2.903E+00     1.053E+00     6.196E-02    -8.494E-06    -4.354E-05    -4.927E-05
X    -2.903E+00     1.053E+00     5.576E-01    -7.361E-06    -3.769E-05    -4.264E-05
X    -2.903E+00     1.053E+00     1.053E+00    -5.037E-06    -2.578E-05    -2.917E-05
X    -2.903E+00     1.053E+00     1.549E+00    -2.619E-06    -1.342E-05    -1.518E-05
X    -2.903E+00     1.053E+00     2.045E+00    -8.896E-07    -4.562E-06    -5.162E-06
X    -2.903E+00     1.053E+00     2.540E+00    -9.111E-08    -4.678E-07    -5.293E-07
X    -2.903E+00     1.053E+00     3.036E+00     0.000E+00     0.000E+00     0.000E+00
X    -2.903E+00     1.053E+00     3.531E+00     0.000E+00     0.000E+00     0.000E+00
X    -2.903E+00     1.053E+00     4.027E+00     0.000E+00     0.000E+00     0.000E+00
X    -2.903E+00     1.053E+00     4.523E+00     0.000E+00     0.000E+00     0.000E+00
X    -2.903E+00     1.549E+00    -4.895E+00     0.000E+00     0.000E+00     0.000E+00
X    -2.903E+00     1.549E+00    -4.399E+00     0.000E+00     0.000E+00     0.000E+00
X    -2.903E+00     1.549E+00    -3.903E+00     0.000E+00     0.000E+00     0.000E+00
X    -2.903E+00     1.549E+00    -3.408E+00     0.000E+00     0.000E+00     0.000E+00
X    -2.903E+00     1.549E+00    -2.912E+00     0.000E+00     0.000E+00     0.000E+00
X    -2.903E+00     1.549E+00    -2.416E+00    -1.514E-08    -7.792E-08    -8.817E-08
X    -2.903E+00     1.549E+00    -1.921E+00    -4.882E-07    -2.512E-06    -2.843E-06
X    -2.903E+00     1.549E+00    -1.425E+00    -1.542E-06    -7.931E-06    -8.974E-06
X    -2.903E+00     1.549E+00    -9.293E-01    -2.975E-06    -1.529E-05    -1.730E-05
X    -2.903E+00     1.549E+00    -4.337E-01    -4.197E-06    -2.155E-05    -2.438E-05
X    -2.903E+00     1.549E+00     6.196E-02    -4.600E-06    -2.358E-05    -2.668E-05
X    -2.903E+00     1.549E+00     5.576E-01    -3.958E-06    -2.027E-05    -2.294E-05
X    -2.903E+00     1.549E+00     1.053E+00    -2.619E-06    -1.342E-05    -1.518E-05
X    -2.903E+00     1.549E+00     1.549E+00    -1.231E-06    -6.311E-06    -7.140E-06
X    -2.903E+00     1.549E+00     2.045E+00    -3.161E-07    -1.622E-06    -1.835E-06
X    -2.903E+00     1.549E+00     2.540E+00    -1.532E-10    -7.867E-10    -8.901E-10
X    -2.903E+00     1.549E+00     3.036E+00     0.000E+00     0.000E+00     0.000E+00
X    -2.903E+00     1.549E+00     3.531E+00     0.000E+00     0.000E+00     0.000E+00
X    -2.903E+00     1.549E+00     4.027E+00     0.000E+00     0.000E+00     0.000E+00
X    -2.903E+00     1.549E+00     4.523E+00     0.000E+00     0.000E+00     0.000E+00
X    -2.903E+00     2.045E+00    -4.895E+00     0.000E+00     0.000E+00     0.000E+00
X    -2.903E+00     2.045E+00    -4.399E+00     0.000E+00     0.000E+00     0.000E+00
X    -2.903E+00     2.045E+00    -3.903E+00     0.000E+00     0.000E+00     0.000E+00
X    -2.903E+00     2.045E+00    -3.408E+00     0.000E+00     0.000E+00     0.000E+00
X    -2.903E+00     2.045E+00    -2.912E+00     0.000E+00     0.000E+00     0.000E+00
X    -2.903E+00     2.045E+00    -2.416E+00     0.000E+00     0.000E+00     0.000E+00
X    -2.903E+00     2.045E+00    -1.921E+00    -4.971E-08    -2.557E-07    -2.893E-07
X    -2.903E+00     2.045E+00    -1.425E+00    -4.408E-07    -2.267E-06    -2.565E-06
X    -2.903E+00     2.045E+00    -9.293E-01    -1.047E-06    -5.382E-06    -6.090E-06
X    -2.903E+00     2.045E+00    -4.337E-01    -1.603E-06    -8.230E-06    -9.311E-06
X    -2.903E+00     2.045E+00     6.196E-02    -1.789E-06    -9.180E-06    -1.039E-05
X    -2.903E+00     2.045E+00     5.576E-01    -1.490E-06    -7.640E-06    -8.644E-06
X    -2.903E+00     2.045E+00     1.053E+00    -8.895E-07    -4.562E-06    -5.162E-06
X    -2.903E+00     2.045E+00     1.549E+00    -3.161E-07    -1.622E-06    -1.835E-06
X    -2.903E+00     2.045E+00     2.045E+00    -8.129E-09    -4.174E-08    -4.723E-08
X    -2.903E+00     2.045E+00     2.540E+00     0.000E+00     0.000E+00     0.000E+00
X    -2.903E+00     2.045E+00     3.036E+00     0.000E+00     0.000E+00     0.000E+00
X    -2.903E+00     2.045E+00     3.531E+00     0.000E+00     0.000E+00     0.000E+00
X    -2.903E+00     2.045E+00     4.027E+00     0.000E+00     0.000E+00     0.000E+00
X    -2.903E+00     2.045E+00     4.523E+00     0.000E+00     0.000E+00     0.000E+00
X    -2.903E+00     2.540E+00    -4.895E+00     0.000E+00     0.000E+00     0.000E+00
X    -2.903E+00     2.540E+00    -4.399E+00     0.000E+00     0.000E+00     0.000E+00
X    -2.903E+00     2.540E+00    -3.903E+00     0.000E+00     0.000E+00     0.000E+00
X    -2.903E+00     2.540E+00    -3.408E+00     0.000E+00     0.000E+00     0.000E+00
X    -2.903E+00     2.540E+00    -2.912E+00     0.000E+00     0.000E+00     0.000E+00
X    -2.903E+00     2.540E+00    -2.416E+00     0.000E+00     0.000E+00     0.000E+00
X    -2.903E+00     2.540E+00    -1.921E+00     0.000E+00     0.000E+00     0.000E+00
X    -2.903E+00     2.540E+00    -1.425E+00    -3.713E-09    -1.909E-08    -2.160E-08
X    -2.903E+00     2.540E+00    -9.293E-01    -1.336E-07    -6.865E-07    -7.767E-07
X    -2.903E+00     2.540E+00    -4.337E-01    -2.972E-07    -1.527E-06    -1.727E-06
X    -2.903E+00     2.540E+00     6.196E-02    -3.550E-07    -1.823E-06    -2.062E-06
X    -2.903E+00     2.540E+00     5.576E-01    -2.621E-07    -1.346E-06    -1.523E-06
X    -2.903E+00     2.540E+00     1.053E+00    -9.110E-08    -4.678E-07    -5.293E-07
X    -2.903E+00     2.540E+00     1.549E+00    -1.532E-10    -7.868E-10    -8.901E-10
X    -2.903E+00     2.540E+00     2.045E+00     0.000E+00     0.000E+00     0.000E+00
X    -2.903E+00     2.540E+00     2.540E+00     0.000E+00     0.000E+00     0.000E+00
X    -2.903E+00     2.540E+00     3.036E+00     0.000E+00     0.000E+00     0.000E+00
X    -2.903E+00     2.540E+00     3.531E+00     0.000E+00     0.000E+00     0.000E+00
X    -2.903E+00     2.540E+00     4.027E+00     0.000E+00     0.000E+00     0.000E+00
X    -2.903E+00     2.540E+00     4.523E+00     0.000E+00     0.000E+00     0.000E+00
X    -2.903E+00     3.036E+00    -4.895E+00     0.000E+00     0.000E+00     0.000E+00
X    -2.903E+00     3.036E+00    -4.399E+00     0.000E+00     0.000E+00     0.000E+00
X    -2.903E+00     3.036E+00    -3.903E+00     0.000E+00     0.000E+00     0.000E+00
X    -2.903E+00     3.036E+00    -3.408E+00     0.000E+00     0.000E+00     0.000E+00
X    -2.903E+00     3.036E+00    -2.912E+00     0.000E+00     0.000E+00     0.000E+00
X    -2.903E+00     3.036E+00    -2.416E+00     0.000E+00     0.000E+00     0.000E+00
X    -2.903E+00     3.036E+00    -1.921E+00     0.000E+00     0.000E+00     0.000E+00
X    -2.903E+00     3.036E+00    -1.425E+00     0.000E+00     0.000E+00     0.000E+00
X    -2.903E+00     3.036E+00    -9.293E-01     0.000E+00     0.000E+00     0.000E+00
X    -2.903E+00     3.036E+00    -4.337E-01    -2.315E-12    -1.190E-11    -1.346E-11
X    -2.903E+00     3.036E+00     6.196E-02    -4.600E-12    -2.364E-11    -2.675E-11
X    -2.903E+00     3.036E+00     5.576E-01     0.000E+00     0.000E+00     0.000E+00
X    -2.903E+00     3.036E+00     1.053E+00     0.000E+00     0.000E+00     0.000E+00
X    -2.903E+00     3.036E+00     1.549E+00     0.000E+00     0.000E+00     0.000E+00
X    -2.903E+00     3.036E+00     2.045E+00     0.000E+00     0.000E+00     0.000E+00
X    -2.903E+00     3.036E+00     2.540E+00     0.000E+00     0.000E+00     0.000E+00
X    -2.903E+00     3.036E+00     3.036E+00     0.000E+00     0.000E+00     0.000E+00
X    -2.903E+00     3.036E+00     3.531E+00     0.000E+00     0.000E+00     0.000E+00
X    -2.903E+00     3.036E+00     4.027E+00     0.000E+00     0.000E+00     0.000E+00
X    -2.903E+00     3.036E+00     4.523E+00     0.000E+00     0.000E+00     0.000E+00
X    -2.903E+00     3.531E+00    -4.895E+00     0.000E+00     0.000E+00     0.000E+00
X    -2.903E+00     3.531E+00    -4.399E+00     0.000E+00     0.000E+00     0.000E+00
X    -2.903E+00     3.531E+00    -3.903E+00     0.000E+00     0.000E+00     0.000E+00
X    -2.903E+00     3.531E+00    -3.408E+00     0.000E+00     0.000E+00     0.000E+00
X    -2.903E+00     3.531E+00    -2.912E+00     0.000E+00     0.000E+00     0.000E+00
X    -2.903E+00     3.531E+00    -2.416E+00     0.000E+00     0.000E+00     0.000E+00
X    -2.903E+00     3.531E+00    -1.921E+00     0.000E+00     0.000E+00     0.000E+00
X    -2.903E+00     3.531E+00    -1.425E+00     0.000E+00     0.000E+00     0.000E+00
X    -2.903E+00     3.531E+00    -9.293E-01     0.000E+00     0.000E+00     0.000E+00
X    -2.903E+00     3.531E+00    -4.337E-01     0.000E+00     0.000E+00     0.000E+00
X    -2.903E+00     3.531E+00     6.196E-02     0.000E+00     0.000E+00     0.000E+00
X    -2.903E+00     3.531E+00     5.576E-01     0.000E+00     0.000E+00     0.000E+00
X    -2.903E+00     3.531E+00     1.053E+00     0.000E+00     0.000E+00     0.000E+00
X    -2.903E+00     3.531E+00     1.549E+00     0.000E+00     0.000E+00     0.000E+00
X    -2.903E+00     3.531E+00     2.045E+00     0.000E+00     0.000E+00     0.000E+00
X    -2.903E+00     3.531E+00     2.540E+00     0.000E+00     0.000E+00     0.000E+00
X    -2.903E+00     3.531E+00     3.036E+00     0.000E+00     0.000E+00     0.000E+00
X    -2.903E+00     3.531E+00     3.531E+00     0.000E+00     0.000E+00     0.000E+00
X    -2.903E+00     3.531E+00     4.027E+00     0.000E+00     0.000E+00     0.000E+00
X    -2.903E+00     3.531E+00     4.523E+00     0.000E+00     0.000E+00     0.000E+00
X    -2.903E+00     4.027E+00    -4.895E+00     0.000E+00     0.000E+00     0.000E+00
X    -2.903E+00     4.027E+00    -4.399E+00     0.000E+00     0.000E+00     0.000E+00
X    -2.903E+00     4.027E+00    -3.903E+00     0.000E+00     0.000E+00     0.000E+00
X    -2.903E+00     4.027E+00    -3.408E+00     0.000E+00     0.000E+00     0.000E+00
X    -2.903E+00     4.027E+00    -2.912E+00     0.000E+00     0.000E+00     0.000E+00
X    -2.903E+00     4.027E+00    -2.416E+00     0.000E+00     0.000E+00     0.000E+00
X    -2.903E+00     4.027E+00    -1.921E+00     0.000E+00     0.000E+00     0.000E+00
X    -2.903E+00     4.027E+00    -1.425E+00     0.000E+00     0.000E+00     0.000E+00
X    -2.903E+00     4.027E+00    -9.293E-01     0.000E+00     0.000E+00     0.000E+00
X    -2.903E+00     4.027E+00    -4.337E-01     0.000E+00     0.000E+00     0.000E+00
X    -2.903E+00     4.027E+00     6.196E-02     0.000E+00     0.000E+00     0.000E+00
X    -2.903E+00     4.027E+00     5.576E-01     0.000E+00     0.000E+00     0.000E+00
X    -2.903E+00     4.027E+00     1.053E+00     0.000E+00     0.000E+00     0.000E+00
X    -2.903E+00     4.027E+00     1.549E+00     0.000E+00     0.000E+00     0.000E+00
X    -2.903E+00     4.027E+00     2.045E+00     0.000E+00     0.000E+00     0.000E+00
X    -2.903E+00     4.027E+00     2.540E+00     0.000E+00     0.000E+00     0.000E+00
X    -2.903E+00     4.027E+00     3.036E+00     0.000E+00     0.000E+00     0.000E+00
X    -2.903E+00     4.027E+00     3.531E+00     0.000E+00     0.000E+00     0.000E+00
X    -2.903E+00     4.027E+00     4.027E+00     0.000E+00     0.000E+00     0.000E+00
X    -2.903E+00     4.027E+00     4.523E+00     0.000E+00     0.000E+00     0.000E+00
X    -2.903E+00     4.523E+00    -4.895E+00     0.000E+00     0.000E+00     0.000E+00
X    -2.903E+00     4.523E+00    -4.399E+00     0.000E+00     0.000E+00     0.000E+00
X    -2.903E+00     4.523E+00    -3.903E+00     0.000E+00     0.000E+00     0.000E+00
X    -2.903E+00     4.523E+00    -3.408E+00     0.000E+00     0.000E+00     0.000E+00
X    -2.903E+00     4.523E+00    -2.912E+00     0.000E+00     0.000E+00     0.000E+00
X    -2.903E+00     4.523E+00    -2.416E+00     0.000E+00     0.000E+00     0.000E+00
X    -2.903E+00     4.523E+00    -1.921E+00     0.000E+00     0.000E+00     0.000E+00
X    -2.903E+00     4.523E+00    -1.425E+00     0.000E+00     0.000E+00     0.000E+00
X    -2.903E+00     4.523E+00    -9.293E-01     0.000E+00     0.000E+00     0.000E+00
X    -2.903E+00     4.523E+00    -4.337E-01     0.000E+00     0.000E+00     0.000E+00
X    -2.903E+00     4.523E+00     6.196E-02     0.000E+00     0.000E+00     0.000E+00
X    -2.903E+00     4.523E+00     5.576E-01     0.000E+00     0.000E+00     0.000E+00
X    -2.903E+00     4.523E+00     1.053E+00     0.000E+00     0.000E+00     0.000E+00
X    -2.903E+00     4.523E+00     1.549E+00     0.000E+00     0.000E+00     0.000E+00
X    -2.903E+00     4.523E+00     2.045E+00     0.000E+00     0.000E+00     0.000E+00
X    -2.903E+00     4.523E+00     2.540E+00     0.000E+00     0.000E+00     0.000E+00
X    -2.903E+00     4.523E+00     3.036E+00     0.000E+00     0.000E+00     0.000E+00
X    -2.903E+00     4.523E+00     3.531E+00     0.000E+00     0.000E+00     0.000E+00
X    -2.903E+00     4.523E+00     4.027E+00     0.000E+00     0.000E+00     0.000E+00
X    -2.903E+00     4.523E+00     4.523E+00     0.000E+00     0.000E+00     0.000E+00
X    -2.408E+00    -4.895E+00    -4.895E+00     0.000E+00     0.000E+00     0.000E+00
X    -2.408E+00    -4.895E+00    -4.399E+00     0.000E+00     0.000E+00     0.000E+00
X    -2.408E+00    -4.895E+00    -3.903E+00     0.000E+00     0.000E+00     0.000E+00
X    -2.408E+00    -4.895E+00    -3.408E+00     0.000E+00     0.000E+00     0.000E+00
X    -2.408E+00    -4.895E+00    -2.912E+00     0.000E+00     0.000E+00     0.000E+00
X    -2.408E+00    -4.895E+00    -2.416E+00     0.000E+00     0.000E+00     0.000E+00
X    -2.408E+00    -4.895E+00    -1.921E+00     0.000E+00     0.000E+00     0.000E+00
X    -2.408E+00    -4.895E+00    -1.425E+00     0.000E+00     0.000E+00     0.000E+00
X    -2.408E+00    -4.895E+00    -9.293E-01     0.000E+00     0.000E+00     0.000E+00
X    -2.408E+00    -4.895E+00    -4.337E-01     0.000E+00     0.000E+00     0.000E+00
X    -2.408E+00    -4.895E+00     6.196E-02     0.000E+00     0.000E+00     0.000E+00
X    -2.408E+00    -4.895E+00     5.576E-01     0.000E+00     0.000E+00     0.000E+00
X    -2.408E+00    -4.895E+00     1.053E+00     0.000E+00     0.000E+00     0.000E+00
X    -2.408E+00    -4.895E+00     1.549E+00     0.000E+00     0.000E+00     0.000E+00
X    -2.408E+00    -4.895E+00     2.045E+00     0.000E+00     0.000E+00     0.000E+00
X    -2.408E+00    -4.895E+00     2.540E+00     0.000E+00     0.000E+00     0.000E+00
X    -2.408E+00    -4.895E+00     3.036E+00     0.000E+00     0.000E+00     0.000E+00
X    -2.408E+00    -4.895E+00     3.531E+00     0.000E+00     0.000E+00     0.000E+00
X    -2.408E+00    -4.895E+00     4.027E+00     0.000E+00     0.000E+00     0.000E+00
X    -2.408E+00    -4.895E+00     4.523E+00     0.000E+00     0.000E+00     0.000E+00
X    -2.408E+00    -4.399E+00    -4.895E+00     0.000E+00     0.000E+00     0.000E+00
X    -2.408E+00    -4.399E+00    -4.399E+00     0.000E+00     0.000E+00     0.000E+00
X    -2.408E+00    -4.399E+00    -3.903E+00     0.000E+00     0.000E+00     0.000E+00
X    -2.408E+00    -4.399E+00    -3.408E+00     0.000E+00     0.000E+00     0.000E+00
X    -2.408E+00    -4.399E+00    -2.912E+00     0.000E+00     0.000E+00     0.000E+00
X    -2.408E+00    -4.399E+00    -2.416E+00     0.000E+00     0.000E+00     0.000E+00
X    -2.408E+00    -4.399E+00    -1.921E+00     0.000E+00     0.000E+00     0.000E+00
X    -2.408E+00    -4.399E+00    -1.425E+00     0.000E+00     0.000E+00     0.000E+00
X    -2.408E+00    -4.399E+00    -9.293E-01     0.000E+00     0.000E+00     0.000E+00
X    -2.408E+00    -4.399E+00    -4.337E-01     0.000E+00     0.000E+00     0.000E+00
X    -2.408E+00    -4.399E+00     6.196E-02     0.000E+00     0.000E+00     0.000E+00
X    -2.408E+00    -4.399E+00     5.576E-01     0.000E+00     0.000E+00     0.000E+00
X    -2.408E+00    -4.399E+00     1.053E+00     0.000E+00     0.000E+00     0.000E+00
X    -2.408E+00    -4.399E+00     1.549E+00     0.000E+00     0.000E+00     0.000E+00
X    -2.408E+00    -4.399E+00     2.045E+00     0.000E+00     0.000E+00     0.000E+00
X    -2.408E+00    -4.399E+00     2.540E+00     0.000E+00     0.000E+00     0.000E+00
X    -2.408E+00    -4.399E+00     3.036E+00     0.000E+00     0.000E+00     0.000E+00
X    -2.408E+00    -4.399E+00     3.531E+00     0.000E+00     0.000E+00     0.000E+00
X    -2.408E+00    -4.399E+00     4.027E+00     0.000E+00     0.000E+00     0.000E+00
X    -2.408E+00    -4.399E+00     4.523E+00     0.000E+00     0.000E+00     0.000E+00
X    -2.408E+00    -3.903E+00    -4.895E+00     0.000E+00     0.000E+00     0.000E+00
X    -2.408E+00    -3.903E+00    -4.399E+00     0.000E+00     0.000E+00     0.000E+00
X    -2.408E+00    -3.903E+00    -3.903E+00     0.000E+00     0.000E+00     0.000E+00
X    -2.408E+00    -3.903E+00    -3.408E+00     0.000E+00     0.000E+00     0.000E+00
X    -2.408E+00    -3.903E+00    -2.912E+00     0.000E+00     0.000E+00     0.000E+00
X    -2.408E+00    -3.903E+00    -2.416E+00     0.000E+00     0.000E+00     0.000E+00
X    -2.408E+00    -3.903E+00    -1.921E+00     0.000E+00     0.000E+00     0.000E+00
X    -2.408E+00    -3.903E+00    -1.425E+00     0.000E+00     0.000E+00     0.000E+00
X    -2.408E+00    -3.903E+00    -9.293E-01     0.000E+00     0.000E+00     0.000E+00
X    -2.408E+00    -3.903E+00    -4.337E-01     0.000E+00     0.000E+00     0.000E+00
X    -2.408E+00    -3.903E+00     6.196E-02     0.000E+00     0.000E+00     0.000E+00
X    -2.408E+00    -3.903E+00     5.576E-01     0.000E+00     0.000E+00     0.000E+00
X    -2.408E+00    -3.903E+00     1.053E+00     0.000E+00     0.000E+00     0.000E+00
X    -2.408E+00    -3.903E+00     1.549E+00     0.000E+00     0.000E+00     0.000E+00
X    -2.408E+00    -3.903E+00     2.045E+00     0.000E+00     0.000E+00     0.000E+00
X    -2.408E+00    -3.903E+00     2.540E+00     0.000E+00     0.000E+00     0.000E+00
X    -2.408E+00    -3.903E+00     3.036E+00     0.000E+00     0.000E+00     0.000E+00
X    -2.408E+00    -3.903E+00     3.531E+00     0.000E+00     0.000E+00     0.000E+00
X    -2.408E+00    -3.903E+00     4.027E+00     0.000E+00     0.000E+00     0.000E+00
X    -2.408E+00    -3.903E+00     4.523E+00     0.000E+00     0.000E+00     0.000E+00
X    -2.408E+00    -3.408E+00    -4.895E+00     0.000E+00     0.000E+00     0.000E+00
X    -2.408E+00    -3.408E+00    -4.399E+00     0.000E+00     0.000E+00     0.000E+00
X    -2.408E+00    -3.408E+00    -3.903E+00     0.000E+00     0.000E+00     0.000E+00
X    -2.408E+00    -3.408E+00    -3.408E+00     0.000E+00     0.000E+00     0.000E+00
X    -2.408E+00    -3.408E+00    -2.912E+00     0.000E+00     0.000E+00     0.000E+00
X    -2.408E+00    -3.408E+00    -2.416E+00     0.000E+00     0.000E+00     0.000E+00
X    -2.408E+00    -3.408E+00    -1.921E+00     0.000E+00     0.000E+00     0.000E+00
X    -2.408E+00    -3.408E+00    -1.425E+00     0.000E+00     0.000E+00     0.000E+00
X    -2.408E+00    -3.408E+00    -9.293E-01     0.000E+00     0.000E+00     0.000E+00
X    -2.408E+00    -3.408E+00    -4.337E-01    -8.931E-12    -4.593E-11    -5.196E-11
X    -2.408E+00    -3.408E+00     6.196E-02    -4.549E-11    -2.340E-10    -2.647E-10
X    -2.408E+00    -3.408E+00     5.576E-01    -8.328E-13    -4.283E-12    -4.846E-12
X    -2.408E+00    -3.408E+00     1.053E+00     0.000E+00     0.000E+00     0.000E+00
X    -2.408E+00    -3.408E+00     1.549E+00     0.000E+00     0.000E+00     0.000E+00
X    -2.408E+00    -3.408E+00     2.045E+00     0.000E+00     0.000E+00     0.000E+00
X    -2.408E+00    -3.408E+00     2.540E+00     0.000E+00     0.000E+00     0.000E+00
X    -2.408E+00    -3.408E+00     3.036E+00     0.000E+00     0.000E+00     0.000E+00
X    -2.408E+00    -3.408E+00     3.531E+00     0.000E+00     0.000E+00     0.000E+00
X    -2.408E+00    -3.408E+00     4.027E+00     0.000E+00     0.000E+00     0.000E+00
X    -2.408E+00    -3.408E+00     4.523E+00     0.000E+00     0.000E+00     0.000E+00
X    -2.408E+00    -2.912E+00    -4.895E+00     0.000E+00     0.000E+00     0.000E+00
X    -2.408E+00    -2.912E+00    -4.399E+00     0.000E+00     0.000E+00     0.000E+00
X    -2.408E+00    -2.912E+00    -3.903E+00     0.000E+00     0.000E+00     0.000E+00
X    -2.408E+00    -2.912E+00    -3.408E+00     0.000E+00     0.000E+00     0.000E+00
X    -2.408E+00    -2.912E+00    -2.912E+00     0.000E+00     0.000E+00     0.000E+00
X    -2.408E+00    -2.912E+00    -2.416E+00     0.000E+00     0.000E+00     0.000E+00
X    -2.408E+00    -2.912E+00    -1.921E+00     0.000E+00     0.000E+00     0.000E+00
X    -2.408E+00    -2.912E+00    -1.425E+00    -5.064E-08    -2.605E-07    -2.947E-07
X    -2.408E+00    -2.912E+00    -9.293E-01    -2.880E-07    -1.482E-06    -1.677E-06
X    -2.408E+00    -2.912E+00    -4.337E-01    -5.324E-07    -2.740E-06    -3.099E-06
X    -2.408E+00    -2.912E+00     6.196E-02    -6.162E-07    -3.171E-06    -3.587E-06
X    -2.408E+00    -2.912E+00     5.576E-01    -4.809E-07    -2.474E-06    -2.799E-06
X    -2.408E+00    -2.912E+00     1.053E+00    -2.203E-07    -1.133E-06    -1.282E-06
X    -2.408E+00    -2.912E+00     1.549E+00    -1.512E-08    -7.778E-08    -8.799E-08
X    -2.408E+00    -2.912E+00     2.045E+00     0.000E+00     0.000E+00     0.000E+00
X    -2.408E+00    -2.912E+00     2.540E+00     0.000E+00     0.000E+00     0.000E+00
X    -2.408E+00    -2.912E+00     3.036E+00     0.000E+00     0.000E+00     0.000E+00
X    -2.408E+00    -2.912E+00     3.531E+00     0.000E+00     0.000E+00     0.000E+00
X    -2.408E+00    -2.912E+00     4.027E+00     0.000E+00     0.000E+00     0.000E+00
X    -2.408E+00    -2.912E+00     4.523E+00     0.000E+00     0.000E+00     0.000E+00
X    -2.408E+00    -2.416E+00    -4.895E+00     0.000E+00     0.000E+00     0.000E+00
X    -2.408E+00    -2.416E+00    -4.399E+00     0.000E+00     0.000E+00     0.000E+00
X    -2.408E+00    -2.416E+00    -3.903E+00     0.000E+00     0.000E+00     0.000E+00
X    -2.408E+00    -2.416E+00    -3.408E+00     0.000E+00     0.000E+00     0.000E+00
X    -2.408E+00    -2.416E+00    -2.912E+00     0.000E+00     0.000E+00     0.000E+00
X    -2.408E+00    -2.416E+00    -2.416E+00    -2.636E-11    -1.356E-10    -1.534E-10
X    -2.408E+00    -2.416E+00    -1.921E+00    -2.363E-07    -1.216E-06    -1.375E-06
X    -2.408E+00    -2.416E+00    -1.425E+00    -9.617E-07    -4.950E-06    -5.601E-06
X    -2.408E+00    -2.416E+00    -9.293E-01    -2.001E-06    -1.031E-05    -1.166E-05
X    -2.408E+00    -2.416E+00    -4.337E-01    -2.917E-06    -1.502E-05    -1.699E-05
X    -2.408E+00    -2.416E+00     6.196E-02    -3.217E-06    -1.657E-05    -1.874E-05
X    -2.408E+00    -2.416E+00     5.576E-01    -2.731E-06    -1.406E-05    -1.590E-05
X    -2.408E+00    -2.416E+00     1.053E+00    -1.732E-06    -8.915E-06    -1.008E-05
X    -2.408E+00    -2.416E+00     1.549E+00    -7.414E-07    -3.814E-06    -4.315E-06
X    -2.408E+00    -2.416E+00     2.045E+00    -1.253E-07    -6.446E-07    -7.293E-07
X    -2.408E+00    -2.416E+00     2.540E+00     0.000E+00     0.000E+00     0.000E+00
X    -2.408E+00    -2.416E+00     3.036E+00     0.000E+00     0.000E+00     0.000E+00
X    -2.408E+00    -2.416E+00     3.531E+00     0.000E+00     0.000E+00     0.000E+00
X    -2.408E+00    -2.416E+00     4.027E+00     0.000E+00     0.000E+00     0.000E+00
X    -2.408E+00    -2.416E+00     4.523E+00     0.000E+00     0.000E+00     0.000E+00
X    -2.408E+00    -1.921E+00    -4.895E+00     0.000E+00     0.000E+00     0.000E+00
X    -2.408E+00    -1.921E+00    -4.399E+00     0.000E+00     0.000E+00     0.000E+00
X    -2.408E+00    -1.921E+00    -3.903E+00     0.000E+00     0.000E+00     0.000E+00
X    -2.408E+00    -1.921E+00    -3.408E+00     0.000E+00     0.000E+00     0.000E+00
X    -2.408E+00    -1.921E+00    -2.912E+00     0.000E+00     0.000E+00     0.000E+00
X    -2.408E+00    -1.921E+00    -2.416E+00    -2.362E-07    -1.215E-06    -1.375E-06
X    -2.408E+00    -1.921E+00    -1.921E+00    -1.328E-06    -6.839E-06    -7.738E-06
X    -2.408E+00    -1.921E+00    -1.425E+00    -3.428E-06    -1.766E-05    -1.998E-05
X    -2.408E+00    -1.921E+00    -9.293E-01    -6.116E-06    -3.153E-05    -3.567E-05
X    -2.408E+00    -1.921E+00    -4.337E-01    -8.443E-06    -4.354E-05    -4.925E-05
X    -2.408E+00    -1.921E+00     6.196E-02    -9.219E-06    -4.752E-05    -5.376E-05
X    -2.408E+00    -1.921E+00     5.576E-01    -7.974E-06    -4.107E-05    -4.646E-05
X    -2.408E+00    -1.921E+00     1.053E+00    -5.441E-06    -2.800E-05    -3.168E-05
X    -2.408E+00    -1.921E+00     1.549E+00    -2.825E-06    -1.453E-05    -1.644E-05
X    -2.408E+00    -1.921E+00     2.045E+00    -9.624E-07    -4.950E-06    -5.601E-06
X    -2.408E+00    -1.921E+00     2.540E+00    -1.033E-07    -5.315E-07    -6.014E-07
X    -2.408E+00    -1.921E+00     3.036E+00     0.000E+00     0.000E+00     0.000E+00
X    -2.408E+00    -1.921E+00     3.531E+00     0.000E+00     0.000E+00     0.000E+00
X    -2.408E+00    -1.921E+00     4.027E+00     0.000E+00     0.000E+00     0.000E+00
X    -2.408E+00    -1.921E+00     4.523E+00     0.000E+00     0.000E+00     0.000E+00
X    -2.408E+00    -1.425E+00    -4.895E+00     0.000E+00     0.000E+00     0.000E+00
X    -2.408E+00    -1.425E+00    -4.399E+00     0.000E+00     0.000E+00     0.000E+00
X    -2.408E+00    -1.425E+00    -3.903E+00     0.000E+00     0.000E+00     0.000E+00
X    -2.408E+00    -1.425E+00    -3.408E+00     0.000E+00     0.000E+00     0.000E+00
X    -2.408E+00    -1.425E+00    -2.912E+00    -5.064E-08    -2.605E-07    -2.947E-07
X    -2.408E+00    -1.425E+00    -2.416E+00    -9.617E-07    -4.950E-06    -5.601E-06
X    -2.408E+00    -1.425E+00    -1.921E+00    -3.428E-06    -1.766E-05    -1.998E-05
X    -2.408E+00    -1.425E+00    -1.425E+00    -7.731E-06    -3.988E-05    -4.512E-05
X    -2.408E+00    -1.425E+00    -9.293E-01    -1.343E-05    -6.934E-05    -7.845E-05
X    -2.408E+00    -1.425E+00    -4.337E-01    -1.846E-05    -9.535E-05    -1.079E-04
X    -2.408E+00    -1.425E+00     6.196E-02    -2.016E-05    -1.040E-04    -1.177E-04
X    -2.408E+00    -1.425E+00     5.576E-01    -1.747E-05    -8.999E-05    -1.018E-04
X    -2.408E+00    -1.425E+00     1.053E+00    -1.200E-05    -6.174E-05    -6.984E-05
X    -2.408E+00    -1.425E+00     1.549E+00    -6.504E-06    -3.345E-05    -3.784E-05
X    -2.408E+00    -1.425E+00     2.045E+00    -2.644E-06    -1.359E-05    -1.538E-05
X    -2.408E+00    -1.425E+00     2.540E+00    -6.165E-07    -3.171E-06    -3.588E-06
X    -2.408E+00    -1.425E+00     3.036E+00    -1.381E-09    -7.103E-09    -8.037E-09
X    -2.408E+00    -1.425E+00     3.531E+00     0.000E+00     0.000E+00     0.000E+00
X    -2.408E+00    -1.425E+00     4.027E+00     0.000E+00     0.000E+00     0.000E+00
X    -2.408E+00    -1.425E+00     4.523E+00     0.000E+00     0.000E+00     0.000E+00
X    -2.408E+00    -9.293E-01    -4.895E+00     0.000E+00     0.000E+00     0.000E+00
X    -2.408E+00    -9.293E-01    -4.399E+00     0.000E+00     0.000E+00     0.000E+00
X    -2.408E+00    -9.293E-01    -3.903E+00     0.000E+00     0.000E+00     0.000E+00
X    -2.408E+00    -9.293E-01    -3.408E+00     0.000E+00     0.000E+00     0.000E+00
X    -2.408E+00    -9.293E-01    -2.912E+00    -2.880E-07    -1.482E-06    -1.677E-06
X    -2.408E+00    -9.293E-01    -2.416E+00    -2.001E-06    -1.030E-05    -1.166E-05
X    -2.408E+00    -9.293E-01    -1.921E+00    -6.115E-06    -3.153E-05    -3.567E-05
X    -2.408E+00    -9.293E-01    -1.425E+00    -1.343E-05    -6.934E-05    -7.845E-05
X    -2.408E+00    -9.293E-01    -9.293E-01    -2.327E-05    -1.203E-04    -1.361E-04
X    -2.408E+00    -9.293E-01    -4.337E-01    -3.220E-05    -1.665E-04    -1.883E-04
X    -2.408E+00    -9.293E-01     6.196E-02    -3.531E-05    -1.822E-04    -2.061E-04
X    -2.408E+00    -9.293E-01     5.576E-01    -3.045E-05    -1.568E-04    -1.774E-04
X    -2.408E+00    -9.293E-01     1.053E+00    -2.083E-05    -1.071E-04    -1.211E-04
X    -2.408E+00    -9.293E-01     1.549E+00    -1.134E-05    -5.825E-05    -6.590E-05
X    -2.408E+00    -9.293E-01     2.045E+00    -4.832E-06    -2.483E-05    -2.810E-05
X    -2.408E+00    -9.293E-01     2.540E+00    -1.383E-06    -7.110E-06    -8.044E-06
X    -2.408E+00    -9.293E-01     3.036E+00    -1.140E-07    -5.866E-07    -6.637E-07
X    -2.408E+00    -9.293E-01     3.531E+00     0.000E+00     0.000E+00     0.000E+00
X    -2.408E+00    -9.293E-01     4.027E+00     0.000E+00     0.000E+00     0.000E+00
X    -2.408E+00    -9.293E-01     4.523E+00     0.000E+00     0.000E+00     0.000E+00
X    -2.408E+00    -4.337E-01    -4.895E+00     0.000E+00     0.000E+00     0.000E+00
X    -2.408E+00    -4.337E-01    -4.399E+00     0.000E+00     0.000E+00     0.000E+00
X    -2.408E+00    -4.337E-01    -3.903E+00     0.000E+00     0.000E+00     0.000E+00
X    -2.408E+00    -4.337E-01    -3.408E+00    -8.931E-12    -4.593E-11    -5.197E-11
X    -2.408E+00    -4.337E-01    -2.912E+00    -5.324E-07    -2.739E-06    -3.099E-06
X    -2.408E+00    -4.337E-01    -2.416E+00    -2.916E-06    -1.502E-05    -1.700E-05
X    -2.408E+00    -4.337E-01    -1.921E+00    -8.441E-06    -4.353E-05    -4.926E-05
X    -2.408E+00    -4.337E-01    -1.425E+00    -1.846E-05    -9.534E-05    -1.079E-04
X    -2.408E+00    -4.337E-01    -9.293E-01    -3.220E-05    -1.664E-04    -1.883E-04
X    -2.408E+00    -4.337E-01    -4.337E-01    -4.507E-05    -2.328E-04    -2.634E-04
X    -2.408E+00    -4.337E-01     6.196E-02    -4.962E-05    -2.557E-04    -2.893E-04
X    -2.408E+00    -4.337E-01     5.576E-01    -4.258E-05    -2.189E-04    -2.476E-04
X    -2.408E+00    -4.337E-01     1.053E+00    -2.879E-05    -1.477E-04    -1.671E-04
X    -2.408E+00    -4.337E-01     1.549E+00    -1.561E-05    -8.014E-05    -9.066E-05
X    -2.408E+00    -4.337E-01     2.045E+00    -6.706E-06    -3.444E-05    -3.897E-05
X    -2.408E+00    -4.337E-01     2.540E+00    -2.077E-06    -1.068E-05    -1.208E-05
X    -2.408E+00    -4.337E-01     3.036E+00    -2.702E-07    -1.390E-06    -1.572E-06
X    -2.408E+00    -4.337E-01     3.531E+00     0.000E+00     0.000E+00     0.000E+00
X    -2.408E+00    -4.337E-01     4.027E+00     0.000E+00     0.000E+00     0.000E+00
X    -2.408E+00    -4.337E-01     4.523E+00     0.000E+00     0.000E+00     0.000E+00
X    -2.408E+00     6.196E-02    -4.895E+00     0.000E+00     0.000E+00     0.000E+00
X    -2.408E+00     6.196E-02    -4.399E+00     0.000E+00     0.000E+00     0.000E+00
X    -2.408E+00     6.196E-02    -3.903E+00     0.000E+00     0.000E+00     0.000E+00
X    -2.408E+00     6.196E-02    -3.408E+00    -4.549E-11    -2.339E-10    -2.647E-10
X    -2.408E+00     6.196E-02    -2.912E+00    -6.162E-07    -3.171E-06    -3.588E-06
X    -2.408E+00     6.196E-02    -2.416E+00    -3.216E-06    -1.656E-05    -1.874E-05
X    -2.408E+00     6.196E-02    -1.921E+00    -9.217E-06    -4.751E-05    -5.376E-05
X    -2.408E+00     6.196E-02    -1.425E+00    -2.015E-05    -1.040E-04    -1.177E-04
X    -2.408E+00     6.196E-02    -9.293E-01    -3.529E-05    -1.822E-04    -2.061E-04
X    -2.408E+00     6.196E-02    -4.337E-01    -4.960E-05    -2.557E-04    -2.893E-04
X    -2.408E+00     6.196E-02     6.196E-02    -5.469E-05    -2.811E-04    -3.180E-04
X    -2.408E+00     6.196E-02     5.576E-01    -4.685E-05    -2.402E-04    -2.717E-04
X    -2.408E+00     6.196E-02     1.053E+00    -3.153E-05    -1.615E-04    -1.827E-04
X    -2.408E+00     6.196E-02     1.549E+00    -1.705E-05    -8.740E-05    -9.889E-05
X    -2.408E+00     6.196E-02     2.045E+00    -7.327E-06    -3.761E-05    -4.255E-05
X    -2.408E+00     6.196E-02     2.540E+00    -2.308E-06    -1.186E-05    -1.342E-05
X    -2.408E+00     6.196E-02     3.036E+00    -3.261E-07    -1.677E-06    -1.898E-06
X    -2.408E+00     6.196E-02     3.531E+00     0.000E+00     0.000E+00     0.000E+00
X    -2.408E+00     6.196E-02     4.027E+00     0.000E+00     0.000E+00     0.000E+00
X    -2.408E+00     6.196E-02     4.523E+00     0.000E+00     0.000E+00     0.000E+00
X    -2.408E+00     5.576E-01    -4.895E+00     0.000E+00     0.000E+00     0.000E+00
X    -2.408E+00     5.576E-01    -4.399E+00     0.000E+00     0.000E+00     0.000E+00
X    -2.408E+00     5.576E-01    -3.903E+00     0.000E+00     0.000E+00     0.000E+00
X    -2.408E+00     5.576E-01    -3.408E+00    -8.329E-13    -4.283E-12    -4.846E-12
X    -2.408E+00     5.576E-01    -2.912E+00    -4.809E-07    -2.474E-06    -2.799E-06
X    -2.408E+00     5.576E-01    -2.416E+00    -2.731E-06    -1.406E-05    -1.591E-05
X    -2.408E+00     5.576E-01    -1.921E+00    -7.971E-06    -4.106E-05    -4.646E-05
X    -2.408E+00     5.576E-01    -1.425E+00    -1.746E-05    -8.997E-05    -1.018E-04
X    -2.408E+00     5.576E-01    -9.293E-01    -3.043E-05    -1.568E-04    -1.774E-04
X    -2.408E+00     5.576E-01    -4.337E-01    -4.256E-05    -2.188E-04    -2.476E-04
X    -2.408E+00     5.576E-01     6.196E-02    -4.684E-05    -2.402E-04    -2.717E-04
X    -2.408E+00     5.576E-01     5.576E-01    -4.020E-05    -2.058E-04    -2.328E-04
X    -2.408E+00     5.576E-01     1.053E+00    -2.720E-05    -1.392E-04    -1.575E-04
X    -2.408E+00     5.576E-01     1.549E+00    -1.476E-05    -7.563E-05    -8.556E-05
X    -2.408E+00     5.576E-01     2.045E+00    -6.327E-06    -3.247E-05    -3.674E-05
X    -2.408E+00     5.576E-01     2.540E+00    -1.934E-06    -9.941E-06    -1.125E-05
X    -2.408E+00     5.576E-01     3.036E+00    -2.363E-07    -1.215E-06    -1.375E-06
X    -2.408E+00     5.576E-01     3.531E+00     0.000E+00     0.000E+00     0.000E+00
X    -2.408E+00     5.576E-01     4.027E+00     0.000E+00     0.000E+00     0.000E+00
X    -2.408E+00     5.576E-01     4.523E+00     0.000E+00     0.000E+00     0.000E+00
X    -2.408E+00     1.053E+00    -4.895E+00     0.000E+00     0.000E+00     0.000E+00
X    -2.408E+00     1.053E+00    -4.399E+00     0.000E+00     0.000E+00     0.000E+00
X    -2.408E+00     1.053E+00    -3.903E+00     0.000E+00     0.000E+00     0.000E+00
X    -2.408E+00     1.053E+00    -3.408E+00     0.000E+00     0.000E+00     0.000E+00
X    -2.408E+00     1.053E+00    -2.912E+00    -2.203E-07    -1.133E-06    -1.282E-06
X    -2.408E+00     1.053E+00    -2.416E+00    -1.732E-06    -8.913E-06    -1.009E-05
X    -2.408E+00     1.053E+00    -1.921E+00    -5.439E-06    -2.800E-05    -3.168E-05
X    -2.408E+00     1.053E+00    -1.425E+00    -1.199E-05    -6.173E-05    -6.985E-05
X    -2.408E+00     1.053E+00    -9.293E-01    -2.081E-05    -1.070E-04    -1.211E-04
X    -2.408E+00     1.053E+00    -4.337E-01    -2.877E-05    -1.477E-04    -1.672E-04
X    -2.408E+00     1.053E+00     6.196E-02    -3.152E-05    -1.615E-04    -1.827E-04
X    -2.408E+00     1.053E+00     5.576E-01    -2.720E-05    -1.392E-04    -1.575E-04
X    -2.408E+00     1.053E+00     1.053E+00    -1.861E-05    -9.533E-05    -1.079E-04
X    -2.408E+00     1.053E+00     1.549E+00    -1.011E-05    -5.185E-05    -5.866E-05
X    -2.408E+00     1.053E+00     2.045E+00    -4.282E-06    -2.198E-05    -2.487E-05
X    -2.408E+00     1.053E+00     2.540E+00    -1.182E-06    -6.075E-06    -6.873E-06
X    -2.408E+00     1.053E+00     3.036E+00    -7.452E-08    -3.834E-07    -4.338E-07
X    -2.408E+00     1.053E+00     3.531E+00     0.000E+00     0.000E+00     0.000E+00
X    -2.408E+00     1.053E+00     4.027E+00     0.000E+00     0.000E+00     0.000E+00
X    -2.408E+00     1.053E+00     4.523E+00     0.000E+00     0.000E+00     0.000E+00
X    -2.408E+00     1.549E+00    -4.895E+00     0.000E+00     0.000E+00     0.000E+00
X    -2.408E+00     1.549E+00    -4.399E+00     0.000E+00     0.000E+00     0.000E+00
X    -2.408E+00     1.549E+00    -3.903E+00     0.000E+00     0.000E+00     0.000E+00
X    -2.408E+00     1.549E+00    -3.408E+00     0.000E+00     0.000E+00     0.000E+00
X    -2.408E+00     1.549E+00    -2.912E+00    -1.512E-08    -7.777E-08    -8.800E-08
X    -2.408E+00     1.549E+00    -2.416E+00    -7.414E-07    -3.814E-06    -4.315E-06
X    -2.408E+00     1.549E+00    -1.921E+00    -2.825E-06    -1.453E-05    -1.644E-05
X    -2.408E+00     1.549E+00    -1.425E+00    -6.502E-06    -3.344E-05    -3.784E-05
X    -2.408E+00     1.549E+00    -9.293E-01    -1.133E-05    -5.825E-05    -6.591E-05
X    -2.408E+00     1.549E+00    -4.337E-01    -1.561E-05    -8.013E-05    -9.067E-05
X    -2.408E+00     1.549E+00     6.196E-02    -1.704E-05    -8.740E-05    -9.889E-05
X    -2.408E+00     1.549E+00     5.576E-01    -1.475E-05    -7.563E-05    -8.557E-05
X    -2.408E+00     1.549E+00     1.053E+00    -1.011E-05    -5.185E-05    -5.866E-05
X    -2.408E+00     1.549E+00     1.549E+00    -5.455E-06    -2.800E-05    -3.168E-05
X    -2.408E+00     1.549E+00     2.045E+00    -2.153E-06    -1.106E-05    -1.251E-05
X    -2.408E+00     1.549E+00     2.540E+00    -4.566E-07    -2.348E-06    -2.657E-06
X    -2.408E+00     1.549E+00     3.036E+00    -4.546E-11    -2.340E-10    -2.647E-10
X    -2.408E+00     1.549E+00     3.531E+00     0.000E+00     0.000E+00     0.000E+00
X    -2.408E+00     1.549E+00     4.027E+00     0.000E+00     0.000E+00     0.000E+00
X    -2.408E+00     1.549E+00     4.523E+00     0.000E+00     0.000E+00     0.000E+00
X    -2.408E+00     2.045E+00    -4.895E+00     0.000E+00     0.000E+00     0.000E+00
X    -2.408E+00     2.045E+00    -4.399E+00     0.000E+00     0.000E+00     0.000E+00
X    -2.408E+00     2.045E+00    -3.903E+00     0.000E+00     0.000E+00     0.000E+00
X    -2.408E+00     2.045E+00    -3.408E+00     0.000E+00     0.000E+00     0.000E+00
X    -2.408E+00     2.045E+00    -2.912E+00     0.000E+00     0.000E+00     0.000E+00
X    -2.408E+00     2.045E+00    -2.416E+00    -1.253E-07    -6.446E-07    -7.293E-07
X    -2.408E+00     2.045E+00    -1.921E+00    -9.623E-07    -4.950E-06    -5.601E-06
X    -2.408E+00     2.045E+00    -1.425E+00    -2.643E-06    -1.359E-05    -1.538E-05
X    -2.408E+00     2.045E+00    -9.293E-01    -4.831E-06    -2.483E-05    -2.810E-05
X    -2.408E+00     2.045E+00    -4.337E-01    -6.704E-06    -3.444E-05    -3.897E-05
X    -2.408E+00     2.045E+00     6.196E-02    -7.325E-06    -3.761E-05    -4.255E-05
X    -2.408E+00     2.045E+00     5.576E-01    -6.326E-06    -3.247E-05    -3.674E-05
X    -2.408E+00     2.045E+00     1.053E+00    -4.281E-06    -2.198E-05    -2.487E-05
X    -2.408E+00     2.045E+00     1.549E+00    -2.153E-06    -1.106E-05    -1.251E-05
X    -2.408E+00     2.045E+00     2.045E+00    -6.771E-07    -3.482E-06    -3.939E-06
X    -2.408E+00     2.045E+00     2.540E+00    -3.716E-08    -1.912E-07    -2.163E-07
X    -2.408E+00     2.045E+00     3.036E+00     0.000E+00     0.000E+00     0.000E+00
X    -2.408E+00     2.045E+00     3.531E+00     0.000E+00     0.000E+00     0.000E+00
X    -2.408E+00     2.045E+00     4.027E+00     0.000E+00     0.000E+00     0.000E+00
X    -2.408E+00     2.045E+00     4.523E+00     0.000E+00     0.000E+00     0.000E+00
X    -2.408E+00     2.540E+00    -4.895E+00     0.000E+00     0.000E+00     0.000E+00
X    -2.408E+00     2.540E+00    -4.399E+00     0.000E+00     0.000E+00     0.000E+00
X    -2.408E+00     2.540E+00    -3.903E+00     0.000E+00     0.000E+00     0.000E+00
X    -2.408E+00     2.540E+00    -3.408E+00     0.000E+00     0.000E+00     0.000E+00
X    -2.408E+00     2.540E+00    -2.912E+00     0.000E+00     0.000E+00     0.000E+00
X    -2.408E+00     2.540E+00    -2.416E+00     0.000E+00     0.000E+00     0.000E+00
X    -2.408E+00     2.540E+00    -1.921E+00    -1.033E-07    -5.315E-07    -6.013E-07
X    -2.408E+00     2.540E+00    -1.425E+00    -6.165E-07    -3.171E-06    -3.587E-06
X    -2.408E+00     2.540E+00    -9.293E-01    -1.383E-06    -7.110E-06    -8.044E-06
X    -2.408E+00     2.540E+00    -4.337E-01    -2.077E-06    -1.068E-05    -1.208E-05
X    -2.408E+00     2.540E+00     6.196E-02    -2.307E-06    -1.186E-05    -1.342E-05
X    -2.408E+00     2.540E+00     5.576E-01    -1.934E-06    -9.942E-06    -1.125E-05
X    -2.408E+00     2.540E+00     1.053E+00    -1.182E-06    -6.075E-06    -6.873E-06
X    -2.408E+00     2.540E+00     1.549E+00    -4.566E-07    -2.348E-06    -2.657E-06
X    -2.408E+00     2.540E+00     2.045E+00    -3.716E-08    -1.912E-07    -2.163E-07
X    -2.408E+00     2.540E+00     2.540E+00     0.000E+00     0.000E+00     0.000E+00
X    -2.408E+00     2.540E+00     3.036E+00     0.000E+00     0.000E+00     0.000E+00
X    -2.408E+00     2.540E+00     3.531E+00     0.000E+00     0.000E+00     0.000E+00
X    -2.408E+00     2.540E+00     4.027E+00     0.000E+00     0.000E+00     0.000E+00
X    -2.408E+00     2.540E+00     4.523E+00     0.000E+00     0.000E+00     0.000E+00
X    -2.408E+00     3.036E+00    -4.895E+00     0.000E+00     0.000E+00     0.000E+00
X    -2.408E+00     3.036E+00    -4.399E+00     0.000E+00     0.000E+00     0.000E+00
X    -2.408E+00     3.036E+00    -3.903E+00     0.000E+00     0.000E+00     0.000E+00
X    -2.408E+00     3.036E+00    -3.408E+00     0.000E+00     0.000E+00     0.000E+00
X    -2.408E+00     3.036E+00    -2.912E+00     0.000E+00     0.000E+00     0.000E+00
X    -2.408E+00     3.036E+00    -2.416E+00     0.000E+00     0.000E+00     0.000E+00
X    -2.408E+00     3.036E+00    -1.921E+00     0.000E+00     0.000E+00     0.000E+00
X    -2.408E+00     3.036E+00    -1.425E+00    -1.381E-09    -7.104E-09    -8.037E-09
X    -2.408E+00     3.036E+00    -9.293E-01    -1.140E-07    -5.866E-07    -6.636E-07
X    -2.408E+00     3.036E+00    -4.337E-01    -2.702E-07    -1.390E-06    -1.572E-06
X    -2.408E+00     3.036E+00     6.196E-02    -3.261E-07    -1.677E-06    -1.897E-06
X    -2.408E+00     3.036E+00     5.576E-01    -2.363E-07    -1.216E-06    -1.375E-06
X    -2.408E+00     3.036E+00     1.053E+00    -7.452E-08    -3.834E-07    -4.337E-07
X    -2.408E+00     3.036E+00     1.549E+00    -4.546E-11    -2.340E-10    -2.647E-10
X    -2.408E+00     3.036E+00     2.045E+00     0.000E+00     0.000E+00     0.000E+00
X    -2.408E+00     3.036E+00     2.540E+00     0.000E+00     0.000E+00     0.000E+00
X    -2.408E+00     3.036E+00     3.036E+00     0.000E+00     0.000E+00     0.000E+00
X    -2.408E+00     3.036E+00     3.531E+00     0.000E+00     0.000E+00     0.000E+00
X    -2.408E+00     3.036E+00     4.027E+00     0.000E+00     0.000E+00     0.000E+00
X    -2.408E+00     3.036E+00     4.523E+00     0.000E+00     0.000E+00     0.000E+00
X    -2.408E+00     3.531E+00    -4.895E+00     0.000E+00     0.000E+00     0.000E+00
X    -2.408E+00     3.531E+00    -4.399E+00     0.000E+00     0.000E+00     0.000E+00
X    -2.408E+00     3.531E+00    -3.903E+00     0.000E+00     0.000E+00     0.000E+00
X    -2.408E+00     3.531E+00    -3.408E+00     0.000E+00     0.000E+00     0.000E+00
X    -2.408E+00     3.531E+00    -2.912E+00     0.000E+00     0.000E+00     0.000E+00
X    -2.408E+00     3.531E+00    -2.416E+00     0.000E+00     0.000E+00     0.000E+00
X    -2.408E+00     3.531E+00    -1.921E+00     0.000E+00     0.000E+00     0.000E+00
X    -2.408E+00     3.531E+00    -1.425E+00     0.000E+00     0.000E+00     0.000E+00
X    -2.408E+00     3.531E+00    -9.293E-01     0.000E+00     0.000E+00     0.000E+00
X    -2.408E+00     3.531E+00    -4.337E-01     0.000E+00     0.000E+00     0.000E+00
X    -2.408E+00     3.531E+00     6.196E-02     0.000E+00     0.000E+00     0.000E+00
X    -2.408E+00     3.531E+00     5.576E-01     0.000E+00     0.000E+00     0.000E+00
X    -2.408E+00     3.531E+00     1.053E+00     0.000E+00     0.000E+00     0.000E+00
X    -2.408E+00     3.531E+00     1.549E+00     0.000E+00     0.000E+00     0.000E+00
X    -2.408E+00     3.531E+00     2.045E+00     0.000E+00     0.000E+00     0.000E+00
X    -2.408E+00     3.531E+00     2.540E+00     0.000E+00     0.000E+00     0.000E+00
X    -2.408E+00     3.531E+00     3.036E+00     0.000E+00     0.000E+00     0.000E+00
X    -2.408E+00     3.531E+00     3.531E+00     0.000E+00     0.000E+00     0.000E+00
X    -2.408E+00     3.531E+00     4.027E+00     0.000E+00     0.000E+00     0.000E+00
X    -2.408E+00     3.531E+00     4.523E+00     0.000E+00     0.000E+00     0.000E+00
X    -2.408E+00     4.027E+00    -4.895E+00     0.000E+00     0.000E+00     0.000E+00
X    -2.408E+00     4.027E+00    -4.399E+00     0.000E+00     0.000E+00     0.000E+00
X    -2.408E+00     4.027E+00    -3.903E+00     0.000E+00     0.000E+00     0.000E+00
X    -2.408E+00     4.027E+00    -3.408E+00     0.000E+00     0.000E+00     0.000E+00
X    -2.408E+00     4.027E+00    -2.912E+00     0.000E+00     0.000E+00     0.000E+00
X    -2.408E+00     4.027E+00    -2.416E+00     0.000E+00     0.000E+00     0.000E+00
X    -2.408E+00     4.027E+00    -1.921E+00     0.000E+00     0.000E+00     0.000E+00
X    -2.408E+00     4.027E+00    -1.425E+00     0.000E+00     0.000E+00     0.000E+00
X    -2.408E+00     4.027E+00    -9.293E-01     0.000E+00     0.000E+00     0.000E+00
X    -2.408E+00     4.027E+00    -4.337E-01     0.000E+00     0.000E+00     0.000E+00
X    -2.408E+00     4.027E+00     6.196E-02     0.000E+00     0.000E+00     0.000E+00
X    -2.408E+00     4.027E+00     5.576E-01     0.000E+00     0.000E+00     0.000E+00
X    -2.408E+00     4.027E+00     1.053E+00     0.000E+00     0.000E+00     0.000E+00
X    -2.408E+00     4.027E+00     1.549E+00     0.000E+00     0.000E+00     0.000E+00
X    -2.408E+00     4.027E+00     2.045E+00     0.000E+00     0.000E+00     0.000E+00
X    -2.408E+00     4.027E+00     2.540E+00     0.000E+00     0.000E+00     0.000E+00
X    -2.408E+00     4.027E+00     3.036E+00     0.000E+00     0.000E+00     0.000E+00
X    -2.408E+00     4.027E+00     3.531E+00     0.000E+00     0.000E+00     0.000E+00
X    -2.408E+00     4.027E+00     4.027E+00     0.000E+00     0.000E+00     0.000E+00
X    -2.408E+00     4.027E+00     4.523E+00     0.000E+00     0.000E+00     0.000E+00
X    -2.408E+00     4.523E+00    -4.895E+00     0.000E+00     0.000E+00     0.000E+00
X    -2.408E+00     4.523E+00    -4.399E+00     0.000E+00     0.000E+00     0.000E+00
X    -2.408E+00     4.523E+00    -3.903E+00     0.000E+00     0.000E+00     0.000E+00
X    -2.408E+00     4.523E+00    -3.408E+00     0.000E+00     0.000E+00     0.000E+00
X    -2.408E+00     4.523E+00    -2.912E+00     0.000E+00     0.000E+00     0.000E+00
X    -2.408E+00     4.523E+00    -2.416E+00     0.000E+00     0.000E+00     0.000E+00
X    -2.408E+00     4.523E+00    -1.921E+00     0.000E+00     0.000E+00     0.000E+00
X    -2.408E+00     4.523E+00    -1.425E+00     0.000E+00     0.000E+00     0.000E+00
X    -2.408E+00     4.523E+00    -9.293E-01     0.000E+00     0.000E+00     0.000E+00
X    -2.408E+00     4.523E+00    -4.337E-01     0.000E+00     0.000E+00     0.000E+00
X    -2.408E+00     4.523E+00     6.196E-02     0.000E+00     0.000E+00     0.000E+00
X    -2.408E+00     4.523E+00     5.576E-01     0.000E+00     0.000E+00     0.000E+00
X    -2.408E+00     4.523E+00     1.053E+00     0.000E+00     0.000E+00     0.000E+00
X    -2.408E+00     4.523E+00     1.549E+00     0.000E+00     0.000E+00     0.000E+00
X    -2.408E+00     4.523E+00     2.045E+00     0.000E+00     0.000E+00     0.000E+00
X    -2.408E+00     4.523E+00     2.540E+00     0.000E+00     0.000E+00     0.000E+00
X    -2.408E+00     4.523E+00     3.036E+00     0.000E+00     0.000E+00     0.000E+00
X    -2.408E+00     4.523E+00     3.531E+00     0.000E+00     0.000E+00     0.000E+00
X    -2.408E+00     4.523E+00     4.027E+00     0.000E+00     0.000E+00     0.000E+00
X    -2.408E+00     4.523E+00     4.523E+00     0.000E+00     0.000E+00     0.000E+00
X    -1.912E+00    -4.895E+00    -4.895E+00     0.000E+00     0.000E+00     0.000E+00
X    -1.912E+00    -4.895E+00    -4.399E+00     0.000E+00     0.000E+00     0.000E+00
X    -1.912E+00    -4.895E+00    -3.903E+00     0.000E+00     0.000E+00     0.000E+00
X    -1.912E+00    -4.895E+00    -3.408E+00     0.000E+00     0.000E+00     0.000E+00
X    -1.912E+00    -4.895E+00    -2.912E+00     0.000E+00     0.000E+00     0.000E+00
X    -1.912E+00    -4.895E+00    -2.416E+00     0.000E+00     0.000E+00     0.000E+00
X    -1.912E+00    -4.895E+00    -1.921E+00     0.000E+00     0.000E+00     0.000E+00
X    -1.912E+00    -4.895E+00    -1.425E+00     0.000E+00     0.000E+00     0.000E+00
X    -1.912E+00    -4.895E+00    -9.293E-01     0.000E+00     0.000E+00     0.000E+00
X    -1.912E+00    -4.895E+00    -4.337E-01     0.000E+00     0.000E+00     0.000E+00
X    -1.912E+00    -4.895E+00     6.196E-02     0.000E+00     0.000E+00     0.000E+00
X    -1.912E+00    -4.895E+00     5.576E-01     0.000E+00     0.000E+00     0.000E+00
X    -1.912E+00    -4.895E+00     1.053E+00     0.000E+00     0.000E+00     0.000E+00
X    -1.912E+00    -4.895E+00     1.549E+00     0.000E+00     0.000E+00     0.000E+00
X    -1.912E+00    -4.895E+00     2.045E+00     0.000E+00     0.000E+00     0.000E+00
X    -1.912E+00    -4.895E+00     2.540E+00     0.000E+00     0.000E+00     0.000E+00
X    -1.912E+00    -4.895E+00     3.036E+00     0.000E+00     0.000E+00     0.000E+00
X    -1.912E+00    -4.895E+00     3.531E+00     0.000E+00     0.000E+00     0.000E+00
X    -1.912E+00    -4.895E+00     4.027E+00     0.000E+00     0.000E+00     0.000E+00
X    -1.912E+00    -4.895E+00     4.523E+00     0.000E+00     0.000E+00     0.000E+00
X    -1.912E+00    -4.399E+00    -4.895E+00     0.000E+00     0.000E+00     0.000E+00
X    -1.912E+00    -4.399E+00    -4.399E+00     0.000E+00     0.000E+00     0.000E+00
X    -1.912E+00    -4.399E+00    -3.903E+00     0.000E+00     0.000E+00     0.000E+00
X    -1.912E+00    -4.399E+00    -3.408E+00     0.000E+00     0.000E+00     0.000E+00
X    -1.912E+00    -4.399E+00    -2.912E+00     0.000E+00     0.000E+00     0.000E+00
X    -1.912E+00    -4.399E+00    -2.416E+00     0.000E+00     0.000E+00     0.000E+00
X    -1.912E+00    -4.399E+00    -1.921E+00     0.000E+00     0.000E+00     0.000E+00
X    -1.912E+00    -4.399E+00    -1.425E+00     0.000E+00     0.000E+00     0.000E+00
X    -1.912E+00    -4.399E+00    -9.293E-01     0.000E+00     0.000E+00     0.000E+00
X    -1.912E+00    -4.399E+00    -4.337E-01     0.000E+00     0.000E+00     0.000E+00
X    -1.912E+00    -4.399E+00     6.196E-02     0.000E+00     0.000E+00     0.000E+00
X    -1.912E+00    -4.399E+00     5.576E-01     0.000E+00     0.000E+00     0.000E+00
X    -1.912E+00    -4.399E+00     1.053E+00     0.000E+00     0.000E+00     0.000E+00
X    -1.912E+00    -4.399E+00     1.549E+00     0.000E+00     0.000E+00     0.000E+00
X    -1.912E+00    -4.399E+00     2.045E+00     0.000E+00     0.000E+00     0.000E+00
X    -1.912E+00    -4.399E+00     2.540E+00     0.000E+00     0.000E+00     0.000E+00
X    -1.912E+00    -4.399E+00     3.036E+00     0.000E+00     0.000E+00     0.000E+00
X    -1.912E+00    -4.399E+00     3.531E+00     0.000E+00     0.000E+00     0.000E+00
X    -1.912E+00    -4.399E+00     4.027E+00     0.000E+00     0.000E+00     0.000E+00
X    -1.912E+00    -4.399E+00     4.523E+00     0.000E+00     0.000E+00     0.000E+00
X    -1.912E+00    -3.903E+00    -4.895E+00     0.000E+00     0.000E+00     0.000E+00
X    -1.912E+00    -3.903E+00    -4.399E+00     0.000E+00     0.000E+00     0.000E+00
X    -1.912E+00    -3.903E+00    -3.903E+00     0.000E+00     0.000E+00     0.000E+00
X    -1.912E+00    -3.903E+00    -3.408E+00     0.000E+00     0.000E+00     0.000E+00
X    -1.912E+00    -3.903E+00    -2.912E+00     0.000E+00     0.000E+00     0.000E+00
X    -1.912E+00    -3.903E+00    -2.416E+00     0.000E+00     0.000E+00     0.000E+00
X    -1.912E+00    -3.903E+00    -1.921E+00     0.000E+00     0.000E+00     0.000E+00
X    -1.912E+00    -3.903E+00    -1.425E+00     0.000E+00     0.000E+00     0.000E+00
X    -1.912E+00    -3.903E+00    -9.293E-01     0.000E+00     0.000E+00     0.000E+00
X    -1.912E+00    -3.903E+00    -4.337E-01     0.000E+00     0.000E+00     0.000E+00
X    -1.912E+00    -3.903E+00     6.196E-02     0.000E+00     0.000E+00     0.000E+00
X    -1.912E+00    -3.903E+00     5.576E-01     0.000E+00     0.000E+00     0.000E+00
X    -1.912E+00    -3.903E+00     1.053E+00     0.000E+00     0.000E+00     0.000E+00
X    -1.912E+00    -3.903E+00     1.549E+00     0.000E+00     0.000E+00     0.000E+00
X    -1.912E+00    -3.903E+00     2.045E+00     0.000E+00     0.000E+00     0.000E+00
X    -1.912E+00    -3.903E+00     2.540E+00     0.000E+00     0.000E+00     0.000E+00
X    -1.912E+00    -3.903E+00     3.036E+00     0.000E+00     0.000E+00     0.000E+00
X    -1.912E+00    -3.903E+00     3.531E+00     0.000E+00     0.000E+00     0.000E+00
X    -1.912E+00    -3.903E+00     4.027E+00     0.000E+00     0.000E+00     0.000E+00
X    -1.912E+00    -3.903E+00     4.523E+00     0.000E+00     0.000E+00     0.000E+00
X    -1.912E+00    -3.408E+00    -4.895E+00     0.000E+00     0.000E+00     0.000E+00
X    -1.912E+00    -3.408E+00    -4.399E+00     0.000E+00     0.000E+00     0.000E+00
X    -1.912E+00    -3.408E+00    -3.903E+00     0.000E+00     0.000E+00     0.000E+00
X    -1.912E+00    -3.408E+00    -3.408E+00     0.000E+00     0.000E+00     0.000E+00
X    -1.912E+00    -3.408E+00    -2.912E+00     0.000E+00     0.000E+00     0.000E+00
X    -1.912E+00    -3.408E+00    -2.416E+00     0.000E+00     0.000E+00     0.000E+00
X    -1.912E+00    -3.408E+00    -1.921E+00     0.000E+00     0.000E+00     0.000E+00
X    -1.912E+00    -3.408E+00    -1.425E+00    -1.385E-10    -7.116E-10    -8.050E-10
X    -1.912E+00    -3.408E+00    -9.293E-01    -7.580E-08    -3.895E-07    -4.407E-07
X    -1.912E+00    -3.408E+00    -4.337E-01    -2.101E-07    -1.080E-06    -1.222E-06
X    -1.912E+00    -3.408E+00     6.196E-02    -2.595E-07    -1.334E-06    -1.509E-06
X    -1.912E+00    -3.408E+00     5.576E-01    -1.803E-07    -9.268E-07    -1.048E-06
X    -1.912E+00    -3.408E+00     1.053E+00    -4.422E-08    -2.274E-07    -2.572E-07
X    -1.912E+00    -3.408E+00     1.549E+00    -3.719E-12    -1.912E-11    -2.163E-11
X    -1.912E+00    -3.408E+00     2.045E+00     0.000E+00     0.000E+00     0.000E+00
X    -1.912E+00    -3.408E+00     2.540E+00     0.000E+00     0.000E+00     0.000E+00
X    -1.912E+00    -3.408E+00     3.036E+00     0.000E+00     0.000E+00     0.000E+00
X    -1.912E+00    -3.408E+00     3.531E+00     0.000E+00     0.000E+00     0.000E+00
X    -1.912E+00    -3.408E+00     4.027E+00     0.000E+00     0.000E+00     0.000E+00
X    -1.912E+00    -3.408E+00     4.523E+00     0.000E+00     0.000E+00     0.000E+00
X    -1.912E+00    -2.912E+00    -4.895E+00     0.000E+00     0.000E+00     0.000E+00
X    -1.912E+00    -2.912E+00    -4.399E+00     0.000E+00     0.000E+00     0.000E+00
X    -1.912E+00    -2.912E+00    -3.903E+00     0.000E+00     0.000E+00     0.000E+00
X    -1.912E+00    -2.912E+00    -3.408E+00     0.000E+00     0.000E+00     0.000E+00
X    -1.912E+00    -2.912E+00    -2.912E+00     0.000E+00     0.000E+00     0.000E+00
X    -1.912E+00    -2.912E+00    -2.416E+00     0.000E+00     0.000E+00     0.000E+00
X    -1.912E+00    -2.912E+00    -1.921E+00    -1.280E-07    -6.577E-07    -7.441E-07
X    -1.912E+00    -2.912E+00    -1.425E+00    -6.987E-07    -3.591E-06    -4.062E-06
X    -1.912E+00    -2.912E+00    -9.293E-01    -1.547E-06    -7.949E-06    -8.993E-06
X    -1.912E+00    -2.912E+00    -4.337E-01    -2.313E-06    -1.189E-05    -1.345E-05
X    -1.912E+00    -2.912E+00     6.196E-02    -2.567E-06    -1.320E-05    -1.493E-05
X    -1.912E+00    -2.912E+00     5.576E-01    -2.155E-06    -1.108E-05    -1.254E-05
X    -1.912E+00    -2.912E+00     1.053E+00    -1.323E-06    -6.805E-06    -7.699E-06
X    -1.912E+00    -2.912E+00     1.549E+00    -5.214E-07    -2.681E-06    -3.034E-06
X    -1.912E+00    -2.912E+00     2.045E+00    -5.127E-08    -2.637E-07    -2.983E-07
X    -1.912E+00    -2.912E+00     2.540E+00     0.000E+00     0.000E+00     0.000E+00
X    -1.912E+00    -2.912E+00     3.036E+00     0.000E+00     0.000E+00     0.000E+00
X    -1.912E+00    -2.912E+00     3.531E+00     0.000E+00     0.000E+00     0.000E+00
X    -1.912E+00    -2.912E+00     4.027E+00     0.000E+00     0.000E+00     0.000E+00
X    -1.912E+00    -2.912E+00     4.523E+00     0.000E+00     0.000E+00     0.000E+00
X    -1.912E+00    -2.416E+00    -4.895E+00     0.000E+00     0.000E+00     0.000E+00
X    -1.912E+00    -2.416E+00    -4.399E+00     0.000E+00     0.000E+00     0.000E+00
X    -1.912E+00    -2.416E+00    -3.903E+00     0.000E+00     0.000E+00     0.000E+00
X    -1.912E+00    -2.416E+00    -3.408E+00     0.000E+00     0.000E+00     0.000E+00
X    -1.912E+00    -2.416E+00    -2.912E+00     0.000E+00     0.000E+00     0.000E+00
X    -1.912E+00    -2.416E+00    -2.416E+00    -2.425E-07    -1.246E-06    -1.409E-06
X    -1.912E+00    -2.416E+00    -1.921E+00    -1.377E-06    -7.078E-06    -8.008E-06
X    -1.912E+00    -2.416E+00    -1.425E+00    -3.578E-06    -1.840E-05    -2.081E-05
X    -1.912E+00    -2.416E+00    -9.293E-01    -6.421E-06    -3.302E-05    -3.736E-05
X    -1.912E+00    -2.416E+00    -4.337E-01    -8.894E-06    -4.575E-05    -5.175E-05
X    -1.912E+00    -2.416E+00     6.196E-02    -9.717E-06    -4.998E-05    -5.655E-05
X    -1.912E+00    -2.416E+00     5.576E-01    -8.384E-06    -4.313E-05    -4.879E-05
X    -1.912E+00    -2.416E+00     1.053E+00    -5.695E-06    -2.929E-05    -3.313E-05
X    -1.912E+00    -2.416E+00     1.549E+00    -2.939E-06    -1.511E-05    -1.710E-05
X    -1.912E+00    -2.416E+00     2.045E+00    -9.942E-07    -5.114E-06    -5.786E-06
X    -1.912E+00    -2.416E+00     2.540E+00    -1.053E-07    -5.415E-07    -6.127E-07
X    -1.912E+00    -2.416E+00     3.036E+00     0.000E+00     0.000E+00     0.000E+00
X    -1.912E+00    -2.416E+00     3.531E+00     0.000E+00     0.000E+00     0.000E+00
X    -1.912E+00    -2.416E+00     4.027E+00     0.000E+00     0.000E+00     0.000E+00
X    -1.912E+00    -2.416E+00     4.523E+00     0.000E+00     0.000E+00     0.000E+00
X    -1.912E+00    -1.921E+00    -4.895E+00     0.000E+00     0.000E+00     0.000E+00
X    -1.912E+00    -1.921E+00    -4.399E+00     0.000E+00     0.000E+00     0.000E+00
X    -1.912E+00    -1.921E+00    -3.903E+00     0.000E+00     0.000E+00     0.000E+00
X    -1.912E+00    -1.921E+00    -3.408E+00     0.000E+00     0.000E+00     0.000E+00
X    -1.912E+00    -1.921E+00    -2.912E+00    -1.280E-07    -6.577E-07    -7.441E-07
X    -1.912E+00    -1.921E+00    -2.416E+00    -1.377E-06    -7.078E-06    -8.008E-06
X    -1.912E+00    -1.921E+00    -1.921E+00    -4.602E-06    -2.366E-05    -2.677E-05
X    -1.912E+00    -1.921E+00    -1.425E+00    -1.030E-05    -5.302E-05    -5.998E-05
X    -1.912E+00    -1.921E+00    -9.293E-01    -1.801E-05    -9.271E-05    -1.049E-04
X    -1.912E+00    -1.921E+00    -4.337E-01    -2.490E-05    -1.282E-04    -1.451E-04
X    -1.912E+00    -1.921E+00     6.196E-02    -2.723E-05    -1.402E-04    -1.586E-04
X    -1.912E+00    -1.921E+00     5.576E-01    -2.348E-05    -1.209E-04    -1.367E-04
X    -1.912E+00    -1.921E+00     1.053E+00    -1.602E-05    -8.243E-05    -9.325E-05
X    -1.912E+00    -1.921E+00     1.549E+00    -8.635E-06    -4.442E-05    -5.025E-05
X    -1.912E+00    -1.921E+00     2.045E+00    -3.576E-06    -1.840E-05    -2.082E-05
X    -1.912E+00    -1.921E+00     2.540E+00    -9.127E-07    -4.696E-06    -5.313E-06
X    -1.912E+00    -1.921E+00     3.036E+00    -2.501E-08    -1.287E-07    -1.456E-07
X    -1.912E+00    -1.921E+00     3.531E+00     0.000E+00     0.000E+00     0.000E+00
X    -1.912E+00    -1.921E+00     4.027E+00     0.000E+00     0.000E+00     0.000E+00
X    -1.912E+00    -1.921E+00     4.523E+00     0.000E+00     0.000E+00     0.000E+00
X    -1.912E+00    -1.425E+00    -4.895E+00     0.000E+00     0.000E+00     0.000E+00
X    -1.912E+00    -1.425E+00    -4.399E+00     0.000E+00     0.000E+00     0.000E+00
X    -1.912E+00    -1.425E+00    -3.903E+00     0.000E+00     0.000E+00     0.000E+00
X    -1.912E+00    -1.425E+00    -3.408E+00    -1.385E-10    -7.115E-10    -8.051E-10
X    -1.912E+00    -1.425E+00    -2.912E+00    -6.987E-07    -3.590E-06    -4.062E-06
X    -1.912E+00    -1.425E+00    -2.416E+00    -3.579E-06    -1.840E-05    -2.081E-05
X    -1.912E+00    -1.425E+00    -1.921E+00    -1.030E-05    -5.301E-05    -5.998E-05
X    -1.912E+00    -1.425E+00    -1.425E+00    -2.278E-05    -1.173E-04    -1.327E-04
X    -1.912E+00    -1.425E+00    -9.293E-01    -4.038E-05    -2.082E-04    -2.356E-04
X    -1.912E+00    -1.425E+00    -4.337E-01    -5.718E-05    -2.950E-04    -3.337E-04
X    -1.912E+00    -1.425E+00     6.196E-02    -6.306E-05    -3.251E-04    -3.678E-04
X    -1.912E+00    -1.425E+00     5.576E-01    -5.371E-05    -2.766E-04    -3.129E-04
X    -1.912E+00    -1.425E+00     1.053E+00    -3.577E-05    -1.840E-04    -2.082E-04
X    -1.912E+00    -1.425E+00     1.549E+00    -1.911E-05    -9.832E-05    -1.112E-04
X    -1.912E+00    -1.425E+00     2.045E+00    -8.139E-06    -4.187E-05    -4.737E-05
X    -1.912E+00    -1.425E+00     2.540E+00    -2.565E-06    -1.320E-05    -1.493E-05
X    -1.912E+00    -1.425E+00     3.036E+00    -3.766E-07    -1.938E-06    -2.193E-06
X    -1.912E+00    -1.425E+00     3.531E+00     0.000E+00     0.000E+00     0.000E+00
X    -1.912E+00    -1.425E+00     4.027E+00     0.000E+00     0.000E+00     0.000E+00
X    -1.912E+00    -1.425E+00     4.523E+00     0.000E+00     0.000E+00     0.000E+00
X    -1.912E+00    -9.293E-01    -4.895E+00     0.000E+00     0.000E+00     0.000E+00
X    -1.912E+00    -9.293E-01    -4.399E+00     0.000E+00     0.000E+00     0.000E+00
X    -1.912E+00    -9.293E-01    -3.903E+00     0.000E+00     0.000E+00     0.000E+00
X    -1.912E+00    -9.293E-01    -3.408E+00    -7.581E-08    -3.895E-07    -4.407E-07
X    -1.912E+00    -9.293E-01    -2.912E+00    -1.547E-06    -7.949E-06    -8.994E-06
X    -1.912E+00    -9.293E-01    -2.416E+00    -6.421E-06    -3.302E-05    -3.736E-05
X    -1.912E+00    -9.293E-01    -1.921E+00    -1.801E-05    -9.270E-05    -1.049E-04
X    -1.912E+00    -9.293E-01    -1.425E+00    -4.038E-05    -2.082E-04    -2.356E-04
X    -1.912E+00    -9.293E-01    -9.293E-01    -7.419E-05    -3.832E-04    -4.335E-04
X    -1.912E+00    -9.293E-01    -4.337E-01    -1.077E-04    -5.565E-04    -6.296E-04
X    -1.912E+00    -9.293E-01     6.196E-02    -1.198E-04    -6.183E-04    -6.994E-04
X    -1.912E+00    -9.293E-01     5.576E-01    -1.009E-04    -5.193E-04    -5.874E-04
X    -1.912E+00    -9.293E-01     1.053E+00    -6.533E-05    -3.359E-04    -3.800E-04
X    -1.912E+00    -9.293E-01     1.549E+00    -3.368E-05    -1.731E-04    -1.959E-04
X    -1.912E+00    -9.293E-01     2.045E+00    -1.425E-05    -7.328E-05    -8.292E-05
X    -1.912E+00    -9.293E-01     2.540E+00    -4.743E-06    -2.440E-05    -2.761E-05
X    -1.912E+00    -9.293E-01     3.036E+00    -9.523E-07    -4.901E-06    -5.546E-06
X    -1.912E+00    -9.293E-01     3.531E+00    -2.193E-09    -1.129E-08    -1.278E-08
X    -1.912E+00    -9.293E-01     4.027E+00     0.000E+00     0.000E+00     0.000E+00
X    -1.912E+00    -9.293E-01     4.523E+00     0.000E+00     0.000E+00     0.000E+00
X    -1.912E+00    -4.337E-01    -4.895E+00     0.000E+00     0.000E+00     0.000E+00
X    -1.912E+00    -4.337E-01    -4.399E+00     0.000E+00     0.000E+00     0.000E+00
X    -1.912E+00    -4.337E-01    -3.903E+00     0.000E+00     0.000E+00     0.000E+00
X    -1.912E+00    -4.337E-01    -3.408E+00    -2.101E-07    -1.080E-06    -1.222E-06
X    -1.912E+00    -4.337E-01    -2.912E+00    -2.313E-06    -1.189E-05    -1.346E-05
X    -1.912E+00    -4.337E-01    -2.416E+00    -8.894E-06    -4.574E-05    -5.176E-05
X    -1.912E+00    -4.337E-01    -1.921E+00    -2.490E-05    -1.282E-04    -1.451E-04
X    -1.912E+00    -4.337E-01    -1.425E+00    -5.717E-05    -2.949E-04    -3.337E-04
X    -1.912E+00    -4.337E-01    -9.293E-01    -1.076E-04    -5.565E-04    -6.296E-04
X    -1.912E+00    -4.337E-01    -4.337E-01    -1.598E-04    -8.266E-04    -9.352E-04
X    -1.912E+00    -4.337E-01     6.196E-02    -1.795E-04    -9.255E-04    -1.047E-03
X    -1.912E+00    -4.337E-01     5.576E-01    -1.494E-04    -7.676E-04    -8.683E-04
X    -1.912E+00    -4.337E-01     1.053E+00    -9.446E-05    -4.848E-04    -5.485E-04
X    -1.912E+00    -4.337E-01     1.549E+00    -4.741E-05    -2.435E-04    -2.755E-04
X    -1.912E+00    -4.337E-01     2.045E+00    -1.969E-05    -1.012E-04    -1.146E-04
X    -1.912E+00    -4.337E-01     2.540E+00    -6.612E-06    -3.402E-05    -3.849E-05
X    -1.912E+00    -4.337E-01     3.036E+00    -1.486E-06    -7.649E-06    -8.656E-06
X    -1.912E+00    -4.337E-01     3.531E+00    -5.120E-08    -2.636E-07    -2.983E-07
X    -1.912E+00    -4.337E-01     4.027E+00     0.000E+00     0.000E+00     0.000E+00
X    -1.912E+00    -4.337E-01     4.523E+00     0.000E+00     0.000E+00     0.000E+00
X    -1.912E+00     6.196E-02    -4.895E+00     0.000E+00     0.000E+00     0.000E+00
X    -1.912E+00     6.196E-02    -4.399E+00     0.000E+00     0.000E+00     0.000E+00
X    -1.912E+00     6.196E-02    -3.903E+00     0.000E+00     0.000E+00     0.000E+00
X    -1.912E+00     6.196E-02    -3.408E+00    -2.596E-07    -1.334E-06    -1.509E-06
X    -1.912E+00     6.196E-02    -2.912E+00    -2.567E-06    -1.320E-05    -1.493E-05
X    -1.912E+00     6.196E-02    -2.416E+00    -9.716E-06    -4.998E-05    -5.655E-05
X    -1.912E+00     6.196E-02    -1.921E+00    -2.723E-05    -1.402E-04    -1.586E-04
X    -1.912E+00     6.196E-02    -1.425E+00    -6.304E-05    -3.251E-04    -3.678E-04
X    -1.912E+00     6.196E-02    -9.293E-01    -1.197E-04    -6.182E-04    -6.996E-04
X    -1.912E+00     6.196E-02    -4.337E-01    -1.794E-04    -9.254E-04    -1.047E-03
X    -1.912E+00     6.196E-02     6.196E-02    -2.022E-04    -1.039E-03    -1.175E-03
X    -1.912E+00     6.196E-02     5.576E-01    -1.675E-04    -8.580E-04    -9.707E-04
X    -1.912E+00     6.196E-02     1.053E+00    -1.049E-04    -5.375E-04    -6.080E-04
X    -1.912E+00     6.196E-02     1.549E+00    -5.219E-05    -2.678E-04    -3.030E-04
X    -1.912E+00     6.196E-02     2.045E+00    -2.152E-05    -1.106E-04    -1.251E-04
X    -1.912E+00     6.196E-02     2.540E+00    -7.228E-06    -3.719E-05    -4.208E-05
X    -1.912E+00     6.196E-02     3.036E+00    -1.666E-06    -8.575E-06    -9.703E-06
X    -1.912E+00     6.196E-02     3.531E+00    -7.564E-08    -3.895E-07    -4.407E-07
X    -1.912E+00     6.196E-02     4.027E+00     0.000E+00     0.000E+00     0.000E+00
X    -1.912E+00     6.196E-02     4.523E+00     0.000E+00     0.000E+00     0.000E+00
X    -1.912E+00     5.576E-01    -4.895E+00     0.000E+00     0.000E+00     0.000E+00
X    -1.912E+00     5.576E-01    -4.399E+00     0.000E+00     0.000E+00     0.000E+00
X    -1.912E+00     5.576E-01    -3.903E+00     0.000E+00     0.000E+00     0.000E+00
X    -1.912E+00     5.576E-01    -3.408E+00    -1.803E-07    -9.266E-07    -1.049E-06
X    -1.912E+00     5.576E-01    -2.912E+00    -2.155E-06    -1.108E-05    -1.254E-05
X    -1.912E+00     5.576E-01    -2.416E+00    -8.384E-06    -4.312E-05    -4.879E-05
X    -1.912E+00     5.576E-01    -1.921E+00    -2.348E-05    -1.208E-04    -1.367E-04
X    -1.912E+00     5.576E-01    -1.425E+00    -5.369E-05    -2.765E-04    -3.129E-04
X    -1.912E+00     5.576E-01    -9.293E-01    -1.008E-04    -5.192E-04    -5.875E-04
X    -1.912E+00     5.576E-01    -4.337E-01    -1.493E-04    -7.675E-04    -8.685E-04
X    -1.912E+00     5.576E-01     6.196E-02    -1.675E-04    -8.579E-04    -9.707E-04
X    -1.912E+00     5.576E-01     5.576E-01    -1.395E-04    -7.134E-04    -8.072E-04
X    -1.912E+00     5.576E-01     1.053E+00    -8.845E-05    -4.530E-04    -5.125E-04
X    -1.912E+00     5.576E-01     1.549E+00    -4.455E-05    -2.286E-04    -2.587E-04
X    -1.912E+00     5.576E-01     2.045E+00    -1.857E-05    -9.546E-05    -1.080E-04
X    -1.912E+00     5.576E-01     2.540E+00    -6.227E-06    -3.205E-05    -3.626E-05
X    -1.912E+00     5.576E-01     3.036E+00    -1.375E-06    -7.078E-06    -8.009E-06
X    -1.912E+00     5.576E-01     3.531E+00    -3.739E-08    -1.926E-07    -2.179E-07
X    -1.912E+00     5.576E-01     4.027E+00     0.000E+00     0.000E+00     0.000E+00
X    -1.912E+00     5.576E-01     4.523E+00     0.000E+00     0.000E+00     0.000E+00
X    -1.912E+00     1.053E+00    -4.895E+00     0.000E+00     0.000E+00     0.000E+00
X    -1.912E+00     1.053E+00    -4.399E+00     0.000E+00     0.000E+00     0.000E+00
X    -1.912E+00     1.053E+00    -3.903E+00     0.000E+00     0.000E+00     0.000E+00
X    -1.912E+00     1.053E+00    -3.408E+00    -4.423E-08    -2.273E-07    -2.572E-07
X    -1.912E+00     1.053E+00    -2.912E+00    -1.324E-06    -6.804E-06    -7.699E-06
X    -1.912E+00     1.053E+00    -2.416E+00    -5.695E-06    -2.929E-05    -3.314E-05
X    -1.912E+00     1.053E+00    -1.921E+00    -1.602E-05    -8.242E-05    -9.326E-05
X    -1.912E+00     1.053E+00    -1.425E+00    -3.576E-05    -1.840E-04    -2.082E-04
X    -1.912E+00     1.053E+00    -9.293E-01    -6.530E-05    -3.358E-04    -3.800E-04
X    -1.912E+00     1.053E+00    -4.337E-01    -9.440E-05    -4.848E-04    -5.486E-04
X    -1.912E+00     1.053E+00     6.196E-02    -1.049E-04    -5.374E-04    -6.081E-04
X    -1.912E+00     1.053E+00     5.576E-01    -8.844E-05    -4.530E-04    -5.125E-04
X    -1.912E+00     1.053E+00     1.053E+00    -5.752E-05    -2.949E-04    -3.337E-04
X    -1.912E+00     1.053E+00     1.549E+00    -2.986E-05    -1.534E-04    -1.735E-04
X    -1.912E+00     1.053E+00     2.045E+00    -1.267E-05    -6.515E-05    -7.371E-05
X    -1.912E+00     1.053E+00     2.540E+00    -4.188E-06    -2.156E-05    -2.439E-05
X    -1.912E+00     1.053E+00     3.036E+00    -7.991E-07    -4.115E-06    -4.657E-06
X    -1.912E+00     1.053E+00     3.531E+00    -2.495E-10    -1.285E-09    -1.454E-09
X    -1.912E+00     1.053E+00     4.027E+00     0.000E+00     0.000E+00     0.000E+00
X    -1.912E+00     1.053E+00     4.523E+00     0.000E+00     0.000E+00     0.000E+00
X    -1.912E+00     1.549E+00    -4.895E+00     0.000E+00     0.000E+00     0.000E+00
X    -1.912E+00     1.549E+00    -4.399E+00     0.000E+00     0.000E+00     0.000E+00
X    -1.912E+00     1.549E+00    -3.903E+00     0.000E+00     0.000E+00     0.000E+00
X    -1.912E+00     1.549E+00    -3.408E+00    -3.719E-12    -1.912E-11    -2.163E-11
X    -1.912E+00     1.549E+00    -2.912E+00    -5.215E-07    -2.681E-06    -3.034E-06
X    -1.912E+00     1.549E+00    -2.416E+00    -2.939E-06    -1.511E-05    -1.710E-05
X    -1.912E+00     1.549E+00    -1.921E+00    -8.635E-06    -4.441E-05    -5.025E-05
X    -1.912E+00     1.549E+00    -1.425E+00    -1.911E-05    -9.831E-05    -1.112E-04
X    -1.912E+00     1.549E+00    -9.293E-01    -3.367E-05    -1.731E-04    -1.959E-04
X    -1.912E+00     1.549E+00    -4.337E-01    -4.739E-05    -2.435E-04    -2.755E-04
X    -1.912E+00     1.549E+00     6.196E-02    -5.218E-05    -2.679E-04    -3.030E-04
X    -1.912E+00     1.549E+00     5.576E-01    -4.454E-05    -2.286E-04    -2.587E-04
X    -1.912E+00     1.549E+00     1.053E+00    -2.986E-05    -1.534E-04    -1.735E-04
X    -1.912E+00     1.549E+00     1.549E+00    -1.603E-05    -8.242E-05    -9.325E-05
X    -1.912E+00     1.549E+00     2.045E+00    -6.810E-06    -3.505E-05    -3.965E-05
X    -1.912E+00     1.549E+00     2.540E+00    -2.076E-06    -1.069E-05    -1.210E-05
X    -1.912E+00     1.549E+00     3.036E+00    -2.589E-07    -1.334E-06    -1.509E-06
X    -1.912E+00     1.549E+00     3.531E+00     0.000E+00     0.000E+00     0.000E+00
X    -1.912E+00     1.549E+00     4.027E+00     0.000E+00     0.000E+00     0.000E+00
X    -1.912E+00     1.549E+00     4.523E+00     0.000E+00     0.000E+00     0.000E+00
X    -1.912E+00     2.045E+00    -4.895E+00     0.000E+00     0.000E+00     0.000E+00
X    -1.912E+00     2.045E+00    -4.399E+00     0.000E+00     0.000E+00     0.000E+00
X    -1.912E+00     2.045E+00    -3.903E+00     0.000E+00     0.000E+00     0.000E+00
X    -1.912E+00     2.045E+00    -3.408E+00     0.000E+00     0.000E+00     0.000E+00
X    -1.912E+00     2.045E+00    -2.912E+00    -5.127E-08    -2.637E-07    -2.983E-07
X    -1.912E+00     2.045E+00    -2.416E+00    -9.944E-07    -5.114E-06    -5.786E-06
X    -1.912E+00     2.045E+00    -1.921E+00    -3.577E-06    -1.840E-05    -2.082E-05
X    -1.912E+00     2.045E+00    -1.425E+00    -8.139E-06    -4.187E-05    -4.737E-05
X    -1.912E+00     2.045E+00    -9.293E-01    -1.425E-05    -7.329E-05    -8.291E-05
X    -1.912E+00     2.045E+00    -4.337E-01    -1.969E-05    -1.013E-04    -1.145E-04
X    -1.912E+00     2.045E+00     6.196E-02    -2.151E-05    -1.106E-04    -1.251E-04
X    -1.912E+00     2.045E+00     5.576E-01    -1.857E-05    -9.547E-05    -1.080E-04
X    -1.912E+00     2.045E+00     1.053E+00    -1.267E-05    -6.515E-05    -7.371E-05
X    -1.912E+00     2.045E+00     1.549E+00    -6.810E-06    -3.505E-05    -3.965E-05
X    -1.912E+00     2.045E+00     2.045E+00    -2.744E-06    -1.413E-05    -1.599E-05
X    -1.912E+00     2.045E+00     2.540E+00    -6.344E-07    -3.268E-06    -3.698E-06
X    -1.912E+00     2.045E+00     3.036E+00    -1.322E-09    -6.813E-09    -7.708E-09
X    -1.912E+00     2.045E+00     3.531E+00     0.000E+00     0.000E+00     0.000E+00
X    -1.912E+00     2.045E+00     4.027E+00     0.000E+00     0.000E+00     0.000E+00
X    -1.912E+00     2.045E+00     4.523E+00     0.000E+00     0.000E+00     0.000E+00
X    -1.912E+00     2.540E+00    -4.895E+00     0.000E+00     0.000E+00     0.000E+00
X    -1.912E+00     2.540E+00    -4.399E+00     0.000E+00     0.000E+00     0.000E+00
X    -1.912E+00     2.540E+00    -3.903E+00     0.000E+00     0.000E+00     0.000E+00
X    -1.912E+00     2.540E+00    -3.408E+00     0.000E+00     0.000E+00     0.000E+00
X    -1.912E+00     2.540E+00    -2.912E+00     0.000E+00     0.000E+00     0.000E+00
X    -1.912E+00     2.540E+00    -2.416E+00    -1.053E-07    -5.415E-07    -6.127E-07
X    -1.912E+00     2.540E+00    -1.921E+00    -9.128E-07    -4.696E-06    -5.313E-06
X    -1.912E+00     2.540E+00    -1.425E+00    -2.565E-06    -1.320E-05    -1.493E-05
X    -1.912E+00     2.540E+00    -9.293E-01    -4.743E-06    -2.441E-05    -2.761E-05
X    -1.912E+00     2.540E+00    -4.337E-01    -6.612E-06    -3.402E-05    -3.849E-05
X    -1.912E+00     2.540E+00     6.196E-02    -7.228E-06    -3.719E-05    -4.208E-05
X    -1.912E+00     2.540E+00     5.576E-01    -6.228E-06    -3.205E-05    -3.626E-05
X    -1.912E+00     2.540E+00     1.053E+00    -4.188E-06    -2.156E-05    -2.439E-05
X    -1.912E+00     2.540E+00     1.549E+00    -2.076E-06    -1.069E-05    -1.210E-05
X    -1.912E+00     2.540E+00     2.045E+00    -6.344E-07    -3.268E-06    -3.697E-06
X    -1.912E+00     2.540E+00     2.540E+00    -2.498E-08    -1.287E-07    -1.456E-07
X    -1.912E+00     2.540E+00     3.036E+00     0.000E+00     0.000E+00     0.000E+00
X    -1.912E+00     2.540E+00     3.531E+00     0.000E+00     0.000E+00     0.000E+00
X    -1.912E+00     2.540E+00     4.027E+00     0.000E+00     0.000E+00     0.000E+00
X    -1.912E+00     2.540E+00     4.523E+00     0.000E+00     0.000E+00     0.000E+00
X    -1.912E+00     3.036E+00    -4.895E+00     0.000E+00     0.000E+00     0.000E+00
X    -1.912E+00     3.036E+00    -4.399E+00     0.000E+00     0.000E+00     0.000E+00
X    -1.912E+00     3.036E+00    -3.903E+00     0.000E+00     0.000E+00     0.000E+00
X    -1.912E+00     3.036E+00    -3.408E+00     0.000E+00     0.000E+00     0.000E+00
X    -1.912E+00     3.036E+00    -2.912E+00     0.000E+00     0.000E+00     0.000E+00
X    -1.912E+00     3.036E+00    -2.416E+00     0.000E+00     0.000E+00     0.000E+00
X    -1.912E+00     3.036E+00    -1.921E+00    -2.501E-08    -1.287E-07    -1.456E-07
X    -1.912E+00     3.036E+00    -1.425E+00    -3.766E-07    -1.938E-06    -2.193E-06
X    -1.912E+00     3.036E+00    -9.293E-01    -9.524E-07    -4.902E-06    -5.545E-06
X    -1.912E+00     3.036E+00    -4.337E-01    -1.486E-06    -7.651E-06    -8.655E-06
X    -1.912E+00     3.036E+00     6.196E-02    -1.666E-06    -8.576E-06    -9.701E-06
X    -1.912E+00     3.036E+00     5.576E-01    -1.375E-06    -7.079E-06    -8.008E-06
X    -1.912E+00     3.036E+00     1.053E+00    -7.991E-07    -4.116E-06    -4.656E-06
X    -1.912E+00     3.036E+00     1.549E+00    -2.590E-07    -1.334E-06    -1.509E-06
X    -1.912E+00     3.036E+00     2.045E+00    -1.322E-09    -6.813E-09    -7.708E-09
X    -1.912E+00     3.036E+00     2.540E+00     0.000E+00     0.000E+00     0.000E+00
X    -1.912E+00     3.036E+00     3.036E+00     0.000E+00     0.000E+00     0.000E+00
X    -1.912E+00     3.036E+00     3.531E+00     0.000E+00     0.000E+00     0.000E+00
X    -1.912E+00     3.036E+00     4.027E+00     0.000E+00     0.000E+00     0.000E+00
X    -1.912E+00     3.036E+00     4.523E+00     0.000E+00     0.000E+00     0.000E+00
X    -1.912E+00     3.531E+00    -4.895E+00     0.000E+00     0.000E+00     0.000E+00
X    -1.912E+00     3.531E+00    -4.399E+00     0.000E+00     0.000E+00     0.000E+00
X    -1.912E+00     3.531E+00    -3.903E+00     0.000E+00     0.000E+00     0.000E+00
X    -1.912E+00     3.531E+00    -3.408E+00     0.000E+00     0.000E+00     0.000E+00
X    -1.912E+00     3.531E+00    -2.912E+00     0.000E+00     0.000E+00     0.000E+00
X    -1.912E+00     3.531E+00    -2.416E+00     0.000E+00     0.000E+00     0.000E+00
X    -1.912E+00     3.531E+00    -1.921E+00     0.000E+00     0.000E+00     0.000E+00
X    -1.912E+00     3.531E+00    -1.425E+00     0.000E+00     0.000E+00     0.000E+00
X    -1.912E+00     3.531E+00    -9.293E-01    -2.194E-09    -1.129E-08    -1.277E-08
X    -1.912E+00     3.531E+00    -4.337E-01    -5.121E-08    -2.637E-07    -2.983E-07
X    -1.912E+00     3.531E+00     6.196E-02    -7.565E-08    -3.896E-07    -4.407E-07
X    -1.912E+00     3.531E+00     5.576E-01    -3.739E-08    -1.926E-07    -2.179E-07
X    -1.912E+00     3.531E+00     1.053E+00    -2.496E-10    -1.286E-09    -1.454E-09
X    -1.912E+00     3.531E+00     1.549E+00     0.000E+00     0.000E+00     0.000E+00
X    -1.912E+00     3.531E+00     2.045E+00     0.000E+00     0.000E+00     0.000E+00
X    -1.912E+00     3.531E+00     2.540E+00     0.000E+00     0.000E+00     0.000E+00
X    -1.912E+00     3.531E+00     3.036E+00     0.000E+00     0.000E+00     0.000E+00
X    -1.912E+00     3.531E+00     3.531E+00     0.000E+00     0.000E+00     0.000E+00
X    -1.912E+00     3.531E+00     4.027E+00     0.000E+00     0.000E+00     0.000E+00
X    -1.912E+00     3.531E+00     4.523E+00     0.000E+00     0.000E+00     0.000E+00
X    -1.912E+00     4.027E+00    -4.895E+00     0.000E+00     0.000E+00     0.000E+00
X    -1.912E+00     4.027E+00    -4.399E+00     0.000E+00     0.000E+00     0.000E+00
X    -1.912E+00     4.027E+00    -3.903E+00     0.000E+00     0.000E+00     0.000E+00
X    -1.912E+00     4.027E+00    -3.408E+00     0.000E+00     0.000E+00     0.000E+00
X    -1.912E+00     4.027E+00    -2.912E+00     0.000E+00     0.000E+00     0.000E+00
X    -1.912E+00     4.027E+00    -2.416E+00     0.000E+00     0.000E+00     0.000E+00
X    -1.912E+00     4.027E+00    -1.921E+00     0.000E+00     0.000E+00     0.000E+00
X    -1.912E+00     4.027E+00    -1.425E+00     0.000E+00     0.000E+00     0.000E+00
X    -1.912E+00     4.027E+00    -9.293E-01     0.000E+00     0.000E+00     0.000E+00
X    -1.912E+00     4.027E+00    -4.337E-01     0.000E+00     0.000E+00     0.000E+00
X    -1.912E+00     4.027E+00     6.196E-02     0.000E+00     0.000E+00     0.000E+00
X    -1.912E+00     4.027E+00     5.576E-01     0.000E+00     0.000E+00     0.000E+00
X    -1.912E+00     4.027E+00     1.053E+00     0.000E+00     0.000E+00     0.000E+00
X    -1.912E+00     4.027E+00     1.549E+00     0.000E+00     0.000E+00     0.000E+00
X    -1.912E+00     4.027E+00     2.045E+00     0.000E+00     0.000E+00     0.000E+00
X    -1.912E+00     4.027E+00     2.540E+00     0.000E+00     0.000E+00     0.000E+00
X    -1.912E+00     4.027E+00     3.036E+00     0.000E+00     0.000E+00     0.000E+00
X    -1.912E+00     4.027E+00     3.531E+00     0.000E+00     0.000E+00     0.000E+00
X    -1.912E+00     4.027E+00     4.027E+00     0.000E+00     0.000E+00     0.000E+00
X    -1.912E+00     4.027E+00     4.523E+00     0.000E+00     0.000E+00     0.000E+00
X    -1.912E+00     4.523E+00    -4.895E+00     0.000E+00     0.000E+00     0.000E+00
X    -1.912E+00     4.523E+00    -4.399E+00     0.000E+00     0.000E+00     0.000E+00
X    -1.912E+00     4.523E+00    -3.903E+00     0.000E+00     0.000E+00     0.000E+00
X    -1.912E+00     4.523E+00    -3.408E+00     0.000E+00     0.000E+00     0.000E+00
X    -1.912E+00     4.523E+00    -2.912E+00     0.000E+00     0.000E+00     0.000E+00
X    -1.912E+00     4.523E+00    -2.416E+00     0.000E+00     0.000E+00     0.000E+00
X    -1.912E+00     4.523E+00    -1.921E+00     0.000E+00     0.000E+00     0.000E+00
X    -1.912E+00     4.523E+00    -1.425E+00     0.000E+00     0.000E+00     0.000E+00
X    -1.912E+00     4.523E+00    -9.293E-01     0.000E+00     0.000E+00     0.000E+00
X    -1.912E+00     4.523E+00    -4.337E-01     0.000E+00     0.000E+00     0.000E+00
X    -1.912E+00     4.523E+00     6.196E-02     0.000E+00     0.000E+00     0.000E+00
X    -1.912E+00     4.523E+00     5.576E-01     0.000E+00     0.000E+00     0.000E+00
X    -1.912E+00     4.523E+00     1.053E+00     0.000E+00     0.000E+00     0.000E+00
X    -1.912E+00     4.523E+00     1.549E+00     0.000E+00     0.000E+00     0.000E+00
X    -1.912E+00     4.523E+00     2.045E+00     0.000E+00     0.000E+00     0.000E+00
X    -1.912E+00     4.523E+00     2.540E+00     0.000E+00     0.000E+00     0.000E+00
X    -1.912E+00     4.523E+00     3.036E+00     0.000E+00     0.000E+00     0.000E+00
X    -1.912E+00     4.523E+00     3.531E+00     0.000E+00     0.000E+00     0.000E+00
X    -1.912E+00     4.523E+00     4.027E+00     0.000E+00     0.000E+00     0.000E+00
X    -1.912E+00     4.523E+00     4.523E+00     0.000E+00     0.000E+00     0.000E+00
X    -1.416E+00    -4.895E+00    -4.895E+00     0.000E+00     0.000E+00     0.000E+00
X    -1.416E+00    -4.895E+00    -4.399E+00     0.000E+00     0.000E+00     0.000E+00
X    -1.416E+00    -4.895E+00    -3.903E+00     0.000E+00     0.000E+00     0.000E+00
X    -1.416E+00    -4.895E+00    -3.408E+00     0.000E+00     0.000E+00     0.000E+00
X    -1.416E+00    -4.895E+00    -2.912E+00     0.000E+00     0.000E+00     0.000E+00
X    -1.416E+00    -4.895E+00    -2.416E+00     0.000E+00     0.000E+00     0.000E+00
X    -1.416E+00    -4.895E+00    -1.921E+00     0.000E+00     0.000E+00     0.000E+00
X    -1.416E+00    -4.895E+00    -1.425E+00     0.000E+00     0.000E+00     0.000E+00
X    -1.416E+00    -4.895E+00    -9.293E-01     0.000E+00     0.000E+00     0.000E+00
X    -1.416E+00    -4.895E+00    -4.337E-01     0.000E+00     0.000E+00     0.000E+00
X    -1.416E+00    -4.895E+00     6.196E-02     0.000E+00     0.000E+00     0.000E+00
X    -1.416E+00    -4.895E+00     5.576E-01     0.000E+00     0.000E+00     0.000E+00
X    -1.416E+00    -4.895E+00     1.053E+00     0.000E+00     0.000E+00     0.000E+00
X    -1.416E+00    -4.895E+00     1.549E+00     0.000E+00     0.000E+00     0.000E+00
X    -1.416E+00    -4.895E+00     2.045E+00     0.000E+00     0.000E+00     0.000E+00
X    -1.416E+00    -4.895E+00     2.540E+00     0.000E+00     0.000E+00     0.000E+00
X    -1.416E+00    -4.895E+00     3.036E+00     0.000E+00     0.000E+00     0.000E+00
X    -1.416E+00    -4.895E+00     3.531E+00     0.000E+00     0.000E+00     0.000E+00
X    -1.416E+00    -4.895E+00     4.027E+00     0.000E+00     0.000E+00     0.000E+00
X    -1.416E+00    -4.895E+00     4.523E+00     0.000E+00     0.000E+00     0.000E+00
X    -1.416E+00    -4.399E+00    -4.895E+00     0.000E+00     0.000E+00     0.000E+00
X    -1.416E+00    -4.399E+00    -4.399E+00     0.000E+00     0.000E+00     0.000E+00
X    -1.416E+00    -4.399E+00    -3.903E+00     0.000E+00     0.000E+00     0.000E+00
X    -1.416E+00    -4.399E+00    -3.408E+00     0.000E+00     0.000E+00     0.000E+00
X    -1.416E+00    -4.399E+00    -2.912E+00     0.000E+00     0.000E+00     0.000E+00
X    -1.416E+00    -4.399E+00    -2.416E+00     0.000E+00     0.000E+00     0.000E+00
X    -1.416E+00    -4.399E+00    -1.921E+00     0.000E+00     0.000E+00     0.000E+00
X    -1.416E+00    -4.399E+00    -1.425E+00     0.000E+00     0.000E+00     0.000E+00
X    -1.416E+00    -4.399E+00    -9.293E-01     0.000E+00     0.000E+00     0.000E+00
X    -1.416E+00    -4.399E+00    -4.337E-01     0.000E+00     0.000E+00     0.000E+00
X    -1.416E+00    -4.399E+00     6.196E-02     0.000E+00     0.000E+00     0.000E+00
X    -1.416E+00    -4.399E+00     5.576E-01     0.000E+00     0.000E+00     0.000E+00
X    -1.416E+00    -4.399E+00     1.053E+00     0.000E+00     0.000E+00     0.000E+00
X    -1.416E+00    -4.399E+00     1.549E+00     0.000E+00     0.000E+00     0.000E+00
X    -1.416E+00    -4.399E+00     2.045E+00     0.000E+00     0.000E+00     0.000E+00
X    -1.416E+00    -4.399E+00     2.540E+00     0.000E+00     0.000E+00     0.000E+00
X    -1.416E+00    -4.399E+00     3.036E+00     0.000E+00     0.000E+00     0.000E+00
X    -1.416E+00    -4.399E+00     3.531E+00     0.000E+00     0.000E+00     0.000E+00
X    -1.416E+00    -4.399E+00     4.027E+00     0.000E+00     0.000E+00     0.000E+00
X    -1.416E+00    -4.399E+00     4.523E+00     0.000E+00     0.000E+00     0.000E+00
X    -1.416E+00    -3.903E+00    -4.895E+00     0.000E+00     0.000E+00     0.000E+00
X    -1.416E+00    -3.903E+00    -4.399E+00     0.000E+00     0.000E+00     0.000E+00
X    -1.416E+00    -3.903E+00    -3.903E+00     0.000E+00     0.000E+00     0.000E+00
X    -1.416E+00    -3.903E+00    -3.408E+00     0.000E+00     0.000E+00     0.000E+00
X    -1.416E+00    -3.903E+00    -2.912E+00     0.000E+00     0.000E+00     0.000E+00
X    -1.416E+00    -3.903E+00    -2.416E+00     0.000E+00     0.000E+00     0.000E+00
X    -1.416E+00    -3.903E+00    -1.921E+00     0.000E+00     0.000E+00     0.000E+00
X    -1.416E+00    -3.903E+00    -1.425E+00     0.000E+00     0.000E+00     0.000E+00
X    -1.416E+00    -3.903E+00    -9.293E-01     0.000E+00     0.000E+00     0.000E+00
X    -1.416E+00    -3.903E+00    -4.337E-01    -4.107E-11    -2.110E-10    -2.387E-10
X    -1.416E+00    -3.903E+00     6.196E-02    -2.359E-10    -1.212E-09    -1.371E-09
X    -1.416E+00    -3.903E+00     5.576E-01    -1.419E-11    -7.292E-11    -8.249E-11
X    -1.416E+00    -3.903E+00     1.053E+00     0.000E+00     0.000E+00     0.000E+00
X    -1.416E+00    -3.903E+00     1.549E+00     0.000E+00     0.000E+00     0.000E+00
X    -1.416E+00    -3.903E+00     2.045E+00     0.000E+00     0.000E+00     0.000E+00
X    -1.416E+00    -3.903E+00     2.540E+00     0.000E+00     0.000E+00     0.000E+00
X    -1.416E+00    -3.903E+00     3.036E+00     0.000E+00     0.000E+00     0.000E+00
X    -1.416E+00    -3.903E+00     3.531E+00     0.000E+00     0.000E+00     0.000E+00
X    -1.416E+00    -3.903E+00     4.027E+00     0.000E+00     0.000E+00     0.000E+00
X    -1.416E+00    -3.903E+00     4.523E+00     0.000E+00     0.000E+00     0.000E+00
X    -1.416E+00    -3.408E+00    -4.895E+00     0.000E+00     0.000E+00     0.000E+00
X    -1.416E+00    -3.408E+00    -4.399E+00     0.000E+00     0.000E+00     0.000E+00
X    -1.416E+00    -3.408E+00    -3.903E+00     0.000E+00     0.000E+00     0.000E+00
X    -1.416E+00    -3.408E+00    -3.408E+00     0.000E+00     0.000E+00     0.000E+00
X    -1.416E+00    -3.408E+00    -2.912E+00     0.000E+00     0.000E+00     0.000E+00
X    -1.416E+00    -3.408E+00    -2.416E+00     0.000E+00     0.000E+00     0.000E+00
X    -1.416E+00    -3.408E+00    -1.921E+00    -1.305E-10    -6.703E-10    -7.584E-10
X    -1.416E+00    -3.408E+00    -1.425E+00    -1.689E-07    -8.677E-07    -9.816E-07
X    -1.416E+00    -3.408E+00    -9.293E-01    -5.613E-07    -2.883E-06    -3.261E-06
X    -1.416E+00    -3.408E+00    -4.337E-01    -9.364E-07    -4.810E-06    -5.442E-06
X    -1.416E+00    -3.408E+00     6.196E-02    -1.064E-06    -5.467E-06    -6.184E-06
X    -1.416E+00    -3.408E+00     5.576E-01    -8.573E-07    -4.406E-06    -4.984E-06
X    -1.416E+00    -3.408E+00     1.053E+00    -4.549E-07    -2.338E-06    -2.645E-06
X    -1.416E+00    -3.408E+00     1.549E+00    -9.592E-08    -4.932E-07    -5.579E-07
X    -1.416E+00    -3.408E+00     2.045E+00    -8.622E-13    -4.434E-12    -5.016E-12
X    -1.416E+00    -3.408E+00     2.540E+00     0.000E+00     0.000E+00     0.000E+00
X    -1.416E+00    -3.408E+00     3.036E+00     0.000E+00     0.000E+00     0.000E+00
X    -1.416E+00    -3.408E+00     3.531E+00     0.000E+00     0.000E+00     0.000E+00
X    -1.416E+00    -3.408E+00     4.027E+00     0.000E+00     0.000E+00     0.000E+00
X    -1.416E+00    -3.408E+00     4.523E+00     0.000E+00     0.000E+00     0.000E+00
X    -1.416E+00    -2.912E+00    -4.895E+00     0.000E+00     0.000E+00     0.000E+00
X    -1.416E+00    -2.912E+00    -4.399E+00     0.000E+00     0.000E+00     0.000E+00
X    -1.416E+00    -2.912E+00    -3.903E+00     0.000E+00     0.000E+00     0.000E+00
X    -1.416E+00    -2.912E+00    -3.408E+00     0.000E+00     0.000E+00     0.000E+00
X    -1.416E+00    -2.912E+00    -2.912E+00     0.000E+00     0.000E+00     0.000E+00
X    -1.416E+00    -2.912E+00    -2.416E+00    -5.160E-08    -2.650E-07    -2.998E-07
X    -1.416E+00    -2.912E+00    -1.921E+00    -7.153E-07    -3.673E-06    -4.156E-06
X    -1.416E+00    -2.912E+00    -1.425E+00    -2.141E-06    -1.100E-05    -1.244E-05
X    -1.416E+00    -2.912E+00    -9.293E-01    -4.071E-06    -2.091E-05    -2.365E-05
X    -1.416E+00    -2.912E+00    -4.337E-01    -5.728E-06    -2.943E-05    -3.329E-05
X    -1.416E+00    -2.912E+00     6.196E-02    -6.273E-06    -3.223E-05    -3.646E-05
X    -1.416E+00    -2.912E+00     5.576E-01    -5.387E-06    -2.769E-05    -3.132E-05
X    -1.416E+00    -2.912E+00     1.053E+00    -3.576E-06    -1.838E-05    -2.079E-05
X    -1.416E+00    -2.912E+00     1.549E+00    -1.713E-06    -8.810E-06    -9.967E-06
X    -1.416E+00    -2.912E+00     2.045E+00    -4.798E-07    -2.467E-06    -2.792E-06
X    -1.416E+00    -2.912E+00     2.540E+00    -3.375E-09    -1.736E-08    -1.964E-08
X    -1.416E+00    -2.912E+00     3.036E+00     0.000E+00     0.000E+00     0.000E+00
X    -1.416E+00    -2.912E+00     3.531E+00     0.000E+00     0.000E+00     0.000E+00
X    -1.416E+00    -2.912E+00     4.027E+00     0.000E+00     0.000E+00     0.000E+00
X    -1.416E+00    -2.912E+00     4.523E+00     0.000E+00     0.000E+00     0.000E+00
X    -1.416E+00    -2.416E+00    -4.895E+00     0.000E+00     0.000E+00     0.000E+00
X    -1.416E+00    -2.416E+00    -4.399E+00     0.000E+00     0.000E+00     0.000E+00
X    -1.416E+00    -2.416E+00    -3.903E+00     0.000E+00     0.000E+00     0.000E+00
X    -1.416E+00    -2.416E+00    -3.408E+00     0.000E+00     0.000E+00     0.000E+00
X    -1.416E+00    -2.416E+00    -2.912E+00    -5.160E-08    -2.650E-07    -2.998E-07
X    -1.416E+00    -2.416E+00    -2.416E+00    -1.021E-06    -5.241E-06    -5.929E-06
X    -1.416E+00    -2.416E+00    -1.921E+00    -3.697E-06    -1.899E-05    -2.148E-05
X    -1.416E+00    -2.416E+00    -1.425E+00    -8.470E-06    -4.350E-05    -4.921E-05
X    -1.416E+00    -2.416E+00    -9.293E-01    -1.491E-05    -7.659E-05    -8.665E-05
X    -1.416E+00    -2.416E+00    -4.337E-01    -2.069E-05    -1.063E-04    -1.202E-04
X    -1.416E+00    -2.416E+00     6.196E-02    -2.262E-05    -1.162E-04    -1.315E-04
X    -1.416E+00    -2.416E+00     5.576E-01    -1.948E-05    -1.001E-04    -1.133E-04
X    -1.416E+00    -2.416E+00     1.053E+00    -1.323E-05    -6.800E-05    -7.693E-05
X    -1.416E+00    -2.416E+00     1.549E+00    -7.070E-06    -3.636E-05    -4.113E-05
X    -1.416E+00    -2.416E+00     2.045E+00    -2.830E-06    -1.456E-05    -1.647E-05
X    -1.416E+00    -2.416E+00     2.540E+00    -6.496E-07    -3.342E-06    -3.781E-06
X    -1.416E+00    -2.416E+00     3.036E+00    -1.261E-09    -6.488E-09    -7.341E-09
X    -1.416E+00    -2.416E+00     3.531E+00     0.000E+00     0.000E+00     0.000E+00
X    -1.416E+00    -2.416E+00     4.027E+00     0.000E+00     0.000E+00     0.000E+00
X    -1.416E+00    -2.416E+00     4.523E+00     0.000E+00     0.000E+00     0.000E+00
X    -1.416E+00    -1.921E+00    -4.895E+00     0.000E+00     0.000E+00     0.000E+00
X    -1.416E+00    -1.921E+00    -4.399E+00     0.000E+00     0.000E+00     0.000E+00
X    -1.416E+00    -1.921E+00    -3.903E+00     0.000E+00     0.000E+00     0.000E+00
X    -1.416E+00    -1.921E+00    -3.408E+00    -1.305E-10    -6.703E-10    -7.584E-10
X    -1.416E+00    -1.921E+00    -2.912E+00    -7.154E-07    -3.673E-06    -4.156E-06
X    -1.416E+00    -1.921E+00    -2.416E+00    -3.697E-06    -1.899E-05    -2.148E-05
X    -1.416E+00    -1.921E+00    -1.921E+00    -1.075E-05    -5.521E-05    -6.246E-05
X    -1.416E+00    -1.921E+00    -1.425E+00    -2.403E-05    -1.234E-04    -1.396E-04
X    -1.416E+00    -1.921E+00    -9.293E-01    -4.303E-05    -2.210E-04    -2.501E-04
X    -1.416E+00    -1.921E+00    -4.337E-01    -6.131E-05    -3.151E-04    -3.565E-04
X    -1.416E+00    -1.921E+00     6.196E-02    -6.770E-05    -3.480E-04    -3.937E-04
X    -1.416E+00    -1.921E+00     5.576E-01    -5.740E-05    -2.951E-04    -3.339E-04
X    -1.416E+00    -1.921E+00     1.053E+00    -3.792E-05    -1.950E-04    -2.206E-04
X    -1.416E+00    -1.921E+00     1.549E+00    -2.005E-05    -1.031E-04    -1.167E-04
X    -1.416E+00    -1.921E+00     2.045E+00    -8.455E-06    -4.350E-05    -4.922E-05
X    -1.416E+00    -1.921E+00     2.540E+00    -2.641E-06    -1.359E-05    -1.538E-05
X    -1.416E+00    -1.921E+00     3.036E+00    -3.841E-07    -1.977E-06    -2.237E-06
X    -1.416E+00    -1.921E+00     3.531E+00     0.000E+00     0.000E+00     0.000E+00
X    -1.416E+00    -1.921E+00     4.027E+00     0.000E+00     0.000E+00     0.000E+00
X    -1.416E+00    -1.921E+00     4.523E+00     0.000E+00     0.000E+00     0.000E+00
X    -1.416E+00    -1.425E+00    -4.895E+00     0.000E+00     0.000E+00     0.000E+00
X    -1.416E+00    -1.425E+00    -4.399E+00     0.000E+00     0.000E+00     0.000E+00
X    -1.416E+00    -1.425E+00    -3.903E+00     0.000E+00     0.000E+00     0.000E+00
X    -1.416E+00    -1.425E+00    -3.408E+00    -1.689E-07    -8.676E-07    -9.817E-07
X    -1.416E+00    -1.425E+00    -2.912E+00    -2.141E-06    -1.099E-05    -1.244E-05
X    -1.416E+00    -1.425E+00    -2.416E+00    -8.471E-06    -4.350E-05    -4.922E-05
X    -1.416E+00    -1.425E+00    -1.921E+00    -2.403E-05    -1.234E-04    -1.396E-04
X    -1.416E+00    -1.425E+00    -1.425E+00    -5.560E-05    -2.856E-04    -3.232E-04
X    -1.416E+00    -1.425E+00    -9.293E-01    -1.056E-04    -5.429E-04    -6.142E-04
X    -1.416E+00    -1.425E+00    -4.337E-01    -1.575E-04    -8.105E-04    -9.168E-04
X    -1.416E+00    -1.425E+00     6.196E-02    -1.765E-04    -9.086E-04    -1.028E-03
X    -1.416E+00    -1.425E+00     5.576E-01    -1.462E-04    -7.519E-04    -8.506E-04
X    -1.416E+00    -1.425E+00     1.053E+00    -9.180E-05    -4.722E-04    -5.342E-04
X    -1.416E+00    -1.425E+00     1.549E+00    -4.578E-05    -2.355E-04    -2.665E-04
X    -1.416E+00    -1.425E+00     2.045E+00    -1.888E-05    -9.717E-05    -1.100E-04
X    -1.416E+00    -1.425E+00     2.540E+00    -6.261E-06    -3.223E-05    -3.647E-05
X    -1.416E+00    -1.425E+00     3.036E+00    -1.356E-06    -6.982E-06    -7.901E-06
X    -1.416E+00    -1.425E+00     3.531E+00    -3.085E-08    -1.588E-07    -1.797E-07
X    -1.416E+00    -1.425E+00     4.027E+00     0.000E+00     0.000E+00     0.000E+00
X    -1.416E+00    -1.425E+00     4.523E+00     0.000E+00     0.000E+00     0.000E+00
X    -1.416E+00    -9.293E-01    -4.895E+00     0.000E+00     0.000E+00     0.000E+00
X    -1.416E+00    -9.293E-01    -4.399E+00     0.000E+00     0.000E+00     0.000E+00
X    -1.416E+00    -9.293E-01    -3.903E+00     0.000E+00     0.000E+00     0.000E+00
X    -1.416E+00    -9.293E-01    -3.408E+00    -5.613E-07    -2.883E-06    -3.262E-06
X    -1.416E+00    -9.293E-01    -2.912E+00    -4.071E-06    -2.091E-05    -2.365E-05
X    -1.416E+00    -9.293E-01    -2.416E+00    -1.491E-05    -7.658E-05    -8.665E-05
X    -1.416E+00    -9.293E-01    -1.921E+00    -4.303E-05    -2.210E-04    -2.501E-04
X    -1.416E+00    -9.293E-01    -1.425E+00    -1.056E-04    -5.429E-04    -6.142E-04
X    -1.416E+00    -9.293E-01    -9.293E-01    -2.146E-04    -1.105E-03    -1.251E-03
X    -1.416E+00    -9.293E-01    -4.337E-01    -3.387E-04    -1.749E-03    -1.978E-03
X    -1.416E+00    -9.293E-01     6.196E-02    -3.871E-04    -1.997E-03    -2.259E-03
X    -1.416E+00    -9.293E-01     5.576E-01    -3.116E-04    -1.604E-03    -1.814E-03
X    -1.416E+00    -9.293E-01     1.053E+00    -1.836E-04    -9.444E-04    -1.068E-03
X    -1.416E+00    -9.293E-01     1.549E+00    -8.566E-05    -4.407E-04    -4.987E-04
X    -1.416E+00    -9.293E-01     2.045E+00    -3.347E-05    -1.723E-04    -1.950E-04
X    -1.416E+00    -9.293E-01     2.540E+00    -1.105E-05    -5.687E-05    -6.436E-05
X    -1.416E+00    -9.293E-01     3.036E+00    -2.732E-06    -1.407E-05    -1.592E-05
X    -1.416E+00    -9.293E-01     3.531E+00    -2.461E-07    -1.267E-06    -1.434E-06
X    -1.416E+00    -9.293E-01     4.027E+00     0.000E+00     0.000E+00     0.000E+00
X    -1.416E+00    -9.293E-01     4.523E+00     0.000E+00     0.000E+00     0.000E+00
X    -1.416E+00    -4.337E-01    -4.895E+00     0.000E+00     0.000E+00     0.000E+00
X    -1.416E+00    -4.337E-01    -4.399E+00     0.000E+00     0.000E+00     0.000E+00
X    -1.416E+00    -4.337E-01    -3.903E+00    -4.108E-11    -2.110E-10    -2.388E-10
X    -1.416E+00    -4.337E-01    -3.408E+00    -9.365E-07    -4.810E-06    -5.442E-06
X    -1.416E+00    -4.337E-01    -2.912E+00    -5.729E-06    -2.942E-05    -3.329E-05
X    -1.416E+00    -4.337E-01    -2.416E+00    -2.069E-05    -1.063E-04    -1.202E-04
X    -1.416E+00    -4.337E-01    -1.921E+00    -6.132E-05    -3.151E-04    -3.565E-04
X    -1.416E+00    -4.337E-01    -1.425E+00    -1.575E-04    -8.104E-04    -9.169E-04
X    -1.416E+00    -4.337E-01    -9.293E-01    -3.387E-04    -1.748E-03    -1.978E-03
X    -1.416E+00    -4.337E-01    -4.337E-01    -5.627E-04    -2.914E-03    -3.296E-03
X    -1.416E+00    -4.337E-01     6.196E-02    -6.582E-04    -3.398E-03    -3.843E-03
X    -1.416E+00    -4.337E-01     5.576E-01    -5.139E-04    -2.641E-03    -2.987E-03
X    -1.416E+00    -4.337E-01     1.053E+00    -2.867E-04    -1.473E-03    -1.666E-03
X    -1.416E+00    -4.337E-01     1.549E+00    -1.262E-04    -6.491E-04    -7.345E-04
X    -1.416E+00    -4.337E-01     2.045E+00    -4.722E-05    -2.431E-04    -2.751E-04
X    -1.416E+00    -4.337E-01     2.540E+00    -1.532E-05    -7.890E-05    -8.928E-05
X    -1.416E+00    -4.337E-01     3.036E+00    -3.931E-06    -2.025E-05    -2.291E-05
X    -1.416E+00    -4.337E-01     3.531E+00    -4.790E-07    -2.467E-06    -2.792E-06
X    -1.416E+00    -4.337E-01     4.027E+00     0.000E+00     0.000E+00     0.000E+00
X    -1.416E+00    -4.337E-01     4.523E+00     0.000E+00     0.000E+00     0.000E+00
X    -1.416E+00     6.196E-02    -4.895E+00     0.000E+00     0.000E+00     0.000E+00
X    -1.416E+00     6.196E-02    -4.399E+00     0.000E+00     0.000E+00     0.000E+00
X    -1.416E+00     6.196E-02    -3.903E+00    -2.359E-10    -1.212E-09    -1.371E-09
X    -1.416E+00     6.196E-02    -3.408E+00    -1.064E-06    -5.466E-06    -6.185E-06
X    -1.416E+00     6.196E-02    -2.912E+00    -6.274E-06    -3.223E-05    -3.646E-05
X    -1.416E+00     6.196E-02    -2.416E+00    -2.262E-05    -1.162E-04    -1.315E-04
X    -1.416E+00     6.196E-02    -1.921E+00    -6.771E-05    -3.480E-04    -3.937E-04
X    -1.416E+00     6.196E-02    -1.425E+00    -1.765E-04    -9.085E-04    -1.028E-03
X    -1.416E+00     6.196E-02    -9.293E-01    -3.870E-04    -1.997E-03    -2.260E-03
X    -1.416E+00     6.196E-02    -4.337E-01    -6.578E-04    -3.397E-03    -3.844E-03
X    -1.416E+00     6.196E-02     6.196E-02    -7.786E-04    -3.998E-03    -4.523E-03
X    -1.416E+00     6.196E-02     5.576E-01    -5.987E-04    -3.063E-03    -3.466E-03
X    -1.416E+00     6.196E-02     1.053E+00    -3.263E-04    -1.674E-03    -1.894E-03
X    -1.416E+00     6.196E-02     1.549E+00    -1.408E-04    -7.245E-04    -8.198E-04
X    -1.416E+00     6.196E-02     2.045E+00    -5.198E-05    -2.677E-04    -3.029E-04
X    -1.416E+00     6.196E-02     2.540E+00    -1.675E-05    -8.626E-05    -9.762E-05
X    -1.416E+00     6.196E-02     3.036E+00    -4.324E-06    -2.227E-05    -2.521E-05
X    -1.416E+00     6.196E-02     3.531E+00    -5.595E-07    -2.883E-06    -3.262E-06
X    -1.416E+00     6.196E-02     4.027E+00     0.000E+00     0.000E+00     0.000E+00
X    -1.416E+00     6.196E-02     4.523E+00     0.000E+00     0.000E+00     0.000E+00
X    -1.416E+00     5.576E-01    -4.895E+00     0.000E+00     0.000E+00     0.000E+00
X    -1.416E+00     5.576E-01    -4.399E+00     0.000E+00     0.000E+00     0.000E+00
X    -1.416E+00     5.576E-01    -3.903E+00    -1.419E-11    -7.291E-11    -8.250E-11
X    -1.416E+00     5.576E-01    -3.408E+00    -8.575E-07    -4.405E-06    -4.985E-06
X    -1.416E+00     5.576E-01    -2.912E+00    -5.388E-06    -2.768E-05    -3.132E-05
X    -1.416E+00     5.576E-01    -2.416E+00    -1.948E-05    -1.001E-04    -1.133E-04
X    -1.416E+00     5.576E-01    -1.921E+00    -5.741E-05    -2.951E-04    -3.339E-04
X    -1.416E+00     5.576E-01    -1.425E+00    -1.462E-04    -7.518E-04    -8.507E-04
X    -1.416E+00     5.576E-01    -9.293E-01    -3.115E-04    -1.603E-03    -1.814E-03
X    -1.416E+00     5.576E-01    -4.337E-01    -5.136E-04    -2.640E-03    -2.988E-03
X    -1.416E+00     5.576E-01     6.196E-02    -5.985E-04    -3.063E-03    -3.466E-03
X    -1.416E+00     5.576E-01     5.576E-01    -4.692E-04    -2.400E-03    -2.715E-03
X    -1.416E+00     5.576E-01     1.053E+00    -2.640E-04    -1.355E-03    -1.533E-03
X    -1.416E+00     5.576E-01     1.549E+00    -1.174E-04    -6.040E-04    -6.834E-04
X    -1.416E+00     5.576E-01     2.045E+00    -4.429E-05    -2.281E-04    -2.581E-04
X    -1.416E+00     5.576E-01     2.540E+00    -1.443E-05    -7.434E-05    -8.412E-05
X    -1.416E+00     5.576E-01     3.036E+00    -3.685E-06    -1.899E-05    -2.148E-05
X    -1.416E+00     5.576E-01     3.531E+00    -4.296E-07    -2.213E-06    -2.505E-06
X    -1.416E+00     5.576E-01     4.027E+00     0.000E+00     0.000E+00     0.000E+00
X    -1.416E+00     5.576E-01     4.523E+00     0.000E+00     0.000E+00     0.000E+00
X    -1.416E+00     1.053E+00    -4.895E+00     0.000E+00     0.000E+00     0.000E+00
X    -1.416E+00     1.053E+00    -4.399E+00     0.000E+00     0.000E+00     0.000E+00
X    -1.416E+00     1.053E+00    -3.903E+00     0.000E+00     0.000E+00     0.000E+00
X    -1.416E+00     1.053E+00    -3.408E+00    -4.550E-07    -2.338E-06    -2.646E-06
X    -1.416E+00     1.053E+00    -2.912E+00    -3.576E-06    -1.838E-05    -2.080E-05
X    -1.416E+00     1.053E+00    -2.416E+00    -1.323E-05    -6.799E-05    -7.693E-05
X    -1.416E+00     1.053E+00    -1.921E+00    -3.793E-05    -1.950E-04    -2.206E-04
X    -1.416E+00     1.053E+00    -1.425E+00    -9.181E-05    -4.721E-04    -5.342E-04
X    -1.416E+00     1.053E+00    -9.293E-01    -1.836E-04    -9.443E-04    -1.068E-03
X    -1.416E+00     1.053E+00    -4.337E-01    -2.866E-04    -1.473E-03    -1.666E-03
X    -1.416E+00     1.053E+00     6.196E-02    -3.263E-04    -1.674E-03    -1.894E-03
X    -1.416E+00     1.053E+00     5.576E-01    -2.639E-04    -1.355E-03    -1.533E-03
X    -1.416E+00     1.053E+00     1.053E+00    -1.576E-04    -8.104E-04    -9.169E-04
X    -1.416E+00     1.053E+00     1.549E+00    -7.471E-05    -3.848E-04    -4.353E-04
X    -1.416E+00     1.053E+00     2.045E+00    -2.959E-05    -1.525E-04    -1.725E-04
X    -1.416E+00     1.053E+00     2.540E+00    -9.797E-06    -5.049E-05    -5.713E-05
X    -1.416E+00     1.053E+00     3.036E+00    -2.375E-06    -1.224E-05    -1.385E-05
X    -1.416E+00     1.053E+00     3.531E+00    -1.826E-07    -9.410E-07    -1.065E-06
X    -1.416E+00     1.053E+00     4.027E+00     0.000E+00     0.000E+00     0.000E+00
X    -1.416E+00     1.053E+00     4.523E+00     0.000E+00     0.000E+00     0.000E+00
X    -1.416E+00     1.549E+00    -4.895E+00     0.000E+00     0.000E+00     0.000E+00
X    -1.416E+00     1.549E+00    -4.399E+00     0.000E+00     0.000E+00     0.000E+00
X    -1.416E+00     1.549E+00    -3.903E+00     0.000E+00     0.000E+00     0.000E+00
X    -1.416E+00     1.549E+00    -3.408E+00    -9.594E-08    -4.931E-07    -5.580E-07
X    -1.416E+00     1.549E+00    -2.912E+00    -1.714E-06    -8.809E-06    -9.967E-06
X    -1.416E+00     1.549E+00    -2.416E+00    -7.071E-06    -3.635E-05    -4.113E-05
X    -1.416E+00     1.549E+00    -1.921E+00    -2.006E-05    -1.031E-04    -1.167E-04
X    -1.416E+00     1.549E+00    -1.425E+00    -4.578E-05    -2.355E-04    -2.664E-04
X    -1.416E+00     1.549E+00    -9.293E-01    -8.567E-05    -4.408E-04    -4.987E-04
X    -1.416E+00     1.549E+00    -4.337E-01    -1.262E-04    -6.492E-04    -7.344E-04
X    -1.416E+00     1.549E+00     6.196E-02    -1.408E-04    -7.246E-04    -8.197E-04
X    -1.416E+00     1.549E+00     5.576E-01    -1.174E-04    -6.040E-04    -6.833E-04
X    -1.416E+00     1.549E+00     1.053E+00    -7.471E-05    -3.848E-04    -4.353E-04
X    -1.416E+00     1.549E+00     1.549E+00    -3.784E-05    -1.950E-04    -2.206E-04
X    -1.416E+00     1.549E+00     2.045E+00    -1.577E-05    -8.129E-05    -9.197E-05
X    -1.416E+00     1.549E+00     2.540E+00    -5.209E-06    -2.685E-05    -3.038E-05
X    -1.416E+00     1.549E+00     3.036E+00    -1.061E-06    -5.466E-06    -6.185E-06
X    -1.416E+00     1.549E+00     3.531E+00    -5.187E-09    -2.673E-08    -3.025E-08
X    -1.416E+00     1.549E+00     4.027E+00     0.000E+00     0.000E+00     0.000E+00
X    -1.416E+00     1.549E+00     4.523E+00     0.000E+00     0.000E+00     0.000E+00
X    -1.416E+00     2.045E+00    -4.895E+00     0.000E+00     0.000E+00     0.000E+00
X    -1.416E+00     2.045E+00    -4.399E+00     0.000E+00     0.000E+00     0.000E+00
X    -1.416E+00     2.045E+00    -3.903E+00     0.000E+00     0.000E+00     0.000E+00
X    -1.416E+00     2.045E+00    -3.408E+00    -8.624E-13    -4.434E-12    -5.017E-12
X    -1.416E+00     2.045E+00    -2.912E+00    -4.799E-07    -2.467E-06    -2.792E-06
X    -1.416E+00     2.045E+00    -2.416E+00    -2.831E-06    -1.456E-05    -1.647E-05
X    -1.416E+00     2.045E+00    -1.921E+00    -8.457E-06    -4.350E-05    -4.922E-05
X    -1.416E+00     2.045E+00    -1.425E+00    -1.889E-05    -9.718E-05    -1.099E-04
X    -1.416E+00     2.045E+00    -9.293E-01    -3.348E-05    -1.723E-04    -1.949E-04
X    -1.416E+00     2.045E+00    -4.337E-01    -4.723E-05    -2.432E-04    -2.751E-04
X    -1.416E+00     2.045E+00     6.196E-02    -5.199E-05    -2.677E-04    -3.029E-04
X    -1.416E+00     2.045E+00     5.576E-01    -4.429E-05    -2.282E-04    -2.581E-04
X    -1.416E+00     2.045E+00     1.053E+00    -2.959E-05    -1.525E-04    -1.725E-04
X    -1.416E+00     2.045E+00     1.549E+00    -1.577E-05    -8.129E-05    -9.197E-05
X    -1.416E+00     2.045E+00     2.045E+00    -6.642E-06    -3.424E-05    -3.873E-05
X    -1.416E+00     2.045E+00     2.540E+00    -1.983E-06    -1.022E-05    -1.157E-05
X    -1.416E+00     2.045E+00     3.036E+00    -2.291E-07    -1.181E-06    -1.336E-06
X    -1.416E+00     2.045E+00     3.531E+00     0.000E+00     0.000E+00     0.000E+00
X    -1.416E+00     2.045E+00     4.027E+00     0.000E+00     0.000E+00     0.000E+00
X    -1.416E+00     2.045E+00     4.523E+00     0.000E+00     0.000E+00     0.000E+00
X    -1.416E+00     2.540E+00    -4.895E+00     0.000E+00     0.000E+00     0.000E+00
X    -1.416E+00     2.540E+00    -4.399E+00     0.000E+00     0.000E+00     0.000E+00
X    -1.416E+00     2.540E+00    -3.903E+00     0.000E+00     0.000E+00     0.000E+00
X    -1.416E+00     2.540E+00    -3.408E+00     0.000E+00     0.000E+00     0.000E+00
X    -1.416E+00     2.540E+00    -2.912E+00    -3.376E-09    -1.736E-08    -1.964E-08
X    -1.416E+00     2.540E+00    -2.416E+00    -6.498E-07    -3.342E-06    -3.781E-06
X    -1.416E+00     2.540E+00    -1.921E+00    -2.642E-06    -1.359E-05    -1.538E-05
X    -1.416E+00     2.540E+00    -1.425E+00    -6.263E-06    -3.223E-05    -3.646E-05
X    -1.416E+00     2.540E+00    -9.293E-01    -1.105E-05    -5.688E-05    -6.435E-05
X    -1.416E+00     2.540E+00    -4.337E-01    -1.532E-05    -7.891E-05    -8.926E-05
X    -1.416E+00     2.540E+00     6.196E-02    -1.675E-05    -8.628E-05    -9.760E-05
X    -1.416E+00     2.540E+00     5.576E-01    -1.443E-05    -7.435E-05    -8.411E-05
X    -1.416E+00     2.540E+00     1.053E+00    -9.798E-06    -5.050E-05    -5.712E-05
X    -1.416E+00     2.540E+00     1.549E+00    -5.209E-06    -2.685E-05    -3.038E-05
X    -1.416E+00     2.540E+00     2.045E+00    -1.983E-06    -1.022E-05    -1.157E-05
X    -1.416E+00     2.540E+00     2.540E+00    -3.835E-07    -1.977E-06    -2.237E-06
X    -1.416E+00     2.540E+00     3.036E+00    -3.231E-12    -1.665E-11    -1.884E-11
X    -1.416E+00     2.540E+00     3.531E+00     0.000E+00     0.000E+00     0.000E+00
X    -1.416E+00     2.540E+00     4.027E+00     0.000E+00     0.000E+00     0.000E+00
X    -1.416E+00     2.540E+00     4.523E+00     0.000E+00     0.000E+00     0.000E+00
X    -1.416E+00     3.036E+00    -4.895E+00     0.000E+00     0.000E+00     0.000E+00
X    -1.416E+00     3.036E+00    -4.399E+00     0.000E+00     0.000E+00     0.000E+00
X    -1.416E+00     3.036E+00    -3.903E+00     0.000E+00     0.000E+00     0.000E+00
X    -1.416E+00     3.036E+00    -3.408E+00     0.000E+00     0.000E+00     0.000E+00
X    -1.416E+00     3.036E+00    -2.912E+00     0.000E+00     0.000E+00     0.000E+00
X    -1.416E+00     3.036E+00    -2.416E+00    -1.261E-09    -6.488E-09    -7.340E-09
X    -1.416E+00     3.036E+00    -1.921E+00    -3.842E-07    -1.977E-06    -2.236E-06
X    -1.416E+00     3.036E+00    -1.425E+00    -1.357E-06    -6.983E-06    -7.900E-06
X    -1.416E+00     3.036E+00    -9.293E-01    -2.732E-06    -1.407E-05    -1.591E-05
X    -1.416E+00     3.036E+00    -4.337E-01    -3.932E-06    -2.025E-05    -2.291E-05
X    -1.416E+00     3.036E+00     6.196E-02    -4.325E-06    -2.228E-05    -2.520E-05
X    -1.416E+00     3.036E+00     5.576E-01    -3.685E-06    -1.899E-05    -2.148E-05
X    -1.416E+00     3.036E+00     1.053E+00    -2.375E-06    -1.224E-05    -1.385E-05
X    -1.416E+00     3.036E+00     1.549E+00    -1.061E-06    -5.467E-06    -6.185E-06
X    -1.416E+00     3.036E+00     2.045E+00    -2.291E-07    -1.181E-06    -1.336E-06
X    -1.416E+00     3.036E+00     2.540E+00    -3.231E-12    -1.665E-11    -1.884E-11
X    -1.416E+00     3.036E+00     3.036E+00     0.000E+00     0.000E+00     0.000E+00
X    -1.416E+00     3.036E+00     3.531E+00     0.000E+00     0.000E+00     0.000E+00
X    -1.416E+00     3.036E+00     4.027E+00     0.000E+00     0.000E+00     0.000E+00
X    -1.416E+00     3.036E+00     4.523E+00     0.000E+00     0.000E+00     0.000E+00
X    -1.416E+00     3.531E+00    -4.895E+00     0.000E+00     0.000E+00     0.000E+00
X    -1.416E+00     3.531E+00    -4.399E+00     0.000E+00     0.000E+00     0.000E+00
X    -1.416E+00     3.531E+00    -3.903E+00     0.000E+00     0.000E+00     0.000E+00
X    -1.416E+00     3.531E+00    -3.408E+00     0.000E+00     0.000E+00     0.000E+00
X    -1.416E+00     3.531E+00    -2.912E+00     0.000E+00     0.000E+00     0.000E+00
X    -1.416E+00     3.531E+00    -2.416E+00     0.000E+00     0.000E+00     0.000E+00
X    -1.416E+00     3.531E+00    -1.921E+00     0.000E+00     0.000E+00     0.000E+00
X    -1.416E+00     3.531E+00    -1.425E+00    -3.085E-08    -1.588E-07    -1.797E-07
X    -1.416E+00     3.531E+00    -9.293E-01    -2.462E-07    -1.268E-06    -1.434E-06
X    -1.416E+00     3.531E+00    -4.337E-01    -4.791E-07    -2.468E-06    -2.791E-06
X    -1.416E+00     3.531E+00     6.196E-02    -5.596E-07    -2.883E-06    -3.261E-06
X    -1.416E+00     3.531E+00     5.576E-01    -4.296E-07    -2.214E-06    -2.504E-06
X    -1.416E+00     3.531E+00     1.053E+00    -1.826E-07    -9.412E-07    -1.065E-06
X    -1.416E+00     3.531E+00     1.549E+00    -5.188E-09    -2.674E-08    -3.024E-08
X    -1.416E+00     3.531E+00     2.045E+00     0.000E+00     0.000E+00     0.000E+00
X    -1.416E+00     3.531E+00     2.540E+00     0.000E+00     0.000E+00     0.000E+00
X    -1.416E+00     3.531E+00     3.036E+00     0.000E+00     0.000E+00     0.000E+00
X    -1.416E+00     3.531E+00     3.531E+00     0.000E+00     0.000E+00     0.000E+00
X    -1.416E+00     3.531E+00     4.027E+00     0.000E+00     0.000E+00     0.000E+00
X    -1.416E+00     3.531E+00     4.523E+00     0.000E+00     0.000E+00     0.000E+00
X    -1.416E+00     4.027E+00    -4.895E+00     0.000E+00     0.000E+00     0.000E+00
X    -1.416E+00     4.027E+00    -4.399E+00     0.000E+00     0.000E+00     0.000E+00
X    -1.416E+00     4.027E+00    -3.903E+00     0.000E+00     0.000E+00     0.000E+00
X    -1.416E+00     4.027E+00    -3.408E+00     0.000E+00     0.000E+00     0.000E+00
X    -1.416E+00     4.027E+00    -2.912E+00     0.000E+00     0.000E+00     0.000E+00
X    -1.416E+00     4.027E+00    -2.416E+00     0.000E+00     0.000E+00     0.000E+00
X    -1.416E+00     4.027E+00    -1.921E+00     0.000E+00     0.000E+00     0.000E+00
X    -1.416E+00     4.027E+00    -1.425E+00     0.000E+00     0.000E+00     0.000E+00
X    -1.416E+00     4.027E+00    -9.293E-01     0.000E+00     0.000E+00     0.000E+00
X    -1.416E+00     4.027E+00    -4.337E-01     0.000E+00     0.000E+00     0.000E+00
X    -1.416E+00     4.027E+00     6.196E-02     0.000E+00     0.000E+00     0.000E+00
X    -1.416E+00     4.027E+00     5.576E-01     0.000E+00     0.000E+00     0.000E+00
X    -1.416E+00     4.027E+00     1.053E+00     0.000E+00     0.000E+00     0.000E+00
X    -1.416E+00     4.027E+00     1.549E+00     0.000E+00     0.000E+00     0.000E+00
X    -1.416E+00     4.027E+00     2.045E+00     0.000E+00     0.000E+00     0.000E+00
X    -1.416E+00     4.027E+00     2.540E+00     0.000E+00     0.000E+00     0.000E+00
X    -1.416E+00     4.027E+00     3.036E+00     0.000E+00     0.000E+00     0.000E+00
X    -1.416E+00     4.027E+00     3.531E+00     0.000E+00     0.000E+00     0.000E+00
X    -1.416E+00     4.027E+00     4.027E+00     0.000E+00     0.000E+00     0.000E+00
X    -1.416E+00     4.027E+00     4.523E+00     0.000E+00     0.000E+00     0.000E+00
X    -1.416E+00     4.523E+00    -4.895E+00     0.000E+00     0.000E+00     0.000E+00
X    -1.416E+00     4.523E+00    -4.399E+00     0.000E+00     0.000E+00     0.000E+00
X    -1.416E+00     4.523E+00    -3.903E+00     0.000E+00     0.000E+00     0.000E+00
X    -1.416E+00     4.523E+00    -3.408E+00     0.000E+00     0.000E+00     0.000E+00
X    -1.416E+00     4.523E+00    -2.912E+00     0.000E+00     0.000E+00     0.000E+00
X    -1.416E+00     4.523E+00    -2.416E+00     0.000E+00     0.000E+00     0.000E+00
X    -1.416E+00     4.523E+00    -1.921E+00     0.000E+00     0.000E+00     0.000E+00
X    -1.416E+00     4.523E+00    -1.425E+00     0.000E+00     0.000E+00     0.000E+00
X    -1.416E+00     4.523E+00    -9.293E-01     0.000E+00     0.000E+00     0.000E+00
X    -1.416E+00     4.523E+00    -4.337E-01     0.000E+00     0.000E+00     0.000E+00
X    -1.416E+00     4.523E+00     6.196E-02     0.000E+00     0.000E+00     0.000E+00
X    -1.416E+00     4.523E+00     5.576E-01     0.000E+00     0.000E+00     0.000E+00
X    -1.416E+00     4.523E+00     1.053E+00     0.000E+00     0.000E+00     0.000E+00
X    -1.416E+00     4.523E+00     1.549E+00     0.000E+00     0.000E+00     0.000E+00
X    -1.416E+00     4.523E+00     2.045E+00     0.000E+00     0.000E+00     0.000E+00
X    -1.416E+00     4.523E+00     2.540E+00     0.000E+00     0.000E+00     0.000E+00
X    -1.416E+00     4.523E+00     3.036E+00     0.000E+00     0.000E+00     0.000E+00
X    -1.416E+00     4.523E+00     3.531E+00     0.000E+00     0.000E+00     0.000E+00
X    -1.416E+00     4.523E+00     4.027E+00     0.000E+00     0.000E+00     0.000E+00
X    -1.416E+00     4.523E+00     4.523E+00     0.000E+00     0.000E+00     0.000E+00
X    -9.206E-01    -4.895E+00    -4.895E+00     0.000E+00     0.000E+00     0.000E+00
X    -9.206E-01    -4.895E+00    -4.399E+00     0.000E+00     0.000E+00     0.000E+00
X    -9.206E-01    -4.895E+00    -3.903E+00     0.000E+00     0.000E+00     0.000E+00
X    -9.206E-01    -4.895E+00    -3.408E+00     0.000E+00     0.000E+00     0.000E+00
X    -9.206E-01    -4.895E+00    -2.912E+00     0.000E+00     0.000E+00     0.000E+00
X    -9.206E-01    -4.895E+00    -2.416E+00     0.000E+00     0.000E+00     0.000E+00
X    -9.206E-01    -4.895E+00    -1.921E+00     0.000E+00     0.000E+00     0.000E+00
X    -9.206E-01    -4.895E+00    -1.425E+00     0.000E+00     0.000E+00     0.000E+00
X    -9.206E-01    -4.895E+00    -9.293E-01     0.000E+00     0.000E+00     0.000E+00
X    -9.206E-01    -4.895E+00    -4.337E-01     0.000E+00     0.000E+00     0.000E+00
X    -9.206E-01    -4.895E+00     6.196E-02     0.000E+00     0.000E+00     0.000E+00
X    -9.206E-01    -4.895E+00     5.576E-01     0.000E+00     0.000E+00     0.000E+00
X    -9.206E-01    -4.895E+00     1.053E+00     0.000E+00     0.000E+00     0.000E+00
X    -9.206E-01    -4.895E+00     1.549E+00     0.000E+00     0.000E+00     0.000E+00
X    -9.206E-01    -4.895E+00     2.045E+00     0.000E+00     0.000E+00     0.000E+00
X    -9.206E-01    -4.895E+00     2.540E+00     0.000E+00     0.000E+00     0.000E+00
X    -9.206E-01    -4.895E+00     3.036E+00     0.000E+00     0.000E+00     0.000E+00
X    -9.206E-01    -4.895E+00     3.531E+00     0.000E+00     0.000E+00     0.000E+00
X    -9.206E-01    -4.895E+00     4.027E+00     0.000E+00     0.000E+00     0.000E+00
X    -9.206E-01    -4.895E+00     4.523E+00     0.000E+00     0.000E+00     0.000E+00
X    -9.206E-01    -4.399E+00    -4.895E+00     0.000E+00     0.000E+00     0.000E+00
X    -9.206E-01    -4.399E+00    -4.399E+00     0.000E+00     0.000E+00     0.000E+00
X    -9.206E-01    -4.399E+00    -3.903E+00     0.000E+00     0.000E+00     0.000E+00
X    -9.206E-01    -4.399E+00    -3.408E+00     0.000E+00     0.000E+00     0.000E+00
X    -9.206E-01    -4.399E+00    -2.912E+00     0.000E+00     0.000E+00     0.000E+00
X    -9.206E-01    -4.399E+00    -2.416E+00     0.000E+00     0.000E+00     0.000E+00
X    -9.206E-01    -4.399E+00    -1.921E+00     0.000E+00     0.000E+00     0.000E+00
X    -9.206E-01    -4.399E+00    -1.425E+00     0.000E+00     0.000E+00     0.000E+00
X    -9.206E-01    -4.399E+00    -9.293E-01     0.000E+00     0.000E+00     0.000E+00
X    -9.206E-01    -4.399E+00    -4.337E-01     0.000E+00     0.000E+00     0.000E+00
X    -9.206E-01    -4.399E+00     6.196E-02     0.000E+00     0.000E+00     0.000E+00
X    -9.206E-01    -4.399E+00     5.576E-01     0.000E+00     0.000E+00     0.000E+00
X    -9.206E-01    -4.399E+00     1.053E+00     0.000E+00     0.000E+00     0.000E+00
X    -9.206E-01    -4.399E+00     1.549E+00     0.000E+00     0.000E+00     0.000E+00
X    -9.206E-01    -4.399E+00     2.045E+00     0.000E+00     0.000E+00     0.000E+00
X    -9.206E-01    -4.399E+00     2.540E+00     0.000E+00     0.000E+00     0.000E+00
X    -9.206E-01    -4.399E+00     3.036E+00     0.000E+00     0.000E+00     0.000E+00
X    -9.206E-01    -4.399E+00     3.531E+00     0.000E+00     0.000E+00     0.000E+00
X    -9.206E-01    -4.399E+00     4.027E+00     0.000E+00     0.000E+00     0.000E+00
X    -9.206E-01    -4.399E+00     4.523E+00     0.000E+00     0.000E+00     0.000E+00
X    -9.206E-01    -3.903E+00    -4.895E+00     0.000E+00     0.000E+00     0.000E+00
X    -9.206E-01    -3.903E+00    -4.399E+00     0.000E+00     0.000E+00     0.000E+00
X    -9.206E-01    -3.903E+00    -3.903E+00     0.000E+00     0.000E+00     0.000E+00
X    -9.206E-01    -3.903E+00    -3.408E+00     0.000E+00     0.000E+00     0.000E+00
X    -9.206E-01    -3.903E+00    -2.912E+00     0.000E+00     0.000E+00     0.000E+00
X    -9.206E-01    -3.903E+00    -2.416E+00     0.000E+00     0.000E+00     0.000E+00
X    -9.206E-01    -3.903E+00    -1.921E+00     0.000E+00     0.000E+00     0.000E+00
X    -9.206E-01    -3.903E+00    -1.425E+00     0.000E+00     0.000E+00     0.000E+00
X    -9.206E-01    -3.903E+00    -9.293E-01    -3.224E-09    -1.656E-08    -1.874E-08
X    -9.206E-01    -3.903E+00    -4.337E-01    -5.924E-08    -3.044E-07    -3.444E-07
X    -9.206E-01    -3.903E+00     6.196E-02    -8.611E-08    -4.426E-07    -5.006E-07
X    -9.206E-01    -3.903E+00     5.576E-01    -4.417E-08    -2.270E-07    -2.568E-07
X    -9.206E-01    -3.903E+00     1.053E+00    -3.957E-10    -2.034E-09    -2.301E-09
X    -9.206E-01    -3.903E+00     1.549E+00     0.000E+00     0.000E+00     0.000E+00
X    -9.206E-01    -3.903E+00     2.045E+00     0.000E+00     0.000E+00     0.000E+00
X    -9.206E-01    -3.903E+00     2.540E+00     0.000E+00     0.000E+00     0.000E+00
X    -9.206E-01    -3.903E+00     3.036E+00     0.000E+00     0.000E+00     0.000E+00
X    -9.206E-01    -3.903E+00     3.531E+00     0.000E+00     0.000E+00     0.000E+00
X    -9.206E-01    -3.903E+00     4.027E+00     0.000E+00     0.000E+00     0.000E+00
X    -9.206E-01    -3.903E+00     4.523E+00     0.000E+00     0.000E+00     0.000E+00
X    -9.206E-01    -3.408E+00    -4.895E+00     0.000E+00     0.000E+00     0.000E+00
X    -9.206E-01    -3.408E+00    -4.399E+00     0.000E+00     0.000E+00     0.000E+00
X    -9.206E-01    -3.408E+00    -3.903E+00     0.000E+00     0.000E+00     0.000E+00
X    -9.206E-01    -3.408E+00    -3.408E+00     0.000E+00     0.000E+00     0.000E+00
X    -9.206E-01    -3.408E+00    -2.912E+00     0.000E+00     0.000E+00     0.000E+00
X    -9.206E-01    -3.408E+00    -2.416E+00     0.000E+00     0.000E+00     0.000E+00
X    -9.206E-01    -3.408E+00    -1.921E+00    -7.659E-08    -3.934E-07    -4.451E-07
X    -9.206E-01    -3.408E+00    -1.425E+00    -5.687E-07    -2.922E-06    -3.305E-06
X    -9.206E-01    -3.408E+00    -9.293E-01    -1.328E-06    -6.822E-06    -7.718E-06
X    -9.206E-01    -3.408E+00    -4.337E-01    -2.027E-06    -1.041E-05    -1.178E-05
X    -9.206E-01    -3.408E+00     6.196E-02    -2.260E-06    -1.161E-05    -1.314E-05
X    -9.206E-01    -3.408E+00     5.576E-01    -1.881E-06    -9.669E-06    -1.094E-05
X    -9.206E-01    -3.408E+00     1.053E+00    -1.127E-06    -5.792E-06    -6.552E-06
X    -9.206E-01    -3.408E+00     1.549E+00    -4.120E-07    -2.119E-06    -2.397E-06
X    -9.206E-01    -3.408E+00     2.045E+00    -1.907E-08    -9.805E-08    -1.109E-07
X    -9.206E-01    -3.408E+00     2.540E+00     0.000E+00     0.000E+00     0.000E+00
X    -9.206E-01    -3.408E+00     3.036E+00     0.000E+00     0.000E+00     0.000E+00
X    -9.206E-01    -3.408E+00     3.531E+00     0.000E+00     0.000E+00     0.000E+00
X    -9.206E-01    -3.408E+00     4.027E+00     0.000E+00     0.000E+00     0.000E+00
X    -9.206E-01    -3.408E+00     4.523E+00     0.000E+00     0.000E+00     0.000E+00
X    -9.206E-01    -2.912E+00    -4.895E+00     0.000E+00     0.000E+00     0.000E+00
X    -9.206E-01    -2.912E+00    -4.399E+00     0.000E+00     0.000E+00     0.000E+00
X    -9.206E-01    -2.912E+00    -3.903E+00     0.000E+00     0.000E+00     0.000E+00
X    -9.206E-01    -2.912E+00    -3.408E+00     0.000E+00     0.000E+00     0.000E+00
X    -9.206E-01    -2.912E+00    -2.912E+00    -1.240E-12    -6.370E-12    -7.207E-12
X    -9.206E-01    -2.912E+00    -2.416E+00    -3.047E-07    -1.565E-06    -1.771E-06
X    -9.206E-01    -2.912E+00    -1.921E+00    -1.617E-06    -8.306E-06    -9.397E-06
X    -9.206E-01    -2.912E+00    -1.425E+00    -4.161E-06    -2.137E-05    -2.417E-05
X    -9.206E-01    -2.912E+00    -9.293E-01    -7.481E-06    -3.842E-05    -4.347E-05
X    -9.206E-01    -2.912E+00    -4.337E-01    -1.041E-05    -5.348E-05    -6.050E-05
X    -9.206E-01    -2.912E+00     6.196E-02    -1.139E-05    -5.851E-05    -6.619E-05
X    -9.206E-01    -2.912E+00     5.576E-01    -9.800E-06    -5.036E-05    -5.697E-05
X    -9.206E-01    -2.912E+00     1.053E+00    -6.623E-06    -3.405E-05    -3.852E-05
X    -9.206E-01    -2.912E+00     1.549E+00    -3.418E-06    -1.758E-05    -1.988E-05
X    -9.206E-01    -2.912E+00     2.045E+00    -1.174E-06    -6.037E-06    -6.830E-06
X    -9.206E-01    -2.912E+00     2.540E+00    -1.428E-07    -7.347E-07    -8.312E-07
X    -9.206E-01    -2.912E+00     3.036E+00     0.000E+00     0.000E+00     0.000E+00
X    -9.206E-01    -2.912E+00     3.531E+00     0.000E+00     0.000E+00     0.000E+00
X    -9.206E-01    -2.912E+00     4.027E+00     0.000E+00     0.000E+00     0.000E+00
X    -9.206E-01    -2.912E+00     4.523E+00     0.000E+00     0.000E+00     0.000E+00
X    -9.206E-01    -2.416E+00    -4.895E+00     0.000E+00     0.000E+00     0.000E+00
X    -9.206E-01    -2.416E+00    -4.399E+00     0.000E+00     0.000E+00     0.000E+00
X    -9.206E-01    -2.416E+00    -3.903E+00     0.000E+00     0.000E+00     0.000E+00
X    -9.206E-01    -2.416E+00    -3.408E+00     0.000E+00     0.000E+00     0.000E+00
X    -9.206E-01    -2.416E+00    -2.912E+00    -3.047E-07    -1.565E-06    -1.771E-06
X    -9.206E-01    -2.416E+00    -2.416E+00    -2.181E-06    -1.120E-05    -1.267E-05
X    -9.206E-01    -2.416E+00    -1.921E+00    -6.834E-06    -3.509E-05    -3.970E-05
X    -9.206E-01    -2.416E+00    -1.425E+00    -1.536E-05    -7.885E-05    -8.921E-05
X    -9.206E-01    -2.416E+00    -9.293E-01    -2.711E-05    -1.391E-04    -1.574E-04
X    -9.206E-01    -2.416E+00    -4.337E-01    -3.801E-05    -1.950E-04    -2.206E-04
X    -9.206E-01    -2.416E+00     6.196E-02    -4.176E-05    -2.144E-04    -2.425E-04
X    -9.206E-01    -2.416E+00     5.576E-01    -3.568E-05    -1.832E-04    -2.073E-04
X    -9.206E-01    -2.416E+00     1.053E+00    -2.400E-05    -1.233E-04    -1.395E-04
X    -9.206E-01    -2.416E+00     1.549E+00    -1.283E-05    -6.595E-05    -7.462E-05
X    -9.206E-01    -2.416E+00     2.045E+00    -5.342E-06    -2.748E-05    -3.109E-05
X    -9.206E-01    -2.416E+00     2.540E+00    -1.494E-06    -7.685E-06    -8.695E-06
X    -9.206E-01    -2.416E+00     3.036E+00    -1.182E-07    -6.083E-07    -6.883E-07
X    -9.206E-01    -2.416E+00     3.531E+00     0.000E+00     0.000E+00     0.000E+00
X    -9.206E-01    -2.416E+00     4.027E+00     0.000E+00     0.000E+00     0.000E+00
X    -9.206E-01    -2.416E+00     4.523E+00     0.000E+00     0.000E+00     0.000E+00
X    -9.206E-01    -1.921E+00    -4.895E+00     0.000E+00     0.000E+00     0.000E+00
X    -9.206E-01    -1.921E+00    -4.399E+00     0.000E+00     0.000E+00     0.000E+00
X    -9.206E-01    -1.921E+00    -3.903E+00     0.000E+00     0.000E+00     0.000E+00
X    -9.206E-01    -1.921E+00    -3.408E+00    -7.659E-08    -3.934E-07    -4.451E-07
X    -9.206E-01    -1.921E+00    -2.912E+00    -1.617E-06    -8.306E-06    -9.397E-06
X    -9.206E-01    -1.921E+00    -2.416E+00    -6.834E-06    -3.509E-05    -3.970E-05
X    -9.206E-01    -1.921E+00    -1.921E+00    -1.950E-05    -1.000E-04    -1.132E-04
X    -9.206E-01    -1.921E+00    -1.425E+00    -4.456E-05    -2.284E-04    -2.584E-04
X    -9.206E-01    -1.921E+00    -9.293E-01    -8.391E-05    -4.302E-04    -4.867E-04
X    -9.206E-01    -1.921E+00    -4.337E-01    -1.243E-04    -6.374E-04    -7.211E-04
X    -9.206E-01    -1.921E+00     6.196E-02    -1.389E-04    -7.128E-04    -8.064E-04
X    -9.206E-01    -1.921E+00     5.576E-01    -1.154E-04    -5.924E-04    -6.702E-04
X    -9.206E-01    -1.921E+00     1.053E+00    -7.294E-05    -3.749E-04    -4.241E-04
X    -9.206E-01    -1.921E+00     1.549E+00    -3.675E-05    -1.890E-04    -2.139E-04
X    -9.206E-01    -1.921E+00     2.045E+00    -1.533E-05    -7.885E-05    -8.922E-05
X    -9.206E-01    -1.921E+00     2.540E+00    -5.018E-06    -2.582E-05    -2.922E-05
X    -9.206E-01    -1.921E+00     3.036E+00    -9.911E-07    -5.101E-06    -5.772E-06
X    -9.206E-01    -1.921E+00     3.531E+00    -1.990E-09    -1.024E-08    -1.159E-08
X    -9.206E-01    -1.921E+00     4.027E+00     0.000E+00     0.000E+00     0.000E+00
X    -9.206E-01    -1.921E+00     4.523E+00     0.000E+00     0.000E+00     0.000E+00
X    -9.206E-01    -1.425E+00    -4.895E+00     0.000E+00     0.000E+00     0.000E+00
X    -9.206E-01    -1.425E+00    -4.399E+00     0.000E+00     0.000E+00     0.000E+00
X    -9.206E-01    -1.425E+00    -3.903E+00     0.000E+00     0.000E+00     0.000E+00
X    -9.206E-01    -1.425E+00    -3.408E+00    -5.688E-07    -2.921E-06    -3.305E-06
X    -9.206E-01    -1.425E+00    -2.912E+00    -4.161E-06    -2.137E-05    -2.418E-05
X    -9.206E-01    -1.425E+00    -2.416E+00    -1.537E-05    -7.885E-05    -8.921E-05
X    -9.206E-01    -1.425E+00    -1.921E+00    -4.456E-05    -2.284E-04    -2.584E-04
X    -9.206E-01    -1.425E+00    -1.425E+00    -1.115E-04    -5.712E-04    -6.463E-04
X    -9.206E-01    -1.425E+00    -9.293E-01    -2.325E-04    -1.191E-03    -1.348E-03
X    -9.206E-01    -1.425E+00    -4.337E-01    -3.754E-04    -1.925E-03    -2.177E-03
X    -9.206E-01    -1.425E+00     6.196E-02    -4.313E-04    -2.213E-03    -2.504E-03
X    -9.206E-01    -1.425E+00     5.576E-01    -3.422E-04    -1.758E-03    -1.989E-03
X    -9.206E-01    -1.425E+00     1.053E+00    -1.967E-04    -1.012E-03    -1.145E-03
X    -9.206E-01    -1.425E+00     1.549E+00    -8.964E-05    -4.613E-04    -5.220E-04
X    -9.206E-01    -1.425E+00     2.045E+00    -3.450E-05    -1.776E-04    -2.010E-04
X    -9.206E-01    -1.425E+00     2.540E+00    -1.137E-05    -5.851E-05    -6.621E-05
X    -9.206E-01    -1.425E+00     3.036E+00    -2.787E-06    -1.435E-05    -1.623E-05
X    -9.206E-01    -1.425E+00     3.531E+00    -2.485E-07    -1.279E-06    -1.448E-06
X    -9.206E-01    -1.425E+00     4.027E+00     0.000E+00     0.000E+00     0.000E+00
X    -9.206E-01    -1.425E+00     4.523E+00     0.000E+00     0.000E+00     0.000E+00
X    -9.206E-01    -9.293E-01    -4.895E+00     0.000E+00     0.000E+00     0.000E+00
X    -9.206E-01    -9.293E-01    -4.399E+00     0.000E+00     0.000E+00     0.000E+00
X    -9.206E-01    -9.293E-01    -3.903E+00    -3.224E-09    -1.656E-08    -1.874E-08
X    -9.206E-01    -9.293E-01    -3.408E+00    -1.328E-06    -6.821E-06    -7.718E-06
X    -9.206E-01    -9.293E-01    -2.912E+00    -7.481E-06    -3.842E-05    -4.347E-05
X    -9.206E-01    -9.293E-01    -2.416E+00    -2.712E-05    -1.391E-04    -1.574E-04
X    -9.206E-01    -9.293E-01    -1.921E+00    -8.393E-05    -4.302E-04    -4.867E-04
X    -9.206E-01    -9.293E-01    -1.425E+00    -2.325E-04    -1.191E-03    -1.348E-03
X    -9.206E-01    -9.293E-01    -9.293E-01    -5.510E-04    -2.824E-03    -3.195E-03
X    -9.206E-01    -9.293E-01    -4.337E-01    -1.007E-03    -5.173E-03    -5.852E-03
X    -9.206E-01    -9.293E-01     6.196E-02    -1.216E-03    -6.250E-03    -7.070E-03
X    -9.206E-01    -9.293E-01     5.576E-01    -8.931E-04    -4.592E-03    -5.195E-03
X    -9.206E-01    -9.293E-01     1.053E+00    -4.510E-04    -2.321E-03    -2.626E-03
X    -9.206E-01    -9.293E-01     1.549E+00    -1.813E-04    -9.339E-04    -1.057E-03
X    -9.206E-01    -9.293E-01     2.045E+00    -6.356E-05    -3.274E-04    -3.705E-04
X    -9.206E-01    -9.293E-01     2.540E+00    -2.001E-05    -1.031E-04    -1.166E-04
X    -9.206E-01    -9.293E-01     3.036E+00    -5.173E-06    -2.664E-05    -3.014E-05
X    -9.206E-01    -9.293E-01     3.531E+00    -7.237E-07    -3.726E-06    -4.217E-06
X    -9.206E-01    -9.293E-01     4.027E+00     0.000E+00     0.000E+00     0.000E+00
X    -9.206E-01    -9.293E-01     4.523E+00     0.000E+00     0.000E+00     0.000E+00
X    -9.206E-01    -4.337E-01    -4.895E+00     0.000E+00     0.000E+00     0.000E+00
X    -9.206E-01    -4.337E-01    -4.399E+00     0.000E+00     0.000E+00     0.000E+00
X    -9.206E-01    -4.337E-01    -3.903E+00    -5.924E-08    -3.044E-07    -3.444E-07
X    -9.206E-01    -4.337E-01    -3.408E+00    -2.027E-06    -1.041E-05    -1.178E-05
X    -9.206E-01    -4.337E-01    -2.912E+00    -1.041E-05    -5.347E-05    -6.050E-05
X    -9.206E-01    -4.337E-01    -2.416E+00    -3.802E-05    -1.950E-04    -2.207E-04
X    -9.206E-01    -4.337E-01    -1.921E+00    -1.243E-04    -6.374E-04    -7.212E-04
X    -9.206E-01    -4.337E-01    -1.425E+00    -3.755E-04    -1.925E-03    -2.178E-03
X    -9.206E-01    -4.337E-01    -9.293E-01    -1.007E-03    -5.172E-03    -5.852E-03
X    -9.206E-01    -4.337E-01    -4.337E-01    -2.193E-03    -1.133E-02    -1.281E-02
X    -9.206E-01    -4.337E-01     6.196E-02    -2.899E-03    -1.496E-02    -1.693E-02
X    -9.206E-01    -4.337E-01     5.576E-01    -1.868E-03    -9.603E-03    -1.086E-02
X    -9.206E-01    -4.337E-01     1.053E+00    -7.950E-04    -4.094E-03    -4.633E-03
X    -9.206E-01    -4.337E-01     1.549E+00    -2.857E-04    -1.473E-03    -1.667E-03
X    -9.206E-01    -4.337E-01     2.045E+00    -9.266E-05    -4.778E-04    -5.407E-04
X    -9.206E-01    -4.337E-01     2.540E+00    -2.781E-05    -1.434E-04    -1.622E-04
X    -9.206E-01    -4.337E-01     3.036E+00    -7.237E-06    -3.728E-05    -4.218E-05
X    -9.206E-01    -4.337E-01     3.531E+00    -1.172E-06    -6.036E-06    -6.831E-06
X    -9.206E-01    -4.337E-01     4.027E+00    -2.203E-10    -1.135E-09    -1.284E-09
X    -9.206E-01    -4.337E-01     4.523E+00     0.000E+00     0.000E+00     0.000E+00
X    -9.206E-01     6.196E-02    -4.895E+00     0.000E+00     0.000E+00     0.000E+00
X    -9.206E-01     6.196E-02    -4.399E+00     0.000E+00     0.000E+00     0.000E+00
X    -9.206E-01     6.196E-02    -3.903E+00    -8.612E-08    -4.425E-07    -5.007E-07
X    -9.206E-01     6.196E-02    -3.408E+00    -2.261E-06    -1.161E-05    -1.314E-05
X    -9.206E-01     6.196E-02    -2.912E+00    -1.139E-05    -5.850E-05    -6.620E-05
X    -9.206E-01     6.196E-02    -2.416E+00    -4.177E-05    -2.143E-04    -2.425E-04
X    -9.206E-01     6.196E-02    -1.921E+00    -1.390E-04    -7.127E-04    -8.065E-04
X    -9.206E-01     6.196E-02    -1.425E+00    -4.315E-04    -2.213E-03    -2.504E-03
X    -9.206E-01     6.196E-02    -9.293E-01    -1.216E-03    -6.249E-03    -7.071E-03
X    -9.206E-01     6.196E-02    -4.337E-01    -2.897E-03    -1.496E-02    -1.693E-02
X    -9.206E-01     6.196E-02     6.196E-02    -4.067E-03    -2.086E-02    -2.360E-02
X    -9.206E-01     6.196E-02     5.576E-01    -2.414E-03    -1.237E-02    -1.399E-02
X    -9.206E-01     6.196E-02     1.053E+00    -9.450E-04    -4.870E-03    -5.511E-03
X    -9.206E-01     6.196E-02     1.549E+00    -3.257E-04    -1.681E-03    -1.902E-03
X    -9.206E-01     6.196E-02     2.045E+00    -1.030E-04    -5.315E-04    -6.015E-04
X    -9.206E-01     6.196E-02     2.540E+00    -3.045E-05    -1.571E-04    -1.777E-04
X    -9.206E-01     6.196E-02     3.036E+00    -7.920E-06    -4.080E-05    -4.617E-05
X    -9.206E-01     6.196E-02     3.531E+00    -1.324E-06    -6.821E-06    -7.719E-06
X    -9.206E-01     6.196E-02     4.027E+00    -1.191E-09    -6.131E-09    -6.938E-09
X    -9.206E-01     6.196E-02     4.523E+00     0.000E+00     0.000E+00     0.000E+00
X    -9.206E-01     5.576E-01    -4.895E+00     0.000E+00     0.000E+00     0.000E+00
X    -9.206E-01     5.576E-01    -4.399E+00     0.000E+00     0.000E+00     0.000E+00
X    -9.206E-01     5.576E-01    -3.903E+00    -4.417E-08    -2.270E-07    -2.569E-07
X    -9.206E-01     5.576E-01    -3.408E+00    -1.881E-06    -9.667E-06    -1.094E-05
X    -9.206E-01     5.576E-01    -2.912E+00    -9.802E-06    -5.035E-05    -5.698E-05
X    -9.206E-01     5.576E-01    -2.416E+00    -3.569E-05    -1.832E-04    -2.073E-04
X    -9.206E-01     5.576E-01    -1.921E+00    -1.154E-04    -5.923E-04    -6.702E-04
X    -9.206E-01     5.576E-01    -1.425E+00    -3.423E-04    -1.758E-03    -1.989E-03
X    -9.206E-01     5.576E-01    -9.293E-01    -8.933E-04    -4.591E-03    -5.195E-03
X    -9.206E-01     5.576E-01    -4.337E-01    -1.867E-03    -9.602E-03    -1.086E-02
X    -9.206E-01     5.576E-01     6.196E-02    -2.413E-03    -1.237E-02    -1.399E-02
X    -9.206E-01     5.576E-01     5.576E-01    -1.604E-03    -8.244E-03    -9.327E-03
X    -9.206E-01     5.576E-01     1.053E+00    -7.105E-04    -3.667E-03    -4.149E-03
X    -9.206E-01     5.576E-01     1.549E+00    -2.617E-04    -1.352E-03    -1.530E-03
X    -9.206E-01     5.576E-01     2.045E+00    -8.628E-05    -4.454E-04    -5.040E-04
X    -9.206E-01     5.576E-01     2.540E+00    -2.616E-05    -1.349E-04    -1.527E-04
X    -9.206E-01     5.576E-01     3.036E+00    -6.809E-06    -3.509E-05    -3.971E-05
X    -9.206E-01     5.576E-01     3.531E+00    -1.078E-06    -5.554E-06    -6.284E-06
X    -9.206E-01     5.576E-01     4.027E+00    -6.774E-11    -3.489E-10    -3.948E-10
X    -9.206E-01     5.576E-01     4.523E+00     0.000E+00     0.000E+00     0.000E+00
X    -9.206E-01     1.053E+00    -4.895E+00     0.000E+00     0.000E+00     0.000E+00
X    -9.206E-01     1.053E+00    -4.399E+00     0.000E+00     0.000E+00     0.000E+00
X    -9.206E-01     1.053E+00    -3.903E+00    -3.958E-10    -2.034E-09    -2.302E-09
X    -9.206E-01     1.053E+00    -3.408E+00    -1.127E-06    -5.791E-06    -6.553E-06
X    -9.206E-01     1.053E+00    -2.912E+00    -6.624E-06    -3.404E-05    -3.852E-05
X    -9.206E-01     1.053E+00    -2.416E+00    -2.400E-05    -1.233E-04    -1.395E-04
X    -9.206E-01     1.053E+00    -1.921E+00    -7.297E-05    -3.749E-04    -4.241E-04
X    -9.206E-01     1.053E+00    -1.425E+00    -1.968E-04    -1.012E-03    -1.145E-03
X    -9.206E-01     1.053E+00    -9.293E-01    -4.512E-04    -2.321E-03    -2.626E-03
X    -9.206E-01     1.053E+00    -4.337E-01    -7.953E-04    -4.095E-03    -4.633E-03
X    -9.206E-01     1.053E+00     6.196E-02    -9.452E-04    -4.871E-03    -5.510E-03
X    -9.206E-01     1.053E+00     5.576E-01    -7.106E-04    -3.667E-03    -4.149E-03
X    -9.206E-01     1.053E+00     1.053E+00    -3.726E-04    -1.925E-03    -2.178E-03
X    -9.206E-01     1.053E+00     1.549E+00    -1.547E-04    -7.990E-04    -9.040E-04
X    -9.206E-01     1.053E+00     2.045E+00    -5.553E-05    -2.867E-04    -3.244E-04
X    -9.206E-01     1.053E+00     2.540E+00    -1.774E-05    -9.150E-05    -1.035E-04
X    -9.206E-01     1.053E+00     3.036E+00    -4.561E-06    -2.351E-05    -2.660E-05
X    -9.206E-01     1.053E+00     3.531E+00    -5.963E-07    -3.072E-06    -3.477E-06
X    -9.206E-01     1.053E+00     4.027E+00     0.000E+00     0.000E+00     0.000E+00
X    -9.206E-01     1.053E+00     4.523E+00     0.000E+00     0.000E+00     0.000E+00
X    -9.206E-01     1.549E+00    -4.895E+00     0.000E+00     0.000E+00     0.000E+00
X    -9.206E-01     1.549E+00    -4.399E+00     0.000E+00     0.000E+00     0.000E+00
X    -9.206E-01     1.549E+00    -3.903E+00     0.000E+00     0.000E+00     0.000E+00
X    -9.206E-01     1.549E+00    -3.408E+00    -4.121E-07    -2.118E-06    -2.397E-06
X    -9.206E-01     1.549E+00    -2.912E+00    -3.419E-06    -1.757E-05    -1.989E-05
X    -9.206E-01     1.549E+00    -2.416E+00    -1.283E-05    -6.595E-05    -7.462E-05
X    -9.206E-01     1.549E+00    -1.921E+00    -3.677E-05    -1.890E-04    -2.139E-04
X    -9.206E-01     1.549E+00    -1.425E+00    -8.968E-05    -4.613E-04    -5.219E-04
X    -9.206E-01     1.549E+00    -9.293E-01    -1.814E-04    -9.341E-04    -1.057E-03
X    -9.206E-01     1.549E+00    -4.337E-01    -2.859E-04    -1.473E-03    -1.667E-03
X    -9.206E-01     1.549E+00     6.196E-02    -3.258E-04    -1.681E-03    -1.901E-03
X    -9.206E-01     1.549E+00     5.576E-01    -2.618E-04    -1.352E-03    -1.529E-03
X    -9.206E-01     1.549E+00     1.053E+00    -1.547E-04    -7.991E-04    -9.040E-04
X    -9.206E-01     1.549E+00     1.549E+00    -7.259E-05    -3.749E-04    -4.242E-04
X    -9.206E-01     1.549E+00     2.045E+00    -2.863E-05    -1.478E-04    -1.672E-04
X    -9.206E-01     1.549E+00     2.540E+00    -9.479E-06    -4.887E-05    -5.529E-05
X    -9.206E-01     1.549E+00     3.036E+00    -2.253E-06    -1.161E-05    -1.314E-05
X    -9.206E-01     1.549E+00     3.531E+00    -1.558E-07    -8.026E-07    -9.082E-07
X    -9.206E-01     1.549E+00     4.027E+00     0.000E+00     0.000E+00     0.000E+00
X    -9.206E-01     1.549E+00     4.523E+00     0.000E+00     0.000E+00     0.000E+00
X    -9.206E-01     2.045E+00    -4.895E+00     0.000E+00     0.000E+00     0.000E+00
X    -9.206E-01     2.045E+00    -4.399E+00     0.000E+00     0.000E+00     0.000E+00
X    -9.206E-01     2.045E+00    -3.903E+00     0.000E+00     0.000E+00     0.000E+00
X    -9.206E-01     2.045E+00    -3.408E+00    -1.907E-08    -9.805E-08    -1.109E-07
X    -9.206E-01     2.045E+00    -2.912E+00    -1.174E-06    -6.037E-06    -6.830E-06
X    -9.206E-01     2.045E+00    -2.416E+00    -5.343E-06    -2.748E-05    -3.109E-05
X    -9.206E-01     2.045E+00    -1.921E+00    -1.533E-05    -7.886E-05    -8.921E-05
X    -9.206E-01     2.045E+00    -1.425E+00    -3.452E-05    -1.777E-04    -2.010E-04
X    -9.206E-01     2.045E+00    -9.293E-01    -6.359E-05    -3.275E-04    -3.705E-04
X    -9.206E-01     2.045E+00    -4.337E-01    -9.270E-05    -4.779E-04    -5.406E-04
X    -9.206E-01     2.045E+00     6.196E-02    -1.030E-04    -5.317E-04    -6.014E-04
X    -9.206E-01     2.045E+00     5.576E-01    -8.630E-05    -4.455E-04    -5.040E-04
X    -9.206E-01     2.045E+00     1.053E+00    -5.554E-05    -2.867E-04    -3.244E-04
X    -9.206E-01     2.045E+00     1.549E+00    -2.863E-05    -1.478E-04    -1.672E-04
X    -9.206E-01     2.045E+00     2.045E+00    -1.205E-05    -6.213E-05    -7.029E-05
X    -9.206E-01     2.045E+00     2.540E+00    -3.887E-06    -2.004E-05    -2.267E-05
X    -9.206E-01     2.045E+00     3.036E+00    -6.898E-07    -3.555E-06    -4.022E-06
X    -9.206E-01     2.045E+00     3.531E+00    -2.260E-11    -1.164E-10    -1.318E-10
X    -9.206E-01     2.045E+00     4.027E+00     0.000E+00     0.000E+00     0.000E+00
X    -9.206E-01     2.045E+00     4.523E+00     0.000E+00     0.000E+00     0.000E+00
X    -9.206E-01     2.540E+00    -4.895E+00     0.000E+00     0.000E+00     0.000E+00
X    -9.206E-01     2.540E+00    -4.399E+00     0.000E+00     0.000E+00     0.000E+00
X    -9.206E-01     2.540E+00    -3.903E+00     0.000E+00     0.000E+00     0.000E+00
X    -9.206E-01     2.540E+00    -3.408E+00     0.000E+00     0.000E+00     0.000E+00
X    -9.206E-01     2.540E+00    -2.912E+00    -1.428E-07    -7.347E-07    -8.312E-07
X    -9.206E-01     2.540E+00    -2.416E+00    -1.494E-06    -7.685E-06    -8.695E-06
X    -9.206E-01     2.540E+00    -1.921E+00    -5.019E-06    -2.583E-05    -2.922E-05
X    -9.206E-01     2.540E+00    -1.425E+00    -1.137E-05    -5.852E-05    -6.620E-05
X    -9.206E-01     2.540E+00    -9.293E-01    -2.002E-05    -1.031E-04    -1.166E-04
X    -9.206E-01     2.540E+00    -4.337E-01    -2.782E-05    -1.434E-04    -1.622E-04
X    -9.206E-01     2.540E+00     6.196E-02    -3.046E-05    -1.571E-04    -1.777E-04
X    -9.206E-01     2.540E+00     5.576E-01    -2.616E-05    -1.350E-04    -1.527E-04
X    -9.206E-01     2.540E+00     1.053E+00    -1.774E-05    -9.151E-05    -1.035E-04
X    -9.206E-01     2.540E+00     1.549E+00    -9.480E-06    -4.887E-05    -5.529E-05
X    -9.206E-01     2.540E+00     2.045E+00    -3.887E-06    -2.004E-05    -2.267E-05
X    -9.206E-01     2.540E+00     2.540E+00    -9.897E-07    -5.101E-06    -5.771E-06
X    -9.206E-01     2.540E+00     3.036E+00    -3.047E-08    -1.570E-07    -1.777E-07
X    -9.206E-01     2.540E+00     3.531E+00     0.000E+00     0.000E+00     0.000E+00
X    -9.206E-01     2.540E+00     4.027E+00     0.000E+00     0.000E+00     0.000E+00
X    -9.206E-01     2.540E+00     4.523E+00     0.000E+00     0.000E+00     0.000E+00
X    -9.206E-01     3.036E+00    -4.895E+00     0.000E+00     0.000E+00     0.000E+00
X    -9.206E-01     3.036E+00    -4.399E+00     0.000E+00     0.000E+00     0.000E+00
X    -9.206E-01     3.036E+00    -3.903E+00     0.000E+00     0.000E+00     0.000E+00
X    -9.206E-01     3.036E+00    -3.408E+00     0.000E+00     0.000E+00     0.000E+00
X    -9.206E-01     3.036E+00    -2.912E+00     0.000E+00     0.000E+00     0.000E+00
X    -9.206E-01     3.036E+00    -2.416E+00    -1.182E-07    -6.084E-07    -6.883E-07
X    -9.206E-01     3.036E+00    -1.921E+00    -9.913E-07    -5.101E-06    -5.771E-06
X    -9.206E-01     3.036E+00    -1.425E+00    -2.788E-06    -1.435E-05    -1.623E-05
X    -9.206E-01     3.036E+00    -9.293E-01    -5.174E-06    -2.664E-05    -3.014E-05
X    -9.206E-01     3.036E+00    -4.337E-01    -7.239E-06    -3.729E-05    -4.218E-05
X    -9.206E-01     3.036E+00     6.196E-02    -7.921E-06    -4.081E-05    -4.617E-05
X    -9.206E-01     3.036E+00     5.576E-01    -6.810E-06    -3.510E-05    -3.970E-05
X    -9.206E-01     3.036E+00     1.053E+00    -4.561E-06    -2.351E-05    -2.659E-05
X    -9.206E-01     3.036E+00     1.549E+00    -2.254E-06    -1.162E-05    -1.314E-05
X    -9.206E-01     3.036E+00     2.045E+00    -6.899E-07    -3.555E-06    -4.022E-06
X    -9.206E-01     3.036E+00     2.540E+00    -3.047E-08    -1.570E-07    -1.777E-07
X    -9.206E-01     3.036E+00     3.036E+00     0.000E+00     0.000E+00     0.000E+00
X    -9.206E-01     3.036E+00     3.531E+00     0.000E+00     0.000E+00     0.000E+00
X    -9.206E-01     3.036E+00     4.027E+00     0.000E+00     0.000E+00     0.000E+00
X    -9.206E-01     3.036E+00     4.523E+00     0.000E+00     0.000E+00     0.000E+00
X    -9.206E-01     3.531E+00    -4.895E+00     0.000E+00     0.000E+00     0.000E+00
X    -9.206E-01     3.531E+00    -4.399E+00     0.000E+00     0.000E+00     0.000E+00
X    -9.206E-01     3.531E+00    -3.903E+00     0.000E+00     0.000E+00     0.000E+00
X    -9.206E-01     3.531E+00    -3.408E+00     0.000E+00     0.000E+00     0.000E+00
X    -9.206E-01     3.531E+00    -2.912E+00     0.000E+00     0.000E+00     0.000E+00
X    -9.206E-01     3.531E+00    -2.416E+00     0.000E+00     0.000E+00     0.000E+00
X    -9.206E-01     3.531E+00    -1.921E+00    -1.990E-09    -1.024E-08    -1.159E-08
X    -9.206E-01     3.531E+00    -1.425E+00    -2.486E-07    -1.280E-06    -1.448E-06
X    -9.206E-01     3.531E+00    -9.293E-01    -7.239E-07    -3.727E-06    -4.216E-06
X    -9.206E-01     3.531E+00    -4.337E-01    -1.172E-06    -6.038E-06    -6.830E-06
X    -9.206E-01     3.531E+00     6.196E-02    -1.324E-06    -6.823E-06    -7.718E-06
X    -9.206E-01     3.531E+00     5.576E-01    -1.078E-06    -5.555E-06    -6.283E-06
X    -9.206E-01     3.531E+00     1.053E+00    -5.963E-07    -3.073E-06    -3.476E-06
X    -9.206E-01     3.531E+00     1.549E+00    -1.558E-07    -8.027E-07    -9.081E-07
X    -9.206E-01     3.531E+00     2.045E+00    -2.260E-11    -1.165E-10    -1.317E-10
X    -9.206E-01     3.531E+00     2.540E+00     0.000E+00     0.000E+00     0.000E+00
X    -9.206E-01     3.531E+00     3.036E+00     0.000E+00     0.000E+00     0.000E+00
X    -9.206E-01     3.531E+00     3.531E+00     0.000E+00     0.000E+00     0.000E+00
X    -9.206E-01     3.531E+00     4.027E+00     0.000E+00     0.000E+00     0.000E+00
X    -9.206E-01     3.531E+00     4.523E+00     0.000E+00     0.000E+00     0.000E+00
X    -9.206E-01     4.027E+00    -4.895E+00     0.000E+00     0.000E+00     0.000E+00
X    -9.206E-01     4.027E+00    -4.399E+00     0.000E+00     0.000E+00     0.000E+00
X    -9.206E-01     4.027E+00    -3.903E+00     0.000E+00     0.000E+00     0.000E+00
X    -9.206E-01     4.027E+00    -3.408E+00     0.000E+00     0.000E+00     0.000E+00
X    -9.206E-01     4.027E+00    -2.912E+00     0.000E+00     0.000E+00     0.000E+00
X    -9.206E-01     4.027E+00    -2.416E+00     0.000E+00     0.000E+00     0.000E+00
X    -9.206E-01     4.027E+00    -1.921E+00     0.000E+00     0.000E+00     0.000E+00
X    -9.206E-01     4.027E+00    -1.425E+00     0.000E+00     0.000E+00     0.000E+00
X    -9.206E-01     4.027E+00    -9.293E-01     0.000E+00     0.000E+00     0.000E+00
X    -9.206E-01     4.027E+00    -4.337E-01    -2.204E-10    -1.135E-09    -1.284E-09
X    -9.206E-01     4.027E+00     6.196E-02    -1.191E-09    -6.133E-09    -6.937E-09
X    -9.206E-01     4.027E+00     5.576E-01    -6.775E-11    -3.490E-10    -3.947E-10
X    -9.206E-01     4.027E+00     1.053E+00     0.000E+00     0.000E+00     0.000E+00
X    -9.206E-01     4.027E+00     1.549E+00     0.000E+00     0.000E+00     0.000E+00
X    -9.206E-01     4.027E+00     2.045E+00     0.000E+00     0.000E+00     0.000E+00
X    -9.206E-01     4.027E+00     2.540E+00     0.000E+00     0.000E+00     0.000E+00
X    -9.206E-01     4.027E+00     3.036E+00     0.000E+00     0.000E+00     0.000E+00
X    -9.206E-01     4.027E+00     3.531E+00     0.000E+00     0.000E+00     0.000E+00
X    -9.206E-01     4.027E+00     4.027E+00     0.000E+00     0.000E+00     0.000E+00
X    -9.206E-01     4.027E+00     4.523E+00     0.000E+00     0.000E+00     0.000E+00
X    -9.206E-01     4.523E+00    -4.895E+00     0.000E+00     0.000E+00     0.000E+00
X    -9.206E-01     4.523E+00    -4.399E+00     0.000E+00     0.000E+00     0.000E+00
X    -9.206E-01     4.523E+00    -3.903E+00     0.000E+00     0.000E+00     0.000E+00
X    -9.206E-01     4.523E+00    -3.408E+00     0.000E+00     0.000E+00     0.000E+00
X    -9.206E-01     4.523E+00    -2.912E+00     0.000E+00     0.000E+00     0.000E+00
X    -9.206E-01     4.523E+00    -2.416E+00     0.000E+00     0.000E+00     0.000E+00
X    -9.206E-01     4.523E+00    -1.921E+00     0.000E+00     0.000E+00     0.000E+00
X    -9.206E-01     4.523E+00    -1.425E+00     0.000E+00     0.000E+00     0.000E+00
X    -9.206E-01     4.523E+00    -9.293E-01     0.000E+00     0.000E+00     0.000E+00
X    -9.206E-01     4.523E+00    -4.337E-01     0.000E+00     0.000E+00     0.000E+00
X    -9.206E-01     4.523E+00     6.196E-02     0.000E+00     0.000E+00     0.000E+00
X    -9.206E-01     4.523E+00     5.576E-01     0.000E+00     0.000E+00     0.000E+00
X    -9.206E-01     4.523E+00     1.053E+00     0.000E+00     0.000E+00     0.000E+00
X    -9.206E-01     4.523E+00     1.549E+00     0.000E+00     0.000E+00     0.000E+00
X    -9.206E-01     4.523E+00     2.045E+00     0.000E+00     0.000E+00     0.000E+00
X    -9.206E-01     4.523E+00     2.540E+00     0.000E+00     0.000E+00     0.000E+00
X    -9.206E-01     4.523E+00     3.036E+00     0.000E+00     0.000E+00     0.000E+00
X    -9.206E-01     4.523E+00     3.531E+00     0.000E+00     0.000E+00     0.000E+00
X    -9.206E-01     4.523E+00     4.027E+00     0.000E+00     0.000E+00     0.000E+00
X    -9.206E-01     4.523E+00     4.523E+00     0.000E+00     0.000E+00     0.000E+00
X    -4.250E-01    -4.895E+00    -4.895E+00     0.000E+00     0.000E+00     0.000E+00
X    -4.250E-01    -4.895E+00    -4.399E+00     0.000E+00     0.000E+00     0.000E+00
X    -4.250E-01    -4.895E+00    -3.903E+00     0.000E+00     0.000E+00     0.000E+00
X    -4.250E-01    -4.895E+00    -3.408E+00     0.000E+00     0.000E+00     0.000E+00
X    -4.250E-01    -4.895E+00    -2.912E+00     0.000E+00     0.000E+00     0.000E+00
X    -4.250E-01    -4.895E+00    -2.416E+00     0.000E+00     0.000E+00     0.000E+00
X    -4.250E-01    -4.895E+00    -1.921E+00     0.000E+00     0.000E+00     0.000E+00
X    -4.250E-01    -4.895E+00    -1.425E+00     0.000E+00     0.000E+00     0.000E+00
X    -4.250E-01    -4.895E+00    -9.293E-01     0.000E+00     0.000E+00     0.000E+00
X    -4.250E-01    -4.895E+00    -4.337E-01     0.000E+00     0.000E+00     0.000E+00
X    -4.250E-01    -4.895E+00     6.196E-02     0.000E+00     0.000E+00     0.000E+00
X    -4.250E-01    -4.895E+00     5.576E-01     0.000E+00     0.000E+00     0.000E+00
X    -4.250E-01    -4.895E+00     1.053E+00     0.000E+00     0.000E+00     0.000E+00
X    -4.250E-01    -4.895E+00     1.549E+00     0.000E+00     0.000E+00     0.000E+00
X    -4.250E-01    -4.895E+00     2.045E+00     0.000E+00     0.000E+00     0.000E+00
X    -4.250E-01    -4.895E+00     2.540E+00     0.000E+00     0.000E+00     0.000E+00
X    -4.250E-01    -4.895E+00     3.036E+00     0.000E+00     0.000E+00     0.000E+00
X    -4.250E-01    -4.895E+00     3.531E+00     0.000E+00     0.000E+00     0.000E+00
X    -4.250E-01    -4.895E+00     4.027E+00     0.000E+00     0.000E+00     0.000E+00
X    -4.250E-01    -4.895E+00     4.523E+00     0.000E+00     0.000E+00     0.000E+00
X    -4.250E-01    -4.399E+00    -4.895E+00     0.000E+00     0.000E+00     0.000E+00
X    -4.250E-01    -4.399E+00    -4.399E+00     0.000E+00     0.000E+00     0.000E+00
X    -4.250E-01    -4.399E+00    -3.903E+00     0.000E+00     0.000E+00     0.000E+00
X    -4.250E-01    -4.399E+00    -3.408E+00     0.000E+00     0.000E+00     0.000E+00
X    -4.250E-01    -4.399E+00    -2.912E+00     0.000E+00     0.000E+00     0.000E+00
X    -4.250E-01    -4.399E+00    -2.416E+00     0.000E+00     0.000E+00     0.000E+00
X    -4.250E-01    -4.399E+00    -1.921E+00     0.000E+00     0.000E+00     0.000E+00
X    -4.250E-01    -4.399E+00    -1.425E+00     0.000E+00     0.000E+00     0.000E+00
X    -4.250E-01    -4.399E+00    -9.293E-01     0.000E+00     0.000E+00     0.000E+00
X    -4.250E-01    -4.399E+00    -4.337E-01     0.000E+00     0.000E+00     0.000E+00
X    -4.250E-01    -4.399E+00     6.196E-02     0.000E+00     0.000E+00     0.000E+00
X    -4.250E-01    -4.399E+00     5.576E-01     0.000E+00     0.000E+00     0.000E+00
X    -4.250E-01    -4.399E+00     1.053E+00     0.000E+00     0.000E+00     0.000E+00
X    -4.250E-01    -4.399E+00     1.549E+00     0.000E+00     0.000E+00     0.000E+00
X    -4.250E-01    -4.399E+00     2.045E+00     0.000E+00     0.000E+00     0.000E+00
X    -4.250E-01    -4.399E+00     2.540E+00     0.000E+00     0.000E+00     0.000E+00
X    -4.250E-01    -4.399E+00     3.036E+00     0.000E+00     0.000E+00     0.000E+00
X    -4.250E-01    -4.399E+00     3.531E+00     0.000E+00     0.000E+00     0.000E+00
X    -4.250E-01    -4.399E+00     4.027E+00     0.000E+00     0.000E+00     0.000E+00
X    -4.250E-01    -4.399E+00     4.523E+00     0.000E+00     0.000E+00     0.000E+00
X    -4.250E-01    -3.903E+00    -4.895E+00     0.000E+00     0.000E+00     0.000E+00
X    -4.250E-01    -3.903E+00    -4.399E+00     0.000E+00     0.000E+00     0.000E+00
X    -4.250E-01    -3.903E+00    -3.903E+00     0.000E+00     0.000E+00     0.000E+00
X    -4.250E-01    -3.903E+00    -3.408E+00     0.000E+00     0.000E+00     0.000E+00
X    -4.250E-01    -3.903E+00    -2.912E+00     0.000E+00     0.000E+00     0.000E+00
X    -4.250E-01    -3.903E+00    -2.416E+00     0.000E+00     0.000E+00     0.000E+00
X    -4.250E-01    -3.903E+00    -1.921E+00     0.000E+00     0.000E+00     0.000E+00
X    -4.250E-01    -3.903E+00    -1.425E+00    -3.612E-11    -1.857E-10    -2.101E-10
X    -4.250E-01    -3.903E+00    -9.293E-01    -5.869E-08    -3.017E-07    -3.413E-07
X    -4.250E-01    -3.903E+00    -4.337E-01    -1.844E-07    -9.481E-07    -1.072E-06
X    -4.250E-01    -3.903E+00     6.196E-02    -2.320E-07    -1.193E-06    -1.349E-06
X    -4.250E-01    -3.903E+00     5.576E-01    -1.559E-07    -8.016E-07    -9.068E-07
X    -4.250E-01    -3.903E+00     1.053E+00    -2.995E-08    -1.540E-07    -1.743E-07
X    -4.250E-01    -3.903E+00     1.549E+00    -1.654E-12    -8.506E-12    -9.623E-12
X    -4.250E-01    -3.903E+00     2.045E+00     0.000E+00     0.000E+00     0.000E+00
X    -4.250E-01    -3.903E+00     2.540E+00     0.000E+00     0.000E+00     0.000E+00
X    -4.250E-01    -3.903E+00     3.036E+00     0.000E+00     0.000E+00     0.000E+00
X    -4.250E-01    -3.903E+00     3.531E+00     0.000E+00     0.000E+00     0.000E+00
X    -4.250E-01    -3.903E+00     4.027E+00     0.000E+00     0.000E+00     0.000E+00
X    -4.250E-01    -3.903E+00     4.523E+00     0.000E+00     0.000E+00     0.000E+00
X    -4.250E-01    -3.408E+00    -4.895E+00     0.000E+00     0.000E+00     0.000E+00
X    -4.250E-01    -3.408E+00    -4.399E+00     0.000E+00     0.000E+00     0.000E+00
X    -4.250E-01    -3.408E+00    -3.903E+00     0.000E+00     0.000E+00     0.000E+00
X    -4.250E-01    -3.408E+00    -3.408E+00     0.000E+00     0.000E+00     0.000E+00
X    -4.250E-01    -3.408E+00    -2.912E+00     0.000E+00     0.000E+00     0.000E+00
X    -4.250E-01    -3.408E+00    -2.416E+00    -6.593E-12    -3.390E-11    -3.835E-11
X    -4.250E-01    -3.408E+00    -1.921E+00    -2.155E-07    -1.108E-06    -1.253E-06
X    -4.250E-01    -3.408E+00    -1.425E+00    -9.563E-07    -4.916E-06    -5.562E-06
X    -4.250E-01    -3.408E+00    -9.293E-01    -2.043E-06    -1.050E-05    -1.188E-05
X    -4.250E-01    -3.408E+00    -4.337E-01    -3.018E-06    -1.552E-05    -1.755E-05
X    -4.250E-01    -3.408E+00     6.196E-02    -3.340E-06    -1.717E-05    -1.943E-05
X    -4.250E-01    -3.408E+00     5.576E-01    -2.817E-06    -1.449E-05    -1.639E-05
X    -4.250E-01    -3.408E+00     1.053E+00    -1.758E-06    -9.040E-06    -1.023E-05
X    -4.250E-01    -3.408E+00     1.549E+00    -7.287E-07    -3.748E-06    -4.240E-06
X    -4.250E-01    -3.408E+00     2.045E+00    -1.065E-07    -5.478E-07    -6.198E-07
X    -4.250E-01    -3.408E+00     2.540E+00     0.000E+00     0.000E+00     0.000E+00
X    -4.250E-01    -3.408E+00     3.036E+00     0.000E+00     0.000E+00     0.000E+00
X    -4.250E-01    -3.408E+00     3.531E+00     0.000E+00     0.000E+00     0.000E+00
X    -4.250E-01    -3.408E+00     4.027E+00     0.000E+00     0.000E+00     0.000E+00
X    -4.250E-01    -3.408E+00     4.523E+00     0.000E+00     0.000E+00     0.000E+00
X    -4.250E-01    -2.912E+00    -4.895E+00     0.000E+00     0.000E+00     0.000E+00
X    -4.250E-01    -2.912E+00    -4.399E+00     0.000E+00     0.000E+00     0.000E+00
X    -4.250E-01    -2.912E+00    -3.903E+00     0.000E+00     0.000E+00     0.000E+00
X    -4.250E-01    -2.912E+00    -3.408E+00     0.000E+00     0.000E+00     0.000E+00
X    -4.250E-01    -2.912E+00    -2.912E+00    -6.500E-10    -3.341E-09    -3.780E-09
X    -4.250E-01    -2.912E+00    -2.416E+00    -5.710E-07    -2.935E-06    -3.321E-06
X    -4.250E-01    -2.912E+00    -1.921E+00    -2.449E-06    -1.259E-05    -1.424E-05
X    -4.250E-01    -2.912E+00    -1.425E+00    -5.905E-06    -3.033E-05    -3.431E-05
X    -4.250E-01    -2.912E+00    -9.293E-01    -1.033E-05    -5.303E-05    -5.999E-05
X    -4.250E-01    -2.912E+00    -4.337E-01    -1.428E-05    -7.326E-05    -8.288E-05
X    -4.250E-01    -2.912E+00     6.196E-02    -1.559E-05    -8.004E-05    -9.055E-05
X    -4.250E-01    -2.912E+00     5.576E-01    -1.345E-05    -6.907E-05    -7.813E-05
X    -4.250E-01    -2.912E+00     1.053E+00    -9.179E-06    -4.717E-05    -5.337E-05
X    -4.250E-01    -2.912E+00     1.549E+00    -4.916E-06    -2.528E-05    -2.860E-05
X    -4.250E-01    -2.912E+00     2.045E+00    -1.825E-06    -9.389E-06    -1.062E-05
X    -4.250E-01    -2.912E+00     2.540E+00    -3.251E-07    -1.672E-06    -1.892E-06
X    -4.250E-01    -2.912E+00     3.036E+00    -4.903E-12    -2.522E-11    -2.854E-11
X    -4.250E-01    -2.912E+00     3.531E+00     0.000E+00     0.000E+00     0.000E+00
X    -4.250E-01    -2.912E+00     4.027E+00     0.000E+00     0.000E+00     0.000E+00
X    -4.250E-01    -2.912E+00     4.523E+00     0.000E+00     0.000E+00     0.000E+00
X    -4.250E-01    -2.416E+00    -4.895E+00     0.000E+00     0.000E+00     0.000E+00
X    -4.250E-01    -2.416E+00    -4.399E+00     0.000E+00     0.000E+00     0.000E+00
X    -4.250E-01    -2.416E+00    -3.903E+00     0.000E+00     0.000E+00     0.000E+00
X    -4.250E-01    -2.416E+00    -3.408E+00    -6.593E-12    -3.390E-11    -3.835E-11
X    -4.250E-01    -2.416E+00    -2.912E+00    -5.710E-07    -2.935E-06    -3.321E-06
X    -4.250E-01    -2.416E+00    -2.416E+00    -3.231E-06    -1.660E-05    -1.879E-05
X    -4.250E-01    -2.416E+00    -1.921E+00    -9.467E-06    -4.857E-05    -5.495E-05
X    -4.250E-01    -2.416E+00    -1.425E+00    -2.101E-05    -1.077E-04    -1.218E-04
X    -4.250E-01    -2.416E+00    -9.293E-01    -3.757E-05    -1.925E-04    -2.178E-04
X    -4.250E-01    -2.416E+00    -4.337E-01    -5.365E-05    -2.750E-04    -3.111E-04
X    -4.250E-01    -2.416E+00     6.196E-02    -5.930E-05    -3.041E-04    -3.441E-04
X    -4.250E-01    -2.416E+00     5.576E-01    -5.015E-05    -2.574E-04    -2.912E-04
X    -4.250E-01    -2.416E+00     1.053E+00    -3.306E-05    -1.699E-04    -1.922E-04
X    -4.250E-01    -2.416E+00     1.549E+00    -1.753E-05    -9.010E-05    -1.019E-04
X    -4.250E-01    -2.416E+00     2.045E+00    -7.471E-06    -3.843E-05    -4.348E-05
X    -4.250E-01    -2.416E+00     2.540E+00    -2.278E-06    -1.172E-05    -1.326E-05
X    -4.250E-01    -2.416E+00     3.036E+00    -2.855E-07    -1.469E-06    -1.662E-06
X    -4.250E-01    -2.416E+00     3.531E+00     0.000E+00     0.000E+00     0.000E+00
X    -4.250E-01    -2.416E+00     4.027E+00     0.000E+00     0.000E+00     0.000E+00
X    -4.250E-01    -2.416E+00     4.523E+00     0.000E+00     0.000E+00     0.000E+00
X    -4.250E-01    -1.921E+00    -4.895E+00     0.000E+00     0.000E+00     0.000E+00
X    -4.250E-01    -1.921E+00    -4.399E+00     0.000E+00     0.000E+00     0.000E+00
X    -4.250E-01    -1.921E+00    -3.903E+00     0.000E+00     0.000E+00     0.000E+00
X    -4.250E-01    -1.921E+00    -3.408E+00    -2.155E-07    -1.108E-06    -1.253E-06
X    -4.250E-01    -1.921E+00    -2.912E+00    -2.449E-06    -1.259E-05    -1.424E-05
X    -4.250E-01    -1.921E+00    -2.416E+00    -9.467E-06    -4.857E-05    -5.495E-05
X    -4.250E-01    -1.921E+00    -1.921E+00    -2.674E-05    -1.370E-04    -1.550E-04
X    -4.250E-01    -1.921E+00    -1.425E+00    -6.355E-05    -3.255E-04    -3.682E-04
X    -4.250E-01    -1.921E+00    -9.293E-01    -1.255E-04    -6.429E-04    -7.273E-04
X    -4.250E-01    -1.921E+00    -4.337E-01    -1.936E-04    -9.917E-04    -1.122E-03
X    -4.250E-01    -1.921E+00     6.196E-02    -2.192E-04    -1.124E-03    -1.271E-03
X    -4.250E-01    -1.921E+00     5.576E-01    -1.781E-04    -9.141E-04    -1.034E-03
X    -4.250E-01    -1.921E+00     1.053E+00    -1.078E-04    -5.537E-04    -6.265E-04
X    -4.250E-01    -1.921E+00     1.549E+00    -5.173E-05    -2.660E-04    -3.010E-04
X    -4.250E-01    -1.921E+00     2.045E+00    -2.093E-05    -1.077E-04    -1.219E-04
X    -4.250E-01    -1.921E+00     2.540E+00    -7.041E-06    -3.624E-05    -4.100E-05
X    -4.250E-01    -1.921E+00     3.036E+00    -1.565E-06    -8.053E-06    -9.112E-06
X    -4.250E-01    -1.921E+00     3.531E+00    -5.085E-08    -2.616E-07    -2.961E-07
X    -4.250E-01    -1.921E+00     4.027E+00     0.000E+00     0.000E+00     0.000E+00
X    -4.250E-01    -1.921E+00     4.523E+00     0.000E+00     0.000E+00     0.000E+00
X    -4.250E-01    -1.425E+00    -4.895E+00     0.000E+00     0.000E+00     0.000E+00
X    -4.250E-01    -1.425E+00    -4.399E+00     0.000E+00     0.000E+00     0.000E+00
X    -4.250E-01    -1.425E+00    -3.903E+00    -3.612E-11    -1.857E-10    -2.101E-10
X    -4.250E-01    -1.425E+00    -3.408E+00    -9.564E-07    -4.916E-06    -5.562E-06
X    -4.250E-01    -1.425E+00    -2.912E+00    -5.906E-06    -3.032E-05    -3.431E-05
X    -4.250E-01    -1.425E+00    -2.416E+00    -2.101E-05    -1.077E-04    -1.219E-04
X    -4.250E-01    -1.425E+00    -1.921E+00    -6.356E-05    -3.255E-04    -3.682E-04
X    -4.250E-01    -1.425E+00    -1.425E+00    -1.715E-04    -8.779E-04    -9.932E-04
X    -4.250E-01    -1.425E+00    -9.293E-01    -3.932E-04    -2.012E-03    -2.276E-03
X    -4.250E-01    -1.425E+00    -4.337E-01    -6.904E-04    -3.533E-03    -3.997E-03
X    -4.250E-01    -1.425E+00     6.196E-02    -8.177E-04    -4.190E-03    -4.740E-03
X    -4.250E-01    -1.425E+00     5.576E-01    -6.173E-04    -3.169E-03    -3.585E-03
X    -4.250E-01    -1.425E+00     1.053E+00    -3.246E-04    -1.669E-03    -1.888E-03
X    -4.250E-01    -1.425E+00     1.549E+00    -1.348E-04    -6.938E-04    -7.851E-04
X    -4.250E-01    -1.425E+00     2.045E+00    -4.837E-05    -2.491E-04    -2.819E-04
X    -4.250E-01    -1.425E+00     2.540E+00    -1.554E-05    -8.003E-05    -9.057E-05
X    -4.250E-01    -1.425E+00     3.036E+00    -4.064E-06    -2.091E-05    -2.367E-05
X    -4.250E-01    -1.425E+00     3.531E+00    -4.876E-07    -2.509E-06    -2.839E-06
X    -4.250E-01    -1.425E+00     4.027E+00     0.000E+00     0.000E+00     0.000E+00
X    -4.250E-01    -1.425E+00     4.523E+00     0.000E+00     0.000E+00     0.000E+00
X    -4.250E-01    -9.293E-01    -4.895E+00     0.000E+00     0.000E+00     0.000E+00
X    -4.250E-01    -9.293E-01    -4.399E+00     0.000E+00     0.000E+00     0.000E+00
X    -4.250E-01    -9.293E-01    -3.903E+00    -5.869E-08    -3.017E-07    -3.414E-07
X    -4.250E-01    -9.293E-01    -3.408E+00    -2.043E-06    -1.050E-05    -1.188E-05
X    -4.250E-01    -9.293E-01    -2.912E+00    -1.034E-05    -5.302E-05    -6.000E-05
X    -4.250E-01    -9.293E-01    -2.416E+00    -3.757E-05    -1.925E-04    -2.178E-04
X    -4.250E-01    -9.293E-01    -1.921E+00    -1.256E-04    -6.429E-04    -7.273E-04
X    -4.250E-01    -9.293E-01    -1.425E+00    -3.932E-04    -2.012E-03    -2.276E-03
X    -4.250E-01    -9.293E-01    -9.293E-01    -1.114E-03    -5.693E-03    -6.441E-03
X    -4.250E-01    -9.293E-01    -4.337E-01    -2.567E-03    -1.311E-02    -1.483E-02
X    -4.250E-01    -9.293E-01     6.196E-02    -3.430E-03    -1.755E-02    -1.985E-02
X    -4.250E-01    -9.293E-01     5.576E-01    -2.143E-03    -1.101E-02    -1.245E-02
X    -4.250E-01    -9.293E-01     1.053E+00    -8.632E-04    -4.444E-03    -5.029E-03
X    -4.250E-01    -9.293E-01     1.549E+00    -2.958E-04    -1.524E-03    -1.725E-03
X    -4.250E-01    -9.293E-01     2.045E+00    -9.284E-05    -4.785E-04    -5.416E-04
X    -4.250E-01    -9.293E-01     2.540E+00    -2.740E-05    -1.412E-04    -1.598E-04
X    -4.250E-01    -9.293E-01     3.036E+00    -7.245E-06    -3.731E-05    -4.223E-05
X    -4.250E-01    -9.293E-01     3.531E+00    -1.181E-06    -6.078E-06    -6.879E-06
X    -4.250E-01    -9.293E-01     4.027E+00    -2.049E-10    -1.054E-09    -1.193E-09
X    -4.250E-01    -9.293E-01     4.523E+00     0.000E+00     0.000E+00     0.000E+00
X    -4.250E-01    -4.337E-01    -4.895E+00     0.000E+00     0.000E+00     0.000E+00
X    -4.250E-01    -4.337E-01    -4.399E+00     0.000E+00     0.000E+00     0.000E+00
X    -4.250E-01    -4.337E-01    -3.903E+00    -1.844E-07    -9.479E-07    -1.073E-06
X    -4.250E-01    -4.337E-01    -3.408E+00    -3.018E-06    -1.551E-05    -1.755E-05
X    -4.250E-01    -4.337E-01    -2.912E+00    -1.428E-05    -7.325E-05    -8.288E-05
X    -4.250E-01    -4.337E-01    -2.416E+00    -5.367E-05    -2.750E-04    -3.112E-04
X    -4.250E-01    -4.337E-01    -1.921E+00    -1.936E-04    -9.916E-04    -1.122E-03
X    -4.250E-01    -4.337E-01    -1.425E+00    -6.906E-04    -3.533E-03    -3.997E-03
X    -4.250E-01    -4.337E-01    -9.293E-01    -2.568E-03    -1.311E-02    -1.483E-02
X    -4.250E-01    -4.337E-01    -4.337E-01    -9.924E-03    -5.060E-02    -5.725E-02
X    -4.250E-01    -4.337E-01     6.196E-02    -1.814E-02    -9.302E-02    -1.052E-01
X    -4.250E-01    -4.337E-01     5.576E-01    -7.141E-03    -3.679E-02    -4.164E-02
X    -4.250E-01    -4.337E-01     1.053E+00    -1.812E-03    -9.354E-03    -1.059E-02
X    -4.250E-01    -4.337E-01     1.549E+00    -4.985E-04    -2.572E-03    -2.911E-03
X    -4.250E-01    -4.337E-01     2.045E+00    -1.397E-04    -7.210E-04    -8.160E-04
X    -4.250E-01    -4.337E-01     2.540E+00    -3.852E-05    -1.987E-04    -2.249E-04
X    -4.250E-01    -4.337E-01     3.036E+00    -9.991E-06    -5.149E-05    -5.828E-05
X    -4.250E-01    -4.337E-01     3.531E+00    -1.824E-06    -9.387E-06    -1.062E-05
X    -4.250E-01    -4.337E-01     4.027E+00    -2.389E-08    -1.229E-07    -1.391E-07
X    -4.250E-01    -4.337E-01     4.523E+00     0.000E+00     0.000E+00     0.000E+00
X    -4.250E-01     6.196E-02    -4.895E+00     0.000E+00     0.000E+00     0.000E+00
X    -4.250E-01     6.196E-02    -4.399E+00     0.000E+00     0.000E+00     0.000E+00
X    -4.250E-01     6.196E-02    -3.903E+00    -2.320E-07    -1.192E-06    -1.349E-06
X    -4.250E-01     6.196E-02    -3.408E+00    -3.340E-06    -1.717E-05    -1.943E-05
X    -4.250E-01     6.196E-02    -2.912E+00    -1.560E-05    -8.003E-05    -9.056E-05
X    -4.250E-01     6.196E-02    -2.416E+00    -5.932E-05    -3.041E-04    -3.441E-04
X    -4.250E-01     6.196E-02    -1.921E+00    -2.193E-04    -1.124E-03    -1.271E-03
X    -4.250E-01     6.196E-02    -1.425E+00    -8.181E-04    -4.189E-03    -4.740E-03
X    -4.250E-01     6.196E-02    -9.293E-01    -3.432E-03    -1.755E-02    -1.985E-02
X    -4.250E-01     6.196E-02    -4.337E-01    -1.815E-02    -9.301E-02    -1.052E-01
X    -4.250E-01     6.196E-02     6.196E-02    -4.665E-02    -2.390E-01    -2.704E-01
X    -4.250E-01     6.196E-02     5.576E-01    -1.169E-02    -6.057E-02    -6.854E-02
X    -4.250E-01     6.196E-02     1.053E+00    -2.316E-03    -1.199E-02    -1.357E-02
X    -4.250E-01     6.196E-02     1.549E+00    -5.812E-04    -3.004E-03    -3.400E-03
X    -4.250E-01     6.196E-02     2.045E+00    -1.570E-04    -8.106E-04    -9.174E-04
X    -4.250E-01     6.196E-02     2.540E+00    -4.237E-05    -2.187E-04    -2.475E-04
X    -4.250E-01     6.196E-02     3.036E+00    -1.090E-05    -5.622E-05    -6.363E-05
X    -4.250E-01     6.196E-02     3.531E+00    -2.040E-06    -1.050E-05    -1.188E-05
X    -4.250E-01     6.196E-02     4.027E+00    -4.355E-08    -2.242E-07    -2.537E-07
X    -4.250E-01     6.196E-02     4.523E+00     0.000E+00     0.000E+00     0.000E+00
X    -4.250E-01     5.576E-01    -4.895E+00     0.000E+00     0.000E+00     0.000E+00
X    -4.250E-01     5.576E-01    -4.399E+00     0.000E+00     0.000E+00     0.000E+00
X    -4.250E-01     5.576E-01    -3.903E+00    -1.559E-07    -8.015E-07    -9.070E-07
X    -4.250E-01     5.576E-01    -3.408E+00    -2.817E-06    -1.448E-05    -1.639E-05
X    -4.250E-01     5.576E-01    -2.912E+00    -1.345E-05    -6.906E-05    -7.814E-05
X    -4.250E-01     5.576E-01    -2.416E+00    -5.017E-05    -2.574E-04    -2.912E-04
X    -4.250E-01     5.576E-01    -1.921E+00    -1.782E-04    -9.140E-04    -1.034E-03
X    -4.250E-01     5.576E-01    -1.425E+00    -6.177E-04    -3.169E-03    -3.585E-03
X    -4.250E-01     5.576E-01    -9.293E-01    -2.145E-03    -1.101E-02    -1.245E-02
X    -4.250E-01     5.576E-01    -4.337E-01    -7.149E-03    -3.681E-02    -4.163E-02
X    -4.250E-01     5.576E-01     6.196E-02    -1.170E-02    -6.059E-02    -6.852E-02
X    -4.250E-01     5.576E-01     5.576E-01    -5.372E-03    -2.791E-02    -3.158E-02
X    -4.250E-01     5.576E-01     1.053E+00    -1.551E-03    -8.037E-03    -9.094E-03
X    -4.250E-01     5.576E-01     1.549E+00    -4.500E-04    -2.328E-03    -2.634E-03
X    -4.250E-01     5.576E-01     2.045E+00    -1.292E-04    -6.678E-04    -7.557E-04
X    -4.250E-01     5.576E-01     2.540E+00    -3.612E-05    -1.865E-04    -2.111E-04
X    -4.250E-01     5.576E-01     3.036E+00    -9.417E-06    -4.857E-05    -5.496E-05
X    -4.250E-01     5.576E-01     3.531E+00    -1.690E-06    -8.700E-06    -9.844E-06
X    -4.250E-01     5.576E-01     4.027E+00    -1.394E-08    -7.177E-08    -8.121E-08
X    -4.250E-01     5.576E-01     4.523E+00     0.000E+00     0.000E+00     0.000E+00
X    -4.250E-01     1.053E+00    -4.895E+00     0.000E+00     0.000E+00     0.000E+00
X    -4.250E-01     1.053E+00    -4.399E+00     0.000E+00     0.000E+00     0.000E+00
X    -4.250E-01     1.053E+00    -3.903E+00    -2.995E-08    -1.540E-07    -1.743E-07
X    -4.250E-01     1.053E+00    -3.408E+00    -1.758E-06    -9.038E-06    -1.023E-05
X    -4.250E-01     1.053E+00    -2.912E+00    -9.182E-06    -4.717E-05    -5.337E-05
X    -4.250E-01     1.053E+00    -2.416E+00    -3.308E-05    -1.699E-04    -1.922E-04
X    -4.250E-01     1.053E+00    -1.921E+00    -1.078E-04    -5.537E-04    -6.265E-04
X    -4.250E-01     1.053E+00    -1.425E+00    -3.248E-04    -1.669E-03    -1.888E-03
X    -4.250E-01     1.053E+00    -9.293E-01    -8.639E-04    -4.445E-03    -5.028E-03
X    -4.250E-01     1.053E+00    -4.337E-01    -1.814E-03    -9.359E-03    -1.058E-02
X    -4.250E-01     1.053E+00     6.196E-02    -2.317E-03    -1.200E-02    -1.357E-02
X    -4.250E-01     1.053E+00     5.576E-01    -1.551E-03    -8.038E-03    -9.093E-03
X    -4.250E-01     1.053E+00     1.053E+00    -6.825E-04    -3.534E-03    -3.998E-03
X    -4.250E-01     1.053E+00     1.549E+00    -2.470E-04    -1.278E-03    -1.446E-03
X    -4.250E-01     1.053E+00     2.045E+00    -8.027E-05    -4.150E-04    -4.695E-04
X    -4.250E-01     1.053E+00     2.540E+00    -2.423E-05    -1.251E-04    -1.416E-04
X    -4.250E-01     1.053E+00     3.036E+00    -6.432E-06    -3.316E-05    -3.752E-05
X    -4.250E-01     1.053E+00     3.531E+00    -9.971E-07    -5.134E-06    -5.809E-06
X    -4.250E-01     1.053E+00     4.027E+00    -2.122E-11    -1.093E-10    -1.236E-10
X    -4.250E-01     1.053E+00     4.523E+00     0.000E+00     0.000E+00     0.000E+00
X    -4.250E-01     1.549E+00    -4.895E+00     0.000E+00     0.000E+00     0.000E+00
X    -4.250E-01     1.549E+00    -4.399E+00     0.000E+00     0.000E+00     0.000E+00
X    -4.250E-01     1.549E+00    -3.903E+00    -1.654E-12    -8.505E-12    -9.624E-12
X    -4.250E-01     1.549E+00    -3.408E+00    -7.288E-07    -3.747E-06    -4.240E-06
X    -4.250E-01     1.549E+00    -2.912E+00    -4.917E-06    -2.528E-05    -2.860E-05
X    -4.250E-01     1.549E+00    -2.416E+00    -1.753E-05    -9.010E-05    -1.019E-04
X    -4.250E-01     1.549E+00    -1.921E+00    -5.176E-05    -2.661E-04    -3.010E-04
X    -4.250E-01     1.549E+00    -1.425E+00    -1.349E-04    -6.939E-04    -7.850E-04
X    -4.250E-01     1.549E+00    -9.293E-01    -2.960E-04    -1.524E-03    -1.724E-03
X    -4.250E-01     1.549E+00    -4.337E-01    -4.988E-04    -2.573E-03    -2.910E-03
X    -4.250E-01     1.549E+00     6.196E-02    -5.815E-04    -3.005E-03    -3.399E-03
X    -4.250E-01     1.549E+00     5.576E-01    -4.501E-04    -2.328E-03    -2.634E-03
X    -4.250E-01     1.549E+00     1.053E+00    -2.470E-04    -1.278E-03    -1.446E-03
X    -4.250E-01     1.549E+00     1.549E+00    -1.071E-04    -5.538E-04    -6.265E-04
X    -4.250E-01     1.549E+00     2.045E+00    -3.970E-05    -2.052E-04    -2.321E-04
X    -4.250E-01     1.549E+00     2.540E+00    -1.299E-05    -6.706E-05    -7.588E-05
X    -4.250E-01     1.549E+00     3.036E+00    -3.334E-06    -1.717E-05    -1.943E-05
X    -4.250E-01     1.549E+00     3.531E+00    -3.457E-07    -1.780E-06    -2.014E-06
X    -4.250E-01     1.549E+00     4.027E+00     0.000E+00     0.000E+00     0.000E+00
X    -4.250E-01     1.549E+00     4.523E+00     0.000E+00     0.000E+00     0.000E+00
X    -4.250E-01     2.045E+00    -4.895E+00     0.000E+00     0.000E+00     0.000E+00
X    -4.250E-01     2.045E+00    -4.399E+00     0.000E+00     0.000E+00     0.000E+00
X    -4.250E-01     2.045E+00    -3.903E+00     0.000E+00     0.000E+00     0.000E+00
X    -4.250E-01     2.045E+00    -3.408E+00    -1.065E-07    -5.478E-07    -6.198E-07
X    -4.250E-01     2.045E+00    -2.912E+00    -1.825E-06    -9.388E-06    -1.062E-05
X    -4.250E-01     2.045E+00    -2.416E+00    -7.474E-06    -3.843E-05    -4.348E-05
X    -4.250E-01     2.045E+00    -1.921E+00    -2.094E-05    -1.077E-04    -1.219E-04
X    -4.250E-01     2.045E+00    -1.425E+00    -4.840E-05    -2.491E-04    -2.818E-04
X    -4.250E-01     2.045E+00    -9.293E-01    -9.290E-05    -4.787E-04    -5.414E-04
X    -4.250E-01     2.045E+00    -4.337E-01    -1.398E-04    -7.212E-04    -8.157E-04
X    -4.250E-01     2.045E+00     6.196E-02    -1.570E-04    -8.109E-04    -9.172E-04
X    -4.250E-01     2.045E+00     5.576E-01    -1.292E-04    -6.679E-04    -7.555E-04
X    -4.250E-01     2.045E+00     1.053E+00    -8.029E-05    -4.150E-04    -4.695E-04
X    -4.250E-01     2.045E+00     1.549E+00    -3.970E-05    -2.052E-04    -2.321E-04
X    -4.250E-01     2.045E+00     2.045E+00    -1.644E-05    -8.492E-05    -9.608E-05
X    -4.250E-01     2.045E+00     2.540E+00    -5.541E-06    -2.856E-05    -3.231E-05
X    -4.250E-01     2.045E+00     3.036E+00    -1.132E-06    -5.831E-06    -6.598E-06
X    -4.250E-01     2.045E+00     3.531E+00    -7.082E-09    -3.646E-08    -4.126E-08
X    -4.250E-01     2.045E+00     4.027E+00     0.000E+00     0.000E+00     0.000E+00
X    -4.250E-01     2.045E+00     4.523E+00     0.000E+00     0.000E+00     0.000E+00
X    -4.250E-01     2.540E+00    -4.895E+00     0.000E+00     0.000E+00     0.000E+00
X    -4.250E-01     2.540E+00    -4.399E+00     0.000E+00     0.000E+00     0.000E+00
X    -4.250E-01     2.540E+00    -3.903E+00     0.000E+00     0.000E+00     0.000E+00
X    -4.250E-01     2.540E+00    -3.408E+00     0.000E+00     0.000E+00     0.000E+00
X    -4.250E-01     2.540E+00    -2.912E+00    -3.252E-07    -1.672E-06    -1.892E-06
X    -4.250E-01     2.540E+00    -2.416E+00    -2.278E-06    -1.172E-05    -1.326E-05
X    -4.250E-01     2.540E+00    -1.921E+00    -7.043E-06    -3.624E-05    -4.100E-05
X    -4.250E-01     2.540E+00    -1.425E+00    -1.555E-05    -8.005E-05    -9.055E-05
X    -4.250E-01     2.540E+00    -9.293E-01    -2.742E-05    -1.413E-04    -1.598E-04
X    -4.250E-01     2.540E+00    -4.337E-01    -3.854E-05    -1.988E-04    -2.248E-04
X    -4.250E-01     2.540E+00     6.196E-02    -4.239E-05    -2.188E-04    -2.474E-04
X    -4.250E-01     2.540E+00     5.576E-01    -3.613E-05    -1.866E-04    -2.111E-04
X    -4.250E-01     2.540E+00     1.053E+00    -2.423E-05    -1.252E-04    -1.416E-04
X    -4.250E-01     2.540E+00     1.549E+00    -1.299E-05    -6.707E-05    -7.587E-05
X    -4.250E-01     2.540E+00     2.045E+00    -5.541E-06    -2.856E-05    -3.231E-05
X    -4.250E-01     2.540E+00     2.540E+00    -1.564E-06    -8.053E-06    -9.111E-06
X    -4.250E-01     2.540E+00     3.036E+00    -1.298E-07    -6.682E-07    -7.560E-07
X    -4.250E-01     2.540E+00     3.531E+00     0.000E+00     0.000E+00     0.000E+00
X    -4.250E-01     2.540E+00     4.027E+00     0.000E+00     0.000E+00     0.000E+00
X    -4.250E-01     2.540E+00     4.523E+00     0.000E+00     0.000E+00     0.000E+00
X    -4.250E-01     3.036E+00    -4.895E+00     0.000E+00     0.000E+00     0.000E+00
X    -4.250E-01     3.036E+00    -4.399E+00     0.000E+00     0.000E+00     0.000E+00
X    -4.250E-01     3.036E+00    -3.903E+00     0.000E+00     0.000E+00     0.000E+00
X    -4.250E-01     3.036E+00    -3.408E+00     0.000E+00     0.000E+00     0.000E+00
X    -4.250E-01     3.036E+00    -2.912E+00    -4.903E-12    -2.522E-11    -2.853E-11
X    -4.250E-01     3.036E+00    -2.416E+00    -2.856E-07    -1.469E-06    -1.662E-06
X    -4.250E-01     3.036E+00    -1.921E+00    -1.565E-06    -8.054E-06    -9.111E-06
X    -4.250E-01     3.036E+00    -1.425E+00    -4.064E-06    -2.092E-05    -2.366E-05
X    -4.250E-01     3.036E+00    -9.293E-01    -7.247E-06    -3.732E-05    -4.222E-05
X    -4.250E-01     3.036E+00    -4.337E-01    -9.994E-06    -5.151E-05    -5.826E-05
X    -4.250E-01     3.036E+00     6.196E-02    -1.091E-05    -5.624E-05    -6.361E-05
X    -4.250E-01     3.036E+00     5.576E-01    -9.419E-06    -4.858E-05    -5.495E-05
X    -4.250E-01     3.036E+00     1.053E+00    -6.433E-06    -3.317E-05    -3.752E-05
X    -4.250E-01     3.036E+00     1.549E+00    -3.334E-06    -1.717E-05    -1.943E-05
X    -4.250E-01     3.036E+00     2.045E+00    -1.132E-06    -5.832E-06    -6.597E-06
X    -4.250E-01     3.036E+00     2.540E+00    -1.298E-07    -6.682E-07    -7.560E-07
X    -4.250E-01     3.036E+00     3.036E+00     0.000E+00     0.000E+00     0.000E+00
X    -4.250E-01     3.036E+00     3.531E+00     0.000E+00     0.000E+00     0.000E+00
X    -4.250E-01     3.036E+00     4.027E+00     0.000E+00     0.000E+00     0.000E+00
X    -4.250E-01     3.036E+00     4.523E+00     0.000E+00     0.000E+00     0.000E+00
X    -4.250E-01     3.531E+00    -4.895E+00     0.000E+00     0.000E+00     0.000E+00
X    -4.250E-01     3.531E+00    -4.399E+00     0.000E+00     0.000E+00     0.000E+00
X    -4.250E-01     3.531E+00    -3.903E+00     0.000E+00     0.000E+00     0.000E+00
X    -4.250E-01     3.531E+00    -3.408E+00     0.000E+00     0.000E+00     0.000E+00
X    -4.250E-01     3.531E+00    -2.912E+00     0.000E+00     0.000E+00     0.000E+00
X    -4.250E-01     3.531E+00    -2.416E+00     0.000E+00     0.000E+00     0.000E+00
X    -4.250E-01     3.531E+00    -1.921E+00    -5.086E-08    -2.617E-07    -2.960E-07
X    -4.250E-01     3.531E+00    -1.425E+00    -4.877E-07    -2.510E-06    -2.839E-06
X    -4.250E-01     3.531E+00    -9.293E-01    -1.181E-06    -6.080E-06    -6.877E-06
X    -4.250E-01     3.531E+00    -4.337E-01    -1.824E-06    -9.389E-06    -1.062E-05
X    -4.250E-01     3.531E+00     6.196E-02    -2.040E-06    -1.050E-05    -1.188E-05
X    -4.250E-01     3.531E+00     5.576E-01    -1.690E-06    -8.701E-06    -9.843E-06
X    -4.250E-01     3.531E+00     1.053E+00    -9.971E-07    -5.135E-06    -5.808E-06
X    -4.250E-01     3.531E+00     1.549E+00    -3.457E-07    -1.780E-06    -2.014E-06
X    -4.250E-01     3.531E+00     2.045E+00    -7.082E-09    -3.647E-08    -4.126E-08
X    -4.250E-01     3.531E+00     2.540E+00     0.000E+00     0.000E+00     0.000E+00
X    -4.250E-01     3.531E+00     3.036E+00     0.000E+00     0.000E+00     0.000E+00
X    -4.250E-01     3.531E+00     3.531E+00     0.000E+00     0.000E+00     0.000E+00
X    -4.250E-01     3.531E+00     4.027E+00     0.000E+00     0.000E+00     0.000E+00
X    -4.250E-01     3.531E+00     4.523E+00     0.000E+00     0.000E+00     0.000E+00
X    -4.250E-01     4.027E+00    -4.895E+00     0.000E+00     0.000E+00     0.000E+00
X    -4.250E-01     4.027E+00    -4.399E+00     0.000E+00     0.000E+00     0.000E+00
X    -4.250E-01     4.027E+00    -3.903E+00     0.000E+00     0.000E+00     0.000E+00
X    -4.250E-01     4.027E+00    -3.408E+00     0.000E+00     0.000E+00     0.000E+00
X    -4.250E-01     4.027E+00    -2.912E+00     0.000E+00     0.000E+00     0.000E+00
X    -4.250E-01     4.027E+00    -2.416E+00     0.000E+00     0.000E+00     0.000E+00
X    -4.250E-01     4.027E+00    -1.921E+00     0.000E+00     0.000E+00     0.000E+00
X    -4.250E-01     4.027E+00    -1.425E+00     0.000E+00     0.000E+00     0.000E+00
X    -4.250E-01     4.027E+00    -9.293E-01    -2.049E-10    -1.055E-09    -1.193E-09
X    -4.250E-01     4.027E+00    -4.337E-01    -2.389E-08    -1.230E-07    -1.391E-07
X    -4.250E-01     4.027E+00     6.196E-02    -4.356E-08    -2.242E-07    -2.536E-07
X    -4.250E-01     4.027E+00     5.576E-01    -1.394E-08    -7.178E-08    -8.120E-08
X    -4.250E-01     4.027E+00     1.053E+00    -2.122E-11    -1.093E-10    -1.236E-10
X    -4.250E-01     4.027E+00     1.549E+00     0.000E+00     0.000E+00     0.000E+00
X    -4.250E-01     4.027E+00     2.045E+00     0.000E+00     0.000E+00     0.000E+00
X    -4.250E-01     4.027E+00     2.540E+00     0.000E+00     0.000E+00     0.000E+00
X    -4.250E-01     4.027E+00     3.036E+00     0.000E+00     0.000E+00     0.000E+00
X    -4.250E-01     4.027E+00     3.531E+00     0.000E+00     0.000E+00     0.000E+00
X    -4.250E-01     4.027E+00     4.027E+00     0.000E+00     0.000E+00     0.000E+00
X    -4.250E-01     4.027E+00     4.523E+00     0.000E+00     0.000E+00     0.000E+00
X    -4.250E-01     4.523E+00    -4.895E+00     0.000E+00     0.000E+00     0.000E+00
X    -4.250E-01     4.523E+00    -4.399E+00     0.000E+00     0.000E+00     0.000E+00
X    -4.250E-01     4.523E+00    -3.903E+00     0.000E+00     0.000E+00     0.000E+00
X    -4.250E-01     4.523E+00    -3.408E+00     0.000E+00     0.000E+00     0.000E+00
X    -4.250E-01     4.523E+00    -2.912E+00     0.000E+00     0.000E+00     0.000E+00
X    -4.250E-01     4.523E+00    -2.416E+00     0.000E+00     0.000E+00     0.000E+00
X    -4.250E-01     4.523E+00    -1.921E+00     0.000E+00     0.000E+00     0.000E+00
X    -4.250E-01     4.523E+00    -1.425E+00     0.000E+00     0.000E+00     0.000E+00
X    -4.250E-01     4.523E+00    -9.293E-01     0.000E+00     0.000E+00     0.000E+00
X    -4.250E-01     4.523E+00    -4.337E-01     0.000E+00     0.000E+00     0.000E+00
X    -4.250E-01     4.523E+00     6.196E-02     0.000E+00     0.000E+00     0.000E+00
X    -4.250E-01     4.523E+00     5.576E-01     0.000E+00     0.000E+00     0.000E+00
X    -4.250E-01     4.523E+00     1.053E+00     0.000E+00     0.000E+00     0.000E+00
X    -4.250E-01     4.523E+00     1.549E+00     0.000E+00     0.000E+00     0.000E+00
X    -4.250E-01     4.523E+00     2.045E+00     0.000E+00     0.000E+00     0.000E+00
X    -4.250E-01     4.523E+00     2.540E+00     0.000E+00     0.000E+00     0.000E+00
X    -4.250E-01     4.523E+00     3.036E+00     0.000E+00     0.000E+00     0.000E+00
X    -4.250E-01     4.523E+00     3.531E+00     0.000E+00     0.000E+00     0.000E+00
X    -4.250E-01     4.523E+00     4.027E+00     0.000E+00     0.000E+00     0.000E+00
X    -4.250E-01     4.523E+00     4.523E+00     0.000E+00     0.000E+00     0.000E+00
X     7.066E-02    -4.895E+00    -4.895E+00     0.000E+00     0.000E+00     0.000E+00
X     7.066E-02    -4.895E+00    -4.399E+00     0.000E+00     0.000E+00     0.000E+00
X     7.066E-02    -4.895E+00    -3.903E+00     0.000E+00     0.000E+00     0.000E+00
X     7.066E-02    -4.895E+00    -3.408E+00     0.000E+00     0.000E+00     0.000E+00
X     7.066E-02    -4.895E+00    -2.912E+00     0.000E+00     0.000E+00     0.000E+00
X     7.066E-02    -4.895E+00    -2.416E+00     0.000E+00     0.000E+00     0.000E+00
X     7.066E-02    -4.895E+00    -1.921E+00     0.000E+00     0.000E+00     0.000E+00
X     7.066E-02    -4.895E+00    -1.425E+00     0.000E+00     0.000E+00     0.000E+00
X     7.066E-02    -4.895E+00    -9.293E-01     0.000E+00     0.000E+00     0.000E+00
X     7.066E-02    -4.895E+00    -4.337E-01     0.000E+00     0.000E+00     0.000E+00
X     7.066E-02    -4.895E+00     6.196E-02     0.000E+00     0.000E+00     0.000E+00
X     7.066E-02    -4.895E+00     5.576E-01     0.000E+00     0.000E+00     0.000E+00
X     7.066E-02    -4.895E+00     1.053E+00     0.000E+00     0.000E+00     0.000E+00
X     7.066E-02    -4.895E+00     1.549E+00     0.000E+00     0.000E+00     0.000E+00
X     7.066E-02    -4.895E+00     2.045E+00     0.000E+00     0.000E+00     0.000E+00
X     7.066E-02    -4.895E+00     2.540E+00     0.000E+00     0.000E+00     0.000E+00
X     7.066E-02    -4.895E+00     3.036E+00     0.000E+00     0.000E+00     0.000E+00
X     7.066E-02    -4.895E+00     3.531E+00     0.000E+00     0.000E+00     0.000E+00
X     7.066E-02    -4.895E+00     4.027E+00     0.000E+00     0.000E+00     0.000E+00
X     7.066E-02    -4.895E+00     4.523E+00     0.000E+00     0.000E+00     0.000E+00
X     7.066E-02    -4.399E+00    -4.895E+00     0.000E+00     0.000E+00     0.000E+00
X     7.066E-02    -4.399E+00    -4.399E+00     0.000E+00     0.000E+00     0.000E+00
X     7.066E-02    -4.399E+00    -3.903E+00     0.000E+00     0.000E+00     0.000E+00
X     7.066E-02    -4.399E+00    -3.408E+00     0.000E+00     0.000E+00     0.000E+00
X     7.066E-02    -4.399E+00    -2.912E+00     0.000E+00     0.000E+00     0.000E+00
X     7.066E-02    -4.399E+00    -2.416E+00     0.000E+00     0.000E+00     0.000E+00
X     7.066E-02    -4.399E+00    -1.921E+00     0.000E+00     0.000E+00     0.000E+00
X     7.066E-02    -4.399E+00    -1.425E+00     0.000E+00     0.000E+00     0.000E+00
X     7.066E-02    -4.399E+00    -9.293E-01     0.000E+00     0.000E+00     0.000E+00
X     7.066E-02    -4.399E+00    -4.337E-01     0.000E+00     0.000E+00     0.000E+00
X     7.066E-02    -4.399E+00     6.196E-02     0.000E+00     0.000E+00     0.000E+00
X     7.066E-02    -4.399E+00     5.576E-01     0.000E+00     0.000E+00     0.000E+00
X     7.066E-02    -4.399E+00     1.053E+00     0.000E+00     0.000E+00     0.000E+00
X     7.066E-02    -4.399E+00     1.549E+00     0.000E+00     0.000E+00     0.000E+00
X     7.066E-02    -4.399E+00     2.045E+00     0.000E+00     0.000E+00     0.000E+00
X     7.066E-02    -4.399E+00     2.540E+00     0.000E+00     0.000E+00     0.000E+00
X     7.066E-02    -4.399E+00     3.036E+00     0.000E+00     0.000E+00     0.000E+00
X     7.066E-02    -4.399E+00     3.531E+00     0.000E+00     0.000E+00     0.000E+00
X     7.066E-02    -4.399E+00     4.027E+00     0.000E+00     0.000E+00     0.000E+00
X     7.066E-02    -4.399E+00     4.523E+00     0.000E+00     0.000E+00     0.000E+00
X     7.066E-02    -3.903E+00    -4.895E+00     0.000E+00     0.000E+00     0.000E+00
X     7.066E-02    -3.903E+00    -4.399E+00     0.000E+00     0.000E+00     0.000E+00
X     7.066E-02    -3.903E+00    -3.903E+00     0.000E+00     0.000E+00     0.000E+00
X     7.066E-02    -3.903E+00    -3.408E+00     0.000E+00     0.000E+00     0.000E+00
X     7.066E-02    -3.903E+00    -2.912E+00     0.000E+00     0.000E+00     0.000E+00
X     7.066E-02    -3.903E+00    -2.416E+00     0.000E+00     0.000E+00     0.000E+00
X     7.066E-02    -3.903E+00    -1.921E+00     0.000E+00     0.000E+00     0.000E+00
X     7.066E-02    -3.903E+00    -1.425E+00    -1.891E-10    -9.729E-10    -1.101E-09
X     7.066E-02    -3.903E+00    -9.293E-01    -8.438E-08    -4.342E-07    -4.912E-07
X     7.066E-02    -3.903E+00    -4.337E-01    -2.301E-07    -1.184E-06    -1.339E-06
X     7.066E-02    -3.903E+00     6.196E-02    -2.837E-07    -1.460E-06    -1.651E-06
X     7.066E-02    -3.903E+00     5.576E-01    -1.979E-07    -1.018E-06    -1.152E-06
X     7.066E-02    -3.903E+00     1.053E+00    -4.995E-08    -2.570E-07    -2.907E-07
X     7.066E-02    -3.903E+00     1.549E+00    -5.911E-12    -3.041E-11    -3.440E-11
X     7.066E-02    -3.903E+00     2.045E+00     0.000E+00     0.000E+00     0.000E+00
X     7.066E-02    -3.903E+00     2.540E+00     0.000E+00     0.000E+00     0.000E+00
X     7.066E-02    -3.903E+00     3.036E+00     0.000E+00     0.000E+00     0.000E+00
X     7.066E-02    -3.903E+00     3.531E+00     0.000E+00     0.000E+00     0.000E+00
X     7.066E-02    -3.903E+00     4.027E+00     0.000E+00     0.000E+00     0.000E+00
X     7.066E-02    -3.903E+00     4.523E+00     0.000E+00     0.000E+00     0.000E+00
X     7.066E-02    -3.408E+00    -4.895E+00     0.000E+00     0.000E+00     0.000E+00
X     7.066E-02    -3.408E+00    -4.399E+00     0.000E+00     0.000E+00     0.000E+00
X     7.066E-02    -3.408E+00    -3.903E+00     0.000E+00     0.000E+00     0.000E+00
X     7.066E-02    -3.408E+00    -3.408E+00     0.000E+00     0.000E+00     0.000E+00
X     7.066E-02    -3.408E+00    -2.912E+00     0.000E+00     0.000E+00     0.000E+00
X     7.066E-02    -3.408E+00    -2.416E+00    -3.353E-11    -1.726E-10    -1.952E-10
X     7.066E-02    -3.408E+00    -1.921E+00    -2.651E-07    -1.364E-06    -1.543E-06
X     7.066E-02    -3.408E+00    -1.425E+00    -1.084E-06    -5.577E-06    -6.310E-06
X     7.066E-02    -3.408E+00    -9.293E-01    -2.215E-06    -1.138E-05    -1.287E-05
X     7.066E-02    -3.408E+00    -4.337E-01    -3.157E-06    -1.621E-05    -1.833E-05
X     7.066E-02    -3.408E+00     6.196E-02    -3.461E-06    -1.777E-05    -2.010E-05
X     7.066E-02    -3.408E+00     5.576E-01    -2.964E-06    -1.523E-05    -1.723E-05
X     7.066E-02    -3.408E+00     1.053E+00    -1.931E-06    -9.927E-06    -1.123E-05
X     7.066E-02    -3.408E+00     1.549E+00    -8.337E-07    -4.289E-06    -4.852E-06
X     7.066E-02    -3.408E+00     2.045E+00    -1.411E-07    -7.260E-07    -8.214E-07
X     7.066E-02    -3.408E+00     2.540E+00     0.000E+00     0.000E+00     0.000E+00
X     7.066E-02    -3.408E+00     3.036E+00     0.000E+00     0.000E+00     0.000E+00
X     7.066E-02    -3.408E+00     3.531E+00     0.000E+00     0.000E+00     0.000E+00
X     7.066E-02    -3.408E+00     4.027E+00     0.000E+00     0.000E+00     0.000E+00
X     7.066E-02    -3.408E+00     4.523E+00     0.000E+00     0.000E+00     0.000E+00
X     7.066E-02    -2.912E+00    -4.895E+00     0.000E+00     0.000E+00     0.000E+00
X     7.066E-02    -2.912E+00    -4.399E+00     0.000E+00     0.000E+00     0.000E+00
X     7.066E-02    -2.912E+00    -3.903E+00     0.000E+00     0.000E+00     0.000E+00
X     7.066E-02    -2.912E+00    -3.408E+00     0.000E+00     0.000E+00     0.000E+00
X     7.066E-02    -2.912E+00    -2.912E+00    -2.860E-09    -1.471E-08    -1.665E-08
X     7.066E-02    -2.912E+00    -2.416E+00    -6.597E-07    -3.395E-06    -3.841E-06
X     7.066E-02    -2.912E+00    -1.921E+00    -2.612E-06    -1.341E-05    -1.517E-05
X     7.066E-02    -2.912E+00    -1.425E+00    -5.884E-06    -3.015E-05    -3.411E-05
X     7.066E-02    -2.912E+00    -9.293E-01    -1.017E-05    -5.207E-05    -5.891E-05
X     7.066E-02    -2.912E+00    -4.337E-01    -1.402E-05    -7.181E-05    -8.124E-05
X     7.066E-02    -2.912E+00     6.196E-02    -1.531E-05    -7.847E-05    -8.877E-05
X     7.066E-02    -2.912E+00     5.576E-01    -1.320E-05    -6.771E-05    -7.661E-05
X     7.066E-02    -2.912E+00     1.053E+00    -9.034E-06    -4.639E-05    -5.248E-05
X     7.066E-02    -2.912E+00     1.549E+00    -4.935E-06    -2.536E-05    -2.869E-05
X     7.066E-02    -2.912E+00     2.045E+00    -1.998E-06    -1.028E-05    -1.163E-05
X     7.066E-02    -2.912E+00     2.540E+00    -3.881E-07    -1.996E-06    -2.259E-06
X     7.066E-02    -2.912E+00     3.036E+00    -1.777E-12    -9.142E-12    -1.034E-11
X     7.066E-02    -2.912E+00     3.531E+00     0.000E+00     0.000E+00     0.000E+00
X     7.066E-02    -2.912E+00     4.027E+00     0.000E+00     0.000E+00     0.000E+00
X     7.066E-02    -2.912E+00     4.523E+00     0.000E+00     0.000E+00     0.000E+00
X     7.066E-02    -2.416E+00    -4.895E+00     0.000E+00     0.000E+00     0.000E+00
X     7.066E-02    -2.416E+00    -4.399E+00     0.000E+00     0.000E+00     0.000E+00
X     7.066E-02    -2.416E+00    -3.903E+00     0.000E+00     0.000E+00     0.000E+00
X     7.066E-02    -2.416E+00    -3.408E+00    -3.353E-11    -1.726E-10    -1.952E-10
X     7.066E-02    -2.416E+00    -2.912E+00    -6.597E-07    -3.395E-06    -3.841E-06
X     7.066E-02    -2.416E+00    -2.416E+00    -3.360E-06    -1.723E-05    -1.950E-05
X     7.066E-02    -2.416E+00    -1.921E+00    -9.326E-06    -4.774E-05    -5.402E-05
X     7.066E-02    -2.416E+00    -1.425E+00    -2.068E-05    -1.058E-04    -1.197E-04
X     7.066E-02    -2.416E+00    -9.293E-01    -3.749E-05    -1.918E-04    -2.170E-04
X     7.066E-02    -2.416E+00    -4.337E-01    -5.419E-05    -2.775E-04    -3.139E-04
X     7.066E-02    -2.416E+00     6.196E-02    -6.010E-05    -3.079E-04    -3.484E-04
X     7.066E-02    -2.416E+00     5.576E-01    -5.051E-05    -2.591E-04    -2.931E-04
X     7.066E-02    -2.416E+00     1.053E+00    -3.283E-05    -1.685E-04    -1.907E-04
X     7.066E-02    -2.416E+00     1.549E+00    -1.719E-05    -8.836E-05    -9.998E-05
X     7.066E-02    -2.416E+00     2.045E+00    -7.375E-06    -3.793E-05    -4.292E-05
X     7.066E-02    -2.416E+00     2.540E+00    -2.443E-06    -1.257E-05    -1.422E-05
X     7.066E-02    -2.416E+00     3.036E+00    -3.441E-07    -1.770E-06    -2.003E-06
X     7.066E-02    -2.416E+00     3.531E+00     0.000E+00     0.000E+00     0.000E+00
X     7.066E-02    -2.416E+00     4.027E+00     0.000E+00     0.000E+00     0.000E+00
X     7.066E-02    -2.416E+00     4.523E+00     0.000E+00     0.000E+00     0.000E+00
X     7.066E-02    -1.921E+00    -4.895E+00     0.000E+00     0.000E+00     0.000E+00
X     7.066E-02    -1.921E+00    -4.399E+00     0.000E+00     0.000E+00     0.000E+00
X     7.066E-02    -1.921E+00    -3.903E+00     0.000E+00     0.000E+00     0.000E+00
X     7.066E-02    -1.921E+00    -3.408E+00    -2.651E-07    -1.364E-06    -1.543E-06
X     7.066E-02    -1.921E+00    -2.912E+00    -2.613E-06    -1.341E-05    -1.517E-05
X     7.066E-02    -1.921E+00    -2.416E+00    -9.326E-06    -4.774E-05    -5.402E-05
X     7.066E-02    -1.921E+00    -1.921E+00    -2.643E-05    -1.352E-04    -1.529E-04
X     7.066E-02    -1.921E+00    -1.425E+00    -6.460E-05    -3.304E-04    -3.738E-04
X     7.066E-02    -1.921E+00    -9.293E-01    -1.311E-04    -6.709E-04    -7.590E-04
X     7.066E-02    -1.921E+00    -4.337E-01    -2.067E-04    -1.058E-03    -1.197E-03
X     7.066E-02    -1.921E+00     6.196E-02    -2.356E-04    -1.208E-03    -1.366E-03
X     7.066E-02    -1.921E+00     5.576E-01    -1.892E-04    -9.711E-04    -1.099E-03
X     7.066E-02    -1.921E+00     1.053E+00    -1.117E-04    -5.739E-04    -6.494E-04
X     7.066E-02    -1.921E+00     1.549E+00    -5.213E-05    -2.681E-04    -3.033E-04
X     7.066E-02    -1.921E+00     2.045E+00    -2.056E-05    -1.058E-04    -1.197E-04
X     7.066E-02    -1.921E+00     2.540E+00    -6.957E-06    -3.581E-05    -4.053E-05
X     7.066E-02    -1.921E+00     3.036E+00    -1.736E-06    -8.932E-06    -1.011E-05
X     7.066E-02    -1.921E+00     3.531E+00    -7.490E-08    -3.853E-07    -4.360E-07
X     7.066E-02    -1.921E+00     4.027E+00     0.000E+00     0.000E+00     0.000E+00
X     7.066E-02    -1.921E+00     4.523E+00     0.000E+00     0.000E+00     0.000E+00
X     7.066E-02    -1.425E+00    -4.895E+00     0.000E+00     0.000E+00     0.000E+00
X     7.066E-02    -1.425E+00    -4.399E+00     0.000E+00     0.000E+00     0.000E+00
X     7.066E-02    -1.425E+00    -3.903E+00    -1.891E-10    -9.728E-10    -1.101E-09
X     7.066E-02    -1.425E+00    -3.408E+00    -1.084E-06    -5.577E-06    -6.310E-06
X     7.066E-02    -1.425E+00    -2.912E+00    -5.885E-06    -3.015E-05    -3.411E-05
X     7.066E-02    -1.425E+00    -2.416E+00    -2.068E-05    -1.058E-04    -1.197E-04
X     7.066E-02    -1.425E+00    -1.921E+00    -6.461E-05    -3.304E-04    -3.738E-04
X     7.066E-02    -1.425E+00    -1.425E+00    -1.819E-04    -9.307E-04    -1.053E-03
X     7.066E-02    -1.425E+00    -9.293E-01    -4.374E-04    -2.240E-03    -2.534E-03
X     7.066E-02    -1.425E+00    -4.337E-01    -8.012E-04    -4.109E-03    -4.649E-03
X     7.066E-02    -1.425E+00     6.196E-02    -9.643E-04    -4.951E-03    -5.601E-03
X     7.066E-02    -1.425E+00     5.576E-01    -7.105E-04    -3.650E-03    -4.130E-03
X     7.066E-02    -1.425E+00     1.053E+00    -3.570E-04    -1.836E-03    -2.077E-03
X     7.066E-02    -1.425E+00     1.549E+00    -1.412E-04    -7.267E-04    -8.224E-04
X     7.066E-02    -1.425E+00     2.045E+00    -4.860E-05    -2.504E-04    -2.833E-04
X     7.066E-02    -1.425E+00     2.540E+00    -1.523E-05    -7.846E-05    -8.880E-05
X     7.066E-02    -1.425E+00     3.036E+00    -4.129E-06    -2.127E-05    -2.407E-05
X     7.066E-02    -1.425E+00     3.531E+00    -5.684E-07    -2.923E-06    -3.308E-06
X     7.066E-02    -1.425E+00     4.027E+00     0.000E+00     0.000E+00     0.000E+00
X     7.066E-02    -1.425E+00     4.523E+00     0.000E+00     0.000E+00     0.000E+00
X     7.066E-02    -9.293E-01    -4.895E+00     0.000E+00     0.000E+00     0.000E+00
X     7.066E-02    -9.293E-01    -4.399E+00     0.000E+00     0.000E+00     0.000E+00
X     7.066E-02    -9.293E-01    -3.903E+00    -8.438E-08    -4.342E-07    -4.913E-07
X     7.066E-02    -9.293E-01    -3.408E+00    -2.215E-06    -1.138E-05    -1.287E-05
X     7.066E-02    -9.293E-01    -2.912E+00    -1.017E-05    -5.207E-05    -5.891E-05
X     7.066E-02    -9.293E-01    -2.416E+00    -3.750E-05    -1.918E-04    -2.170E-04
X     7.066E-02    -9.293E-01    -1.921E+00    -1.312E-04    -6.709E-04    -7.591E-04
X     7.066E-02    -9.293E-01    -1.425E+00    -4.374E-04    -2.240E-03    -2.534E-03
X     7.066E-02    -9.293E-01    -9.293E-01    -1.354E-03    -6.951E-03    -7.865E-03
X     7.066E-02    -9.293E-01    -4.337E-01    -3.520E-03    -1.812E-02    -2.050E-02
X     7.066E-02    -9.293E-01     6.196E-02    -4.990E-03    -2.570E-02    -2.907E-02
X     7.066E-02    -9.293E-01     5.576E-01    -2.867E-03    -1.475E-02    -1.668E-02
X     7.066E-02    -9.293E-01     1.053E+00    -1.026E-03    -5.282E-03    -5.977E-03
X     7.066E-02    -9.293E-01     1.549E+00    -3.236E-04    -1.667E-03    -1.887E-03
X     7.066E-02    -9.293E-01     2.045E+00    -9.559E-05    -4.929E-04    -5.579E-04
X     7.066E-02    -9.293E-01     2.540E+00    -2.703E-05    -1.394E-04    -1.578E-04
X     7.066E-02    -9.293E-01     3.036E+00    -7.148E-06    -3.685E-05    -4.171E-05
X     7.066E-02    -9.293E-01     3.531E+00    -1.332E-06    -6.851E-06    -7.753E-06
X     7.066E-02    -9.293E-01     4.027E+00    -1.040E-09    -5.351E-09    -6.055E-09
X     7.066E-02    -9.293E-01     4.523E+00     0.000E+00     0.000E+00     0.000E+00
X     7.066E-02    -4.337E-01    -4.895E+00     0.000E+00     0.000E+00     0.000E+00
X     7.066E-02    -4.337E-01    -4.399E+00     0.000E+00     0.000E+00     0.000E+00
X     7.066E-02    -4.337E-01    -3.903E+00    -2.301E-07    -1.184E-06    -1.340E-06
X     7.066E-02    -4.337E-01    -3.408E+00    -3.158E-06    -1.620E-05    -1.834E-05
X     7.066E-02    -4.337E-01    -2.912E+00    -1.402E-05    -7.181E-05    -8.125E-05
X     7.066E-02    -4.337E-01    -2.416E+00    -5.422E-05    -2.774E-04    -3.139E-04
X     7.066E-02    -4.337E-01    -1.921E+00    -2.067E-04    -1.058E-03    -1.197E-03
X     7.066E-02    -4.337E-01    -1.425E+00    -8.013E-04    -4.109E-03    -4.649E-03
X     7.066E-02    -4.337E-01    -9.293E-01    -3.520E-03    -1.812E-02    -2.050E-02
X     7.066E-02    -4.337E-01    -4.337E-01    -1.940E-02    -1.003E-01    -1.135E-01
X     7.066E-02    -4.337E-01     6.196E-02    -4.995E-02    -2.582E-01    -2.919E-01
X     7.066E-02    -4.337E-01     5.576E-01    -1.263E-02    -6.495E-02    -7.349E-02
X     7.066E-02    -4.337E-01     1.053E+00    -2.372E-03    -1.221E-02    -1.382E-02
X     7.066E-02    -4.337E-01     1.549E+00    -5.652E-04    -2.914E-03    -3.298E-03
X     7.066E-02    -4.337E-01     2.045E+00    -1.466E-04    -7.566E-04    -8.564E-04
X     7.066E-02    -4.337E-01     2.540E+00    -3.838E-05    -1.982E-04    -2.243E-04
X     7.066E-02    -4.337E-01     3.036E+00    -9.801E-06    -5.058E-05    -5.725E-05
X     7.066E-02    -4.337E-01     3.531E+00    -1.995E-06    -1.027E-05    -1.163E-05
X     7.066E-02    -4.337E-01     4.027E+00    -4.270E-08    -2.196E-07    -2.485E-07
X     7.066E-02    -4.337E-01     4.523E+00     0.000E+00     0.000E+00     0.000E+00
X     7.066E-02     6.196E-02    -4.895E+00     0.000E+00     0.000E+00     0.000E+00
X     7.066E-02     6.196E-02    -4.399E+00     0.000E+00     0.000E+00     0.000E+00
X     7.066E-02     6.196E-02    -3.903E+00    -2.837E-07    -1.460E-06    -1.652E-06
X     7.066E-02     6.196E-02    -3.408E+00    -3.462E-06    -1.777E-05    -2.010E-05
X     7.066E-02     6.196E-02    -2.912E+00    -1.531E-05    -7.846E-05    -8.877E-05
X     7.066E-02     6.196E-02    -2.416E+00    -6.013E-05    -3.079E-04    -3.484E-04
X     7.066E-02     6.196E-02    -1.921E+00    -2.357E-04    -1.208E-03    -1.366E-03
X     7.066E-02     6.196E-02    -1.425E+00    -9.646E-04    -4.950E-03    -5.602E-03
X     7.066E-02     6.196E-02    -9.293E-01    -4.990E-03    -2.569E-02    -2.908E-02
X     7.066E-02     6.196E-02    -4.337E-01    -4.991E-02    -2.580E-01    -2.921E-01
X     7.066E-02     6.196E-02     6.196E-02    -6.736E-03    -3.426E-02    -3.876E-02
X     7.066E-02     6.196E-02     5.576E-01    -2.574E-02    -1.318E-01    -1.491E-01
X     7.066E-02     6.196E-02     1.053E+00    -3.169E-03    -1.630E-02    -1.845E-02
X     7.066E-02     6.196E-02     1.549E+00    -6.675E-04    -3.445E-03    -3.899E-03
X     7.066E-02     6.196E-02     2.045E+00    -1.656E-04    -8.558E-04    -9.686E-04
X     7.066E-02     6.196E-02     2.540E+00    -4.234E-05    -2.188E-04    -2.477E-04
X     7.066E-02     6.196E-02     3.036E+00    -1.068E-05    -5.518E-05    -6.245E-05
X     7.066E-02     6.196E-02     3.531E+00    -2.209E-06    -1.138E-05    -1.288E-05
X     7.066E-02     6.196E-02     4.027E+00    -6.600E-08    -3.395E-07    -3.841E-07
X     7.066E-02     6.196E-02     4.523E+00     0.000E+00     0.000E+00     0.000E+00
X     7.066E-02     5.576E-01    -4.895E+00     0.000E+00     0.000E+00     0.000E+00
X     7.066E-02     5.576E-01    -4.399E+00     0.000E+00     0.000E+00     0.000E+00
X     7.066E-02     5.576E-01    -3.903E+00    -1.978E-07    -1.018E-06    -1.152E-06
X     7.066E-02     5.576E-01    -3.408E+00    -2.965E-06    -1.523E-05    -1.723E-05
X     7.066E-02     5.576E-01    -2.912E+00    -1.321E-05    -6.771E-05    -7.661E-05
X     7.066E-02     5.576E-01    -2.416E+00    -5.054E-05    -2.590E-04    -2.931E-04
X     7.066E-02     5.576E-01    -1.921E+00    -1.894E-04    -9.711E-04    -1.099E-03
X     7.066E-02     5.576E-01    -1.425E+00    -7.108E-04    -3.650E-03    -4.130E-03
X     7.066E-02     5.576E-01    -9.293E-01    -2.867E-03    -1.475E-02    -1.669E-02
X     7.066E-02     5.576E-01    -4.337E-01    -1.263E-02    -6.495E-02    -7.349E-02
X     7.066E-02     5.576E-01     6.196E-02    -2.573E-02    -1.318E-01    -1.491E-01
X     7.066E-02     5.576E-01     5.576E-01    -8.885E-03    -4.558E-02    -5.157E-02
X     7.066E-02     5.576E-01     1.053E+00    -1.990E-03    -1.025E-02    -1.160E-02
X     7.066E-02     5.576E-01     1.549E+00    -5.065E-04    -2.618E-03    -2.962E-03
X     7.066E-02     5.576E-01     2.045E+00    -1.350E-04    -6.981E-04    -7.901E-04
X     7.066E-02     5.576E-01     2.540E+00    -3.589E-05    -1.857E-04    -2.101E-04
X     7.066E-02     5.576E-01     3.036E+00    -9.241E-06    -4.774E-05    -5.403E-05
X     7.066E-02     5.576E-01     3.531E+00    -1.861E-06    -9.586E-06    -1.085E-05
X     7.066E-02     5.576E-01     4.027E+00    -2.913E-08    -1.499E-07    -1.696E-07
X     7.066E-02     5.576E-01     4.523E+00     0.000E+00     0.000E+00     0.000E+00
X     7.066E-02     1.053E+00    -4.895E+00     0.000E+00     0.000E+00     0.000E+00
X     7.066E-02     1.053E+00    -4.399E+00     0.000E+00     0.000E+00     0.000E+00
X     7.066E-02     1.053E+00    -3.903E+00    -4.995E-08    -2.569E-07    -2.908E-07
X     7.066E-02     1.053E+00    -3.408E+00    -1.931E-06    -9.925E-06    -1.123E-05
X     7.066E-02     1.053E+00    -2.912E+00    -9.039E-06    -4.639E-05    -5.248E-05
X     7.066E-02     1.053E+00    -2.416E+00    -3.285E-05    -1.685E-04    -1.907E-04
X     7.066E-02     1.053E+00    -1.921E+00    -1.118E-04    -5.739E-04    -6.493E-04
X     7.066E-02     1.053E+00    -1.425E+00    -3.572E-04    -1.836E-03    -2.077E-03
X     7.066E-02     1.053E+00    -9.293E-01    -1.027E-03    -5.283E-03    -5.976E-03
X     7.066E-02     1.053E+00    -4.337E-01    -2.373E-03    -1.221E-02    -1.381E-02
X     7.066E-02     1.053E+00     6.196E-02    -3.169E-03    -1.631E-02    -1.845E-02
X     7.066E-02     1.053E+00     5.576E-01    -1.990E-03    -1.026E-02    -1.160E-02
X     7.066E-02     1.053E+00     1.053E+00    -7.955E-04    -4.109E-03    -4.649E-03
X     7.066E-02     1.053E+00     1.549E+00    -2.673E-04    -1.383E-03    -1.565E-03
X     7.066E-02     1.053E+00     2.045E+00    -8.211E-05    -4.250E-04    -4.809E-04
X     7.066E-02     1.053E+00     2.540E+00    -2.381E-05    -1.232E-04    -1.394E-04
X     7.066E-02     1.053E+00     3.036E+00    -6.362E-06    -3.287E-05    -3.719E-05
X     7.066E-02     1.053E+00     3.531E+00    -1.131E-06    -5.816E-06    -6.581E-06
X     7.066E-02     1.053E+00     4.027E+00    -1.045E-10    -5.377E-10    -6.085E-10
X     7.066E-02     1.053E+00     4.523E+00     0.000E+00     0.000E+00     0.000E+00
X     7.066E-02     1.549E+00    -4.895E+00     0.000E+00     0.000E+00     0.000E+00
X     7.066E-02     1.549E+00    -4.399E+00     0.000E+00     0.000E+00     0.000E+00
X     7.066E-02     1.549E+00    -3.903E+00    -5.910E-12    -3.040E-11    -3.440E-11
X     7.066E-02     1.549E+00    -3.408E+00    -8.337E-07    -4.289E-06    -4.853E-06
X     7.066E-02     1.549E+00    -2.912E+00    -4.937E-06    -2.536E-05    -2.869E-05
X     7.066E-02     1.549E+00    -2.416E+00    -1.720E-05    -8.837E-05    -9.997E-05
X     7.066E-02     1.549E+00    -1.921E+00    -5.217E-05    -2.681E-04    -3.033E-04
X     7.066E-02     1.549E+00    -1.425E+00    -1.413E-04    -7.269E-04    -8.222E-04
X     7.066E-02     1.549E+00    -9.293E-01    -3.238E-04    -1.668E-03    -1.886E-03
X     7.066E-02     1.549E+00    -4.337E-01    -5.655E-04    -2.916E-03    -3.297E-03
X     7.066E-02     1.549E+00     6.196E-02    -6.678E-04    -3.447E-03    -3.898E-03
X     7.066E-02     1.549E+00     5.576E-01    -5.067E-04    -2.618E-03    -2.962E-03
X     7.066E-02     1.549E+00     1.053E+00    -2.674E-04    -1.383E-03    -1.565E-03
X     7.066E-02     1.549E+00     1.549E+00    -1.109E-04    -5.740E-04    -6.494E-04
X     7.066E-02     1.549E+00     2.045E+00    -3.956E-05    -2.048E-04    -2.318E-04
X     7.066E-02     1.549E+00     2.540E+00    -1.271E-05    -6.576E-05    -7.440E-05
X     7.066E-02     1.549E+00     3.036E+00    -3.443E-06    -1.777E-05    -2.011E-05
X     7.066E-02     1.549E+00     3.531E+00    -4.112E-07    -2.115E-06    -2.393E-06
X     7.066E-02     1.549E+00     4.027E+00     0.000E+00     0.000E+00     0.000E+00
X     7.066E-02     1.549E+00     4.523E+00     0.000E+00     0.000E+00     0.000E+00
X     7.066E-02     2.045E+00    -4.895E+00     0.000E+00     0.000E+00     0.000E+00
X     7.066E-02     2.045E+00    -4.399E+00     0.000E+00     0.000E+00     0.000E+00
X     7.066E-02     2.045E+00    -3.903E+00     0.000E+00     0.000E+00     0.000E+00
X     7.066E-02     2.045E+00    -3.408E+00    -1.411E-07    -7.259E-07    -8.214E-07
X     7.066E-02     2.045E+00    -2.912E+00    -1.998E-06    -1.027E-05    -1.163E-05
X     7.066E-02     2.045E+00    -2.416E+00    -7.379E-06    -3.793E-05    -4.292E-05
X     7.066E-02     2.045E+00    -1.921E+00    -2.057E-05    -1.058E-04    -1.197E-04
X     7.066E-02     2.045E+00    -1.425E+00    -4.864E-05    -2.504E-04    -2.833E-04
X     7.066E-02     2.045E+00    -9.293E-01    -9.566E-05    -4.931E-04    -5.577E-04
X     7.066E-02     2.045E+00    -4.337E-01    -1.467E-04    -7.569E-04    -8.561E-04
X     7.066E-02     2.045E+00     6.196E-02    -1.657E-04    -8.561E-04    -9.683E-04
X     7.066E-02     2.045E+00     5.576E-01    -1.350E-04    -6.983E-04    -7.899E-04
X     7.066E-02     2.045E+00     1.053E+00    -8.213E-05    -4.251E-04    -4.809E-04
X     7.066E-02     2.045E+00     1.549E+00    -3.957E-05    -2.049E-04    -2.318E-04
X     7.066E-02     2.045E+00     2.045E+00    -1.609E-05    -8.327E-05    -9.421E-05
X     7.066E-02     2.045E+00     2.540E+00    -5.510E-06    -2.847E-05    -3.221E-05
X     7.066E-02     2.045E+00     3.036E+00    -1.279E-06    -6.581E-06    -7.446E-06
X     7.066E-02     2.045E+00     3.531E+00    -1.790E-08    -9.210E-08    -1.042E-07
X     7.066E-02     2.045E+00     4.027E+00     0.000E+00     0.000E+00     0.000E+00
X     7.066E-02     2.045E+00     4.523E+00     0.000E+00     0.000E+00     0.000E+00
X     7.066E-02     2.540E+00    -4.895E+00     0.000E+00     0.000E+00     0.000E+00
X     7.066E-02     2.540E+00    -4.399E+00     0.000E+00     0.000E+00     0.000E+00
X     7.066E-02     2.540E+00    -3.903E+00     0.000E+00     0.000E+00     0.000E+00
X     7.066E-02     2.540E+00    -3.408E+00     0.000E+00     0.000E+00     0.000E+00
X     7.066E-02     2.540E+00    -2.912E+00    -3.881E-07    -1.996E-06    -2.259E-06
X     7.066E-02     2.540E+00    -2.416E+00    -2.443E-06    -1.257E-05    -1.422E-05
X     7.066E-02     2.540E+00    -1.921E+00    -6.961E-06    -3.582E-05    -4.052E-05
X     7.066E-02     2.540E+00    -1.425E+00    -1.524E-05    -7.848E-05    -8.877E-05
X     7.066E-02     2.540E+00    -9.293E-01    -2.705E-05    -1.395E-04    -1.578E-04
X     7.066E-02     2.540E+00    -4.337E-01    -3.840E-05    -1.983E-04    -2.242E-04
X     7.066E-02     2.540E+00     6.196E-02    -4.236E-05    -2.189E-04    -2.476E-04
X     7.066E-02     2.540E+00     5.576E-01    -3.591E-05    -1.857E-04    -2.101E-04
X     7.066E-02     2.540E+00     1.053E+00    -2.382E-05    -1.232E-04    -1.394E-04
X     7.066E-02     2.540E+00     1.549E+00    -1.271E-05    -6.577E-05    -7.440E-05
X     7.066E-02     2.540E+00     2.045E+00    -5.510E-06    -2.847E-05    -3.221E-05
X     7.066E-02     2.540E+00     2.540E+00    -1.734E-06    -8.933E-06    -1.011E-05
X     7.066E-02     2.540E+00     3.036E+00    -1.682E-07    -8.654E-07    -9.791E-07
X     7.066E-02     2.540E+00     3.531E+00     0.000E+00     0.000E+00     0.000E+00
X     7.066E-02     2.540E+00     4.027E+00     0.000E+00     0.000E+00     0.000E+00
X     7.066E-02     2.540E+00     4.523E+00     0.000E+00     0.000E+00     0.000E+00
X     7.066E-02     3.036E+00    -4.895E+00     0.000E+00     0.000E+00     0.000E+00
X     7.066E-02     3.036E+00    -4.399E+00     0.000E+00     0.000E+00     0.000E+00
X     7.066E-02     3.036E+00    -3.903E+00     0.000E+00     0.000E+00     0.000E+00
X     7.066E-02     3.036E+00    -3.408E+00     0.000E+00     0.000E+00     0.000E+00
X     7.066E-02     3.036E+00    -2.912E+00    -1.777E-12    -9.142E-12    -1.034E-11
X     7.066E-02     3.036E+00    -2.416E+00    -3.441E-07    -1.770E-06    -2.003E-06
X     7.066E-02     3.036E+00    -1.921E+00    -1.736E-06    -8.934E-06    -1.011E-05
X     7.066E-02     3.036E+00    -1.425E+00    -4.131E-06    -2.128E-05    -2.407E-05
X     7.066E-02     3.036E+00    -9.293E-01    -7.151E-06    -3.687E-05    -4.170E-05
X     7.066E-02     3.036E+00    -4.337E-01    -9.806E-06    -5.060E-05    -5.723E-05
X     7.066E-02     3.036E+00     6.196E-02    -1.069E-05    -5.520E-05    -6.244E-05
X     7.066E-02     3.036E+00     5.576E-01    -9.244E-06    -4.776E-05    -5.402E-05
X     7.066E-02     3.036E+00     1.053E+00    -6.364E-06    -3.288E-05    -3.719E-05
X     7.066E-02     3.036E+00     1.549E+00    -3.444E-06    -1.777E-05    -2.010E-05
X     7.066E-02     3.036E+00     2.045E+00    -1.279E-06    -6.582E-06    -7.446E-06
X     7.066E-02     3.036E+00     2.540E+00    -1.682E-07    -8.654E-07    -9.791E-07
X     7.066E-02     3.036E+00     3.036E+00     0.000E+00     0.000E+00     0.000E+00
X     7.066E-02     3.036E+00     3.531E+00     0.000E+00     0.000E+00     0.000E+00
X     7.066E-02     3.036E+00     4.027E+00     0.000E+00     0.000E+00     0.000E+00
X     7.066E-02     3.036E+00     4.523E+00     0.000E+00     0.000E+00     0.000E+00
X     7.066E-02     3.531E+00    -4.895E+00     0.000E+00     0.000E+00     0.000E+00
X     7.066E-02     3.531E+00    -4.399E+00     0.000E+00     0.000E+00     0.000E+00
X     7.066E-02     3.531E+00    -3.903E+00     0.000E+00     0.000E+00     0.000E+00
X     7.066E-02     3.531E+00    -3.408E+00     0.000E+00     0.000E+00     0.000E+00
X     7.066E-02     3.531E+00    -2.912E+00     0.000E+00     0.000E+00     0.000E+00
X     7.066E-02     3.531E+00    -2.416E+00     0.000E+00     0.000E+00     0.000E+00
X     7.066E-02     3.531E+00    -1.921E+00    -7.490E-08    -3.853E-07    -4.359E-07
X     7.066E-02     3.531E+00    -1.425E+00    -5.684E-07    -2.924E-06    -3.308E-06
X     7.066E-02     3.531E+00    -9.293E-01    -1.332E-06    -6.853E-06    -7.752E-06
X     7.066E-02     3.531E+00    -4.337E-01    -1.996E-06    -1.028E-05    -1.162E-05
X     7.066E-02     3.531E+00     6.196E-02    -2.209E-06    -1.138E-05    -1.287E-05
X     7.066E-02     3.531E+00     5.576E-01    -1.861E-06    -9.588E-06    -1.085E-05
X     7.066E-02     3.531E+00     1.053E+00    -1.131E-06    -5.817E-06    -6.581E-06
X     7.066E-02     3.531E+00     1.549E+00    -4.112E-07    -2.116E-06    -2.393E-06
X     7.066E-02     3.531E+00     2.045E+00    -1.790E-08    -9.210E-08    -1.042E-07
X     7.066E-02     3.531E+00     2.540E+00     0.000E+00     0.000E+00     0.000E+00
X     7.066E-02     3.531E+00     3.036E+00     0.000E+00     0.000E+00     0.000E+00
X     7.066E-02     3.531E+00     3.531E+00     0.000E+00     0.000E+00     0.000E+00
X     7.066E-02     3.531E+00     4.027E+00     0.000E+00     0.000E+00     0.000E+00
X     7.066E-02     3.531E+00     4.523E+00     0.000E+00     0.000E+00     0.000E+00
X     7.066E-02     4.027E+00    -4.895E+00     0.000E+00     0.000E+00     0.000E+00
X     7.066E-02     4.027E+00    -4.399E+00     0.000E+00     0.000E+00     0.000E+00
X     7.066E-02     4.027E+00    -3.903E+00     0.000E+00     0.000E+00     0.000E+00
X     7.066E-02     4.027E+00    -3.408E+00     0.000E+00     0.000E+00     0.000E+00
X     7.066E-02     4.027E+00    -2.912E+00     0.000E+00     0.000E+00     0.000E+00
X     7.066E-02     4.027E+00    -2.416E+00     0.000E+00     0.000E+00     0.000E+00
X     7.066E-02     4.027E+00    -1.921E+00     0.000E+00     0.000E+00     0.000E+00
X     7.066E-02     4.027E+00    -1.425E+00     0.000E+00     0.000E+00     0.000E+00
X     7.066E-02     4.027E+00    -9.293E-01    -1.040E-09    -5.352E-09    -6.054E-09
X     7.066E-02     4.027E+00    -4.337E-01    -4.270E-08    -2.196E-07    -2.485E-07
X     7.066E-02     4.027E+00     6.196E-02    -6.600E-08    -3.395E-07    -3.841E-07
X     7.066E-02     4.027E+00     5.576E-01    -2.913E-08    -1.499E-07    -1.696E-07
X     7.066E-02     4.027E+00     1.053E+00    -1.045E-10    -5.378E-10    -6.084E-10
X     7.066E-02     4.027E+00     1.549E+00     0.000E+00     0.000E+00     0.000E+00
X     7.066E-02     4.027E+00     2.045E+00     0.000E+00     0.000E+00     0.000E+00
X     7.066E-02     4.027E+00     2.540E+00     0.000E+00     0.000E+00     0.000E+00
X     7.066E-02     4.027E+00     3.036E+00     0.000E+00     0.000E+00     0.000E+00
X     7.066E-02     4.027E+00     3.531E+00     0.000E+00     0.000E+00     0.000E+00
X     7.066E-02     4.027E+00     4.027E+00     0.000E+00     0.000E+00     0.000E+00
X     7.066E-02     4.027E+00     4.523E+00     0.000E+00     0.000E+00     0.000E+00
X     7.066E-02     4.523E+00    -4.895E+00     0.000E+00     0.000E+00     0.000E+00
X     7.066E-02     4.523E+00    -4.399E+00     0.000E+00     0.000E+00     0.000E+00
X     7.066E-02     4.523E+00    -3.903E+00     0.000E+00     0.000E+00     0.000E+00
X     7.066E-02     4.523E+00    -3.408E+00     0.000E+00     0.000E+00     0.000E+00
X     7.066E-02     4.523E+00    -2.912E+00     0.000E+00     0.000E+00     0.000E+00
X     7.066E-02     4.523E+00    -2.416E+00     0.000E+00     0.000E+00     0.000E+00
X     7.066E-02     4.523E+00    -1.921E+00     0.000E+00     0.000E+00     0.000E+00
X     7.066E-02     4.523E+00    -1.425E+00     0.000E+00     0.000E+00     0.000E+00
X     7.066E-02     4.523E+00    -9.293E-01     0.000E+00     0.000E+00     0.000E+00
X     7.066E-02     4.523E+00    -4.337E-01     0.000E+00     0.000E+00     0.000E+00
X     7.066E-02     4.523E+00     6.196E-02     0.000E+00     0.000E+00     0.000E+00
X     7.066E-02     4.523E+00     5.576E-01     0.000E+00     0.000E+00     0.000E+00
X     7.066E-02     4.523E+00     1.053E+00     0.000E+00     0.000E+00     0.000E+00
X     7.066E-02     4.523E+00     1.549E+00     0.000E+00     0.000E+00     0.000E+00
X     7.066E-02     4.523E+00     2.045E+00     0.000E+00     0.000E+00     0.000E+00
X     7.066E-02     4.523E+00     2.540E+00     0.000E+00     0.000E+00     0.000E+00
X     7.066E-02     4.523E+00     3.036E+00     0.000E+00     0.000E+00     0.000E+00
X     7.066E-02     4.523E+00     3.531E+00     0.000E+00     0.000E+00     0.000E+00
X     7.066E-02     4.523E+00     4.027E+00     0.000E+00     0.000E+00     0.000E+00
X     7.066E-02     4.523E+00     4.523E+00     0.000E+00     0.000E+00     0.000E+00
X     5.663E-01    -4.895E+00    -4.895E+00     0.000E+00     0.000E+00     0.000E+00
X     5.663E-01    -4.895E+00    -4.399E+00     0.000E+00     0.000E+00     0.000E+00
X     5.663E-01    -4.895E+00    -3.903E+00     0.000E+00     0.000E+00     0.000E+00
X     5.663E-01    -4.895E+00    -3.408E+00     0.000E+00     0.000E+00     0.000E+00
X     5.663E-01    -4.895E+00    -2.912E+00     0.000E+00     0.000E+00     0.000E+00
X     5.663E-01    -4.895E+00    -2.416E+00     0.000E+00     0.000E+00     0.000E+00
X     5.663E-01    -4.895E+00    -1.921E+00     0.000E+00     0.000E+00     0.000E+00
X     5.663E-01    -4.895E+00    -1.425E+00     0.000E+00     0.000E+00     0.000E+00
X     5.663E-01    -4.895E+00    -9.293E-01     0.000E+00     0.000E+00     0.000E+00
X     5.663E-01    -4.895E+00    -4.337E-01     0.000E+00     0.000E+00     0.000E+00
X     5.663E-01    -4.895E+00     6.196E-02     0.000E+00     0.000E+00     0.000E+00
X     5.663E-01    -4.895E+00     5.576E-01     0.000E+00     0.000E+00     0.000E+00
X     5.663E-01    -4.895E+00     1.053E+00     0.000E+00     0.000E+00     0.000E+00
X     5.663E-01    -4.895E+00     1.549E+00     0.000E+00     0.000E+00     0.000E+00
X     5.663E-01    -4.895E+00     2.045E+00     0.000E+00     0.000E+00     0.000E+00
X     5.663E-01    -4.895E+00     2.540E+00     0.000E+00     0.000E+00     0.000E+00
X     5.663E-01    -4.895E+00     3.036E+00     0.000E+00     0.000E+00     0.000E+00
X     5.663E-01    -4.895E+00     3.531E+00     0.000E+00     0.000E+00     0.000E+00
X     5.663E-01    -4.895E+00     4.027E+00     0.000E+00     0.000E+00     0.000E+00
X     5.663E-01    -4.895E+00     4.523E+00     0.000E+00     0.000E+00     0.000E+00
X     5.663E-01    -4.399E+00    -4.895E+00     0.000E+00     0.000E+00     0.000E+00
X     5.663E-01    -4.399E+00    -4.399E+00     0.000E+00     0.000E+00     0.000E+00
X     5.663E-01    -4.399E+00    -3.903E+00     0.000E+00     0.000E+00     0.000E+00
X     5.663E-01    -4.399E+00    -3.408E+00     0.000E+00     0.000E+00     0.000E+00
X     5.663E-01    -4.399E+00    -2.912E+00     0.000E+00     0.000E+00     0.000E+00
X     5.663E-01    -4.399E+00    -2.416E+00     0.000E+00     0.000E+00     0.000E+00
X     5.663E-01    -4.399E+00    -1.921E+00     0.000E+00     0.000E+00     0.000E+00
X     5.663E-01    -4.399E+00    -1.425E+00     0.000E+00     0.000E+00     0.000E+00
X     5.663E-01    -4.399E+00    -9.293E-01     0.000E+00     0.000E+00     0.000E+00
X     5.663E-01    -4.399E+00    -4.337E-01     0.000E+00     0.000E+00     0.000E+00
X     5.663E-01    -4.399E+00     6.196E-02     0.000E+00     0.000E+00     0.000E+00
X     5.663E-01    -4.399E+00     5.576E-01     0.000E+00     0.000E+00     0.000E+00
X     5.663E-01    -4.399E+00     1.053E+00     0.000E+00     0.000E+00     0.000E+00
X     5.663E-01    -4.399E+00     1.549E+00     0.000E+00     0.000E+00     0.000E+00
X     5.663E-01    -4.399E+00     2.045E+00     0.000E+00     0.000E+00     0.000E+00
X     5.663E-01    -4.399E+00     2.540E+00     0.000E+00     0.000E+00     0.000E+00
X     5.663E-01    -4.399E+00     3.036E+00     0.000E+00     0.000E+00     0.000E+00
X     5.663E-01    -4.399E+00     3.531E+00     0.000E+00     0.000E+00     0.000E+00
X     5.663E-01    -4.399E+00     4.027E+00     0.000E+00     0.000E+00     0.000E+00
X     5.663E-01    -4.399E+00     4.523E+00     0.000E+00     0.000E+00     0.000E+00
X     5.663E-01    -3.903E+00    -4.895E+00     0.000E+00     0.000E+00     0.000E+00
X     5.663E-01    -3.903E+00    -4.399E+00     0.000E+00     0.000E+00     0.000E+00
X     5.663E-01    -3.903E+00    -3.903E+00     0.000E+00     0.000E+00     0.000E+00
X     5.663E-01    -3.903E+00    -3.408E+00     0.000E+00     0.000E+00     0.000E+00
X     5.663E-01    -3.903E+00    -2.912E+00     0.000E+00     0.000E+00     0.000E+00
X     5.663E-01    -3.903E+00    -2.416E+00     0.000E+00     0.000E+00     0.000E+00
X     5.663E-01    -3.903E+00    -1.921E+00     0.000E+00     0.000E+00     0.000E+00
X     5.663E-01    -3.903E+00    -1.425E+00    -1.059E-11    -5.454E-11    -6.170E-11
X     5.663E-01    -3.903E+00    -9.293E-01    -4.145E-08    -2.134E-07    -2.414E-07
X     5.663E-01    -3.903E+00    -4.337E-01    -1.515E-07    -7.803E-07    -8.826E-07
X     5.663E-01    -3.903E+00     6.196E-02    -1.945E-07    -1.001E-06    -1.132E-06
X     5.663E-01    -3.903E+00     5.576E-01    -1.261E-07    -6.491E-07    -7.342E-07
X     5.663E-01    -3.903E+00     1.053E+00    -1.713E-08    -8.819E-08    -9.976E-08
X     5.663E-01    -3.903E+00     1.549E+00     0.000E+00     0.000E+00     0.000E+00
X     5.663E-01    -3.903E+00     2.045E+00     0.000E+00     0.000E+00     0.000E+00
X     5.663E-01    -3.903E+00     2.540E+00     0.000E+00     0.000E+00     0.000E+00
X     5.663E-01    -3.903E+00     3.036E+00     0.000E+00     0.000E+00     0.000E+00
X     5.663E-01    -3.903E+00     3.531E+00     0.000E+00     0.000E+00     0.000E+00
X     5.663E-01    -3.903E+00     4.027E+00     0.000E+00     0.000E+00     0.000E+00
X     5.663E-01    -3.903E+00     4.523E+00     0.000E+00     0.000E+00     0.000E+00
X     5.663E-01    -3.408E+00    -4.895E+00     0.000E+00     0.000E+00     0.000E+00
X     5.663E-01    -3.408E+00    -4.399E+00     0.000E+00     0.000E+00     0.000E+00
X     5.663E-01    -3.408E+00    -3.903E+00     0.000E+00     0.000E+00     0.000E+00
X     5.663E-01    -3.408E+00    -3.408E+00     0.000E+00     0.000E+00     0.000E+00
X     5.663E-01    -3.408E+00    -2.912E+00     0.000E+00     0.000E+00     0.000E+00
X     5.663E-01    -3.408E+00    -2.416E+00    -1.030E-13    -5.307E-13    -6.004E-13
X     5.663E-01    -3.408E+00    -1.921E+00    -1.795E-07    -9.242E-07    -1.046E-06
X     5.663E-01    -3.408E+00    -1.425E+00    -7.087E-07    -3.630E-06    -4.107E-06
X     5.663E-01    -3.408E+00    -9.293E-01    -1.346E-06    -6.880E-06    -7.784E-06
X     5.663E-01    -3.408E+00    -4.337E-01    -1.899E-06    -9.704E-06    -1.098E-05
X     5.663E-01    -3.408E+00     6.196E-02    -2.077E-06    -1.062E-05    -1.202E-05
X     5.663E-01    -3.408E+00     5.576E-01    -1.783E-06    -9.130E-06    -1.033E-05
X     5.663E-01    -3.408E+00     1.053E+00    -1.178E-06    -6.044E-06    -6.838E-06
X     5.663E-01    -3.408E+00     1.549E+00    -5.657E-07    -2.907E-06    -3.289E-06
X     5.663E-01    -3.408E+00     2.045E+00    -8.260E-08    -4.250E-07    -4.808E-07
X     5.663E-01    -3.408E+00     2.540E+00     0.000E+00     0.000E+00     0.000E+00
X     5.663E-01    -3.408E+00     3.036E+00     0.000E+00     0.000E+00     0.000E+00
X     5.663E-01    -3.408E+00     3.531E+00     0.000E+00     0.000E+00     0.000E+00
X     5.663E-01    -3.408E+00     4.027E+00     0.000E+00     0.000E+00     0.000E+00
X     5.663E-01    -3.408E+00     4.523E+00     0.000E+00     0.000E+00     0.000E+00
X     5.663E-01    -2.912E+00    -4.895E+00     0.000E+00     0.000E+00     0.000E+00
X     5.663E-01    -2.912E+00    -4.399E+00     0.000E+00     0.000E+00     0.000E+00
X     5.663E-01    -2.912E+00    -3.903E+00     0.000E+00     0.000E+00     0.000E+00
X     5.663E-01    -2.912E+00    -3.408E+00     0.000E+00     0.000E+00     0.000E+00
X     5.663E-01    -2.912E+00    -2.912E+00    -1.730E-10    -8.909E-10    -1.008E-09
X     5.663E-01    -2.912E+00    -2.416E+00    -4.617E-07    -2.369E-06    -2.681E-06
X     5.663E-01    -2.912E+00    -1.921E+00    -1.580E-06    -8.063E-06    -9.123E-06
X     5.663E-01    -2.912E+00    -1.425E+00    -3.488E-06    -1.776E-05    -2.010E-05
X     5.663E-01    -2.912E+00    -9.293E-01    -5.952E-06    -3.030E-05    -3.428E-05
X     5.663E-01    -2.912E+00    -4.337E-01    -8.223E-06    -4.188E-05    -4.739E-05
X     5.663E-01    -2.912E+00     6.196E-02    -8.986E-06    -4.583E-05    -5.186E-05
X     5.663E-01    -2.912E+00     5.576E-01    -7.721E-06    -3.946E-05    -4.465E-05
X     5.663E-01    -2.912E+00     1.053E+00    -5.275E-06    -2.701E-05    -3.057E-05
X     5.663E-01    -2.912E+00     1.549E+00    -2.928E-06    -1.503E-05    -1.700E-05
X     5.663E-01    -2.912E+00     2.045E+00    -1.215E-06    -6.244E-06    -7.066E-06
X     5.663E-01    -2.912E+00     2.540E+00    -2.774E-07    -1.427E-06    -1.615E-06
X     5.663E-01    -2.912E+00     3.036E+00     0.000E+00     0.000E+00     0.000E+00
X     5.663E-01    -2.912E+00     3.531E+00     0.000E+00     0.000E+00     0.000E+00
X     5.663E-01    -2.912E+00     4.027E+00     0.000E+00     0.000E+00     0.000E+00
X     5.663E-01    -2.912E+00     4.523E+00     0.000E+00     0.000E+00     0.000E+00
X     5.663E-01    -2.416E+00    -4.895E+00     0.000E+00     0.000E+00     0.000E+00
X     5.663E-01    -2.416E+00    -4.399E+00     0.000E+00     0.000E+00     0.000E+00
X     5.663E-01    -2.416E+00    -3.903E+00     0.000E+00     0.000E+00     0.000E+00
X     5.663E-01    -2.416E+00    -3.408E+00    -1.030E-13    -5.307E-13    -6.004E-13
X     5.663E-01    -2.416E+00    -2.912E+00    -4.617E-07    -2.369E-06    -2.681E-06
X     5.663E-01    -2.416E+00    -2.416E+00    -2.022E-06    -1.031E-05    -1.166E-05
X     5.663E-01    -2.416E+00    -1.921E+00    -5.468E-06    -2.780E-05    -3.145E-05
X     5.663E-01    -2.416E+00    -1.425E+00    -1.222E-05    -6.208E-05    -7.024E-05
X     5.663E-01    -2.416E+00    -9.293E-01    -2.219E-05    -1.127E-04    -1.276E-04
X     5.663E-01    -2.416E+00    -4.337E-01    -3.213E-05    -1.634E-04    -1.849E-04
X     5.663E-01    -2.416E+00     6.196E-02    -3.563E-05    -1.816E-04    -2.055E-04
X     5.663E-01    -2.416E+00     5.576E-01    -2.985E-05    -1.525E-04    -1.726E-04
X     5.663E-01    -2.416E+00     1.053E+00    -1.934E-05    -9.907E-05    -1.121E-04
X     5.663E-01    -2.416E+00     1.549E+00    -1.008E-05    -5.172E-05    -5.853E-05
X     5.663E-01    -2.416E+00     2.045E+00    -4.314E-06    -2.218E-05    -2.511E-05
X     5.663E-01    -2.416E+00     2.540E+00    -1.471E-06    -7.570E-06    -8.567E-06
X     5.663E-01    -2.416E+00     3.036E+00    -2.428E-07    -1.249E-06    -1.413E-06
X     5.663E-01    -2.416E+00     3.531E+00     0.000E+00     0.000E+00     0.000E+00
X     5.663E-01    -2.416E+00     4.027E+00     0.000E+00     0.000E+00     0.000E+00
X     5.663E-01    -2.416E+00     4.523E+00     0.000E+00     0.000E+00     0.000E+00
X     5.663E-01    -1.921E+00    -4.895E+00     0.000E+00     0.000E+00     0.000E+00
X     5.663E-01    -1.921E+00    -4.399E+00     0.000E+00     0.000E+00     0.000E+00
X     5.663E-01    -1.921E+00    -3.903E+00     0.000E+00     0.000E+00     0.000E+00
X     5.663E-01    -1.921E+00    -3.408E+00    -1.795E-07    -9.241E-07    -1.046E-06
X     5.663E-01    -1.921E+00    -2.912E+00    -1.580E-06    -8.063E-06    -9.122E-06
X     5.663E-01    -1.921E+00    -2.416E+00    -5.469E-06    -2.780E-05    -3.145E-05
X     5.663E-01    -1.921E+00    -1.921E+00    -1.566E-05    -7.944E-05    -8.988E-05
X     5.663E-01    -1.921E+00    -1.425E+00    -3.845E-05    -1.951E-04    -2.207E-04
X     5.663E-01    -1.921E+00    -9.293E-01    -7.864E-05    -3.994E-04    -4.519E-04
X     5.663E-01    -1.921E+00    -4.337E-01    -1.237E-04    -6.296E-04    -7.124E-04
X     5.663E-01    -1.921E+00     6.196E-02    -1.408E-04    -7.181E-04    -8.126E-04
X     5.663E-01    -1.921E+00     5.576E-01    -1.130E-04    -5.779E-04    -6.540E-04
X     5.663E-01    -1.921E+00     1.053E+00    -6.658E-05    -3.414E-04    -3.864E-04
X     5.663E-01    -1.921E+00     1.549E+00    -3.071E-05    -1.578E-04    -1.787E-04
X     5.663E-01    -1.921E+00     2.045E+00    -1.206E-05    -6.208E-05    -7.027E-05
X     5.663E-01    -1.921E+00     2.540E+00    -4.070E-06    -2.098E-05    -2.375E-05
X     5.663E-01    -1.921E+00     3.036E+00    -1.062E-06    -5.475E-06    -6.196E-06
X     5.663E-01    -1.921E+00     3.531E+00    -3.459E-08    -1.778E-07    -2.012E-07
X     5.663E-01    -1.921E+00     4.027E+00     0.000E+00     0.000E+00     0.000E+00
X     5.663E-01    -1.921E+00     4.523E+00     0.000E+00     0.000E+00     0.000E+00
X     5.663E-01    -1.425E+00    -4.895E+00     0.000E+00     0.000E+00     0.000E+00
X     5.663E-01    -1.425E+00    -4.399E+00     0.000E+00     0.000E+00     0.000E+00
X     5.663E-01    -1.425E+00    -3.903E+00    -1.059E-11    -5.453E-11    -6.170E-11
X     5.663E-01    -1.425E+00    -3.408E+00    -7.089E-07    -3.630E-06    -4.107E-06
X     5.663E-01    -1.425E+00    -2.912E+00    -3.489E-06    -1.776E-05    -2.010E-05
X     5.663E-01    -1.425E+00    -2.416E+00    -1.223E-05    -6.208E-05    -7.024E-05
X     5.663E-01    -1.425E+00    -1.921E+00    -3.846E-05    -1.951E-04    -2.207E-04
X     5.663E-01    -1.425E+00    -1.425E+00    -1.092E-04    -5.540E-04    -6.267E-04
X     5.663E-01    -1.425E+00    -9.293E-01    -2.608E-04    -1.326E-03    -1.500E-03
X     5.663E-01    -1.425E+00    -4.337E-01    -4.688E-04    -2.391E-03    -2.705E-03
X     5.663E-01    -1.425E+00     6.196E-02    -5.580E-04    -2.853E-03    -3.228E-03
X     5.663E-01    -1.425E+00     5.576E-01    -4.164E-04    -2.134E-03    -2.415E-03
X     5.663E-01    -1.425E+00     1.053E+00    -2.120E-04    -1.089E-03    -1.233E-03
X     5.663E-01    -1.425E+00     1.549E+00    -8.401E-05    -4.327E-04    -4.898E-04
X     5.663E-01    -1.425E+00     2.045E+00    -2.855E-05    -1.473E-04    -1.668E-04
X     5.663E-01    -1.425E+00     2.540E+00    -8.873E-06    -4.583E-05    -5.188E-05
X     5.663E-01    -1.425E+00     3.036E+00    -2.453E-06    -1.267E-05    -1.434E-05
X     5.663E-01    -1.425E+00     3.531E+00    -4.036E-07    -2.078E-06    -2.351E-06
X     5.663E-01    -1.425E+00     4.027E+00     0.000E+00     0.000E+00     0.000E+00
X     5.663E-01    -1.425E+00     4.523E+00     0.000E+00     0.000E+00     0.000E+00
X     5.663E-01    -9.293E-01    -4.895E+00     0.000E+00     0.000E+00     0.000E+00
X     5.663E-01    -9.293E-01    -4.399E+00     0.000E+00     0.000E+00     0.000E+00
X     5.663E-01    -9.293E-01    -3.903E+00    -4.144E-08    -2.134E-07    -2.415E-07
X     5.663E-01    -9.293E-01    -3.408E+00    -1.346E-06    -6.880E-06    -7.784E-06
X     5.663E-01    -9.293E-01    -2.912E+00    -5.956E-06    -3.030E-05    -3.428E-05
X     5.663E-01    -9.293E-01    -2.416E+00    -2.221E-05    -1.127E-04    -1.275E-04
X     5.663E-01    -9.293E-01    -1.921E+00    -7.868E-05    -3.994E-04    -4.519E-04
X     5.663E-01    -9.293E-01    -1.425E+00    -2.609E-04    -1.326E-03    -1.500E-03
X     5.663E-01    -9.293E-01    -9.293E-01    -7.673E-04    -3.916E-03    -4.430E-03
X     5.663E-01    -9.293E-01    -4.337E-01    -1.769E-03    -9.074E-03    -1.027E-02
X     5.663E-01    -9.293E-01     6.196E-02    -2.345E-03    -1.205E-02    -1.363E-02
X     5.663E-01    -9.293E-01     5.576E-01    -1.485E-03    -7.632E-03    -8.636E-03
X     5.663E-01    -9.293E-01     1.053E+00    -5.889E-04    -3.032E-03    -3.432E-03
X     5.663E-01    -9.293E-01     1.549E+00    -1.917E-04    -9.898E-04    -1.120E-03
X     5.663E-01    -9.293E-01     2.045E+00    -5.661E-05    -2.928E-04    -3.315E-04
X     5.663E-01    -9.293E-01     2.540E+00    -1.583E-05    -8.196E-05    -9.279E-05
X     5.663E-01    -9.293E-01     3.036E+00    -4.169E-06    -2.157E-05    -2.442E-05
X     5.663E-01    -9.293E-01     3.531E+00    -8.384E-07    -4.326E-06    -4.896E-06
X     5.663E-01    -9.293E-01     4.027E+00    -5.374E-11    -2.763E-10    -3.126E-10
X     5.663E-01    -9.293E-01     4.523E+00     0.000E+00     0.000E+00     0.000E+00
X     5.663E-01    -4.337E-01    -4.895E+00     0.000E+00     0.000E+00     0.000E+00
X     5.663E-01    -4.337E-01    -4.399E+00     0.000E+00     0.000E+00     0.000E+00
X     5.663E-01    -4.337E-01    -3.903E+00    -1.515E-07    -7.801E-07    -8.827E-07
X     5.663E-01    -4.337E-01    -3.408E+00    -1.900E-06    -9.704E-06    -1.098E-05
X     5.663E-01    -4.337E-01    -2.912E+00    -8.231E-06    -4.189E-05    -4.739E-05
X     5.663E-01    -4.337E-01    -2.416E+00    -3.216E-05    -1.634E-04    -1.849E-04
X     5.663E-01    -4.337E-01    -1.921E+00    -1.238E-04    -6.297E-04    -7.124E-04
X     5.663E-01    -4.337E-01    -1.425E+00    -4.690E-04    -2.391E-03    -2.705E-03
X     5.663E-01    -4.337E-01    -9.293E-01    -1.769E-03    -9.073E-03    -1.027E-02
X     5.663E-01    -4.337E-01    -4.337E-01    -6.201E-03    -3.196E-02    -3.616E-02
X     5.663E-01    -4.337E-01     6.196E-02    -1.027E-02    -5.284E-02    -5.978E-02
X     5.663E-01    -4.337E-01     5.576E-01    -4.680E-03    -2.407E-02    -2.723E-02
X     5.663E-01    -4.337E-01     1.053E+00    -1.258E-03    -6.487E-03    -7.343E-03
X     5.663E-01    -4.337E-01     1.549E+00    -3.316E-04    -1.716E-03    -1.943E-03
X     5.663E-01    -4.337E-01     2.045E+00    -8.687E-05    -4.505E-04    -5.101E-04
X     5.663E-01    -4.337E-01     2.540E+00    -2.245E-05    -1.165E-04    -1.319E-04
X     5.663E-01    -4.337E-01     3.036E+00    -5.677E-06    -2.944E-05    -3.332E-05
X     5.663E-01    -4.337E-01     3.531E+00    -1.208E-06    -6.244E-06    -7.067E-06
X     5.663E-01    -4.337E-01     4.027E+00    -1.278E-08    -6.571E-08    -7.435E-08
X     5.663E-01    -4.337E-01     4.523E+00     0.000E+00     0.000E+00     0.000E+00
X     5.663E-01     6.196E-02    -4.895E+00     0.000E+00     0.000E+00     0.000E+00
X     5.663E-01     6.196E-02    -4.399E+00     0.000E+00     0.000E+00     0.000E+00
X     5.663E-01     6.196E-02    -3.903E+00    -1.944E-07    -1.001E-06    -1.133E-06
X     5.663E-01     6.196E-02    -3.408E+00    -2.078E-06    -1.062E-05    -1.202E-05
X     5.663E-01     6.196E-02    -2.912E+00    -8.996E-06    -4.584E-05    -5.186E-05
X     5.663E-01     6.196E-02    -2.416E+00    -3.568E-05    -1.817E-04    -2.055E-04
X     5.663E-01     6.196E-02    -1.921E+00    -1.409E-04    -7.182E-04    -8.125E-04
X     5.663E-01     6.196E-02    -1.425E+00    -5.584E-04    -2.853E-03    -3.228E-03
X     5.663E-01     6.196E-02    -9.293E-01    -2.345E-03    -1.205E-02    -1.364E-02
X     5.663E-01     6.196E-02    -4.337E-01    -1.027E-02    -5.283E-02    -5.978E-02
X     5.663E-01     6.196E-02     6.196E-02    -2.052E-02    -1.059E-01    -1.198E-01
X     5.663E-01     6.196E-02     5.576E-01    -7.268E-03    -3.734E-02    -4.225E-02
X     5.663E-01     6.196E-02     1.053E+00    -1.610E-03    -8.309E-03    -9.404E-03
X     5.663E-01     6.196E-02     1.549E+00    -3.891E-04    -2.019E-03    -2.285E-03
X     5.663E-01     6.196E-02     2.045E+00    -9.801E-05    -5.096E-04    -5.768E-04
X     5.663E-01     6.196E-02     2.540E+00    -2.475E-05    -1.287E-04    -1.457E-04
X     5.663E-01     6.196E-02     3.036E+00    -6.183E-06    -3.211E-05    -3.635E-05
X     5.663E-01     6.196E-02     3.531E+00    -1.330E-06    -6.880E-06    -7.787E-06
X     5.663E-01     6.196E-02     4.027E+00    -2.814E-08    -1.446E-07    -1.637E-07
X     5.663E-01     6.196E-02     4.523E+00     0.000E+00     0.000E+00     0.000E+00
X     5.663E-01     5.576E-01    -4.895E+00     0.000E+00     0.000E+00     0.000E+00
X     5.663E-01     5.576E-01    -4.399E+00     0.000E+00     0.000E+00     0.000E+00
X     5.663E-01     5.576E-01    -3.903E+00    -1.261E-07    -6.489E-07    -7.344E-07
X     5.663E-01     5.576E-01    -3.408E+00    -1.784E-06    -9.131E-06    -1.033E-05
X     5.663E-01     5.576E-01    -2.912E+00    -7.731E-06    -3.946E-05    -4.464E-05
X     5.663E-01     5.576E-01    -2.416E+00    -2.989E-05    -1.525E-04    -1.725E-04
X     5.663E-01     5.576E-01    -1.921E+00    -1.132E-04    -5.780E-04    -6.539E-04
X     5.663E-01     5.576E-01    -1.425E+00    -4.169E-04    -2.134E-03    -2.415E-03
X     5.663E-01     5.576E-01    -9.293E-01    -1.486E-03    -7.633E-03    -8.635E-03
X     5.663E-01     5.576E-01    -4.337E-01    -4.679E-03    -2.407E-02    -2.723E-02
X     5.663E-01     5.576E-01     6.196E-02    -7.267E-03    -3.734E-02    -4.224E-02
X     5.663E-01     5.576E-01     5.576E-01    -3.634E-03    -1.868E-02    -2.114E-02
X     5.663E-01     5.576E-01     1.053E+00    -1.075E-03    -5.566E-03    -6.298E-03
X     5.663E-01     5.576E-01     1.549E+00    -2.971E-04    -1.546E-03    -1.749E-03
X     5.663E-01     5.576E-01     2.045E+00    -7.979E-05    -4.157E-04    -4.705E-04
X     5.663E-01     5.576E-01     2.540E+00    -2.095E-05    -1.091E-04    -1.235E-04
X     5.663E-01     5.576E-01     3.036E+00    -5.347E-06    -2.780E-05    -3.146E-05
X     5.663E-01     5.576E-01     3.531E+00    -1.130E-06    -5.849E-06    -6.619E-06
X     5.663E-01     5.576E-01     4.027E+00    -6.355E-09    -3.266E-08    -3.696E-08
X     5.663E-01     5.576E-01     4.523E+00     0.000E+00     0.000E+00     0.000E+00
X     5.663E-01     1.053E+00    -4.895E+00     0.000E+00     0.000E+00     0.000E+00
X     5.663E-01     1.053E+00    -4.399E+00     0.000E+00     0.000E+00     0.000E+00
X     5.663E-01     1.053E+00    -3.903E+00    -1.713E-08    -8.817E-08    -9.978E-08
X     5.663E-01     1.053E+00    -3.408E+00    -1.179E-06    -6.044E-06    -6.838E-06
X     5.663E-01     1.053E+00    -2.912E+00    -5.282E-06    -2.702E-05    -3.057E-05
X     5.663E-01     1.053E+00    -2.416E+00    -1.937E-05    -9.909E-05    -1.121E-04
X     5.663E-01     1.053E+00    -1.921E+00    -6.669E-05    -3.415E-04    -3.863E-04
X     5.663E-01     1.053E+00    -1.425E+00    -2.123E-04    -1.090E-03    -1.232E-03
X     5.663E-01     1.053E+00    -9.293E-01    -5.896E-04    -3.034E-03    -3.431E-03
X     5.663E-01     1.053E+00    -4.337E-01    -1.259E-03    -6.490E-03    -7.340E-03
X     5.663E-01     1.053E+00     6.196E-02    -1.611E-03    -8.312E-03    -9.401E-03
X     5.663E-01     1.053E+00     5.576E-01    -1.075E-03    -5.567E-03    -6.297E-03
X     5.663E-01     1.053E+00     1.053E+00    -4.598E-04    -2.391E-03    -2.705E-03
X     5.663E-01     1.053E+00     1.549E+00    -1.577E-04    -8.222E-04    -9.303E-04
X     5.663E-01     1.053E+00     2.045E+00    -4.830E-05    -2.520E-04    -2.852E-04
X     5.663E-01     1.053E+00     2.540E+00    -1.389E-05    -7.241E-05    -8.194E-05
X     5.663E-01     1.053E+00     3.036E+00    -3.714E-06    -1.931E-05    -2.185E-05
X     5.663E-01     1.053E+00     3.531E+00    -7.280E-07    -3.762E-06    -4.258E-06
X     5.663E-01     1.053E+00     4.027E+00    -5.223E-12    -2.684E-11    -3.037E-11
X     5.663E-01     1.053E+00     4.523E+00     0.000E+00     0.000E+00     0.000E+00
X     5.663E-01     1.549E+00    -4.895E+00     0.000E+00     0.000E+00     0.000E+00
X     5.663E-01     1.549E+00    -4.399E+00     0.000E+00     0.000E+00     0.000E+00
X     5.663E-01     1.549E+00    -3.903E+00     0.000E+00     0.000E+00     0.000E+00
X     5.663E-01     1.549E+00    -3.408E+00    -5.659E-07    -2.907E-06    -3.289E-06
X     5.663E-01     1.549E+00    -2.912E+00    -2.932E-06    -1.503E-05    -1.700E-05
X     5.663E-01     1.549E+00    -2.416E+00    -1.009E-05    -5.174E-05    -5.851E-05
X     5.663E-01     1.549E+00    -1.921E+00    -3.076E-05    -1.579E-04    -1.786E-04
X     5.663E-01     1.549E+00    -1.425E+00    -8.415E-05    -4.329E-04    -4.896E-04
X     5.663E-01     1.549E+00    -9.293E-01    -1.920E-04    -9.904E-04    -1.120E-03
X     5.663E-01     1.549E+00    -4.337E-01    -3.320E-04    -1.717E-03    -1.942E-03
X     5.663E-01     1.549E+00     6.196E-02    -3.895E-04    -2.020E-03    -2.284E-03
X     5.663E-01     1.549E+00     5.576E-01    -2.973E-04    -1.546E-03    -1.749E-03
X     5.663E-01     1.549E+00     1.053E+00    -1.577E-04    -8.223E-04    -9.302E-04
X     5.663E-01     1.549E+00     1.549E+00    -6.543E-05    -3.415E-04    -3.864E-04
X     5.663E-01     1.549E+00     2.045E+00    -2.307E-05    -1.205E-04    -1.363E-04
X     5.663E-01     1.549E+00     2.540E+00    -7.352E-06    -3.832E-05    -4.336E-05
X     5.663E-01     1.549E+00     3.036E+00    -2.046E-06    -1.062E-05    -1.202E-05
X     5.663E-01     1.549E+00     3.531E+00    -2.951E-07    -1.518E-06    -1.718E-06
X     5.663E-01     1.549E+00     4.027E+00     0.000E+00     0.000E+00     0.000E+00
X     5.663E-01     1.549E+00     4.523E+00     0.000E+00     0.000E+00     0.000E+00
X     5.663E-01     2.045E+00    -4.895E+00     0.000E+00     0.000E+00     0.000E+00
X     5.663E-01     2.045E+00    -4.399E+00     0.000E+00     0.000E+00     0.000E+00
X     5.663E-01     2.045E+00    -3.903E+00     0.000E+00     0.000E+00     0.000E+00
X     5.663E-01     2.045E+00    -3.408E+00    -8.258E-08    -4.249E-07    -4.809E-07
X     5.663E-01     2.045E+00    -2.912E+00    -1.216E-06    -6.245E-06    -7.065E-06
X     5.663E-01     2.045E+00    -2.416E+00    -4.320E-06    -2.219E-05    -2.510E-05
X     5.663E-01     2.045E+00    -1.921E+00    -1.208E-05    -6.211E-05    -7.024E-05
X     5.663E-01     2.045E+00    -1.425E+00    -2.860E-05    -1.474E-04    -1.667E-04
X     5.663E-01     2.045E+00    -9.293E-01    -5.670E-05    -2.930E-04    -3.313E-04
X     5.663E-01     2.045E+00    -4.337E-01    -8.700E-05    -4.508E-04    -5.098E-04
X     5.663E-01     2.045E+00     6.196E-02    -9.812E-05    -5.099E-04    -5.765E-04
X     5.663E-01     2.045E+00     5.576E-01    -7.986E-05    -4.159E-04    -4.704E-04
X     5.663E-01     2.045E+00     1.053E+00    -4.833E-05    -2.521E-04    -2.851E-04
X     5.663E-01     2.045E+00     1.549E+00    -2.308E-05    -1.205E-04    -1.363E-04
X     5.663E-01     2.045E+00     2.045E+00    -9.338E-06    -4.870E-05    -5.510E-05
X     5.663E-01     2.045E+00     2.540E+00    -3.232E-06    -1.681E-05    -1.902E-05
X     5.663E-01     2.045E+00     3.036E+00    -8.079E-07    -4.180E-06    -4.730E-06
X     5.663E-01     2.045E+00     3.531E+00    -2.665E-09    -1.370E-08    -1.550E-08
X     5.663E-01     2.045E+00     4.027E+00     0.000E+00     0.000E+00     0.000E+00
X     5.663E-01     2.045E+00     4.523E+00     0.000E+00     0.000E+00     0.000E+00
X     5.663E-01     2.540E+00    -4.895E+00     0.000E+00     0.000E+00     0.000E+00
X     5.663E-01     2.540E+00    -4.399E+00     0.000E+00     0.000E+00     0.000E+00
X     5.663E-01     2.540E+00    -3.903E+00     0.000E+00     0.000E+00     0.000E+00
X     5.663E-01     2.540E+00    -3.408E+00     0.000E+00     0.000E+00     0.000E+00
X     5.663E-01     2.540E+00    -2.912E+00    -2.774E-07    -1.427E-06    -1.615E-06
X     5.663E-01     2.540E+00    -2.416E+00    -1.472E-06    -7.572E-06    -8.565E-06
X     5.663E-01     2.540E+00    -1.921E+00    -4.076E-06    -2.099E-05    -2.374E-05
X     5.663E-01     2.540E+00    -1.425E+00    -8.887E-06    -4.586E-05    -5.186E-05
X     5.663E-01     2.540E+00    -9.293E-01    -1.586E-05    -8.202E-05    -9.273E-05
X     5.663E-01     2.540E+00    -4.337E-01    -2.248E-05    -1.166E-04    -1.318E-04
X     5.663E-01     2.540E+00     6.196E-02    -2.478E-05    -1.288E-04    -1.456E-04
X     5.663E-01     2.540E+00     5.576E-01    -2.097E-05    -1.092E-04    -1.235E-04
X     5.663E-01     2.540E+00     1.053E+00    -1.390E-05    -7.243E-05    -8.192E-05
X     5.663E-01     2.540E+00     1.549E+00    -7.355E-06    -3.832E-05    -4.335E-05
X     5.663E-01     2.540E+00     2.045E+00    -3.232E-06    -1.681E-05    -1.902E-05
X     5.663E-01     2.540E+00     2.540E+00    -1.057E-06    -5.476E-06    -6.195E-06
X     5.663E-01     2.540E+00     3.036E+00    -1.033E-07    -5.307E-07    -6.004E-07
X     5.663E-01     2.540E+00     3.531E+00     0.000E+00     0.000E+00     0.000E+00
X     5.663E-01     2.540E+00     4.027E+00     0.000E+00     0.000E+00     0.000E+00
X     5.663E-01     2.540E+00     4.523E+00     0.000E+00     0.000E+00     0.000E+00
X     5.663E-01     3.036E+00    -4.895E+00     0.000E+00     0.000E+00     0.000E+00
X     5.663E-01     3.036E+00    -4.399E+00     0.000E+00     0.000E+00     0.000E+00
X     5.663E-01     3.036E+00    -3.903E+00     0.000E+00     0.000E+00     0.000E+00
X     5.663E-01     3.036E+00    -3.408E+00     0.000E+00     0.000E+00     0.000E+00
X     5.663E-01     3.036E+00    -2.912E+00     0.000E+00     0.000E+00     0.000E+00
X     5.663E-01     3.036E+00    -2.416E+00    -2.428E-07    -1.249E-06    -1.413E-06
X     5.663E-01     3.036E+00    -1.921E+00    -1.063E-06    -5.477E-06    -6.194E-06
X     5.663E-01     3.036E+00    -1.425E+00    -2.456E-06    -1.267E-05    -1.433E-05
X     5.663E-01     3.036E+00    -9.293E-01    -4.175E-06    -2.158E-05    -2.441E-05
X     5.663E-01     3.036E+00    -4.337E-01    -5.685E-06    -2.945E-05    -3.331E-05
X     5.663E-01     3.036E+00     6.196E-02    -6.190E-06    -3.213E-05    -3.633E-05
X     5.663E-01     3.036E+00     5.576E-01    -5.352E-06    -2.781E-05    -3.145E-05
X     5.663E-01     3.036E+00     1.053E+00    -3.716E-06    -1.931E-05    -2.184E-05
X     5.663E-01     3.036E+00     1.549E+00    -2.047E-06    -1.062E-05    -1.202E-05
X     5.663E-01     3.036E+00     2.045E+00    -8.081E-07    -4.180E-06    -4.729E-06
X     5.663E-01     3.036E+00     2.540E+00    -1.033E-07    -5.307E-07    -6.004E-07
X     5.663E-01     3.036E+00     3.036E+00     0.000E+00     0.000E+00     0.000E+00
X     5.663E-01     3.036E+00     3.531E+00     0.000E+00     0.000E+00     0.000E+00
X     5.663E-01     3.036E+00     4.027E+00     0.000E+00     0.000E+00     0.000E+00
X     5.663E-01     3.036E+00     4.523E+00     0.000E+00     0.000E+00     0.000E+00
X     5.663E-01     3.531E+00    -4.895E+00     0.000E+00     0.000E+00     0.000E+00
X     5.663E-01     3.531E+00    -4.399E+00     0.000E+00     0.000E+00     0.000E+00
X     5.663E-01     3.531E+00    -3.903E+00     0.000E+00     0.000E+00     0.000E+00
X     5.663E-01     3.531E+00    -3.408E+00     0.000E+00     0.000E+00     0.000E+00
X     5.663E-01     3.531E+00    -2.912E+00     0.000E+00     0.000E+00     0.000E+00
X     5.663E-01     3.531E+00    -2.416E+00     0.000E+00     0.000E+00     0.000E+00
X     5.663E-01     3.531E+00    -1.921E+00    -3.458E-08    -1.779E-07    -2.012E-07
X     5.663E-01     3.531E+00    -1.425E+00    -4.036E-07    -2.078E-06    -2.351E-06
X     5.663E-01     3.531E+00    -9.293E-01    -8.389E-07    -4.328E-06    -4.894E-06
X     5.663E-01     3.531E+00    -4.337E-01    -1.209E-06    -6.247E-06    -7.065E-06
X     5.663E-01     3.531E+00     6.196E-02    -1.331E-06    -6.883E-06    -7.784E-06
X     5.663E-01     3.531E+00     5.576E-01    -1.131E-06    -5.851E-06    -6.617E-06
X     5.663E-01     3.531E+00     1.053E+00    -7.282E-07    -3.763E-06    -4.257E-06
X     5.663E-01     3.531E+00     1.549E+00    -2.951E-07    -1.519E-06    -1.718E-06
X     5.663E-01     3.531E+00     2.045E+00    -2.665E-09    -1.370E-08    -1.550E-08
X     5.663E-01     3.531E+00     2.540E+00     0.000E+00     0.000E+00     0.000E+00
X     5.663E-01     3.531E+00     3.036E+00     0.000E+00     0.000E+00     0.000E+00
X     5.663E-01     3.531E+00     3.531E+00     0.000E+00     0.000E+00     0.000E+00
X     5.663E-01     3.531E+00     4.027E+00     0.000E+00     0.000E+00     0.000E+00
X     5.663E-01     3.531E+00     4.523E+00     0.000E+00     0.000E+00     0.000E+00
X     5.663E-01     4.027E+00    -4.895E+00     0.000E+00     0.000E+00     0.000E+00
X     5.663E-01     4.027E+00    -4.399E+00     0.000E+00     0.000E+00     0.000E+00
X     5.663E-01     4.027E+00    -3.903E+00     0.000E+00     0.000E+00     0.000E+00
X     5.663E-01     4.027E+00    -3.408E+00     0.000E+00     0.000E+00     0.000E+00
X     5.663E-01     4.027E+00    -2.912E+00     0.000E+00     0.000E+00     0.000E+00
X     5.663E-01     4.027E+00    -2.416E+00     0.000E+00     0.000E+00     0.000E+00
X     5.663E-01     4.027E+00    -1.921E+00     0.000E+00     0.000E+00     0.000E+00
X     5.663E-01     4.027E+00    -1.425E+00     0.000E+00     0.000E+00     0.000E+00
X     5.663E-01     4.027E+00    -9.293E-01    -5.373E-11    -2.763E-10    -3.126E-10
X     5.663E-01     4.027E+00    -4.337E-01    -1.278E-08    -6.572E-08    -7.434E-08
X     5.663E-01     4.027E+00     6.196E-02    -2.814E-08    -1.447E-07    -1.636E-07
X     5.663E-01     4.027E+00     5.576E-01    -6.354E-09    -3.267E-08    -3.695E-08
X     5.663E-01     4.027E+00     1.053E+00    -5.222E-12    -2.685E-11    -3.037E-11
X     5.663E-01     4.027E+00     1.549E+00     0.000E+00     0.000E+00     0.000E+00
X     5.663E-01     4.027E+00     2.045E+00     0.000E+00     0.000E+00     0.000E+00
X     5.663E-01     4.027E+00     2.540E+00     0.000E+00     0.000E+00     0.000E+00
X     5.663E-01     4.027E+00     3.036E+00     0.000E+00     0.000E+00     0.000E+00
X     5.663E-01     4.027E+00     3.531E+00     0.000E+00     0.000E+00     0.000E+00
X     5.663E-01     4.027E+00     4.027E+00     0.000E+00     0.000E+00     0.000E+00
X     5.663E-01     4.027E+00     4.523E+00     0.000E+00     0.000E+00     0.000E+00
X     5.663E-01     4.523E+00    -4.895E+00     0.000E+00     0.000E+00     0.000E+00
X     5.663E-01     4.523E+00    -4.399E+00     0.000E+00     0.000E+00     0.000E+00
X     5.663E-01     4.523E+00    -3.903E+00     0.000E+00     0.000E+00     0.000E+00
X     5.663E-01     4.523E+00    -3.408E+00     0.000E+00     0.000E+00     0.000E+00
X     5.663E-01     4.523E+00    -2.912E+00     0.000E+00     0.000E+00     0.000E+00
X     5.663E-01     4.523E+00    -2.416E+00     0.000E+00     0.000E+00     0.000E+00
X     5.663E-01     4.523E+00    -1.921E+00     0.000E+00     0.000E+00     0.000E+00
X     5.663E-01     4.523E+00    -1.425E+00     0.000E+00     0.000E+00     0.000E+00
X     5.663E-01     4.523E+00    -9.293E-01     0.000E+00     0.000E+00     0.000E+00
X     5.663E-01     4.523E+00    -4.337E-01     0.000E+00     0.000E+00     0.000E+00
X     5.663E-01     4.523E+00     6.196E-02     0.000E+00     0.000E+00     0.000E+00
X     5.663E-01     4.523E+00     5.576E-01     0.000E+00     0.000E+00     0.000E+00
X     5.663E-01     4.523E+00     1.053E+00     0.000E+00     0.000E+00     0.000E+00
X     5.663E-01     4.523E+00     1.549E+00     0.000E+00     0.000E+00     0.000E+00
X     5.663E-01     4.523E+00     2.045E+00     0.000E+00     0.000E+00     0.000E+00
X     5.663E-01     4.523E+00     2.540E+00     0.000E+00     0.000E+00     0.000E+00
X     5.663E-01     4.523E+00     3.036E+00     0.000E+00     0.000E+00     0.000E+00
X     5.663E-01     4.523E+00     3.531E+00     0.000E+00     0.000E+00     0.000E+00
X     5.663E-01     4.523E+00     4.027E+00     0.000E+00     0.000E+00     0.000E+00
X     5.663E-01     4.523E+00     4.523E+00     0.000E+00     0.000E+00     0.000E+00
X     1.062E+00    -4.895E+00    -4.895E+00     0.000E+00     0.000E+00     0.000E+00
X     1.062E+00    -4.895E+00    -4.399E+00     0.000E+00     0.000E+00     0.000E+00
X     1.062E+00    -4.895E+00    -3.903E+00     0.000E+00     0.000E+00     0.000E+00
X     1.062E+00    -4.895E+00    -3.408E+00     0.000E+00     0.000E+00     0.000E+00
X     1.062E+00    -4.895E+00    -2.912E+00     0.000E+00     0.000E+00     0.000E+00
X     1.062E+00    -4.895E+00    -2.416E+00     0.000E+00     0.000E+00     0.000E+00
X     1.062E+00    -4.895E+00    -1.921E+00     0.000E+00     0.000E+00     0.000E+00
X     1.062E+00    -4.895E+00    -1.425E+00     0.000E+00     0.000E+00     0.000E+00
X     1.062E+00    -4.895E+00    -9.293E-01     0.000E+00     0.000E+00     0.000E+00
X     1.062E+00    -4.895E+00    -4.337E-01     0.000E+00     0.000E+00     0.000E+00
X     1.062E+00    -4.895E+00     6.196E-02     0.000E+00     0.000E+00     0.000E+00
X     1.062E+00    -4.895E+00     5.576E-01     0.000E+00     0.000E+00     0.000E+00
X     1.062E+00    -4.895E+00     1.053E+00     0.000E+00     0.000E+00     0.000E+00
X     1.062E+00    -4.895E+00     1.549E+00     0.000E+00     0.000E+00     0.000E+00
X     1.062E+00    -4.895E+00     2.045E+00     0.000E+00     0.000E+00     0.000E+00
X     1.062E+00    -4.895E+00     2.540E+00     0.000E+00     0.000E+00     0.000E+00
X     1.062E+00    -4.895E+00     3.036E+00     0.000E+00     0.000E+00     0.000E+00
X     1.062E+00    -4.895E+00     3.531E+00     0.000E+00     0.000E+00     0.000E+00
X     1.062E+00    -4.895E+00     4.027E+00     0.000E+00     0.000E+00     0.000E+00
X     1.062E+00    -4.895E+00     4.523E+00     0.000E+00     0.000E+00     0.000E+00
X     1.062E+00    -4.399E+00    -4.895E+00     0.000E+00     0.000E+00     0.000E+00
X     1.062E+00    -4.399E+00    -4.399E+00     0.000E+00     0.000E+00     0.000E+00
X     1.062E+00    -4.399E+00    -3.903E+00     0.000E+00     0.000E+00     0.000E+00
X     1.062E+00    -4.399E+00    -3.408E+00     0.000E+00     0.000E+00     0.000E+00
X     1.062E+00    -4.399E+00    -2.912E+00     0.000E+00     0.000E+00     0.000E+00
X     1.062E+00    -4.399E+00    -2.416E+00     0.000E+00     0.000E+00     0.000E+00
X     1.062E+00    -4.399E+00    -1.921E+00     0.000E+00     0.000E+00     0.000E+00
X     1.062E+00    -4.399E+00    -1.425E+00     0.000E+00     0.000E+00     0.000E+00
X     1.062E+00    -4.399E+00    -9.293E-01     0.000E+00     0.000E+00     0.000E+00
X     1.062E+00    -4.399E+00    -4.337E-01     0.000E+00     0.000E+00     0.000E+00
X     1.062E+00    -4.399E+00     6.196E-02     0.000E+00     0.000E+00     0.000E+00
X     1.062E+00    -4.399E+00     5.576E-01     0.000E+00     0.000E+00     0.000E+00
X     1.062E+00    -4.399E+00     1.053E+00     0.000E+00     0.000E+00     0.000E+00
X     1.062E+00    -4.399E+00     1.549E+00     0.000E+00     0.000E+00     0.000E+00
X     1.062E+00    -4.399E+00     2.045E+00     0.000E+00     0.000E+00     0.000E+00
X     1.062E+00    -4.399E+00     2.540E+00     0.000E+00     0.000E+00     0.000E+00
X     1.062E+00    -4.399E+00     3.036E+00     0.000E+00     0.000E+00     0.000E+00
X     1.062E+00    -4.399E+00     3.531E+00     0.000E+00     0.000E+00     0.000E+00
X     1.062E+00    -4.399E+00     4.027E+00     0.000E+00     0.000E+00     0.000E+00
X     1.062E+00    -4.399E+00     4.523E+00     0.000E+00     0.000E+00     0.000E+00
X     1.062E+00    -3.903E+00    -4.895E+00     0.000E+00     0.000E+00     0.000E+00
X     1.062E+00    -3.903E+00    -4.399E+00     0.000E+00     0.000E+00     0.000E+00
X     1.062E+00    -3.903E+00    -3.903E+00     0.000E+00     0.000E+00     0.000E+00
X     1.062E+00    -3.903E+00    -3.408E+00     0.000E+00     0.000E+00     0.000E+00
X     1.062E+00    -3.903E+00    -2.912E+00     0.000E+00     0.000E+00     0.000E+00
X     1.062E+00    -3.903E+00    -2.416E+00     0.000E+00     0.000E+00     0.000E+00
X     1.062E+00    -3.903E+00    -1.921E+00     0.000E+00     0.000E+00     0.000E+00
X     1.062E+00    -3.903E+00    -1.425E+00     0.000E+00     0.000E+00     0.000E+00
X     1.062E+00    -3.903E+00    -9.293E-01     2.222E-09     1.146E-08     1.296E-08
X     1.062E+00    -3.903E+00    -4.337E-01     2.781E-08     1.444E-07     1.634E-07
X     1.062E+00    -3.903E+00     6.196E-02     3.350E-08     1.743E-07     1.970E-07
X     1.062E+00    -3.903E+00     5.576E-01     2.400E-08     1.241E-07     1.404E-07
X     1.062E+00    -3.903E+00     1.053E+00     2.625E-10     1.352E-09     1.529E-09
X     1.062E+00    -3.903E+00     1.549E+00     0.000E+00     0.000E+00     0.000E+00
X     1.062E+00    -3.903E+00     2.045E+00     0.000E+00     0.000E+00     0.000E+00
X     1.062E+00    -3.903E+00     2.540E+00     0.000E+00     0.000E+00     0.000E+00
X     1.062E+00    -3.903E+00     3.036E+00     0.000E+00     0.000E+00     0.000E+00
X     1.062E+00    -3.903E+00     3.531E+00     0.000E+00     0.000E+00     0.000E+00
X     1.062E+00    -3.903E+00     4.027E+00     0.000E+00     0.000E+00     0.000E+00
X     1.062E+00    -3.903E+00     4.523E+00     0.000E+00     0.000E+00     0.000E+00
X     1.062E+00    -3.408E+00    -4.895E+00     0.000E+00     0.000E+00     0.000E+00
X     1.062E+00    -3.408E+00    -4.399E+00     0.000E+00     0.000E+00     0.000E+00
X     1.062E+00    -3.408E+00    -3.903E+00     0.000E+00     0.000E+00     0.000E+00
X     1.062E+00    -3.408E+00    -3.408E+00     0.000E+00     0.000E+00     0.000E+00
X     1.062E+00    -3.408E+00    -2.912E+00     0.000E+00     0.000E+00     0.000E+00
X     1.062E+00    -3.408E+00    -2.416E+00     0.000E+00     0.000E+00     0.000E+00
X     1.062E+00    -3.408E+00    -1.921E+00     3.124E-08     1.631E-07     1.845E-07
X     1.062E+00    -3.408E+00    -1.425E+00     1.044E-07     5.599E-07     6.330E-07
X     1.062E+00    -3.408E+00    -9.293E-01     1.943E-07     1.053E-06     1.190E-06
X     1.062E+00    -3.408E+00    -4.337E-01     2.742E-07     1.487E-06     1.680E-06
X     1.062E+00    -3.408E+00     6.196E-02     3.019E-07     1.628E-06     1.838E-06
X     1.062E+00    -3.408E+00     5.576E-01     2.621E-07     1.399E-06     1.580E-06
X     1.062E+00    -3.408E+00     1.053E+00     1.755E-07     9.256E-07     1.045E-06
X     1.062E+00    -3.408E+00     1.549E+00     8.713E-08     4.537E-07     5.126E-07
X     1.062E+00    -3.408E+00     2.045E+00     1.259E-08     6.484E-08     7.334E-08
X     1.062E+00    -3.408E+00     2.540E+00     0.000E+00     0.000E+00     0.000E+00
X     1.062E+00    -3.408E+00     3.036E+00     0.000E+00     0.000E+00     0.000E+00
X     1.062E+00    -3.408E+00     3.531E+00     0.000E+00     0.000E+00     0.000E+00
X     1.062E+00    -3.408E+00     4.027E+00     0.000E+00     0.000E+00     0.000E+00
X     1.062E+00    -3.408E+00     4.523E+00     0.000E+00     0.000E+00     0.000E+00
X     1.062E+00    -2.912E+00    -4.895E+00     0.000E+00     0.000E+00     0.000E+00
X     1.062E+00    -2.912E+00    -4.399E+00     0.000E+00     0.000E+00     0.000E+00
X     1.062E+00    -2.912E+00    -3.903E+00     0.000E+00     0.000E+00     0.000E+00
X     1.062E+00    -2.912E+00    -3.408E+00     0.000E+00     0.000E+00     0.000E+00
X     1.062E+00    -2.912E+00    -2.912E+00     2.860E-12     1.469E-11     1.662E-11
X     1.062E+00    -2.912E+00    -2.416E+00     7.034E-08     3.745E-07     4.236E-07
X     1.062E+00    -2.912E+00    -1.921E+00     2.254E-07     1.236E-06     1.397E-06
X     1.062E+00    -2.912E+00    -1.425E+00     4.851E-07     2.701E-06     3.053E-06
X     1.062E+00    -2.912E+00    -9.293E-01     8.218E-07     4.595E-06     5.189E-06
X     1.062E+00    -2.912E+00    -4.337E-01     1.147E-06     6.373E-06     7.193E-06
X     1.062E+00    -2.912E+00     6.196E-02     1.270E-06     6.977E-06     7.872E-06
X     1.062E+00    -2.912E+00     5.576E-01     1.108E-06     5.997E-06     6.764E-06
X     1.062E+00    -2.912E+00     1.053E+00     7.682E-07     4.094E-06     4.617E-06
X     1.062E+00    -2.912E+00     1.549E+00     4.370E-07     2.292E-06     2.587E-06
X     1.062E+00    -2.912E+00     2.045E+00     1.844E-07     9.556E-07     1.079E-06
X     1.062E+00    -2.912E+00     2.540E+00     4.610E-08     2.373E-07     2.682E-07
X     1.062E+00    -2.912E+00     3.036E+00     0.000E+00     0.000E+00     0.000E+00
X     1.062E+00    -2.912E+00     3.531E+00     0.000E+00     0.000E+00     0.000E+00
X     1.062E+00    -2.912E+00     4.027E+00     0.000E+00     0.000E+00     0.000E+00
X     1.062E+00    -2.912E+00     4.523E+00     0.000E+00     0.000E+00     0.000E+00
X     1.062E+00    -2.416E+00    -4.895E+00     0.000E+00     0.000E+00     0.000E+00
X     1.062E+00    -2.416E+00    -4.399E+00     0.000E+00     0.000E+00     0.000E+00
X     1.062E+00    -2.416E+00    -3.903E+00     0.000E+00     0.000E+00     0.000E+00
X     1.062E+00    -2.416E+00    -3.408E+00     0.000E+00     0.000E+00     0.000E+00
X     1.062E+00    -2.416E+00    -2.912E+00     7.031E-08     3.744E-07     4.236E-07
X     1.062E+00    -2.416E+00    -2.416E+00     2.858E-07     1.579E-06     1.786E-06
X     1.062E+00    -2.416E+00    -1.921E+00     7.453E-07     4.212E-06     4.763E-06
X     1.062E+00    -2.416E+00    -1.425E+00     1.663E-06     9.459E-06     1.069E-05
X     1.062E+00    -2.416E+00    -9.293E-01     3.012E-06     1.712E-05     1.933E-05
X     1.062E+00    -2.416E+00    -4.337E-01     4.416E-06     2.484E-05     2.804E-05
X     1.062E+00    -2.416E+00     6.196E-02     4.991E-06     2.763E-05     3.117E-05
X     1.062E+00    -2.416E+00     5.576E-01     4.267E-06     2.317E-05     2.613E-05
X     1.062E+00    -2.416E+00     1.053E+00     2.828E-06     1.506E-05     1.698E-05
X     1.062E+00    -2.416E+00     1.549E+00     1.506E-06     7.879E-06     8.883E-06
X     1.062E+00    -2.416E+00     2.045E+00     6.514E-07     3.363E-06     3.793E-06
X     1.062E+00    -2.416E+00     2.540E+00     2.265E-07     1.160E-06     1.310E-06
X     1.062E+00    -2.416E+00     3.036E+00     4.126E-08     2.116E-07     2.393E-07
X     1.062E+00    -2.416E+00     3.531E+00     0.000E+00     0.000E+00     0.000E+00
X     1.062E+00    -2.416E+00     4.027E+00     0.000E+00     0.000E+00     0.000E+00
X     1.062E+00    -2.416E+00     4.523E+00     0.000E+00     0.000E+00     0.000E+00
X     1.062E+00    -1.921E+00    -4.895E+00     0.000E+00     0.000E+00     0.000E+00
X     1.062E+00    -1.921E+00    -4.399E+00     0.000E+00     0.000E+00     0.000E+00
X     1.062E+00    -1.921E+00    -3.903E+00     0.000E+00     0.000E+00     0.000E+00
X     1.062E+00    -1.921E+00    -3.408E+00     3.122E-08     1.631E-07     1.845E-07
X     1.062E+00    -1.921E+00    -2.912E+00     2.250E-07     1.235E-06     1.398E-06
X     1.062E+00    -1.921E+00    -2.416E+00     7.443E-07     4.211E-06     4.765E-06
X     1.062E+00    -1.921E+00    -1.921E+00     2.108E-06     1.208E-05     1.367E-05
X     1.062E+00    -1.921E+00    -1.425E+00     5.154E-06     2.967E-05     3.354E-05
X     1.062E+00    -1.921E+00    -9.293E-01     1.060E-05     6.077E-05     6.864E-05
X     1.062E+00    -1.921E+00    -4.337E-01     1.684E-05     9.537E-05     1.076E-04
X     1.062E+00    -1.921E+00     6.196E-02     1.959E-05     1.087E-04     1.225E-04
X     1.062E+00    -1.921E+00     5.576E-01     1.619E-05     8.761E-05     9.875E-05
X     1.062E+00    -1.921E+00     1.053E+00     9.846E-06     5.200E-05     5.861E-05
X     1.062E+00    -1.921E+00     1.549E+00     4.629E-06     2.398E-05     2.702E-05
X     1.062E+00    -1.921E+00     2.045E+00     1.852E-06     9.456E-06     1.066E-05
X     1.062E+00    -1.921E+00     2.540E+00     6.275E-07     3.180E-06     3.587E-06
X     1.062E+00    -1.921E+00     3.036E+00     1.655E-07     8.392E-07     9.478E-07
X     1.062E+00    -1.921E+00     3.531E+00     1.367E-09     7.026E-09     7.950E-09
X     1.062E+00    -1.921E+00     4.027E+00     0.000E+00     0.000E+00     0.000E+00
X     1.062E+00    -1.921E+00     4.523E+00     0.000E+00     0.000E+00     0.000E+00
X     1.062E+00    -1.425E+00    -4.895E+00     0.000E+00     0.000E+00     0.000E+00
X     1.062E+00    -1.425E+00    -4.399E+00     0.000E+00     0.000E+00     0.000E+00
X     1.062E+00    -1.425E+00    -3.903E+00     0.000E+00     0.000E+00     0.000E+00
X     1.062E+00    -1.425E+00    -3.408E+00     1.041E-07     5.595E-07     6.334E-07
X     1.062E+00    -1.425E+00    -2.912E+00     4.835E-07     2.698E-06     3.055E-06
X     1.062E+00    -1.425E+00    -2.416E+00     1.657E-06     9.450E-06     1.070E-05
X     1.062E+00    -1.425E+00    -1.921E+00     5.143E-06     2.965E-05     3.356E-05
X     1.062E+00    -1.425E+00    -1.425E+00     1.450E-05     8.393E-05     9.494E-05
X     1.062E+00    -1.425E+00    -9.293E-01     3.461E-05     1.995E-04     2.254E-04
X     1.062E+00    -1.425E+00    -4.337E-01     6.240E-05     3.542E-04     3.999E-04
X     1.062E+00    -1.425E+00     6.196E-02     7.592E-05     4.197E-04     4.733E-04
X     1.062E+00    -1.425E+00     5.576E-01     5.931E-05     3.176E-04     3.579E-04
X     1.062E+00    -1.425E+00     1.053E+00     3.154E-05     1.642E-04     1.850E-04
X     1.062E+00    -1.425E+00     1.549E+00     1.290E-05     6.574E-05     7.410E-05
X     1.062E+00    -1.425E+00     2.045E+00     4.448E-06     2.236E-05     2.521E-05
X     1.062E+00    -1.425E+00     2.540E+00     1.395E-06     6.968E-06     7.860E-06
X     1.062E+00    -1.425E+00     3.036E+00     3.865E-07     1.935E-06     2.184E-06
X     1.062E+00    -1.425E+00     3.531E+00     6.513E-08     3.307E-07     3.739E-07
X     1.062E+00    -1.425E+00     4.027E+00     0.000E+00     0.000E+00     0.000E+00
X     1.062E+00    -1.425E+00     4.523E+00     0.000E+00     0.000E+00     0.000E+00
X     1.062E+00    -9.293E-01    -4.895E+00     0.000E+00     0.000E+00     0.000E+00
X     1.062E+00    -9.293E-01    -4.399E+00     0.000E+00     0.000E+00     0.000E+00
X     1.062E+00    -9.293E-01    -3.903E+00     2.221E-09     1.145E-08     1.296E-08
X     1.062E+00    -9.293E-01    -3.408E+00     1.936E-07     1.052E-06     1.192E-06
X     1.062E+00    -9.293E-01    -2.912E+00     8.173E-07     4.587E-06     5.197E-06
X     1.062E+00    -9.293E-01    -2.416E+00     2.995E-06     1.709E-05     1.936E-05
X     1.062E+00    -9.293E-01    -1.921E+00     1.055E-05     6.068E-05     6.873E-05
X     1.062E+00    -9.293E-01    -1.425E+00     3.451E-05     1.993E-04     2.256E-04
X     1.062E+00    -9.293E-01    -9.293E-01     9.831E-05     5.658E-04     6.400E-04
X     1.062E+00    -9.293E-01    -4.337E-01     2.168E-04     1.223E-03     1.382E-03
X     1.062E+00    -9.293E-01     6.196E-02     2.874E-04     1.566E-03     1.768E-03
X     1.062E+00    -9.293E-01     5.576E-01     1.997E-04     1.048E-03     1.182E-03
X     1.062E+00    -9.293E-01     1.053E+00     8.734E-05     4.444E-04     5.009E-04
X     1.062E+00    -9.293E-01     1.549E+00     2.990E-05     1.492E-04     1.682E-04
X     1.062E+00    -9.293E-01     2.045E+00     9.029E-06     4.457E-05     5.026E-05
X     1.062E+00    -9.293E-01     2.540E+00     2.534E-06     1.245E-05     1.405E-05
X     1.062E+00    -9.293E-01     3.036E+00     6.624E-07     3.266E-06     3.687E-06
X     1.062E+00    -9.293E-01     3.531E+00     1.325E-07     6.637E-07     7.500E-07
X     1.062E+00    -9.293E-01     4.027E+00     0.000E+00     0.000E+00     0.000E+00
X     1.062E+00    -9.293E-01     4.523E+00     0.000E+00     0.000E+00     0.000E+00
X     1.062E+00    -4.337E-01    -4.895E+00     0.000E+00     0.000E+00     0.000E+00
X     1.062E+00    -4.337E-01    -4.399E+00     0.000E+00     0.000E+00     0.000E+00
X     1.062E+00    -4.337E-01    -3.903E+00     2.779E-08     1.444E-07     1.634E-07
X     1.062E+00    -4.337E-01    -3.408E+00     2.728E-07     1.485E-06     1.682E-06
X     1.062E+00    -4.337E-01    -2.912E+00     1.138E-06     6.358E-06     7.208E-06
X     1.062E+00    -4.337E-01    -2.416E+00     4.380E-06     2.478E-05     2.810E-05
X     1.062E+00    -4.337E-01    -1.921E+00     1.671E-05     9.514E-05     1.079E-04
X     1.062E+00    -4.337E-01    -1.425E+00     6.197E-05     3.535E-04     4.006E-04
X     1.062E+00    -4.337E-01    -9.293E-01     2.158E-04     1.221E-03     1.383E-03
X     1.062E+00    -4.337E-01    -4.337E-01     6.286E-04     3.463E-03     3.917E-03
X     1.062E+00    -4.337E-01     6.196E-02     9.538E-04     5.047E-03     5.701E-03
X     1.062E+00    -4.337E-01     5.576E-01     5.455E-04     2.772E-03     3.129E-03
X     1.062E+00    -4.337E-01     1.053E+00     1.831E-04     9.035E-04     1.019E-03
X     1.062E+00    -4.337E-01     1.549E+00     5.273E-05     2.565E-04     2.894E-04
X     1.062E+00    -4.337E-01     2.045E+00     1.413E-05     6.833E-05     7.709E-05
X     1.062E+00    -4.337E-01     2.540E+00     3.654E-06     1.766E-05     1.992E-05
X     1.062E+00    -4.337E-01     3.036E+00     9.163E-07     4.457E-06     5.031E-06
X     1.062E+00    -4.337E-01     3.531E+00     1.925E-07     9.545E-07     1.078E-06
X     1.062E+00    -4.337E-01     4.027E+00     1.448E-10     7.437E-10     8.415E-10
X     1.062E+00    -4.337E-01     4.523E+00     0.000E+00     0.000E+00     0.000E+00
X     1.062E+00     6.196E-02    -4.895E+00     0.000E+00     0.000E+00     0.000E+00
X     1.062E+00     6.196E-02    -4.399E+00     0.000E+00     0.000E+00     0.000E+00
X     1.062E+00     6.196E-02    -3.903E+00     3.345E-08     1.742E-07     1.972E-07
X     1.062E+00     6.196E-02    -3.408E+00     3.000E-07     1.624E-06     1.841E-06
X     1.062E+00     6.196E-02    -2.912E+00     1.259E-06     6.958E-06     7.892E-06
X     1.062E+00     6.196E-02    -2.416E+00     4.940E-06     2.755E-05     3.125E-05
X     1.062E+00     6.196E-02    -1.921E+00     1.939E-05     1.083E-04     1.229E-04
X     1.062E+00     6.196E-02    -1.425E+00     7.514E-05     4.183E-04     4.747E-04
X     1.062E+00     6.196E-02    -9.293E-01     2.849E-04     1.562E-03     1.772E-03
X     1.062E+00     6.196E-02    -4.337E-01     9.491E-04     5.039E-03     5.709E-03
X     1.062E+00     6.196E-02     6.196E-02     1.546E-03     7.869E-03     8.903E-03
X     1.062E+00     6.196E-02     5.576E-01     7.950E-04     3.896E-03     4.404E-03
X     1.062E+00     6.196E-02     1.053E+00     2.358E-04     1.128E-03     1.274E-03
X     1.062E+00     6.196E-02     1.549E+00     6.320E-05     3.001E-04     3.388E-04
X     1.062E+00     6.196E-02     2.045E+00     1.624E-05     7.712E-05     8.706E-05
X     1.062E+00     6.196E-02     2.540E+00     4.092E-06     1.949E-05     2.200E-05
X     1.062E+00     6.196E-02     3.036E+00     1.010E-06     4.857E-06     5.485E-06
X     1.062E+00     6.196E-02     3.531E+00     2.136E-07     1.052E-06     1.189E-06
X     1.062E+00     6.196E-02     4.027E+00     8.142E-10     4.181E-09     4.731E-09
X     1.062E+00     6.196E-02     4.523E+00     0.000E+00     0.000E+00     0.000E+00
X     1.062E+00     5.576E-01    -4.895E+00     0.000E+00     0.000E+00     0.000E+00
X     1.062E+00     5.576E-01    -4.399E+00     0.000E+00     0.000E+00     0.000E+00
X     1.062E+00     5.576E-01    -3.903E+00     2.398E-08     1.241E-07     1.405E-07
X     1.062E+00     5.576E-01    -3.408E+00     2.604E-07     1.396E-06     1.583E-06
X     1.062E+00     5.576E-01    -2.912E+00     1.097E-06     5.978E-06     6.783E-06
X     1.062E+00     5.576E-01    -2.416E+00     4.217E-06     2.309E-05     2.621E-05
X     1.062E+00     5.576E-01    -1.921E+00     1.599E-05     8.727E-05     9.908E-05
X     1.062E+00     5.576E-01    -1.425E+00     5.856E-05     3.163E-04     3.592E-04
X     1.062E+00     5.576E-01    -9.293E-01     1.974E-04     1.044E-03     1.185E-03
X     1.062E+00     5.576E-01    -4.337E-01     5.407E-04     2.765E-03     3.136E-03
X     1.062E+00     5.576E-01     6.196E-02     7.915E-04     3.891E-03     4.409E-03
X     1.062E+00     5.576E-01     5.576E-01     4.734E-04     2.253E-03     2.550E-03
X     1.062E+00     5.576E-01     1.053E+00     1.673E-04     7.832E-04     8.854E-04
X     1.062E+00     5.576E-01     1.549E+00     4.949E-05     2.311E-04     2.612E-04
X     1.062E+00     5.576E-01     2.045E+00     1.345E-05     6.301E-05     7.118E-05
X     1.062E+00     5.576E-01     2.540E+00     3.505E-06     1.653E-05     1.867E-05
X     1.062E+00     5.576E-01     3.036E+00     8.797E-07     4.203E-06     4.749E-06
X     1.062E+00     5.576E-01     3.531E+00     1.821E-07     8.949E-07     1.012E-06
X     1.062E+00     5.576E-01     4.027E+00     4.575E-11     2.350E-10     2.659E-10
X     1.062E+00     5.576E-01     4.523E+00     0.000E+00     0.000E+00     0.000E+00
X     1.062E+00     1.053E+00    -4.895E+00     0.000E+00     0.000E+00     0.000E+00
X     1.062E+00     1.053E+00    -4.399E+00     0.000E+00     0.000E+00     0.000E+00
X     1.062E+00     1.053E+00    -3.903E+00     2.625E-10     1.352E-09     1.530E-09
X     1.062E+00     1.053E+00    -3.408E+00     1.744E-07     9.236E-07     1.047E-06
X     1.062E+00     1.053E+00    -2.912E+00     7.604E-07     4.080E-06     4.630E-06
X     1.062E+00     1.053E+00    -2.416E+00     2.794E-06     1.500E-05     1.703E-05
X     1.062E+00     1.053E+00    -1.921E+00     9.717E-06     5.179E-05     5.882E-05
X     1.062E+00     1.053E+00    -1.425E+00     3.112E-05     1.635E-04     1.857E-04
X     1.062E+00     1.053E+00    -9.293E-01     8.622E-05     4.426E-04     5.026E-04
X     1.062E+00     1.053E+00    -4.337E-01     1.811E-04     9.005E-04     1.022E-03
X     1.062E+00     1.053E+00     6.196E-02     2.341E-04     1.126E-03     1.277E-03
X     1.062E+00     1.053E+00     5.576E-01     1.668E-04     7.824E-04     8.862E-04
X     1.062E+00     1.053E+00     1.053E+00     7.602E-05     3.526E-04     3.991E-04
X     1.062E+00     1.053E+00     1.549E+00     2.669E-05     1.237E-04     1.399E-04
X     1.062E+00     1.053E+00     2.045E+00     8.215E-06     3.825E-05     4.324E-05
X     1.062E+00     1.053E+00     2.540E+00     2.340E-06     1.099E-05     1.242E-05
X     1.062E+00     1.053E+00     3.036E+00     6.122E-07     2.926E-06     3.307E-06
X     1.062E+00     1.053E+00     3.531E+00     1.173E-07     5.795E-07     6.553E-07
X     1.062E+00     1.053E+00     4.027E+00     0.000E+00     0.000E+00     0.000E+00
X     1.062E+00     1.053E+00     4.523E+00     0.000E+00     0.000E+00     0.000E+00
X     1.062E+00     1.549E+00    -4.895E+00     0.000E+00     0.000E+00     0.000E+00
X     1.062E+00     1.549E+00    -4.399E+00     0.000E+00     0.000E+00     0.000E+00
X     1.062E+00     1.549E+00    -3.903E+00     0.000E+00     0.000E+00     0.000E+00
X     1.062E+00     1.549E+00    -3.408E+00     8.674E-08     4.530E-07     5.133E-07
X     1.062E+00     1.549E+00    -2.912E+00     4.330E-07     2.286E-06     2.593E-06
X     1.062E+00     1.549E+00    -2.416E+00     1.488E-06     7.850E-06     8.912E-06
X     1.062E+00     1.549E+00    -1.921E+00     4.568E-06     2.388E-05     2.712E-05
X     1.062E+00     1.549E+00    -1.425E+00     1.273E-05     6.547E-05     7.436E-05
X     1.062E+00     1.549E+00    -9.293E-01     2.953E-05     1.486E-04     1.688E-04
X     1.062E+00     1.549E+00    -4.337E-01     5.216E-05     2.557E-04     2.902E-04
X     1.062E+00     1.549E+00     6.196E-02     6.267E-05     2.994E-04     3.396E-04
X     1.062E+00     1.549E+00     5.576E-01     4.924E-05     2.308E-04     2.615E-04
X     1.062E+00     1.549E+00     1.053E+00     2.663E-05     1.236E-04     1.400E-04
X     1.062E+00     1.549E+00     1.549E+00     1.117E-05     5.177E-05     5.859E-05
X     1.062E+00     1.549E+00     2.045E+00     3.916E-06     1.821E-05     2.060E-05
X     1.062E+00     1.549E+00     2.540E+00     1.232E-06     5.799E-06     6.557E-06
X     1.062E+00     1.549E+00     3.036E+00     3.366E-07     1.623E-06     1.836E-06
X     1.062E+00     1.549E+00     3.531E+00     4.971E-08     2.501E-07     2.830E-07
X     1.062E+00     1.549E+00     4.027E+00     0.000E+00     0.000E+00     0.000E+00
X     1.062E+00     1.549E+00     4.523E+00     0.000E+00     0.000E+00     0.000E+00
X     1.062E+00     2.045E+00    -4.895E+00     0.000E+00     0.000E+00     0.000E+00
X     1.062E+00     2.045E+00    -4.399E+00     0.000E+00     0.000E+00     0.000E+00
X     1.062E+00     2.045E+00    -3.903E+00     0.000E+00     0.000E+00     0.000E+00
X     1.062E+00     2.045E+00    -3.408E+00     1.258E-08     6.482E-08     7.336E-08
X     1.062E+00     2.045E+00    -2.912E+00     1.831E-07     9.534E-07     1.081E-06
X     1.062E+00     2.045E+00    -2.416E+00     6.446E-07     3.352E-06     3.804E-06
X     1.062E+00     2.045E+00    -1.921E+00     1.829E-06     9.421E-06     1.070E-05
X     1.062E+00     2.045E+00    -1.425E+00     4.392E-06     2.228E-05     2.530E-05
X     1.062E+00     2.045E+00    -9.293E-01     8.922E-06     4.440E-05     5.042E-05
X     1.062E+00     2.045E+00    -4.337E-01     1.398E-05     6.811E-05     7.731E-05
X     1.062E+00     2.045E+00     6.196E-02     1.611E-05     7.692E-05     8.726E-05
X     1.062E+00     2.045E+00     5.576E-01     1.337E-05     6.290E-05     7.130E-05
X     1.062E+00     2.045E+00     1.053E+00     8.186E-06     3.821E-05     4.328E-05
X     1.062E+00     2.045E+00     1.549E+00     3.909E-06     1.820E-05     2.061E-05
X     1.062E+00     2.045E+00     2.045E+00     1.575E-06     7.383E-06     8.355E-06
X     1.062E+00     2.045E+00     2.540E+00     5.352E-07     2.549E-06     2.884E-06
X     1.062E+00     2.045E+00     3.036E+00     1.308E-07     6.419E-07     7.261E-07
X     1.062E+00     2.045E+00     3.531E+00     1.685E-11     8.696E-11     9.839E-11
X     1.062E+00     2.045E+00     4.027E+00     0.000E+00     0.000E+00     0.000E+00
X     1.062E+00     2.045E+00     4.523E+00     0.000E+00     0.000E+00     0.000E+00
X     1.062E+00     2.540E+00    -4.895E+00     0.000E+00     0.000E+00     0.000E+00
X     1.062E+00     2.540E+00    -4.399E+00     0.000E+00     0.000E+00     0.000E+00
X     1.062E+00     2.540E+00    -3.903E+00     0.000E+00     0.000E+00     0.000E+00
X     1.062E+00     2.540E+00    -3.408E+00     0.000E+00     0.000E+00     0.000E+00
X     1.062E+00     2.540E+00    -2.912E+00     4.597E-08     2.371E-07     2.684E-07
X     1.062E+00     2.540E+00    -2.416E+00     2.248E-07     1.158E-06     1.313E-06
X     1.062E+00     2.540E+00    -1.921E+00     6.211E-07     3.170E-06     3.597E-06
X     1.062E+00     2.540E+00    -1.425E+00     1.380E-06     6.945E-06     7.883E-06
X     1.062E+00     2.540E+00    -9.293E-01     2.507E-06     1.241E-05     1.409E-05
X     1.062E+00     2.540E+00    -4.337E-01     3.618E-06     1.760E-05     1.998E-05
X     1.062E+00     2.540E+00     6.196E-02     4.058E-06     1.944E-05     2.205E-05
X     1.062E+00     2.540E+00     5.576E-01     3.483E-06     1.649E-05     1.870E-05
X     1.062E+00     2.540E+00     1.053E+00     2.330E-06     1.098E-05     1.244E-05
X     1.062E+00     2.540E+00     1.549E+00     1.229E-06     5.794E-06     6.561E-06
X     1.062E+00     2.540E+00     2.045E+00     5.347E-07     2.548E-06     2.885E-06
X     1.062E+00     2.540E+00     2.540E+00     1.718E-07     8.378E-07     9.480E-07
X     1.062E+00     2.540E+00     3.036E+00     1.874E-08     9.572E-08     1.083E-07
X     1.062E+00     2.540E+00     3.531E+00     0.000E+00     0.000E+00     0.000E+00
X     1.062E+00     2.540E+00     4.027E+00     0.000E+00     0.000E+00     0.000E+00
X     1.062E+00     2.540E+00     4.523E+00     0.000E+00     0.000E+00     0.000E+00
X     1.062E+00     3.036E+00    -4.895E+00     0.000E+00     0.000E+00     0.000E+00
X     1.062E+00     3.036E+00    -4.399E+00     0.000E+00     0.000E+00     0.000E+00
X     1.062E+00     3.036E+00    -3.903E+00     0.000E+00     0.000E+00     0.000E+00
X     1.062E+00     3.036E+00    -3.408E+00     0.000E+00     0.000E+00     0.000E+00
X     1.062E+00     3.036E+00    -2.912E+00     0.000E+00     0.000E+00     0.000E+00
X     1.062E+00     3.036E+00    -2.416E+00     4.116E-08     2.115E-07     2.394E-07
X     1.062E+00     3.036E+00    -1.921E+00     1.644E-07     8.376E-07     9.494E-07
X     1.062E+00     3.036E+00    -1.425E+00     3.834E-07     1.930E-06     2.189E-06
X     1.062E+00     3.036E+00    -9.293E-01     6.565E-07     3.258E-06     3.695E-06
X     1.062E+00     3.036E+00    -4.337E-01     9.086E-07     4.446E-06     5.042E-06
X     1.062E+00     3.036E+00     6.196E-02     1.002E-06     4.847E-06     5.495E-06
X     1.062E+00     3.036E+00     5.576E-01     8.746E-07     4.196E-06     4.756E-06
X     1.062E+00     3.036E+00     1.053E+00     6.098E-07     2.922E-06     3.311E-06
X     1.062E+00     3.036E+00     1.549E+00     3.358E-07     1.622E-06     1.837E-06
X     1.062E+00     3.036E+00     2.045E+00     1.306E-07     6.417E-07     7.263E-07
X     1.062E+00     3.036E+00     2.540E+00     1.874E-08     9.572E-08     1.083E-07
X     1.062E+00     3.036E+00     3.036E+00     0.000E+00     0.000E+00     0.000E+00
X     1.062E+00     3.036E+00     3.531E+00     0.000E+00     0.000E+00     0.000E+00
X     1.062E+00     3.036E+00     4.027E+00     0.000E+00     0.000E+00     0.000E+00
X     1.062E+00     3.036E+00     4.523E+00     0.000E+00     0.000E+00     0.000E+00
X     1.062E+00     3.531E+00    -4.895E+00     0.000E+00     0.000E+00     0.000E+00
X     1.062E+00     3.531E+00    -4.399E+00     0.000E+00     0.000E+00     0.000E+00
X     1.062E+00     3.531E+00    -3.903E+00     0.000E+00     0.000E+00     0.000E+00
X     1.062E+00     3.531E+00    -3.408E+00     0.000E+00     0.000E+00     0.000E+00
X     1.062E+00     3.531E+00    -2.912E+00     0.000E+00     0.000E+00     0.000E+00
X     1.062E+00     3.531E+00    -2.416E+00     0.000E+00     0.000E+00     0.000E+00
X     1.062E+00     3.531E+00    -1.921E+00     1.367E-09     7.027E-09     7.950E-09
X     1.062E+00     3.531E+00    -1.425E+00     6.492E-08     3.305E-07     3.742E-07
X     1.062E+00     3.531E+00    -9.293E-01     1.318E-07     6.628E-07     7.509E-07
X     1.062E+00     3.531E+00    -4.337E-01     1.915E-07     9.530E-07     1.080E-06
X     1.062E+00     3.531E+00     6.196E-02     2.126E-07     1.050E-06     1.190E-06
X     1.062E+00     3.531E+00     5.576E-01     1.815E-07     8.940E-07     1.013E-06
X     1.062E+00     3.531E+00     1.053E+00     1.170E-07     5.791E-07     6.557E-07
X     1.062E+00     3.531E+00     1.549E+00     4.966E-08     2.501E-07     2.830E-07
X     1.062E+00     3.531E+00     2.045E+00     1.685E-11     8.697E-11     9.838E-11
X     1.062E+00     3.531E+00     2.540E+00     0.000E+00     0.000E+00     0.000E+00
X     1.062E+00     3.531E+00     3.036E+00     0.000E+00     0.000E+00     0.000E+00
X     1.062E+00     3.531E+00     3.531E+00     0.000E+00     0.000E+00     0.000E+00
X     1.062E+00     3.531E+00     4.027E+00     0.000E+00     0.000E+00     0.000E+00
X     1.062E+00     3.531E+00     4.523E+00     0.000E+00     0.000E+00     0.000E+00
X     1.062E+00     4.027E+00    -4.895E+00     0.000E+00     0.000E+00     0.000E+00
X     1.062E+00     4.027E+00    -4.399E+00     0.000E+00     0.000E+00     0.000E+00
X     1.062E+00     4.027E+00    -3.903E+00     0.000E+00     0.000E+00     0.000E+00
X     1.062E+00     4.027E+00    -3.408E+00     0.000E+00     0.000E+00     0.000E+00
X     1.062E+00     4.027E+00    -2.912E+00     0.000E+00     0.000E+00     0.000E+00
X     1.062E+00     4.027E+00    -2.416E+00     0.000E+00     0.000E+00     0.000E+00
X     1.062E+00     4.027E+00    -1.921E+00     0.000E+00     0.000E+00     0.000E+00
X     1.062E+00     4.027E+00    -1.425E+00     0.000E+00     0.000E+00     0.000E+00
X     1.062E+00     4.027E+00    -9.293E-01     0.000E+00     0.000E+00     0.000E+00
X     1.062E+00     4.027E+00    -4.337E-01     1.448E-10     7.438E-10     8.415E-10
X     1.062E+00     4.027E+00     6.196E-02     8.140E-10     4.182E-09     4.731E-09
X     1.062E+00     4.027E+00     5.576E-01     4.575E-11     2.350E-10     2.658E-10
X     1.062E+00     4.027E+00     1.053E+00     0.000E+00     0.000E+00     0.000E+00
X     1.062E+00     4.027E+00     1.549E+00     0.000E+00     0.000E+00     0.000E+00
X     1.062E+00     4.027E+00     2.045E+00     0.000E+00     0.000E+00     0.000E+00
X     1.062E+00     4.027E+00     2.540E+00     0.000E+00     0.000E+00     0.000E+00
X     1.062E+00     4.027E+00     3.036E+00     0.000E+00     0.000E+00     0.000E+00
X     1.062E+00     4.027E+00     3.531E+00     0.000E+00     0.000E+00     0.000E+00
X     1.062E+00     4.027E+00     4.027E+00     0.000E+00     0.000E+00     0.000E+00
X     1.062E+00     4.027E+00     4.523E+00     0.000E+00     0.000E+00     0.000E+00
X     1.062E+00     4.523E+00    -4.895E+00     0.000E+00     0.000E+00     0.000E+00
X     1.062E+00     4.523E+00    -4.399E+00     0.000E+00     0.000E+00     0.000E+00
X     1.062E+00     4.523E+00    -3.903E+00     0.000E+00     0.000E+00     0.000E+00
X     1.062E+00     4.523E+00    -3.408E+00     0.000E+00     0.000E+00     0.000E+00
X     1.062E+00     4.523E+00    -2.912E+00     0.000E+00     0.000E+00     0.000E+00
X     1.062E+00     4.523E+00    -2.416E+00     0.000E+00     0.000E+00     0.000E+00
X     1.062E+00     4.523E+00    -1.921E+00     0.000E+00     0.000E+00     0.000E+00
X     1.062E+00     4.523E+00    -1.425E+00     0.000E+00     0.000E+00     0.000E+00
X     1.062E+00     4.523E+00    -9.293E-01     0.000E+00     0.000E+00     0.000E+00
X     1.062E+00     4.523E+00    -4.337E-01     0.000E+00     0.000E+00     0.000E+00
X     1.062E+00     4.523E+00     6.196E-02     0.000E+00     0.000E+00     0.000E+00
X     1.062E+00     4.523E+00     5.576E-01     0.000E+00     0.000E+00     0.000E+00
X     1.062E+00     4.523E+00     1.053E+00     0.000E+00     0.000E+00     0.000E+00
X     1.062E+00     4.523E+00     1.549E+00     0.000E+00     0.000E+00     0.000E+00
X     1.062E+00     4.523E+00     2.045E+00     0.000E+00     0.000E+00     0.000E+00
X     1.062E+00     4.523E+00     2.540E+00     0.000E+00     0.000E+00     0.000E+00
X     1.062E+00     4.523E+00     3.036E+00     0.000E+00     0.000E+00     0.000E+00
X     1.062E+00     4.523E+00     3.531E+00     0.000E+00     0.000E+00     0.000E+00
X     1.062E+00     4.523E+00     4.027E+00     0.000E+00     0.000E+00     0.000E+00
X     1.062E+00     4.523E+00     4.523E+00     0.000E+00     0.000E+00     0.000E+00
X     1.558E+00    -4.895E+00    -4.895E+00     0.000E+00     0.000E+00     0.000E+00
X     1.558E+00    -4.895E+00    -4.399E+00     0.000E+00     0.000E+00     0.000E+00
X     1.558E+00    -4.895E+00    -3.903E+00     0.000E+00     0.000E+00     0.000E+00
X     1.558E+00    -4.895E+00    -3.408E+00     0.000E+00     0.000E+00     0.000E+00
X     1.558E+00    -4.895E+00    -2.912E+00     0.000E+00     0.000E+00     0.000E+00
X     1.558E+00    -4.895E+00    -2.416E+00     0.000E+00     0.000E+00     0.000E+00
X     1.558E+00    -4.895E+00    -1.921E+00     0.000E+00     0.000E+00     0.000E+00
X     1.558E+00    -4.895E+00    -1.425E+00     0.000E+00     0.000E+00     0.000E+00
X     1.558E+00    -4.895E+00    -9.293E-01     0.000E+00     0.000E+00     0.000E+00
X     1.558E+00    -4.895E+00    -4.337E-01     0.000E+00     0.000E+00     0.000E+00
X     1.558E+00    -4.895E+00     6.196E-02     0.000E+00     0.000E+00     0.000E+00
X     1.558E+00    -4.895E+00     5.576E-01     0.000E+00     0.000E+00     0.000E+00
X     1.558E+00    -4.895E+00     1.053E+00     0.000E+00     0.000E+00     0.000E+00
X     1.558E+00    -4.895E+00     1.549E+00     0.000E+00     0.000E+00     0.000E+00
X     1.558E+00    -4.895E+00     2.045E+00     0.000E+00     0.000E+00     0.000E+00
X     1.558E+00    -4.895E+00     2.540E+00     0.000E+00     0.000E+00     0.000E+00
X     1.558E+00    -4.895E+00     3.036E+00     0.000E+00     0.000E+00     0.000E+00
X     1.558E+00    -4.895E+00     3.531E+00     0.000E+00     0.000E+00     0.000E+00
X     1.558E+00    -4.895E+00     4.027E+00     0.000E+00     0.000E+00     0.000E+00
X     1.558E+00    -4.895E+00     4.523E+00     0.000E+00     0.000E+00     0.000E+00
X     1.558E+00    -4.399E+00    -4.895E+00     0.000E+00     0.000E+00     0.000E+00
X     1.558E+00    -4.399E+00    -4.399E+00     0.000E+00     0.000E+00     0.000E+00
X     1.558E+00    -4.399E+00    -3.903E+00     0.000E+00     0.000E+00     0.000E+00
X     1.558E+00    -4.399E+00    -3.408E+00     0.000E+00     0.000E+00     0.000E+00
X     1.558E+00    -4.399E+00    -2.912E+00     0.000E+00     0.000E+00     0.000E+00
X     1.558E+00    -4.399E+00    -2.416E+00     0.000E+00     0.000E+00     0.000E+00
X     1.558E+00    -4.399E+00    -1.921E+00     0.000E+00     0.000E+00     0.000E+00
X     1.558E+00    -4.399E+00    -1.425E+00     0.000E+00     0.000E+00     0.000E+00
X     1.558E+00    -4.399E+00    -9.293E-01     0.000E+00     0.000E+00     0.000E+00
X     1.558E+00    -4.399E+00    -4.337E-01     0.000E+00     0.000E+00     0.000E+00
X     1.558E+00    -4.399E+00     6.196E-02     0.000E+00     0.000E+00     0.000E+00
X     1.558E+00    -4.399E+00     5.576E-01     0.000E+00     0.000E+00     0.000E+00
X     1.558E+00    -4.399E+00     1.053E+00     0.000E+00     0.000E+00     0.000E+00
X     1.558E+00    -4.399E+00     1.549E+00     0.000E+00     0.000E+00     0.000E+00
X     1.558E+00    -4.399E+00     2.045E+00     0.000E+00     0.000E+00     0.000E+00
X     1.558E+00    -4.399E+00     2.540E+00     0.000E+00     0.000E+00     0.000E+00
X     1.558E+00    -4.399E+00     3.036E+00     0.000E+00     0.000E+00     0.000E+00
X     1.558E+00    -4.399E+00     3.531E+00     0.000E+00     0.000E+00     0.000E+00
X     1.558E+00    -4.399E+00     4.027E+00     0.000E+00     0.000E+00     0.000E+00
X     1.558E+00    -4.399E+00     4.523E+00     0.000E+00     0.000E+00     0.000E+00
X     1.558E+00    -3.903E+00    -4.895E+00     0.000E+00     0.000E+00     0.000E+00
X     1.558E+00    -3.903E+00    -4.399E+00     0.000E+00     0.000E+00     0.000E+00
X     1.558E+00    -3.903E+00    -3.903E+00     0.000E+00     0.000E+00     0.000E+00
X     1.558E+00    -3.903E+00    -3.408E+00     0.000E+00     0.000E+00     0.000E+00
X     1.558E+00    -3.903E+00    -2.912E+00     0.000E+00     0.000E+00     0.000E+00
X     1.558E+00    -3.903E+00    -2.416E+00     0.000E+00     0.000E+00     0.000E+00
X     1.558E+00    -3.903E+00    -1.921E+00     0.000E+00     0.000E+00     0.000E+00
X     1.558E+00    -3.903E+00    -1.425E+00     3.163E-11     1.626E-10     1.840E-10
X     1.558E+00    -3.903E+00    -9.293E-01     5.670E-08     2.915E-07     3.298E-07
X     1.558E+00    -3.903E+00    -4.337E-01     1.807E-07     9.291E-07     1.051E-06
X     1.558E+00    -3.903E+00     6.196E-02     2.278E-07     1.171E-06     1.325E-06
X     1.558E+00    -3.903E+00     5.576E-01     1.525E-07     7.843E-07     8.873E-07
X     1.558E+00    -3.903E+00     1.053E+00     2.840E-08     1.461E-07     1.652E-07
X     1.558E+00    -3.903E+00     1.549E+00     2.423E-12     1.246E-11     1.410E-11
X     1.558E+00    -3.903E+00     2.045E+00     0.000E+00     0.000E+00     0.000E+00
X     1.558E+00    -3.903E+00     2.540E+00     0.000E+00     0.000E+00     0.000E+00
X     1.558E+00    -3.903E+00     3.036E+00     0.000E+00     0.000E+00     0.000E+00
X     1.558E+00    -3.903E+00     3.531E+00     0.000E+00     0.000E+00     0.000E+00
X     1.558E+00    -3.903E+00     4.027E+00     0.000E+00     0.000E+00     0.000E+00
X     1.558E+00    -3.903E+00     4.523E+00     0.000E+00     0.000E+00     0.000E+00
X     1.558E+00    -3.408E+00    -4.895E+00     0.000E+00     0.000E+00     0.000E+00
X     1.558E+00    -3.408E+00    -4.399E+00     0.000E+00     0.000E+00     0.000E+00
X     1.558E+00    -3.408E+00    -3.903E+00     0.000E+00     0.000E+00     0.000E+00
X     1.558E+00    -3.408E+00    -3.408E+00     0.000E+00     0.000E+00     0.000E+00
X     1.558E+00    -3.408E+00    -2.912E+00     0.000E+00     0.000E+00     0.000E+00
X     1.558E+00    -3.408E+00    -2.416E+00     5.396E-12     2.774E-11     3.138E-11
X     1.558E+00    -3.408E+00    -1.921E+00     2.115E-07     1.087E-06     1.230E-06
X     1.558E+00    -3.408E+00    -1.425E+00     8.576E-07     4.424E-06     5.005E-06
X     1.558E+00    -3.408E+00    -9.293E-01     1.635E-06     8.453E-06     9.561E-06
X     1.558E+00    -3.408E+00    -4.337E-01     2.307E-06     1.193E-05     1.349E-05
X     1.558E+00    -3.408E+00     6.196E-02     2.527E-06     1.306E-05     1.477E-05
X     1.558E+00    -3.408E+00     5.576E-01     2.173E-06     1.122E-05     1.269E-05
X     1.558E+00    -3.408E+00     1.053E+00     1.440E-06     7.423E-06     8.396E-06
X     1.558E+00    -3.408E+00     1.549E+00     6.822E-07     3.512E-06     3.972E-06
X     1.558E+00    -3.408E+00     2.045E+00     1.038E-07     5.338E-07     6.039E-07
X     1.558E+00    -3.408E+00     2.540E+00     0.000E+00     0.000E+00     0.000E+00
X     1.558E+00    -3.408E+00     3.036E+00     0.000E+00     0.000E+00     0.000E+00
X     1.558E+00    -3.408E+00     3.531E+00     0.000E+00     0.000E+00     0.000E+00
X     1.558E+00    -3.408E+00     4.027E+00     0.000E+00     0.000E+00     0.000E+00
X     1.558E+00    -3.408E+00     4.523E+00     0.000E+00     0.000E+00     0.000E+00
X     1.558E+00    -2.912E+00    -4.895E+00     0.000E+00     0.000E+00     0.000E+00
X     1.558E+00    -2.912E+00    -4.399E+00     0.000E+00     0.000E+00     0.000E+00
X     1.558E+00    -2.912E+00    -3.903E+00     0.000E+00     0.000E+00     0.000E+00
X     1.558E+00    -2.912E+00    -3.408E+00     0.000E+00     0.000E+00     0.000E+00
X     1.558E+00    -2.912E+00    -2.912E+00     5.664E-10     2.912E-09     3.294E-09
X     1.558E+00    -2.912E+00    -2.416E+00     5.519E-07     2.842E-06     3.215E-06
X     1.558E+00    -2.912E+00    -1.921E+00     1.915E-06     9.910E-06     1.121E-05
X     1.558E+00    -2.912E+00    -1.425E+00     4.228E-06     2.192E-05     2.480E-05
X     1.558E+00    -2.912E+00    -9.293E-01     7.226E-06     3.749E-05     4.240E-05
X     1.558E+00    -2.912E+00    -4.337E-01     9.982E-06     5.176E-05     5.854E-05
X     1.558E+00    -2.912E+00     6.196E-02     1.093E-05     5.662E-05     6.403E-05
X     1.558E+00    -2.912E+00     5.576E-01     9.432E-06     4.878E-05     5.516E-05
X     1.558E+00    -2.912E+00     1.053E+00     6.474E-06     3.343E-05     3.780E-05
X     1.558E+00    -2.912E+00     1.549E+00     3.592E-06     1.851E-05     2.094E-05
X     1.558E+00    -2.912E+00     2.045E+00     1.490E-06     7.670E-06     8.675E-06
X     1.558E+00    -2.912E+00     2.540E+00     3.200E-07     1.646E-06     1.862E-06
X     1.558E+00    -2.912E+00     3.036E+00     5.644E-12     2.903E-11     3.285E-11
X     1.558E+00    -2.912E+00     3.531E+00     0.000E+00     0.000E+00     0.000E+00
X     1.558E+00    -2.912E+00     4.027E+00     0.000E+00     0.000E+00     0.000E+00
X     1.558E+00    -2.912E+00     4.523E+00     0.000E+00     0.000E+00     0.000E+00
X     1.558E+00    -2.416E+00    -4.895E+00     0.000E+00     0.000E+00     0.000E+00
X     1.558E+00    -2.416E+00    -4.399E+00     0.000E+00     0.000E+00     0.000E+00
X     1.558E+00    -2.416E+00    -3.903E+00     0.000E+00     0.000E+00     0.000E+00
X     1.558E+00    -2.416E+00    -3.408E+00     5.396E-12     2.774E-11     3.138E-11
X     1.558E+00    -2.416E+00    -2.912E+00     5.519E-07     2.842E-06     3.215E-06
X     1.558E+00    -2.416E+00    -2.416E+00     2.446E-06     1.267E-05     1.434E-05
X     1.558E+00    -2.416E+00    -1.921E+00     6.622E-06     3.439E-05     3.890E-05
X     1.558E+00    -2.416E+00    -1.425E+00     1.474E-05     7.661E-05     8.666E-05
X     1.558E+00    -2.416E+00    -9.293E-01     2.681E-05     1.393E-04     1.575E-04
X     1.558E+00    -2.416E+00    -4.337E-01     3.890E-05     2.019E-04     2.283E-04
X     1.558E+00    -2.416E+00     6.196E-02     4.328E-05     2.243E-04     2.537E-04
X     1.558E+00    -2.416E+00     5.576E-01     3.642E-05     1.884E-04     2.130E-04
X     1.558E+00    -2.416E+00     1.053E+00     2.370E-05     1.224E-04     1.384E-04
X     1.558E+00    -2.416E+00     1.549E+00     1.239E-05     6.385E-05     7.221E-05
X     1.558E+00    -2.416E+00     2.045E+00     5.329E-06     2.742E-05     3.102E-05
X     1.558E+00    -2.416E+00     2.540E+00     1.809E-06     9.303E-06     1.052E-05
X     1.558E+00    -2.416E+00     3.036E+00     2.808E-07     1.445E-06     1.635E-06
X     1.558E+00    -2.416E+00     3.531E+00     0.000E+00     0.000E+00     0.000E+00
X     1.558E+00    -2.416E+00     4.027E+00     0.000E+00     0.000E+00     0.000E+00
X     1.558E+00    -2.416E+00     4.523E+00     0.000E+00     0.000E+00     0.000E+00
X     1.558E+00    -1.921E+00    -4.895E+00     0.000E+00     0.000E+00     0.000E+00
X     1.558E+00    -1.921E+00    -4.399E+00     0.000E+00     0.000E+00     0.000E+00
X     1.558E+00    -1.921E+00    -3.903E+00     0.000E+00     0.000E+00     0.000E+00
X     1.558E+00    -1.921E+00    -3.408E+00     2.115E-07     1.087E-06     1.230E-06
X     1.558E+00    -1.921E+00    -2.912E+00     1.914E-06     9.909E-06     1.121E-05
X     1.558E+00    -1.921E+00    -2.416E+00     6.621E-06     3.439E-05     3.891E-05
X     1.558E+00    -1.921E+00    -1.921E+00     1.885E-05     9.805E-05     1.109E-04
X     1.558E+00    -1.921E+00    -1.425E+00     4.630E-05     2.408E-04     2.724E-04
X     1.558E+00    -1.921E+00    -9.293E-01     9.481E-05     4.927E-04     5.573E-04
X     1.558E+00    -1.921E+00    -4.337E-01     1.500E-04     7.781E-04     8.800E-04
X     1.558E+00    -1.921E+00     6.196E-02     1.715E-04     8.879E-04     1.004E-03
X     1.558E+00    -1.921E+00     5.576E-01     1.381E-04     7.140E-04     8.074E-04
X     1.558E+00    -1.921E+00     1.053E+00     8.162E-05     4.210E-04     4.761E-04
X     1.558E+00    -1.921E+00     1.549E+00     3.788E-05     1.950E-04     2.205E-04
X     1.558E+00    -1.921E+00     2.045E+00     1.490E-05     7.661E-05     8.665E-05
X     1.558E+00    -1.921E+00     2.540E+00     5.048E-06     2.593E-05     2.933E-05
X     1.558E+00    -1.921E+00     3.036E+00     1.308E-06     6.721E-06     7.604E-06
X     1.558E+00    -1.921E+00     3.531E+00     4.901E-08     2.522E-07     2.854E-07
X     1.558E+00    -1.921E+00     4.027E+00     0.000E+00     0.000E+00     0.000E+00
X     1.558E+00    -1.921E+00     4.523E+00     0.000E+00     0.000E+00     0.000E+00
X     1.558E+00    -1.425E+00    -4.895E+00     0.000E+00     0.000E+00     0.000E+00
X     1.558E+00    -1.425E+00    -4.399E+00     0.000E+00     0.000E+00     0.000E+00
X     1.558E+00    -1.425E+00    -3.903E+00     3.163E-11     1.626E-10     1.840E-10
X     1.558E+00    -1.425E+00    -3.408E+00     8.574E-07     4.424E-06     5.006E-06
X     1.558E+00    -1.425E+00    -2.912E+00     4.227E-06     2.192E-05     2.480E-05
X     1.558E+00    -1.425E+00    -2.416E+00     1.474E-05     7.660E-05     8.668E-05
X     1.558E+00    -1.425E+00    -1.921E+00     4.629E-05     2.408E-04     2.724E-04
X     1.558E+00    -1.425E+00    -1.425E+00     1.316E-04     6.841E-04     7.740E-04
X     1.558E+00    -1.425E+00    -9.293E-01     3.168E-04     1.644E-03     1.860E-03
X     1.558E+00    -1.425E+00    -4.337E-01     5.767E-04     2.985E-03     3.376E-03
X     1.558E+00    -1.425E+00     6.196E-02     6.923E-04     3.575E-03     4.044E-03
X     1.558E+00    -1.425E+00     5.576E-01     5.156E-04     2.660E-03     3.008E-03
X     1.558E+00    -1.425E+00     1.053E+00     2.619E-04     1.349E-03     1.525E-03
X     1.558E+00    -1.425E+00     1.549E+00     1.039E-04     5.338E-04     6.038E-04
X     1.558E+00    -1.425E+00     2.045E+00     3.546E-05     1.820E-04     2.059E-04
X     1.558E+00    -1.425E+00     2.540E+00     1.104E-05     5.660E-05     6.403E-05
X     1.558E+00    -1.425E+00     3.036E+00     3.037E-06     1.558E-05     1.763E-05
X     1.558E+00    -1.425E+00     3.531E+00     4.779E-07     2.458E-06     2.782E-06
X     1.558E+00    -1.425E+00     4.027E+00     0.000E+00     0.000E+00     0.000E+00
X     1.558E+00    -1.425E+00     4.523E+00     0.000E+00     0.000E+00     0.000E+00
X     1.558E+00    -9.293E-01    -4.895E+00     0.000E+00     0.000E+00     0.000E+00
X     1.558E+00    -9.293E-01    -4.399E+00     0.000E+00     0.000E+00     0.000E+00
X     1.558E+00    -9.293E-01    -3.903E+00     5.671E-08     2.915E-07     3.298E-07
X     1.558E+00    -9.293E-01    -3.408E+00     1.635E-06     8.451E-06     9.563E-06
X     1.558E+00    -9.293E-01    -2.912E+00     7.222E-06     3.748E-05     4.241E-05
X     1.558E+00    -9.293E-01    -2.416E+00     2.679E-05     1.393E-04     1.576E-04
X     1.558E+00    -9.293E-01    -1.921E+00     9.477E-05     4.926E-04     5.574E-04
X     1.558E+00    -9.293E-01    -1.425E+00     3.167E-04     1.644E-03     1.860E-03
X     1.558E+00    -9.293E-01    -9.293E-01     9.571E-04     4.946E-03     5.596E-03
X     1.558E+00    -9.293E-01    -4.337E-01     2.316E-03     1.191E-02     1.347E-02
X     1.558E+00    -9.293E-01     6.196E-02     3.142E-03     1.614E-02     1.825E-02
X     1.558E+00    -9.293E-01     5.576E-01     1.927E-03     9.912E-03     1.121E-02
X     1.558E+00    -9.293E-01     1.053E+00     7.400E-04     3.805E-03     4.304E-03
X     1.558E+00    -9.293E-01     1.549E+00     2.388E-04     1.225E-03     1.386E-03
X     1.558E+00    -9.293E-01     2.045E+00     7.047E-05     3.610E-04     4.084E-04
X     1.558E+00    -9.293E-01     2.540E+00     1.976E-05     1.012E-04     1.144E-04
X     1.558E+00    -9.293E-01     3.036E+00     5.205E-06     2.666E-05     3.016E-05
X     1.558E+00    -9.293E-01     3.531E+00     1.031E-06     5.292E-06     5.988E-06
X     1.558E+00    -9.293E-01     4.027E+00     1.771E-10     9.113E-10     1.031E-09
X     1.558E+00    -9.293E-01     4.523E+00     0.000E+00     0.000E+00     0.000E+00
X     1.558E+00    -4.337E-01    -4.895E+00     0.000E+00     0.000E+00     0.000E+00
X     1.558E+00    -4.337E-01    -4.399E+00     0.000E+00     0.000E+00     0.000E+00
X     1.558E+00    -4.337E-01    -3.903E+00     1.807E-07     9.289E-07     1.051E-06
X     1.558E+00    -4.337E-01    -3.408E+00     2.306E-06     1.192E-05     1.349E-05
X     1.558E+00    -4.337E-01    -2.912E+00     9.975E-06     5.174E-05     5.856E-05
X     1.558E+00    -4.337E-01    -2.416E+00     3.886E-05     2.018E-04     2.284E-04
X     1.558E+00    -4.337E-01    -1.921E+00     1.499E-04     7.778E-04     8.803E-04
X     1.558E+00    -4.337E-01    -1.425E+00     5.765E-04     2.984E-03     3.377E-03
X     1.558E+00    -4.337E-01    -9.293E-01     2.316E-03     1.190E-02     1.347E-02
X     1.558E+00    -4.337E-01    -4.337E-01     9.296E-03     4.746E-02     5.370E-02
X     1.558E+00    -4.337E-01     6.196E-02     1.676E-02     8.593E-02     9.721E-02
X     1.558E+00    -4.337E-01     5.576E-01     6.693E-03     3.447E-02     3.901E-02
X     1.558E+00    -4.337E-01     1.053E+00     1.625E-03     8.354E-03     9.454E-03
X     1.558E+00    -4.337E-01     1.549E+00     4.161E-04     2.132E-03     2.412E-03
X     1.558E+00    -4.337E-01     2.045E+00     1.087E-04     5.558E-04     6.288E-04
X     1.558E+00    -4.337E-01     2.540E+00     2.816E-05     1.439E-04     1.628E-04
X     1.558E+00    -4.337E-01     3.036E+00     7.120E-06     3.641E-05     4.119E-05
X     1.558E+00    -4.337E-01     3.531E+00     1.496E-06     7.668E-06     8.676E-06
X     1.558E+00    -4.337E-01     4.027E+00     2.250E-08     1.158E-07     1.310E-07
X     1.558E+00    -4.337E-01     4.523E+00     0.000E+00     0.000E+00     0.000E+00
X     1.558E+00     6.196E-02    -4.895E+00     0.000E+00     0.000E+00     0.000E+00
X     1.558E+00     6.196E-02    -4.399E+00     0.000E+00     0.000E+00     0.000E+00
X     1.558E+00     6.196E-02    -3.903E+00     2.278E-07     1.171E-06     1.325E-06
X     1.558E+00     6.196E-02    -3.408E+00     2.525E-06     1.305E-05     1.478E-05
X     1.558E+00     6.196E-02    -2.912E+00     1.092E-05     5.659E-05     6.405E-05
X     1.558E+00     6.196E-02    -2.416E+00     4.324E-05     2.242E-04     2.538E-04
X     1.558E+00     6.196E-02    -1.921E+00     1.713E-04     8.875E-04     1.005E-03
X     1.558E+00     6.196E-02    -1.425E+00     6.919E-04     3.574E-03     4.045E-03
X     1.558E+00     6.196E-02    -9.293E-01     3.143E-03     1.613E-02     1.826E-02
X     1.558E+00     6.196E-02    -4.337E-01     1.677E-02     8.592E-02     9.722E-02
X     1.558E+00     6.196E-02     6.196E-02     4.171E-02     2.138E-01     2.419E-01
X     1.558E+00     6.196E-02     5.576E-01     1.096E-02     5.672E-02     6.419E-02
X     1.558E+00     6.196E-02     1.053E+00     2.107E-03     1.084E-02     1.227E-02
X     1.558E+00     6.196E-02     1.549E+00     4.911E-04     2.513E-03     2.843E-03
X     1.558E+00     6.196E-02     2.045E+00     1.232E-04     6.288E-04     7.114E-04
X     1.558E+00     6.196E-02     2.540E+00     3.115E-05     1.589E-04     1.798E-04
X     1.558E+00     6.196E-02     3.036E+00     7.774E-06     3.971E-05     4.492E-05
X     1.558E+00     6.196E-02     3.531E+00     1.649E-06     8.450E-06     9.561E-06
X     1.558E+00     6.196E-02     4.027E+00     4.179E-08     2.151E-07     2.434E-07
X     1.558E+00     6.196E-02     4.523E+00     0.000E+00     0.000E+00     0.000E+00
X     1.558E+00     5.576E-01    -4.895E+00     0.000E+00     0.000E+00     0.000E+00
X     1.558E+00     5.576E-01    -4.399E+00     0.000E+00     0.000E+00     0.000E+00
X     1.558E+00     5.576E-01    -3.903E+00     1.525E-07     7.842E-07     8.874E-07
X     1.558E+00     5.576E-01    -3.408E+00     2.172E-06     1.122E-05     1.269E-05
X     1.558E+00     5.576E-01    -2.912E+00     9.422E-06     4.875E-05     5.519E-05
X     1.558E+00     5.576E-01    -2.416E+00     3.638E-05     1.883E-04     2.131E-04
X     1.558E+00     5.576E-01    -1.921E+00     1.380E-04     7.135E-04     8.077E-04
X     1.558E+00     5.576E-01    -1.425E+00     5.152E-04     2.658E-03     3.009E-03
X     1.558E+00     5.576E-01    -9.293E-01     1.926E-03     9.910E-03     1.121E-02
X     1.558E+00     5.576E-01    -4.337E-01     6.699E-03     3.448E-02     3.900E-02
X     1.558E+00     5.576E-01     6.196E-02     1.096E-02     5.673E-02     6.417E-02
X     1.558E+00     5.576E-01     5.576E-01     5.028E-03     2.603E-02     2.944E-02
X     1.558E+00     5.576E-01     1.053E+00     1.386E-03     7.118E-03     8.053E-03
X     1.558E+00     5.576E-01     1.549E+00     3.755E-04     1.917E-03     2.169E-03
X     1.558E+00     5.576E-01     2.045E+00     1.006E-04     5.126E-04     5.799E-04
X     1.558E+00     5.576E-01     2.540E+00     2.644E-05     1.348E-04     1.525E-04
X     1.558E+00     5.576E-01     3.036E+00     6.735E-06     3.438E-05     3.889E-05
X     1.558E+00     5.576E-01     3.531E+00     1.402E-06     7.181E-06     8.125E-06
X     1.558E+00     5.576E-01     4.027E+00     1.293E-08     6.656E-08     7.531E-08
X     1.558E+00     5.576E-01     4.523E+00     0.000E+00     0.000E+00     0.000E+00
X     1.558E+00     1.053E+00    -4.895E+00     0.000E+00     0.000E+00     0.000E+00
X     1.558E+00     1.053E+00    -4.399E+00     0.000E+00     0.000E+00     0.000E+00
X     1.558E+00     1.053E+00    -3.903E+00     2.840E-08     1.460E-07     1.653E-07
X     1.558E+00     1.053E+00    -3.408E+00     1.439E-06     7.421E-06     8.399E-06
X     1.558E+00     1.053E+00    -2.912E+00     6.467E-06     3.341E-05     3.782E-05
X     1.558E+00     1.053E+00    -2.416E+00     2.367E-05     1.223E-04     1.384E-04
X     1.558E+00     1.053E+00    -1.921E+00     8.152E-05     4.208E-04     4.763E-04
X     1.558E+00     1.053E+00    -1.425E+00     2.616E-04     1.348E-03     1.526E-03
X     1.558E+00     1.053E+00    -9.293E-01     7.395E-04     3.804E-03     4.305E-03
X     1.558E+00     1.053E+00    -4.337E-01     1.625E-03     8.356E-03     9.452E-03
X     1.558E+00     1.053E+00     6.196E-02     2.107E-03     1.085E-02     1.227E-02
X     1.558E+00     1.053E+00     5.576E-01     1.386E-03     7.118E-03     8.053E-03
X     1.558E+00     1.053E+00     1.053E+00     5.837E-04     2.984E-03     3.376E-03
X     1.558E+00     1.053E+00     1.549E+00     1.994E-04     1.016E-03     1.150E-03
X     1.558E+00     1.053E+00     2.045E+00     6.100E-05     3.106E-04     3.514E-04
X     1.558E+00     1.053E+00     2.540E+00     1.753E-05     8.930E-05     1.010E-04
X     1.558E+00     1.053E+00     3.036E+00     4.668E-06     2.383E-05     2.696E-05
X     1.558E+00     1.053E+00     3.531E+00     8.945E-07     4.589E-06     5.192E-06
X     1.558E+00     1.053E+00     4.027E+00     1.866E-11     9.608E-11     1.087E-10
X     1.558E+00     1.053E+00     4.523E+00     0.000E+00     0.000E+00     0.000E+00
X     1.558E+00     1.549E+00    -4.895E+00     0.000E+00     0.000E+00     0.000E+00
X     1.558E+00     1.549E+00    -4.399E+00     0.000E+00     0.000E+00     0.000E+00
X     1.558E+00     1.549E+00    -3.903E+00     2.423E-12     1.246E-11     1.410E-11
X     1.558E+00     1.549E+00    -3.408E+00     6.820E-07     3.511E-06     3.973E-06
X     1.558E+00     1.549E+00    -2.912E+00     3.588E-06     1.851E-05     2.095E-05
X     1.558E+00     1.549E+00    -2.416E+00     1.237E-05     6.382E-05     7.224E-05
X     1.558E+00     1.549E+00    -1.921E+00     3.783E-05     1.949E-04     2.206E-04
X     1.558E+00     1.549E+00    -1.425E+00     1.037E-04     5.336E-04     6.040E-04
X     1.558E+00     1.549E+00    -9.293E-01     2.385E-04     1.225E-03     1.386E-03
X     1.558E+00     1.549E+00    -4.337E-01     4.158E-04     2.132E-03     2.412E-03
X     1.558E+00     1.549E+00     6.196E-02     4.908E-04     2.513E-03     2.843E-03
X     1.558E+00     1.549E+00     5.576E-01     3.753E-04     1.918E-03     2.169E-03
X     1.558E+00     1.549E+00     1.053E+00     1.993E-04     1.016E-03     1.150E-03
X     1.558E+00     1.549E+00     1.549E+00     8.265E-05     4.208E-04     4.761E-04
X     1.558E+00     1.549E+00     2.045E+00     2.921E-05     1.487E-04     1.682E-04
X     1.558E+00     1.549E+00     2.540E+00     9.289E-06     4.733E-05     5.355E-05
X     1.558E+00     1.549E+00     3.036E+00     2.554E-06     1.305E-05     1.477E-05
X     1.558E+00     1.549E+00     3.531E+00     3.403E-07     1.752E-06     1.983E-06
X     1.558E+00     1.549E+00     4.027E+00     0.000E+00     0.000E+00     0.000E+00
X     1.558E+00     1.549E+00     4.523E+00     0.000E+00     0.000E+00     0.000E+00
X     1.558E+00     2.045E+00    -4.895E+00     0.000E+00     0.000E+00     0.000E+00
X     1.558E+00     2.045E+00    -4.399E+00     0.000E+00     0.000E+00     0.000E+00
X     1.558E+00     2.045E+00    -3.903E+00     0.000E+00     0.000E+00     0.000E+00
X     1.558E+00     2.045E+00    -3.408E+00     1.038E-07     5.337E-07     6.039E-07
X     1.558E+00     2.045E+00    -2.912E+00     1.489E-06     7.667E-06     8.677E-06
X     1.558E+00     2.045E+00    -2.416E+00     5.323E-06     2.741E-05     3.103E-05
X     1.558E+00     2.045E+00    -1.921E+00     1.489E-05     7.658E-05     8.668E-05
X     1.558E+00     2.045E+00    -1.425E+00     3.542E-05     1.819E-04     2.059E-04
X     1.558E+00     2.045E+00    -9.293E-01     7.039E-05     3.609E-04     4.084E-04
X     1.558E+00     2.045E+00    -4.337E-01     1.086E-04     5.557E-04     6.288E-04
X     1.558E+00     2.045E+00     6.196E-02     1.231E-04     6.288E-04     7.115E-04
X     1.558E+00     2.045E+00     5.576E-01     1.005E-04     5.126E-04     5.799E-04
X     1.558E+00     2.045E+00     1.053E+00     6.098E-05     3.106E-04     3.514E-04
X     1.558E+00     2.045E+00     1.549E+00     2.921E-05     1.487E-04     1.682E-04
X     1.558E+00     2.045E+00     2.045E+00     1.180E-05     6.009E-05     6.798E-05
X     1.558E+00     2.045E+00     2.540E+00     4.059E-06     2.072E-05     2.344E-05
X     1.558E+00     2.045E+00     3.036E+00     9.967E-07     5.109E-06     5.781E-06
X     1.558E+00     2.045E+00     3.531E+00     6.443E-09     3.318E-08     3.754E-08
X     1.558E+00     2.045E+00     4.027E+00     0.000E+00     0.000E+00     0.000E+00
X     1.558E+00     2.045E+00     4.523E+00     0.000E+00     0.000E+00     0.000E+00
X     1.558E+00     2.540E+00    -4.895E+00     0.000E+00     0.000E+00     0.000E+00
X     1.558E+00     2.540E+00    -4.399E+00     0.000E+00     0.000E+00     0.000E+00
X     1.558E+00     2.540E+00    -3.903E+00     0.000E+00     0.000E+00     0.000E+00
X     1.558E+00     2.540E+00    -3.408E+00     0.000E+00     0.000E+00     0.000E+00
X     1.558E+00     2.540E+00    -2.912E+00     3.200E-07     1.646E-06     1.862E-06
X     1.558E+00     2.540E+00    -2.416E+00     1.808E-06     9.301E-06     1.053E-05
X     1.558E+00     2.540E+00    -1.921E+00     5.043E-06     2.592E-05     2.933E-05
X     1.558E+00     2.540E+00    -1.425E+00     1.102E-05     5.659E-05     6.404E-05
X     1.558E+00     2.540E+00    -9.293E-01     1.974E-05     1.011E-04     1.144E-04
X     1.558E+00     2.540E+00    -4.337E-01     2.813E-05     1.439E-04     1.628E-04
X     1.558E+00     2.540E+00     6.196E-02     3.112E-05     1.589E-04     1.798E-04
X     1.558E+00     2.540E+00     5.576E-01     2.642E-05     1.348E-04     1.525E-04
X     1.558E+00     2.540E+00     1.053E+00     1.752E-05     8.930E-05     1.010E-04
X     1.558E+00     2.540E+00     1.549E+00     9.286E-06     4.733E-05     5.355E-05
X     1.558E+00     2.540E+00     2.045E+00     4.059E-06     2.072E-05     2.344E-05
X     1.558E+00     2.540E+00     2.540E+00     1.312E-06     6.720E-06     7.603E-06
X     1.558E+00     2.540E+00     3.036E+00     1.267E-07     6.525E-07     7.383E-07
X     1.558E+00     2.540E+00     3.531E+00     0.000E+00     0.000E+00     0.000E+00
X     1.558E+00     2.540E+00     4.027E+00     0.000E+00     0.000E+00     0.000E+00
X     1.558E+00     2.540E+00     4.523E+00     0.000E+00     0.000E+00     0.000E+00
X     1.558E+00     3.036E+00    -4.895E+00     0.000E+00     0.000E+00     0.000E+00
X     1.558E+00     3.036E+00    -4.399E+00     0.000E+00     0.000E+00     0.000E+00
X     1.558E+00     3.036E+00    -3.903E+00     0.000E+00     0.000E+00     0.000E+00
X     1.558E+00     3.036E+00    -3.408E+00     0.000E+00     0.000E+00     0.000E+00
X     1.558E+00     3.036E+00    -2.912E+00     5.645E-12     2.904E-11     3.285E-11
X     1.558E+00     3.036E+00    -2.416E+00     2.808E-07     1.445E-06     1.635E-06
X     1.558E+00     3.036E+00    -1.921E+00     1.307E-06     6.720E-06     7.604E-06
X     1.558E+00     3.036E+00    -1.425E+00     3.035E-06     1.558E-05     1.763E-05
X     1.558E+00     3.036E+00    -9.293E-01     5.201E-06     2.666E-05     3.016E-05
X     1.558E+00     3.036E+00    -4.337E-01     7.114E-06     3.641E-05     4.120E-05
X     1.558E+00     3.036E+00     6.196E-02     7.768E-06     3.971E-05     4.493E-05
X     1.558E+00     3.036E+00     5.576E-01     6.731E-06     3.438E-05     3.890E-05
X     1.558E+00     3.036E+00     1.053E+00     4.666E-06     2.383E-05     2.696E-05
X     1.558E+00     3.036E+00     1.549E+00     2.553E-06     1.306E-05     1.477E-05
X     1.558E+00     3.036E+00     2.045E+00     9.966E-07     5.110E-06     5.781E-06
X     1.558E+00     3.036E+00     2.540E+00     1.267E-07     6.526E-07     7.383E-07
X     1.558E+00     3.036E+00     3.036E+00     0.000E+00     0.000E+00     0.000E+00
X     1.558E+00     3.036E+00     3.531E+00     0.000E+00     0.000E+00     0.000E+00
X     1.558E+00     3.036E+00     4.027E+00     0.000E+00     0.000E+00     0.000E+00
X     1.558E+00     3.036E+00     4.523E+00     0.000E+00     0.000E+00     0.000E+00
X     1.558E+00     3.531E+00    -4.895E+00     0.000E+00     0.000E+00     0.000E+00
X     1.558E+00     3.531E+00    -4.399E+00     0.000E+00     0.000E+00     0.000E+00
X     1.558E+00     3.531E+00    -3.903E+00     0.000E+00     0.000E+00     0.000E+00
X     1.558E+00     3.531E+00    -3.408E+00     0.000E+00     0.000E+00     0.000E+00
X     1.558E+00     3.531E+00    -2.912E+00     0.000E+00     0.000E+00     0.000E+00
X     1.558E+00     3.531E+00    -2.416E+00     0.000E+00     0.000E+00     0.000E+00
X     1.558E+00     3.531E+00    -1.921E+00     4.902E-08     2.522E-07     2.853E-07
X     1.558E+00     3.531E+00    -1.425E+00     4.779E-07     2.459E-06     2.781E-06
X     1.558E+00     3.531E+00    -9.293E-01     1.030E-06     5.292E-06     5.987E-06
X     1.558E+00     3.531E+00    -4.337E-01     1.495E-06     7.668E-06     8.675E-06
X     1.558E+00     3.531E+00     6.196E-02     1.649E-06     8.451E-06     9.561E-06
X     1.558E+00     3.531E+00     5.576E-01     1.401E-06     7.181E-06     8.125E-06
X     1.558E+00     3.531E+00     1.053E+00     8.944E-07     4.589E-06     5.192E-06
X     1.558E+00     3.531E+00     1.549E+00     3.404E-07     1.752E-06     1.982E-06
X     1.558E+00     3.531E+00     2.045E+00     6.443E-09     3.318E-08     3.754E-08
X     1.558E+00     3.531E+00     2.540E+00     0.000E+00     0.000E+00     0.000E+00
X     1.558E+00     3.531E+00     3.036E+00     0.000E+00     0.000E+00     0.000E+00
X     1.558E+00     3.531E+00     3.531E+00     0.000E+00     0.000E+00     0.000E+00
X     1.558E+00     3.531E+00     4.027E+00     0.000E+00     0.000E+00     0.000E+00
X     1.558E+00     3.531E+00     4.523E+00     0.000E+00     0.000E+00     0.000E+00
X     1.558E+00     4.027E+00    -4.895E+00     0.000E+00     0.000E+00     0.000E+00
X     1.558E+00     4.027E+00    -4.399E+00     0.000E+00     0.000E+00     0.000E+00
X     1.558E+00     4.027E+00    -3.903E+00     0.000E+00     0.000E+00     0.000E+00
X     1.558E+00     4.027E+00    -3.408E+00     0.000E+00     0.000E+00     0.000E+00
X     1.558E+00     4.027E+00    -2.912E+00     0.000E+00     0.000E+00     0.000E+00
X     1.558E+00     4.027E+00    -2.416E+00     0.000E+00     0.000E+00     0.000E+00
X     1.558E+00     4.027E+00    -1.921E+00     0.000E+00     0.000E+00     0.000E+00
X     1.558E+00     4.027E+00    -1.425E+00     0.000E+00     0.000E+00     0.000E+00
X     1.558E+00     4.027E+00    -9.293E-01     1.771E-10     9.115E-10     1.031E-09
X     1.558E+00     4.027E+00    -4.337E-01     2.250E-08     1.158E-07     1.310E-07
X     1.558E+00     4.027E+00     6.196E-02     4.179E-08     2.151E-07     2.434E-07
X     1.558E+00     4.027E+00     5.576E-01     1.293E-08     6.657E-08     7.530E-08
X     1.558E+00     4.027E+00     1.053E+00     1.866E-11     9.609E-11     1.087E-10
X     1.558E+00     4.027E+00     1.549E+00     0.000E+00     0.000E+00     0.000E+00
X     1.558E+00     4.027E+00     2.045E+00     0.000E+00     0.000E+00     0.000E+00
X     1.558E+00     4.027E+00     2.540E+00     0.000E+00     0.000E+00     0.000E+00
X     1.558E+00     4.027E+00     3.036E+00     0.000E+00     0.000E+00     0.000E+00
X     1.558E+00     4.027E+00     3.531E+00     0.000E+00     0.000E+00     0.000E+00
X     1.558E+00     4.027E+00     4.027E+00     0.000E+00     0.000E+00     0.000E+00
X     1.558E+00     4.027E+00     4.523E+00     0.000E+00     0.000E+00     0.000E+00
X     1.558E+00     4.523E+00    -4.895E+00     0.000E+00     0.000E+00     0.000E+00
X     1.558E+00     4.523E+00    -4.399E+00     0.000E+00     0.000E+00     0.000E+00
X     1.558E+00     4.523E+00    -3.903E+00     0.000E+00     0.000E+00     0.000E+00
X     1.558E+00     4.523E+00    -3.408E+00     0.000E+00     0.000E+00     0.000E+00
X     1.558E+00     4.523E+00    -2.912E+00     0.000E+00     0.000E+00     0.000E+00
X     1.558E+00     4.523E+00    -2.416E+00     0.000E+00     0.000E+00     0.000E+00
X     1.558E+00     4.523E+00    -1.921E+00     0.000E+00     0.000E+00     0.000E+00
X     1.558E+00     4.523E+00    -1.425E+00     0.000E+00     0.000E+00     0.000E+00
X     1.558E+00     4.523E+00    -9.293E-01     0.000E+00     0.000E+00     0.000E+00
X     1.558E+00     4.523E+00    -4.337E-01     0.000E+00     0.000E+00     0.000E+00
X     1.558E+00     4.523E+00     6.196E-02     0.000E+00     0.000E+00     0.000E+00
X     1.558E+00     4.523E+00     5.576E-01     0.000E+00     0.000E+00     0.000E+00
X     1.558E+00     4.523E+00     1.053E+00     0.000E+00     0.000E+00     0.000E+00
X     1.558E+00     4.523E+00     1.549E+00     0.000E+00     0.000E+00     0.000E+00
X     1.558E+00     4.523E+00     2.045E+00     0.000E+00     0.000E+00     0.000E+00
X     1.558E+00     4.523E+00     2.540E+00     0.000E+00     0.000E+00     0.000E+00
X     1.558E+00     4.523E+00     3.036E+00     0.000E+00     0.000E+00     0.000E+00
X     1.558E+00     4.523E+00     3.531E+00     0.000E+00     0.000E+00     0.000E+00
X     1.558E+00     4.523E+00     4.027E+00     0.000E+00     0.000E+00     0.000E+00
X     1.558E+00     4.523E+00     4.523E+00     0.000E+00     0.000E+00     0.000E+00
X     2.053E+00    -4.895E+00    -4.895E+00     0.000E+00     0.000E+00     0.000E+00
X     2.053E+00    -4.895E+00    -4.399E+00     0.000E+00     0.000E+00     0.000E+00
X     2.053E+00    -4.895E+00    -3.903E+00     0.000E+00     0.000E+00     0.000E+00
X     2.053E+00    -4.895E+00    -3.408E+00     0.000E+00     0.000E+00     0.000E+00
X     2.053E+00    -4.895E+00    -2.912E+00     0.000E+00     0.000E+00     0.000E+00
X     2.053E+00    -4.895E+00    -2.416E+00     0.000E+00     0.000E+00     0.000E+00
X     2.053E+00    -4.895E+00    -1.921E+00     0.000E+00     0.000E+00     0.000E+00
X     2.053E+00    -4.895E+00    -1.425E+00     0.000E+00     0.000E+00     0.000E+00
X     2.053E+00    -4.895E+00    -9.293E-01     0.000E+00     0.000E+00     0.000E+00
X     2.053E+00    -4.895E+00    -4.337E-01     0.000E+00     0.000E+00     0.000E+00
X     2.053E+00    -4.895E+00     6.196E-02     0.000E+00     0.000E+00     0.000E+00
X     2.053E+00    -4.895E+00     5.576E-01     0.000E+00     0.000E+00     0.000E+00
X     2.053E+00    -4.895E+00     1.053E+00     0.000E+00     0.000E+00     0.000E+00
X     2.053E+00    -4.895E+00     1.549E+00     0.000E+00     0.000E+00     0.000E+00
X     2.053E+00    -4.895E+00     2.045E+00     0.000E+00     0.000E+00     0.000E+00
X     2.053E+00    -4.895E+00     2.540E+00     0.000E+00     0.000E+00     0.000E+00
X     2.053E+00    -4.895E+00     3.036E+00     0.000E+00     0.000E+00     0.000E+00
X     2.053E+00    -4.895E+00     3.531E+00     0.000E+00     0.000E+00     0.000E+00
X     2.053E+00    -4.895E+00     4.027E+00     0.000E+00     0.000E+00     0.000E+00
X     2.053E+00    -4.895E+00     4.523E+00     0.000E+00     0.000E+00     0.000E+00
X     2.053E+00    -4.399E+00    -4.895E+00     0.000E+00     0.000E+00     0.000E+00
X     2.053E+00    -4.399E+00    -4.399E+00     0.000E+00     0.000E+00     0.000E+00
X     2.053E+00    -4.399E+00    -3.903E+00     0.000E+00     0.000E+00     0.000E+00
X     2.053E+00    -4.399E+00    -3.408E+00     0.000E+00     0.000E+00     0.000E+00
X     2.053E+00    -4.399E+00    -2.912E+00     0.000E+00     0.000E+00     0.000E+00
X     2.053E+00    -4.399E+00    -2.416E+00     0.000E+00     0.000E+00     0.000E+00
X     2.053E+00    -4.399E+00    -1.921E+00     0.000E+00     0.000E+00     0.000E+00
X     2.053E+00    -4.399E+00    -1.425E+00     0.000E+00     0.000E+00     0.000E+00
X     2.053E+00    -4.399E+00    -9.293E-01     0.000E+00     0.000E+00     0.000E+00
X     2.053E+00    -4.399E+00    -4.337E-01     0.000E+00     0.000E+00     0.000E+00
X     2.053E+00    -4.399E+00     6.196E-02     0.000E+00     0.000E+00     0.000E+00
X     2.053E+00    -4.399E+00     5.576E-01     0.000E+00     0.000E+00     0.000E+00
X     2.053E+00    -4.399E+00     1.053E+00     0.000E+00     0.000E+00     0.000E+00
X     2.053E+00    -4.399E+00     1.549E+00     0.000E+00     0.000E+00     0.000E+00
X     2.053E+00    -4.399E+00     2.045E+00     0.000E+00     0.000E+00     0.000E+00
X     2.053E+00    -4.399E+00     2.540E+00     0.000E+00     0.000E+00     0.000E+00
X     2.053E+00    -4.399E+00     3.036E+00     0.000E+00     0.000E+00     0.000E+00
X     2.053E+00    -4.399E+00     3.531E+00     0.000E+00     0.000E+00     0.000E+00
X     2.053E+00    -4.399E+00     4.027E+00     0.000E+00     0.000E+00     0.000E+00
X     2.053E+00    -4.399E+00     4.523E+00     0.000E+00     0.000E+00     0.000E+00
X     2.053E+00    -3.903E+00    -4.895E+00     0.000E+00     0.000E+00     0.000E+00
X     2.053E+00    -3.903E+00    -4.399E+00     0.000E+00     0.000E+00     0.000E+00
X     2.053E+00    -3.903E+00    -3.903E+00     0.000E+00     0.000E+00     0.000E+00
X     2.053E+00    -3.903E+00    -3.408E+00     0.000E+00     0.000E+00     0.000E+00
X     2.053E+00    -3.903E+00    -2.912E+00     0.000E+00     0.000E+00     0.000E+00
X     2.053E+00    -3.903E+00    -2.416E+00     0.000E+00     0.000E+00     0.000E+00
X     2.053E+00    -3.903E+00    -1.921E+00     0.000E+00     0.000E+00     0.000E+00
X     2.053E+00    -3.903E+00    -1.425E+00     1.931E-10     9.934E-10     1.124E-09
X     2.053E+00    -3.903E+00    -9.293E-01     8.473E-08     4.360E-07     4.932E-07
X     2.053E+00    -3.903E+00    -4.337E-01     2.307E-07     1.187E-06     1.343E-06
X     2.053E+00    -3.903E+00     6.196E-02     2.844E-07     1.463E-06     1.655E-06
X     2.053E+00    -3.903E+00     5.576E-01     1.984E-07     1.021E-06     1.155E-06
X     2.053E+00    -3.903E+00     1.053E+00     5.021E-08     2.584E-07     2.923E-07
X     2.053E+00    -3.903E+00     1.549E+00     6.082E-12     3.129E-11     3.540E-11
X     2.053E+00    -3.903E+00     2.045E+00     0.000E+00     0.000E+00     0.000E+00
X     2.053E+00    -3.903E+00     2.540E+00     0.000E+00     0.000E+00     0.000E+00
X     2.053E+00    -3.903E+00     3.036E+00     0.000E+00     0.000E+00     0.000E+00
X     2.053E+00    -3.903E+00     3.531E+00     0.000E+00     0.000E+00     0.000E+00
X     2.053E+00    -3.903E+00     4.027E+00     0.000E+00     0.000E+00     0.000E+00
X     2.053E+00    -3.903E+00     4.523E+00     0.000E+00     0.000E+00     0.000E+00
X     2.053E+00    -3.408E+00    -4.895E+00     0.000E+00     0.000E+00     0.000E+00
X     2.053E+00    -3.408E+00    -4.399E+00     0.000E+00     0.000E+00     0.000E+00
X     2.053E+00    -3.408E+00    -3.903E+00     0.000E+00     0.000E+00     0.000E+00
X     2.053E+00    -3.408E+00    -3.408E+00     0.000E+00     0.000E+00     0.000E+00
X     2.053E+00    -3.408E+00    -2.912E+00     0.000E+00     0.000E+00     0.000E+00
X     2.053E+00    -3.408E+00    -2.416E+00     3.418E-11     1.759E-10     1.990E-10
X     2.053E+00    -3.408E+00    -1.921E+00     2.657E-07     1.367E-06     1.547E-06
X     2.053E+00    -3.408E+00    -1.425E+00     1.086E-06     5.586E-06     6.319E-06
X     2.053E+00    -3.408E+00    -9.293E-01     2.263E-06     1.165E-05     1.318E-05
X     2.053E+00    -3.408E+00    -4.337E-01     3.247E-06     1.674E-05     1.893E-05
X     2.053E+00    -3.408E+00     6.196E-02     3.566E-06     1.838E-05     2.079E-05
X     2.053E+00    -3.408E+00     5.576E-01     3.049E-06     1.571E-05     1.777E-05
X     2.053E+00    -3.408E+00     1.053E+00     1.964E-06     1.010E-05     1.143E-05
X     2.053E+00    -3.408E+00     1.549E+00     8.351E-07     4.296E-06     4.860E-06
X     2.053E+00    -3.408E+00     2.045E+00     1.416E-07     7.284E-07     8.240E-07
X     2.053E+00    -3.408E+00     2.540E+00     0.000E+00     0.000E+00     0.000E+00
X     2.053E+00    -3.408E+00     3.036E+00     0.000E+00     0.000E+00     0.000E+00
X     2.053E+00    -3.408E+00     3.531E+00     0.000E+00     0.000E+00     0.000E+00
X     2.053E+00    -3.408E+00     4.027E+00     0.000E+00     0.000E+00     0.000E+00
X     2.053E+00    -3.408E+00     4.523E+00     0.000E+00     0.000E+00     0.000E+00
X     2.053E+00    -2.912E+00    -4.895E+00     0.000E+00     0.000E+00     0.000E+00
X     2.053E+00    -2.912E+00    -4.399E+00     0.000E+00     0.000E+00     0.000E+00
X     2.053E+00    -2.912E+00    -3.903E+00     0.000E+00     0.000E+00     0.000E+00
X     2.053E+00    -2.912E+00    -3.408E+00     0.000E+00     0.000E+00     0.000E+00
X     2.053E+00    -2.912E+00    -2.912E+00     2.908E-09     1.496E-08     1.693E-08
X     2.053E+00    -2.912E+00    -2.416E+00     6.609E-07     3.401E-06     3.847E-06
X     2.053E+00    -2.912E+00    -1.921E+00     2.676E-06     1.379E-05     1.560E-05
X     2.053E+00    -2.912E+00    -1.425E+00     6.070E-06     3.134E-05     3.545E-05
X     2.053E+00    -2.912E+00    -9.293E-01     1.051E-05     5.427E-05     6.139E-05
X     2.053E+00    -2.912E+00    -4.337E-01     1.450E-05     7.488E-05     8.470E-05
X     2.053E+00    -2.912E+00     6.196E-02     1.585E-05     8.182E-05     9.254E-05
X     2.053E+00    -2.912E+00     5.576E-01     1.369E-05     7.061E-05     7.986E-05
X     2.053E+00    -2.912E+00     1.053E+00     9.378E-06     4.833E-05     5.466E-05
X     2.053E+00    -2.912E+00     1.549E+00     5.113E-06     2.632E-05     2.978E-05
X     2.053E+00    -2.912E+00     2.045E+00     2.037E-06     1.048E-05     1.185E-05
X     2.053E+00    -2.912E+00     2.540E+00     3.889E-07     2.001E-06     2.263E-06
X     2.053E+00    -2.912E+00     3.036E+00     1.894E-12     9.743E-12     1.102E-11
X     2.053E+00    -2.912E+00     3.531E+00     0.000E+00     0.000E+00     0.000E+00
X     2.053E+00    -2.912E+00     4.027E+00     0.000E+00     0.000E+00     0.000E+00
X     2.053E+00    -2.912E+00     4.523E+00     0.000E+00     0.000E+00     0.000E+00
X     2.053E+00    -2.416E+00    -4.895E+00     0.000E+00     0.000E+00     0.000E+00
X     2.053E+00    -2.416E+00    -4.399E+00     0.000E+00     0.000E+00     0.000E+00
X     2.053E+00    -2.416E+00    -3.903E+00     0.000E+00     0.000E+00     0.000E+00
X     2.053E+00    -2.416E+00    -3.408E+00     3.418E-11     1.759E-10     1.990E-10
X     2.053E+00    -2.416E+00    -2.912E+00     6.609E-07     3.401E-06     3.848E-06
X     2.053E+00    -2.416E+00    -2.416E+00     3.454E-06     1.781E-05     2.015E-05
X     2.053E+00    -2.416E+00    -1.921E+00     9.626E-06     4.974E-05     5.627E-05
X     2.053E+00    -2.416E+00    -1.425E+00     2.131E-05     1.102E-04     1.247E-04
X     2.053E+00    -2.416E+00    -9.293E-01     3.852E-05     1.992E-04     2.253E-04
X     2.053E+00    -2.416E+00    -4.337E-01     5.564E-05     2.876E-04     3.253E-04
X     2.053E+00    -2.416E+00     6.196E-02     6.177E-05     3.190E-04     3.608E-04
X     2.053E+00    -2.416E+00     5.576E-01     5.207E-05     2.686E-04     3.038E-04
X     2.053E+00    -2.416E+00     1.053E+00     3.399E-05     1.752E-04     1.981E-04
X     2.053E+00    -2.416E+00     1.549E+00     1.789E-05     9.211E-05     1.042E-04
X     2.053E+00    -2.416E+00     2.045E+00     7.672E-06     3.947E-05     4.465E-05
X     2.053E+00    -2.416E+00     2.540E+00     2.509E-06     1.290E-05     1.460E-05
X     2.053E+00    -2.416E+00     3.036E+00     3.449E-07     1.774E-06     2.007E-06
X     2.053E+00    -2.416E+00     3.531E+00     0.000E+00     0.000E+00     0.000E+00
X     2.053E+00    -2.416E+00     4.027E+00     0.000E+00     0.000E+00     0.000E+00
X     2.053E+00    -2.416E+00     4.523E+00     0.000E+00     0.000E+00     0.000E+00
X     2.053E+00    -1.921E+00    -4.895E+00     0.000E+00     0.000E+00     0.000E+00
X     2.053E+00    -1.921E+00    -4.399E+00     0.000E+00     0.000E+00     0.000E+00
X     2.053E+00    -1.921E+00    -3.903E+00     0.000E+00     0.000E+00     0.000E+00
X     2.053E+00    -1.921E+00    -3.408E+00     2.657E-07     1.367E-06     1.547E-06
X     2.053E+00    -1.921E+00    -2.912E+00     2.676E-06     1.379E-05     1.560E-05
X     2.053E+00    -1.921E+00    -2.416E+00     9.625E-06     4.974E-05     5.628E-05
X     2.053E+00    -1.921E+00    -1.921E+00     2.719E-05     1.406E-04     1.591E-04
X     2.053E+00    -1.921E+00    -1.425E+00     6.611E-05     3.421E-04     3.870E-04
X     2.053E+00    -1.921E+00    -9.293E-01     1.337E-04     6.916E-04     7.824E-04
X     2.053E+00    -1.921E+00    -4.337E-01     2.104E-04     1.087E-03     1.230E-03
X     2.053E+00    -1.921E+00     6.196E-02     2.400E-04     1.240E-03     1.402E-03
X     2.053E+00    -1.921E+00     5.576E-01     1.936E-04     9.984E-04     1.129E-03
X     2.053E+00    -1.921E+00     1.053E+00     1.150E-04     5.923E-04     6.699E-04
X     2.053E+00    -1.921E+00     1.549E+00     5.400E-05     2.779E-04     3.144E-04
X     2.053E+00    -1.921E+00     2.045E+00     2.143E-05     1.102E-04     1.247E-04
X     2.053E+00    -1.921E+00     2.540E+00     7.248E-06     3.726E-05     4.215E-05
X     2.053E+00    -1.921E+00     3.036E+00     1.756E-06     9.033E-06     1.022E-05
X     2.053E+00    -1.921E+00     3.531E+00     7.523E-08     3.870E-07     4.379E-07
X     2.053E+00    -1.921E+00     4.027E+00     0.000E+00     0.000E+00     0.000E+00
X     2.053E+00    -1.921E+00     4.523E+00     0.000E+00     0.000E+00     0.000E+00
X     2.053E+00    -1.425E+00    -4.895E+00     0.000E+00     0.000E+00     0.000E+00
X     2.053E+00    -1.425E+00    -4.399E+00     0.000E+00     0.000E+00     0.000E+00
X     2.053E+00    -1.425E+00    -3.903E+00     1.930E-10     9.932E-10     1.124E-09
X     2.053E+00    -1.425E+00    -3.408E+00     1.086E-06     5.585E-06     6.320E-06
X     2.053E+00    -1.425E+00    -2.912E+00     6.069E-06     3.133E-05     3.545E-05
X     2.053E+00    -1.425E+00    -2.416E+00     2.131E-05     1.102E-04     1.247E-04
X     2.053E+00    -1.425E+00    -1.921E+00     6.611E-05     3.421E-04     3.870E-04
X     2.053E+00    -1.425E+00    -1.425E+00     1.850E-04     9.570E-04     1.083E-03
X     2.053E+00    -1.425E+00    -9.293E-01     4.427E-04     2.289E-03     2.589E-03
X     2.053E+00    -1.425E+00    -4.337E-01     8.095E-04     4.182E-03     4.730E-03
X     2.053E+00    -1.425E+00     6.196E-02     9.752E-04     5.032E-03     5.692E-03
X     2.053E+00    -1.425E+00     5.576E-01     7.214E-04     3.718E-03     4.205E-03
X     2.053E+00    -1.425E+00     1.053E+00     3.649E-04     1.878E-03     2.125E-03
X     2.053E+00    -1.425E+00     1.549E+00     1.456E-04     7.486E-04     8.469E-04
X     2.053E+00    -1.425E+00     2.045E+00     5.054E-05     2.596E-04     2.937E-04
X     2.053E+00    -1.425E+00     2.540E+00     1.593E-05     8.180E-05     9.254E-05
X     2.053E+00    -1.425E+00     3.036E+00     4.290E-06     2.204E-05     2.494E-05
X     2.053E+00    -1.425E+00     3.531E+00     5.694E-07     2.929E-06     3.314E-06
X     2.053E+00    -1.425E+00     4.027E+00     0.000E+00     0.000E+00     0.000E+00
X     2.053E+00    -1.425E+00     4.523E+00     0.000E+00     0.000E+00     0.000E+00
X     2.053E+00    -9.293E-01    -4.895E+00     0.000E+00     0.000E+00     0.000E+00
X     2.053E+00    -9.293E-01    -4.399E+00     0.000E+00     0.000E+00     0.000E+00
X     2.053E+00    -9.293E-01    -3.903E+00     8.473E-08     4.359E-07     4.933E-07
X     2.053E+00    -9.293E-01    -3.408E+00     2.263E-06     1.165E-05     1.318E-05
X     2.053E+00    -9.293E-01    -2.912E+00     1.050E-05     5.426E-05     6.140E-05
X     2.053E+00    -9.293E-01    -2.416E+00     3.851E-05     1.992E-04     2.254E-04
X     2.053E+00    -9.293E-01    -1.921E+00     1.337E-04     6.915E-04     7.825E-04
X     2.053E+00    -9.293E-01    -1.425E+00     4.426E-04     2.289E-03     2.590E-03
X     2.053E+00    -9.293E-01    -9.293E-01     1.365E-03     7.049E-03     7.975E-03
X     2.053E+00    -9.293E-01    -4.337E-01     3.544E-03     1.829E-02     2.069E-02
X     2.053E+00    -9.293E-01     6.196E-02     5.028E-03     2.592E-02     2.931E-02
X     2.053E+00    -9.293E-01     5.576E-01     2.893E-03     1.490E-02     1.685E-02
X     2.053E+00    -9.293E-01     1.053E+00     1.043E-03     5.366E-03     6.070E-03
X     2.053E+00    -9.293E-01     1.549E+00     3.323E-04     1.707E-03     1.931E-03
X     2.053E+00    -9.293E-01     2.045E+00     9.920E-05     5.091E-04     5.761E-04
X     2.053E+00    -9.293E-01     2.540E+00     2.827E-05     1.450E-04     1.641E-04
X     2.053E+00    -9.293E-01     3.036E+00     7.469E-06     3.834E-05     4.338E-05
X     2.053E+00    -9.293E-01     3.531E+00     1.335E-06     6.866E-06     7.770E-06
X     2.053E+00    -9.293E-01     4.027E+00     1.060E-09     5.452E-09     6.169E-09
X     2.053E+00    -9.293E-01     4.523E+00     0.000E+00     0.000E+00     0.000E+00
X     2.053E+00    -4.337E-01    -4.895E+00     0.000E+00     0.000E+00     0.000E+00
X     2.053E+00    -4.337E-01    -4.399E+00     0.000E+00     0.000E+00     0.000E+00
X     2.053E+00    -4.337E-01    -3.903E+00     2.307E-07     1.187E-06     1.343E-06
X     2.053E+00    -4.337E-01    -3.408E+00     3.247E-06     1.673E-05     1.893E-05
X     2.053E+00    -4.337E-01    -2.912E+00     1.449E-05     7.486E-05     8.472E-05
X     2.053E+00    -4.337E-01    -2.416E+00     5.562E-05     2.875E-04     3.254E-04
X     2.053E+00    -4.337E-01    -1.921E+00     2.103E-04     1.087E-03     1.230E-03
X     2.053E+00    -4.337E-01    -1.425E+00     8.092E-04     4.181E-03     4.731E-03
X     2.053E+00    -4.337E-01    -9.293E-01     3.543E-03     1.828E-02     2.069E-02
X     2.053E+00    -4.337E-01    -4.337E-01     1.969E-02     1.016E-01     1.149E-01
X     2.053E+00    -4.337E-01     6.196E-02     5.107E-02     2.634E-01     2.979E-01
X     2.053E+00    -4.337E-01     5.576E-01     1.275E-02     6.555E-02     7.417E-02
X     2.053E+00    -4.337E-01     1.053E+00     2.402E-03     1.234E-02     1.397E-02
X     2.053E+00    -4.337E-01     1.549E+00     5.793E-04     2.972E-03     3.363E-03
X     2.053E+00    -4.337E-01     2.045E+00     1.520E-04     7.791E-04     8.816E-04
X     2.053E+00    -4.337E-01     2.540E+00     4.014E-05     2.058E-04     2.328E-04
X     2.053E+00    -4.337E-01     3.036E+00     1.027E-05     5.270E-05     5.963E-05
X     2.053E+00    -4.337E-01     3.531E+00     2.038E-06     1.048E-05     1.186E-05
X     2.053E+00    -4.337E-01     4.027E+00     4.295E-08     2.209E-07     2.500E-07
X     2.053E+00    -4.337E-01     4.523E+00     0.000E+00     0.000E+00     0.000E+00
X     2.053E+00     6.196E-02    -4.895E+00     0.000E+00     0.000E+00     0.000E+00
X     2.053E+00     6.196E-02    -4.399E+00     0.000E+00     0.000E+00     0.000E+00
X     2.053E+00     6.196E-02    -3.903E+00     2.844E-07     1.463E-06     1.656E-06
X     2.053E+00     6.196E-02    -3.408E+00     3.565E-06     1.837E-05     2.079E-05
X     2.053E+00     6.196E-02    -2.912E+00     1.584E-05     8.179E-05     9.256E-05
X     2.053E+00     6.196E-02    -2.416E+00     6.174E-05     3.189E-04     3.609E-04
X     2.053E+00     6.196E-02    -1.921E+00     2.399E-04     1.239E-03     1.402E-03
X     2.053E+00     6.196E-02    -1.425E+00     9.748E-04     5.030E-03     5.693E-03
X     2.053E+00     6.196E-02    -9.293E-01     5.027E-03     2.591E-02     2.932E-02
X     2.053E+00     6.196E-02    -4.337E-01     5.105E-02     2.633E-01     2.980E-01
X     2.053E+00     6.196E-02     6.196E-02     5.577E-03     2.835E-02     3.208E-02
X     2.053E+00     6.196E-02     5.576E-01     2.606E-02     1.338E-01     1.514E-01
X     2.053E+00     6.196E-02     1.053E+00     3.207E-03     1.646E-02     1.863E-02
X     2.053E+00     6.196E-02     1.549E+00     6.846E-04     3.510E-03     3.971E-03
X     2.053E+00     6.196E-02     2.045E+00     1.719E-04     8.804E-04     9.962E-04
X     2.053E+00     6.196E-02     2.540E+00     4.433E-05     2.271E-04     2.569E-04
X     2.053E+00     6.196E-02     3.036E+00     1.122E-05     5.751E-05     6.507E-05
X     2.053E+00     6.196E-02     3.531E+00     2.267E-06     1.165E-05     1.318E-05
X     2.053E+00     6.196E-02     4.027E+00     6.630E-08     3.410E-07     3.859E-07
X     2.053E+00     6.196E-02     4.523E+00     0.000E+00     0.000E+00     0.000E+00
X     2.053E+00     5.576E-01    -4.895E+00     0.000E+00     0.000E+00     0.000E+00
X     2.053E+00     5.576E-01    -4.399E+00     0.000E+00     0.000E+00     0.000E+00
X     2.053E+00     5.576E-01    -3.903E+00     1.984E-07     1.021E-06     1.155E-06
X     2.053E+00     5.576E-01    -3.408E+00     3.049E-06     1.570E-05     1.777E-05
X     2.053E+00     5.576E-01    -2.912E+00     1.368E-05     7.058E-05     7.988E-05
X     2.053E+00     5.576E-01    -2.416E+00     5.203E-05     2.685E-04     3.039E-04
X     2.053E+00     5.576E-01    -1.921E+00     1.934E-04     9.980E-04     1.130E-03
X     2.053E+00     5.576E-01    -1.425E+00     7.210E-04     3.716E-03     4.206E-03
X     2.053E+00     5.576E-01    -9.293E-01     2.892E-03     1.489E-02     1.685E-02
X     2.053E+00     5.576E-01    -4.337E-01     1.274E-02     6.556E-02     7.417E-02
X     2.053E+00     5.576E-01     6.196E-02     2.606E-02     1.338E-01     1.514E-01
X     2.053E+00     5.576E-01     5.576E-01     8.951E-03     4.596E-02     5.200E-02
X     2.053E+00     5.576E-01     1.053E+00     2.023E-03     1.037E-02     1.174E-02
X     2.053E+00     5.576E-01     1.549E+00     5.215E-04     2.671E-03     3.023E-03
X     2.053E+00     5.576E-01     2.045E+00     1.405E-04     7.193E-04     8.138E-04
X     2.053E+00     5.576E-01     2.540E+00     3.766E-05     1.928E-04     2.182E-04
X     2.053E+00     5.576E-01     3.036E+00     9.703E-06     4.973E-05     5.627E-05
X     2.053E+00     5.576E-01     3.531E+00     1.894E-06     9.737E-06     1.102E-05
X     2.053E+00     5.576E-01     4.027E+00     2.936E-08     1.510E-07     1.709E-07
X     2.053E+00     5.576E-01     4.523E+00     0.000E+00     0.000E+00     0.000E+00
X     2.053E+00     1.053E+00    -4.895E+00     0.000E+00     0.000E+00     0.000E+00
X     2.053E+00     1.053E+00    -4.399E+00     0.000E+00     0.000E+00     0.000E+00
X     2.053E+00     1.053E+00    -3.903E+00     5.021E-08     2.583E-07     2.923E-07
X     2.053E+00     1.053E+00    -3.408E+00     1.963E-06     1.010E-05     1.143E-05
X     2.053E+00     1.053E+00    -2.912E+00     9.373E-06     4.831E-05     5.467E-05
X     2.053E+00     1.053E+00    -2.416E+00     3.397E-05     1.751E-04     1.982E-04
X     2.053E+00     1.053E+00    -1.921E+00     1.149E-04     5.921E-04     6.701E-04
X     2.053E+00     1.053E+00    -1.425E+00     3.647E-04     1.878E-03     2.125E-03
X     2.053E+00     1.053E+00    -9.293E-01     1.043E-03     5.365E-03     6.071E-03
X     2.053E+00     1.053E+00    -4.337E-01     2.402E-03     1.234E-02     1.396E-02
X     2.053E+00     1.053E+00     6.196E-02     3.206E-03     1.646E-02     1.862E-02
X     2.053E+00     1.053E+00     5.576E-01     2.023E-03     1.037E-02     1.174E-02
X     2.053E+00     1.053E+00     1.053E+00     8.160E-04     4.181E-03     4.730E-03
X     2.053E+00     1.053E+00     1.549E+00     2.770E-04     1.418E-03     1.604E-03
X     2.053E+00     1.053E+00     2.045E+00     8.586E-05     4.393E-04     4.971E-04
X     2.053E+00     1.053E+00     2.540E+00     2.505E-05     1.282E-04     1.451E-04
X     2.053E+00     1.053E+00     3.036E+00     6.664E-06     3.417E-05     3.866E-05
X     2.053E+00     1.053E+00     3.531E+00     1.132E-06     5.825E-06     6.591E-06
X     2.053E+00     1.053E+00     4.027E+00     1.067E-10     5.490E-10     6.212E-10
X     2.053E+00     1.053E+00     4.523E+00     0.000E+00     0.000E+00     0.000E+00
X     2.053E+00     1.549E+00    -4.895E+00     0.000E+00     0.000E+00     0.000E+00
X     2.053E+00     1.549E+00    -4.399E+00     0.000E+00     0.000E+00     0.000E+00
X     2.053E+00     1.549E+00    -3.903E+00     6.082E-12     3.129E-11     3.540E-11
X     2.053E+00     1.549E+00    -3.408E+00     8.351E-07     4.296E-06     4.861E-06
X     2.053E+00     1.549E+00    -2.912E+00     5.111E-06     2.632E-05     2.978E-05
X     2.053E+00     1.549E+00    -2.416E+00     1.788E-05     9.208E-05     1.042E-04
X     2.053E+00     1.549E+00    -1.921E+00     5.397E-05     2.778E-04     3.144E-04
X     2.053E+00     1.549E+00    -1.425E+00     1.455E-04     7.485E-04     8.470E-04
X     2.053E+00     1.549E+00    -9.293E-01     3.321E-04     1.707E-03     1.931E-03
X     2.053E+00     1.549E+00    -4.337E-01     5.790E-04     2.973E-03     3.363E-03
X     2.053E+00     1.549E+00     6.196E-02     6.844E-04     3.510E-03     3.971E-03
X     2.053E+00     1.549E+00     5.576E-01     5.214E-04     2.672E-03     3.022E-03
X     2.053E+00     1.549E+00     1.053E+00     2.769E-04     1.418E-03     1.604E-03
X     2.053E+00     1.549E+00     1.549E+00     1.157E-04     5.921E-04     6.699E-04
X     2.053E+00     1.549E+00     2.045E+00     4.155E-05     2.126E-04     2.405E-04
X     2.053E+00     1.549E+00     2.540E+00     1.338E-05     6.854E-05     7.755E-05
X     2.053E+00     1.549E+00     3.036E+00     3.579E-06     1.837E-05     2.079E-05
X     2.053E+00     1.549E+00     3.531E+00     4.120E-07     2.120E-06     2.398E-06
X     2.053E+00     1.549E+00     4.027E+00     0.000E+00     0.000E+00     0.000E+00
X     2.053E+00     1.549E+00     4.523E+00     0.000E+00     0.000E+00     0.000E+00
X     2.053E+00     2.045E+00    -4.895E+00     0.000E+00     0.000E+00     0.000E+00
X     2.053E+00     2.045E+00    -4.399E+00     0.000E+00     0.000E+00     0.000E+00
X     2.053E+00     2.045E+00    -3.903E+00     0.000E+00     0.000E+00     0.000E+00
X     2.053E+00     2.045E+00    -3.408E+00     1.416E-07     7.283E-07     8.241E-07
X     2.053E+00     2.045E+00    -2.912E+00     2.037E-06     1.048E-05     1.186E-05
X     2.053E+00     2.045E+00    -2.416E+00     7.668E-06     3.947E-05     4.466E-05
X     2.053E+00     2.045E+00    -1.921E+00     2.142E-05     1.102E-04     1.247E-04
X     2.053E+00     2.045E+00    -1.425E+00     5.050E-05     2.596E-04     2.938E-04
X     2.053E+00     2.045E+00    -9.293E-01     9.914E-05     5.092E-04     5.761E-04
X     2.053E+00     2.045E+00    -4.337E-01     1.519E-04     7.792E-04     8.815E-04
X     2.053E+00     2.045E+00     6.196E-02     1.718E-04     8.805E-04     9.961E-04
X     2.053E+00     2.045E+00     5.576E-01     1.405E-04     7.193E-04     8.138E-04
X     2.053E+00     2.045E+00     1.053E+00     8.584E-05     4.394E-04     4.971E-04
X     2.053E+00     2.045E+00     1.549E+00     4.155E-05     2.126E-04     2.405E-04
X     2.053E+00     2.045E+00     2.045E+00     1.695E-05     8.678E-05     9.818E-05
X     2.053E+00     2.045E+00     2.540E+00     5.767E-06     2.957E-05     3.345E-05
X     2.053E+00     2.045E+00     3.036E+00     1.282E-06     6.593E-06     7.460E-06
X     2.053E+00     2.045E+00     3.531E+00     1.808E-08     9.298E-08     1.052E-07
X     2.053E+00     2.045E+00     4.027E+00     0.000E+00     0.000E+00     0.000E+00
X     2.053E+00     2.045E+00     4.523E+00     0.000E+00     0.000E+00     0.000E+00
X     2.053E+00     2.540E+00    -4.895E+00     0.000E+00     0.000E+00     0.000E+00
X     2.053E+00     2.540E+00    -4.399E+00     0.000E+00     0.000E+00     0.000E+00
X     2.053E+00     2.540E+00    -3.903E+00     0.000E+00     0.000E+00     0.000E+00
X     2.053E+00     2.540E+00    -3.408E+00     0.000E+00     0.000E+00     0.000E+00
X     2.053E+00     2.540E+00    -2.912E+00     3.889E-07     2.001E-06     2.264E-06
X     2.053E+00     2.540E+00    -2.416E+00     2.508E-06     1.290E-05     1.460E-05
X     2.053E+00     2.540E+00    -1.921E+00     7.245E-06     3.725E-05     4.215E-05
X     2.053E+00     2.540E+00    -1.425E+00     1.592E-05     8.180E-05     9.255E-05
X     2.053E+00     2.540E+00    -9.293E-01     2.825E-05     1.450E-04     1.641E-04
X     2.053E+00     2.540E+00    -4.337E-01     4.011E-05     2.058E-04     2.328E-04
X     2.053E+00     2.540E+00     6.196E-02     4.431E-05     2.271E-04     2.569E-04
X     2.053E+00     2.540E+00     5.576E-01     3.765E-05     1.928E-04     2.181E-04
X     2.053E+00     2.540E+00     1.053E+00     2.504E-05     1.282E-04     1.451E-04
X     2.053E+00     2.540E+00     1.549E+00     1.338E-05     6.855E-05     7.755E-05
X     2.053E+00     2.540E+00     2.045E+00     5.767E-06     2.957E-05     3.345E-05
X     2.053E+00     2.540E+00     2.540E+00     1.756E-06     9.033E-06     1.022E-05
X     2.053E+00     2.540E+00     3.036E+00     1.687E-07     8.680E-07     9.820E-07
X     2.053E+00     2.540E+00     3.531E+00     0.000E+00     0.000E+00     0.000E+00
X     2.053E+00     2.540E+00     4.027E+00     0.000E+00     0.000E+00     0.000E+00
X     2.053E+00     2.540E+00     4.523E+00     0.000E+00     0.000E+00     0.000E+00
X     2.053E+00     3.036E+00    -4.895E+00     0.000E+00     0.000E+00     0.000E+00
X     2.053E+00     3.036E+00    -4.399E+00     0.000E+00     0.000E+00     0.000E+00
X     2.053E+00     3.036E+00    -3.903E+00     0.000E+00     0.000E+00     0.000E+00
X     2.053E+00     3.036E+00    -3.408E+00     0.000E+00     0.000E+00     0.000E+00
X     2.053E+00     3.036E+00    -2.912E+00     1.894E-12     9.743E-12     1.102E-11
X     2.053E+00     3.036E+00    -2.416E+00     3.449E-07     1.774E-06     2.007E-06
X     2.053E+00     3.036E+00    -1.921E+00     1.756E-06     9.034E-06     1.022E-05
X     2.053E+00     3.036E+00    -1.425E+00     4.289E-06     2.205E-05     2.494E-05
X     2.053E+00     3.036E+00    -9.293E-01     7.466E-06     3.835E-05     4.338E-05
X     2.053E+00     3.036E+00    -4.337E-01     1.027E-05     5.271E-05     5.963E-05
X     2.053E+00     3.036E+00     6.196E-02     1.121E-05     5.752E-05     6.507E-05
X     2.053E+00     3.036E+00     5.576E-01     9.700E-06     4.974E-05     5.627E-05
X     2.053E+00     3.036E+00     1.053E+00     6.663E-06     3.417E-05     3.866E-05
X     2.053E+00     3.036E+00     1.549E+00     3.579E-06     1.837E-05     2.079E-05
X     2.053E+00     3.036E+00     2.045E+00     1.282E-06     6.594E-06     7.460E-06
X     2.053E+00     3.036E+00     2.540E+00     1.687E-07     8.680E-07     9.820E-07
X     2.053E+00     3.036E+00     3.036E+00     0.000E+00     0.000E+00     0.000E+00
X     2.053E+00     3.036E+00     3.531E+00     0.000E+00     0.000E+00     0.000E+00
X     2.053E+00     3.036E+00     4.027E+00     0.000E+00     0.000E+00     0.000E+00
X     2.053E+00     3.036E+00     4.523E+00     0.000E+00     0.000E+00     0.000E+00
X     2.053E+00     3.531E+00    -4.895E+00     0.000E+00     0.000E+00     0.000E+00
X     2.053E+00     3.531E+00    -4.399E+00     0.000E+00     0.000E+00     0.000E+00
X     2.053E+00     3.531E+00    -3.903E+00     0.000E+00     0.000E+00     0.000E+00
X     2.053E+00     3.531E+00    -3.408E+00     0.000E+00     0.000E+00     0.000E+00
X     2.053E+00     3.531E+00    -2.912E+00     0.000E+00     0.000E+00     0.000E+00
X     2.053E+00     3.531E+00    -2.416E+00     0.000E+00     0.000E+00     0.000E+00
X     2.053E+00     3.531E+00    -1.921E+00     7.523E-08     3.870E-07     4.378E-07
X     2.053E+00     3.531E+00    -1.425E+00     5.694E-07     2.929E-06     3.314E-06
X     2.053E+00     3.531E+00    -9.293E-01     1.335E-06     6.867E-06     7.769E-06
X     2.053E+00     3.531E+00    -4.337E-01     2.038E-06     1.048E-05     1.185E-05
X     2.053E+00     3.531E+00     6.196E-02     2.266E-06     1.165E-05     1.318E-05
X     2.053E+00     3.531E+00     5.576E-01     1.893E-06     9.738E-06     1.102E-05
X     2.053E+00     3.531E+00     1.053E+00     1.132E-06     5.826E-06     6.591E-06
X     2.053E+00     3.531E+00     1.549E+00     4.121E-07     2.120E-06     2.398E-06
X     2.053E+00     3.531E+00     2.045E+00     1.808E-08     9.299E-08     1.052E-07
X     2.053E+00     3.531E+00     2.540E+00     0.000E+00     0.000E+00     0.000E+00
X     2.053E+00     3.531E+00     3.036E+00     0.000E+00     0.000E+00     0.000E+00
X     2.053E+00     3.531E+00     3.531E+00     0.000E+00     0.000E+00     0.000E+00
X     2.053E+00     3.531E+00     4.027E+00     0.000E+00     0.000E+00     0.000E+00
X     2.053E+00     3.531E+00     4.523E+00     0.000E+00     0.000E+00     0.000E+00
X     2.053E+00     4.027E+00    -4.895E+00     0.000E+00     0.000E+00     0.000E+00
X     2.053E+00     4.027E+00    -4.399E+00     0.000E+00     0.000E+00     0.000E+00
X     2.053E+00     4.027E+00    -3.903E+00     0.000E+00     0.000E+00     0.000E+00
X     2.053E+00     4.027E+00    -3.408E+00     0.000E+00     0.000E+00     0.000E+00
X     2.053E+00     4.027E+00    -2.912E+00     0.000E+00     0.000E+00     0.000E+00
X     2.053E+00     4.027E+00    -2.416E+00     0.000E+00     0.000E+00     0.000E+00
X     2.053E+00     4.027E+00    -1.921E+00     0.000E+00     0.000E+00     0.000E+00
X     2.053E+00     4.027E+00    -1.425E+00     0.000E+00     0.000E+00     0.000E+00
X     2.053E+00     4.027E+00    -9.293E-01     1.060E-09     5.453E-09     6.168E-09
X     2.053E+00     4.027E+00    -4.337E-01     4.295E-08     2.210E-07     2.499E-07
X     2.053E+00     4.027E+00     6.196E-02     6.630E-08     3.411E-07     3.858E-07
X     2.053E+00     4.027E+00     5.576E-01     2.936E-08     1.510E-07     1.708E-07
X     2.053E+00     4.027E+00     1.053E+00     1.067E-10     5.491E-10     6.212E-10
X     2.053E+00     4.027E+00     1.549E+00     0.000E+00     0.000E+00     0.000E+00
X     2.053E+00     4.027E+00     2.045E+00     0.000E+00     0.000E+00     0.000E+00
X     2.053E+00     4.027E+00     2.540E+00     0.000E+00     0.000E+00     0.000E+00
X     2.053E+00     4.027E+00     3.036E+00     0.000E+00     0.000E+00     0.000E+00
X     2.053E+00     4.027E+00     3.531E+00     0.000E+00     0.000E+00     0.000E+00
X     2.053E+00     4.027E+00     4.027E+00     0.000E+00     0.000E+00     0.000E+00
X     2.053E+00     4.027E+00     4.523E+00     0.000E+00     0.000E+00     0.000E+00
X     2.053E+00     4.523E+00    -4.895E+00     0.000E+00     0.000E+00     0.000E+00
X     2.053E+00     4.523E+00    -4.399E+00     0.000E+00     0.000E+00     0.000E+00
X     2.053E+00     4.523E+00    -3.903E+00     0.000E+00     0.000E+00     0.000E+00
X     2.053E+00     4.523E+00    -3.408E+00     0.000E+00     0.000E+00     0.000E+00
X     2.053E+00     4.523E+00    -2.912E+00     0.000E+00     0.000E+00     0.000E+00
X     2.053E+00     4.523E+00    -2.416E+00     0.000E+00     0.000E+00     0.000E+00
X     2.053E+00     4.523E+00    -1.921E+00     0.000E+00     0.000E+00     0.000E+00
X     2.053E+00     4.523E+00    -1.425E+00     0.000E+00     0.000E+00     0.000E+00
X     2.053E+00     4.523E+00    -9.293E-01     0.000E+00     0.000E+00     0.000E+00
X     2.053E+00     4.523E+00    -4.337E-01     0.000E+00     0.000E+00     0.000E+00
X     2.053E+00     4.523E+00     6.196E-02     0.000E+00     0.000E+00     0.000E+00
X     2.053E+00     4.523E+00     5.576E-01     0.000E+00     0.000E+00     0.000E+00
X     2.053E+00     4.523E+00     1.053E+00     0.000E+00     0.000E+00     0.000E+00
X     2.053E+00     4.523E+00     1.549E+00     0.000E+00     0.000E+00     0.000E+00
X     2.053E+00     4.523E+00     2.045E+00     0.000E+00     0.000E+00     0.000E+00
X     2.053E+00     4.523E+00     2.540E+00     0.000E+00     0.000E+00     0.000E+00
X     2.053E+00     4.523E+00     3.036E+00     0.000E+00     0.000E+00     0.000E+00
X     2.053E+00     4.523E+00     3.531E+00     0.000E+00     0.000E+00     0.000E+00
X     2.053E+00     4.523E+00     4.027E+00     0.000E+00     0.000E+00     0.000E+00
X     2.053E+00     4.523E+00     4.523E+00     0.000E+00     0.000E+00     0.000E+00
X     2.549E+00    -4.895E+00    -4.895E+00     0.000E+00     0.000E+00     0.000E+00
X     2.549E+00    -4.895E+00    -4.399E+00     0.000E+00     0.000E+00     0.000E+00
X     2.549E+00    -4.895E+00    -3.903E+00     0.000E+00     0.000E+00     0.000E+00
X     2.549E+00    -4.895E+00    -3.408E+00     0.000E+00     0.000E+00     0.000E+00
X     2.549E+00    -4.895E+00    -2.912E+00     0.000E+00     0.000E+00     0.000E+00
X     2.549E+00    -4.895E+00    -2.416E+00     0.000E+00     0.000E+00     0.000E+00
X     2.549E+00    -4.895E+00    -1.921E+00     0.000E+00     0.000E+00     0.000E+00
X     2.549E+00    -4.895E+00    -1.425E+00     0.000E+00     0.000E+00     0.000E+00
X     2.549E+00    -4.895E+00    -9.293E-01     0.000E+00     0.000E+00     0.000E+00
X     2.549E+00    -4.895E+00    -4.337E-01     0.000E+00     0.000E+00     0.000E+00
X     2.549E+00    -4.895E+00     6.196E-02     0.000E+00     0.000E+00     0.000E+00
X     2.549E+00    -4.895E+00     5.576E-01     0.000E+00     0.000E+00     0.000E+00
X     2.549E+00    -4.895E+00     1.053E+00     0.000E+00     0.000E+00     0.000E+00
X     2.549E+00    -4.895E+00     1.549E+00     0.000E+00     0.000E+00     0.000E+00
X     2.549E+00    -4.895E+00     2.045E+00     0.000E+00     0.000E+00     0.000E+00
X     2.549E+00    -4.895E+00     2.540E+00     0.000E+00     0.000E+00     0.000E+00
X     2.549E+00    -4.895E+00     3.036E+00     0.000E+00     0.000E+00     0.000E+00
X     2.549E+00    -4.895E+00     3.531E+00     0.000E+00     0.000E+00     0.000E+00
X     2.549E+00    -4.895E+00     4.027E+00     0.000E+00     0.000E+00     0.000E+00
X     2.549E+00    -4.895E+00     4.523E+00     0.000E+00     0.000E+00     0.000E+00
X     2.549E+00    -4.399E+00    -4.895E+00     0.000E+00     0.000E+00     0.000E+00
X     2.549E+00    -4.399E+00    -4.399E+00     0.000E+00     0.000E+00     0.000E+00
X     2.549E+00    -4.399E+00    -3.903E+00     0.000E+00     0.000E+00     0.000E+00
X     2.549E+00    -4.399E+00    -3.408E+00     0.000E+00     0.000E+00     0.000E+00
X     2.549E+00    -4.399E+00    -2.912E+00     0.000E+00     0.000E+00     0.000E+00
X     2.549E+00    -4.399E+00    -2.416E+00     0.000E+00     0.000E+00     0.000E+00
X     2.549E+00    -4.399E+00    -1.921E+00     0.000E+00     0.000E+00     0.000E+00
X     2.549E+00    -4.399E+00    -1.425E+00     0.000E+00     0.000E+00     0.000E+00
X     2.549E+00    -4.399E+00    -9.293E-01     0.000E+00     0.000E+00     0.000E+00
X     2.549E+00    -4.399E+00    -4.337E-01     0.000E+00     0.000E+00     0.000E+00
X     2.549E+00    -4.399E+00     6.196E-02     0.000E+00     0.000E+00     0.000E+00
X     2.549E+00    -4.399E+00     5.576E-01     0.000E+00     0.000E+00     0.000E+00
X     2.549E+00    -4.399E+00     1.053E+00     0.000E+00     0.000E+00     0.000E+00
X     2.549E+00    -4.399E+00     1.549E+00     0.000E+00     0.000E+00     0.000E+00
X     2.549E+00    -4.399E+00     2.045E+00     0.000E+00     0.000E+00     0.000E+00
X     2.549E+00    -4.399E+00     2.540E+00     0.000E+00     0.000E+00     0.000E+00
X     2.549E+00    -4.399E+00     3.036E+00     0.000E+00     0.000E+00     0.000E+00
X     2.549E+00    -4.399E+00     3.531E+00     0.000E+00     0.000E+00     0.000E+00
X     2.549E+00    -4.399E+00     4.027E+00     0.000E+00     0.000E+00     0.000E+00
X     2.549E+00    -4.399E+00     4.523E+00     0.000E+00     0.000E+00     0.000E+00
X     2.549E+00    -3.903E+00    -4.895E+00     0.000E+00     0.000E+00     0.000E+00
X     2.549E+00    -3.903E+00    -4.399E+00     0.000E+00     0.000E+00     0.000E+00
X     2.549E+00    -3.903E+00    -3.903E+00     0.000E+00     0.000E+00     0.000E+00
X     2.549E+00    -3.903E+00    -3.408E+00     0.000E+00     0.000E+00     0.000E+00
X     2.549E+00    -3.903E+00    -2.912E+00     0.000E+00     0.000E+00     0.000E+00
X     2.549E+00    -3.903E+00    -2.416E+00     0.000E+00     0.000E+00     0.000E+00
X     2.549E+00    -3.903E+00    -1.921E+00     0.000E+00     0.000E+00     0.000E+00
X     2.549E+00    -3.903E+00    -1.425E+00     1.269E-11     6.535E-11     7.393E-11
X     2.549E+00    -3.903E+00    -9.293E-01     4.371E-08     2.251E-07     2.546E-07
X     2.549E+00    -3.903E+00    -4.337E-01     1.559E-07     8.025E-07     9.078E-07
X     2.549E+00    -3.903E+00     6.196E-02     1.995E-07     1.027E-06     1.162E-06
X     2.549E+00    -3.903E+00     5.576E-01     1.300E-07     6.692E-07     7.570E-07
X     2.549E+00    -3.903E+00     1.053E+00     1.868E-08     9.615E-08     1.088E-07
X     2.549E+00    -3.903E+00     1.549E+00     0.000E+00     0.000E+00     0.000E+00
X     2.549E+00    -3.903E+00     2.045E+00     0.000E+00     0.000E+00     0.000E+00
X     2.549E+00    -3.903E+00     2.540E+00     0.000E+00     0.000E+00     0.000E+00
X     2.549E+00    -3.903E+00     3.036E+00     0.000E+00     0.000E+00     0.000E+00
X     2.549E+00    -3.903E+00     3.531E+00     0.000E+00     0.000E+00     0.000E+00
X     2.549E+00    -3.903E+00     4.027E+00     0.000E+00     0.000E+00     0.000E+00
X     2.549E+00    -3.903E+00     4.523E+00     0.000E+00     0.000E+00     0.000E+00
X     2.549E+00    -3.408E+00    -4.895E+00     0.000E+00     0.000E+00     0.000E+00
X     2.549E+00    -3.408E+00    -4.399E+00     0.000E+00     0.000E+00     0.000E+00
X     2.549E+00    -3.408E+00    -3.903E+00     0.000E+00     0.000E+00     0.000E+00
X     2.549E+00    -3.408E+00    -3.408E+00     0.000E+00     0.000E+00     0.000E+00
X     2.549E+00    -3.408E+00    -2.912E+00     0.000E+00     0.000E+00     0.000E+00
X     2.549E+00    -3.408E+00    -2.416E+00     3.304E-14     1.702E-13     1.925E-13
X     2.549E+00    -3.408E+00    -1.921E+00     1.842E-07     9.489E-07     1.073E-06
X     2.549E+00    -3.408E+00    -1.425E+00     8.731E-07     4.497E-06     5.088E-06
X     2.549E+00    -3.408E+00    -9.293E-01     1.891E-06     9.738E-06     1.102E-05
X     2.549E+00    -3.408E+00    -4.337E-01     2.809E-06     1.447E-05     1.636E-05
X     2.549E+00    -3.408E+00     6.196E-02     3.113E-06     1.603E-05     1.813E-05
X     2.549E+00    -3.408E+00     5.576E-01     2.621E-06     1.349E-05     1.526E-05
X     2.549E+00    -3.408E+00     1.053E+00     1.625E-06     8.364E-06     9.461E-06
X     2.549E+00    -3.408E+00     1.549E+00     6.618E-07     3.406E-06     3.853E-06
X     2.549E+00    -3.408E+00     2.045E+00     8.572E-08     4.411E-07     4.989E-07
X     2.549E+00    -3.408E+00     2.540E+00     0.000E+00     0.000E+00     0.000E+00
X     2.549E+00    -3.408E+00     3.036E+00     0.000E+00     0.000E+00     0.000E+00
X     2.549E+00    -3.408E+00     3.531E+00     0.000E+00     0.000E+00     0.000E+00
X     2.549E+00    -3.408E+00     4.027E+00     0.000E+00     0.000E+00     0.000E+00
X     2.549E+00    -3.408E+00     4.523E+00     0.000E+00     0.000E+00     0.000E+00
X     2.549E+00    -2.912E+00    -4.895E+00     0.000E+00     0.000E+00     0.000E+00
X     2.549E+00    -2.912E+00    -4.399E+00     0.000E+00     0.000E+00     0.000E+00
X     2.549E+00    -2.912E+00    -3.903E+00     0.000E+00     0.000E+00     0.000E+00
X     2.549E+00    -2.912E+00    -3.408E+00     0.000E+00     0.000E+00     0.000E+00
X     2.549E+00    -2.912E+00    -2.912E+00     2.087E-10     1.075E-09     1.216E-09
X     2.549E+00    -2.912E+00    -2.416E+00     5.136E-07     2.646E-06     2.993E-06
X     2.549E+00    -2.912E+00    -1.921E+00     2.272E-06     1.170E-05     1.324E-05
X     2.549E+00    -2.912E+00    -1.425E+00     5.555E-06     2.863E-05     3.238E-05
X     2.549E+00    -2.912E+00    -9.293E-01     9.781E-06     5.044E-05     5.706E-05
X     2.549E+00    -2.912E+00    -4.337E-01     1.352E-05     6.973E-05     7.887E-05
X     2.549E+00    -2.912E+00     6.196E-02     1.477E-05     7.618E-05     8.617E-05
X     2.549E+00    -2.912E+00     5.576E-01     1.276E-05     6.574E-05     7.435E-05
X     2.549E+00    -2.912E+00     1.053E+00     8.708E-06     4.484E-05     5.073E-05
X     2.549E+00    -2.912E+00     1.549E+00     4.612E-06     2.373E-05     2.685E-05
X     2.549E+00    -2.912E+00     2.045E+00     1.689E-06     8.692E-06     9.833E-06
X     2.549E+00    -2.912E+00     2.540E+00     2.857E-07     1.470E-06     1.663E-06
X     2.549E+00    -2.912E+00     3.036E+00     0.000E+00     0.000E+00     0.000E+00
X     2.549E+00    -2.912E+00     3.531E+00     0.000E+00     0.000E+00     0.000E+00
X     2.549E+00    -2.912E+00     4.027E+00     0.000E+00     0.000E+00     0.000E+00
X     2.549E+00    -2.912E+00     4.523E+00     0.000E+00     0.000E+00     0.000E+00
X     2.549E+00    -2.416E+00    -4.895E+00     0.000E+00     0.000E+00     0.000E+00
X     2.549E+00    -2.416E+00    -4.399E+00     0.000E+00     0.000E+00     0.000E+00
X     2.549E+00    -2.416E+00    -3.903E+00     0.000E+00     0.000E+00     0.000E+00
X     2.549E+00    -2.416E+00    -3.408E+00     3.304E-14     1.702E-13     1.925E-13
X     2.549E+00    -2.416E+00    -2.912E+00     5.136E-07     2.646E-06     2.993E-06
X     2.549E+00    -2.416E+00    -2.416E+00     3.007E-06     1.549E-05     1.753E-05
X     2.549E+00    -2.416E+00    -1.921E+00     8.953E-06     4.618E-05     5.224E-05
X     2.549E+00    -2.416E+00    -1.425E+00     1.985E-05     1.025E-04     1.159E-04
X     2.549E+00    -2.416E+00    -9.293E-01     3.533E-05     1.825E-04     2.064E-04
X     2.549E+00    -2.416E+00    -4.337E-01     5.027E-05     2.596E-04     2.936E-04
X     2.549E+00    -2.416E+00     6.196E-02     5.554E-05     2.866E-04     3.242E-04
X     2.549E+00    -2.416E+00     5.576E-01     4.716E-05     2.431E-04     2.750E-04
X     2.549E+00    -2.416E+00     1.053E+00     3.129E-05     1.612E-04     1.823E-04
X     2.549E+00    -2.416E+00     1.549E+00     1.666E-05     8.575E-05     9.700E-05
X     2.549E+00    -2.416E+00     2.045E+00     7.086E-06     3.646E-05     4.124E-05
X     2.549E+00    -2.416E+00     2.540E+00     2.116E-06     1.088E-05     1.231E-05
X     2.549E+00    -2.416E+00     3.036E+00     2.492E-07     1.282E-06     1.450E-06
X     2.549E+00    -2.416E+00     3.531E+00     0.000E+00     0.000E+00     0.000E+00
X     2.549E+00    -2.416E+00     4.027E+00     0.000E+00     0.000E+00     0.000E+00
X     2.549E+00    -2.416E+00     4.523E+00     0.000E+00     0.000E+00     0.000E+00
X     2.549E+00    -1.921E+00    -4.895E+00     0.000E+00     0.000E+00     0.000E+00
X     2.549E+00    -1.921E+00    -4.399E+00     0.000E+00     0.000E+00     0.000E+00
X     2.549E+00    -1.921E+00    -3.903E+00     0.000E+00     0.000E+00     0.000E+00
X     2.549E+00    -1.921E+00    -3.408E+00     1.842E-07     9.488E-07     1.074E-06
X     2.549E+00    -1.921E+00    -2.912E+00     2.272E-06     1.170E-05     1.324E-05
X     2.549E+00    -1.921E+00    -2.416E+00     8.952E-06     4.618E-05     5.225E-05
X     2.549E+00    -1.921E+00    -1.921E+00     2.521E-05     1.302E-04     1.473E-04
X     2.549E+00    -1.921E+00    -1.425E+00     5.929E-05     3.064E-04     3.467E-04
X     2.549E+00    -1.921E+00    -9.293E-01     1.158E-04     5.987E-04     6.773E-04
X     2.549E+00    -1.921E+00    -4.337E-01     1.771E-04     9.154E-04     1.035E-03
X     2.549E+00    -1.921E+00     6.196E-02     2.003E-04     1.034E-03     1.170E-03
X     2.549E+00    -1.921E+00     5.576E-01     1.639E-04     8.452E-04     9.559E-04
X     2.549E+00    -1.921E+00     1.053E+00     1.004E-04     5.171E-04     5.849E-04
X     2.549E+00    -1.921E+00     1.549E+00     4.881E-05     2.512E-04     2.841E-04
X     2.549E+00    -1.921E+00     2.045E+00     1.992E-05     1.025E-04     1.159E-04
X     2.549E+00    -1.921E+00     2.540E+00     6.679E-06     3.434E-05     3.885E-05
X     2.549E+00    -1.921E+00     3.036E+00     1.446E-06     7.437E-06     8.415E-06
X     2.549E+00    -1.921E+00     3.531E+00     3.674E-08     1.889E-07     2.138E-07
X     2.549E+00    -1.921E+00     4.027E+00     0.000E+00     0.000E+00     0.000E+00
X     2.549E+00    -1.921E+00     4.523E+00     0.000E+00     0.000E+00     0.000E+00
X     2.549E+00    -1.425E+00    -4.895E+00     0.000E+00     0.000E+00     0.000E+00
X     2.549E+00    -1.425E+00    -4.399E+00     0.000E+00     0.000E+00     0.000E+00
X     2.549E+00    -1.425E+00    -3.903E+00     1.269E-11     6.534E-11     7.393E-11
X     2.549E+00    -1.425E+00    -3.408E+00     8.731E-07     4.497E-06     5.088E-06
X     2.549E+00    -1.425E+00    -2.912E+00     5.555E-06     2.862E-05     3.239E-05
X     2.549E+00    -1.425E+00    -2.416E+00     1.984E-05     1.025E-04     1.159E-04
X     2.549E+00    -1.425E+00    -1.921E+00     5.929E-05     3.064E-04     3.467E-04
X     2.549E+00    -1.425E+00    -1.425E+00     1.571E-04     8.124E-04     9.191E-04
X     2.549E+00    -1.425E+00    -9.293E-01     3.525E-04     1.824E-03     2.063E-03
X     2.549E+00    -1.425E+00    -4.337E-01     6.071E-04     3.141E-03     3.552E-03
X     2.549E+00    -1.425E+00     6.196E-02     7.154E-04     3.697E-03     4.181E-03
X     2.549E+00    -1.425E+00     5.576E-01     5.486E-04     2.829E-03     3.200E-03
X     2.549E+00    -1.425E+00     1.053E+00     2.954E-04     1.521E-03     1.720E-03
X     2.549E+00    -1.425E+00     1.549E+00     1.255E-04     6.452E-04     7.299E-04
X     2.549E+00    -1.425E+00     2.045E+00     4.579E-05     2.353E-04     2.662E-04
X     2.549E+00    -1.425E+00     2.540E+00     1.482E-05     7.617E-05     8.618E-05
X     2.549E+00    -1.425E+00     3.036E+00     3.806E-06     1.957E-05     2.214E-05
X     2.549E+00    -1.425E+00     3.531E+00     4.374E-07     2.249E-06     2.545E-06
X     2.549E+00    -1.425E+00     4.027E+00     0.000E+00     0.000E+00     0.000E+00
X     2.549E+00    -1.425E+00     4.523E+00     0.000E+00     0.000E+00     0.000E+00
X     2.549E+00    -9.293E-01    -4.895E+00     0.000E+00     0.000E+00     0.000E+00
X     2.549E+00    -9.293E-01    -4.399E+00     0.000E+00     0.000E+00     0.000E+00
X     2.549E+00    -9.293E-01    -3.903E+00     4.371E-08     2.251E-07     2.547E-07
X     2.549E+00    -9.293E-01    -3.408E+00     1.890E-06     9.736E-06     1.102E-05
X     2.549E+00    -9.293E-01    -2.912E+00     9.779E-06     5.043E-05     5.707E-05
X     2.549E+00    -9.293E-01    -2.416E+00     3.533E-05     1.825E-04     2.065E-04
X     2.549E+00    -9.293E-01    -1.921E+00     1.158E-04     5.987E-04     6.774E-04
X     2.549E+00    -9.293E-01    -1.425E+00     3.525E-04     1.824E-03     2.063E-03
X     2.549E+00    -9.293E-01    -9.293E-01     9.547E-04     4.946E-03     5.596E-03
X     2.549E+00    -9.293E-01    -4.337E-01     2.070E-03     1.073E-02     1.214E-02
X     2.549E+00    -9.293E-01     6.196E-02     2.701E-03     1.397E-02     1.580E-02
X     2.549E+00    -9.293E-01     5.576E-01     1.775E-03     9.145E-03     1.034E-02
X     2.549E+00    -9.293E-01     1.053E+00     7.605E-04     3.909E-03     4.423E-03
X     2.549E+00    -9.293E-01     1.549E+00     2.710E-04     1.392E-03     1.575E-03
X     2.549E+00    -9.293E-01     2.045E+00     8.724E-05     4.479E-04     5.068E-04
X     2.549E+00    -9.293E-01     2.540E+00     2.614E-05     1.342E-04     1.518E-04
X     2.549E+00    -9.293E-01     3.036E+00     6.885E-06     3.538E-05     4.004E-05
X     2.549E+00    -9.293E-01     3.531E+00     1.087E-06     5.587E-06     6.322E-06
X     2.549E+00    -9.293E-01     4.027E+00     6.438E-11     3.310E-10     3.745E-10
X     2.549E+00    -9.293E-01     4.523E+00     0.000E+00     0.000E+00     0.000E+00
X     2.549E+00    -4.337E-01    -4.895E+00     0.000E+00     0.000E+00     0.000E+00
X     2.549E+00    -4.337E-01    -4.399E+00     0.000E+00     0.000E+00     0.000E+00
X     2.549E+00    -4.337E-01    -3.903E+00     1.558E-07     8.024E-07     9.080E-07
X     2.549E+00    -4.337E-01    -3.408E+00     2.808E-06     1.446E-05     1.637E-05
X     2.549E+00    -4.337E-01    -2.912E+00     1.351E-05     6.971E-05     7.888E-05
X     2.549E+00    -4.337E-01    -2.416E+00     5.025E-05     2.595E-04     2.937E-04
X     2.549E+00    -4.337E-01    -1.921E+00     1.771E-04     9.151E-04     1.036E-03
X     2.549E+00    -4.337E-01    -1.425E+00     6.068E-04     3.140E-03     3.553E-03
X     2.549E+00    -4.337E-01    -9.293E-01     2.070E-03     1.073E-02     1.214E-02
X     2.549E+00    -4.337E-01    -4.337E-01     6.812E-03     3.524E-02     3.987E-02
X     2.549E+00    -4.337E-01     6.196E-02     1.124E-02     5.784E-02     6.544E-02
X     2.549E+00    -4.337E-01     5.576E-01     5.219E-03     2.681E-02     3.033E-02
X     2.549E+00    -4.337E-01     1.053E+00     1.535E-03     7.870E-03     8.905E-03
X     2.549E+00    -4.337E-01     1.549E+00     4.512E-04     2.313E-03     2.618E-03
X     2.549E+00    -4.337E-01     2.045E+00     1.306E-04     6.698E-04     7.579E-04
X     2.549E+00    -4.337E-01     2.540E+00     3.669E-05     1.882E-04     2.130E-04
X     2.549E+00    -4.337E-01     3.036E+00     9.536E-06     4.897E-05     5.541E-05
X     2.549E+00    -4.337E-01     3.531E+00     1.691E-06     8.690E-06     9.834E-06
X     2.549E+00    -4.337E-01     4.027E+00     1.408E-08     7.239E-08     8.192E-08
X     2.549E+00    -4.337E-01     4.523E+00     0.000E+00     0.000E+00     0.000E+00
X     2.549E+00     6.196E-02    -4.895E+00     0.000E+00     0.000E+00     0.000E+00
X     2.549E+00     6.196E-02    -4.399E+00     0.000E+00     0.000E+00     0.000E+00
X     2.549E+00     6.196E-02    -3.903E+00     1.994E-07     1.027E-06     1.162E-06
X     2.549E+00     6.196E-02    -3.408E+00     3.113E-06     1.603E-05     1.814E-05
X     2.549E+00     6.196E-02    -2.912E+00     1.477E-05     7.616E-05     8.619E-05
X     2.549E+00     6.196E-02    -2.416E+00     5.552E-05     2.865E-04     3.243E-04
X     2.549E+00     6.196E-02    -1.921E+00     2.002E-04     1.034E-03     1.170E-03
X     2.549E+00     6.196E-02    -1.425E+00     7.150E-04     3.695E-03     4.182E-03
X     2.549E+00     6.196E-02    -9.293E-01     2.699E-03     1.396E-02     1.580E-02
X     2.549E+00     6.196E-02    -4.337E-01     1.124E-02     5.784E-02     6.545E-02
X     2.549E+00     6.196E-02     6.196E-02     2.304E-02     1.189E-01     1.345E-01
X     2.549E+00     6.196E-02     5.576E-01     8.001E-03     4.101E-02     4.640E-02
X     2.549E+00     6.196E-02     1.053E+00     1.934E-03     9.888E-03     1.119E-02
X     2.549E+00     6.196E-02     1.549E+00     5.247E-04     2.687E-03     3.040E-03
X     2.549E+00     6.196E-02     2.045E+00     1.466E-04     7.513E-04     8.501E-04
X     2.549E+00     6.196E-02     2.540E+00     4.036E-05     2.070E-04     2.342E-04
X     2.549E+00     6.196E-02     3.036E+00     1.042E-05     5.348E-05     6.052E-05
X     2.549E+00     6.196E-02     3.531E+00     1.894E-06     9.736E-06     1.102E-05
X     2.549E+00     6.196E-02     4.027E+00     3.013E-08     1.549E-07     1.752E-07
X     2.549E+00     6.196E-02     4.523E+00     0.000E+00     0.000E+00     0.000E+00
X     2.549E+00     5.576E-01    -4.895E+00     0.000E+00     0.000E+00     0.000E+00
X     2.549E+00     5.576E-01    -4.399E+00     0.000E+00     0.000E+00     0.000E+00
X     2.549E+00     5.576E-01    -3.903E+00     1.300E-07     6.691E-07     7.571E-07
X     2.549E+00     5.576E-01    -3.408E+00     2.620E-06     1.349E-05     1.527E-05
X     2.549E+00     5.576E-01    -2.912E+00     1.275E-05     6.572E-05     7.437E-05
X     2.549E+00     5.576E-01    -2.416E+00     4.713E-05     2.431E-04     2.751E-04
X     2.549E+00     5.576E-01    -1.921E+00     1.638E-04     8.449E-04     9.562E-04
X     2.549E+00     5.576E-01    -1.425E+00     5.482E-04     2.828E-03     3.201E-03
X     2.549E+00     5.576E-01    -9.293E-01     1.773E-03     9.141E-03     1.035E-02
X     2.549E+00     5.576E-01    -4.337E-01     5.215E-03     2.681E-02     3.034E-02
X     2.549E+00     5.576E-01     6.196E-02     7.998E-03     4.101E-02     4.640E-02
X     2.549E+00     5.576E-01     5.576E-01     4.125E-03     2.107E-02     2.384E-02
X     2.549E+00     5.576E-01     1.053E+00     1.337E-03     6.833E-03     7.731E-03
X     2.549E+00     5.576E-01     1.549E+00     4.104E-04     2.100E-03     2.376E-03
X     2.549E+00     5.576E-01     2.045E+00     1.213E-04     6.213E-04     7.030E-04
X     2.549E+00     5.576E-01     2.540E+00     3.450E-05     1.768E-04     2.001E-04
X     2.549E+00     5.576E-01     3.036E+00     8.994E-06     4.617E-05     5.224E-05
X     2.549E+00     5.576E-01     3.531E+00     1.565E-06     8.044E-06     9.102E-06
X     2.549E+00     5.576E-01     4.027E+00     7.176E-09     3.688E-08     4.173E-08
X     2.549E+00     5.576E-01     4.523E+00     0.000E+00     0.000E+00     0.000E+00
X     2.549E+00     1.053E+00    -4.895E+00     0.000E+00     0.000E+00     0.000E+00
X     2.549E+00     1.053E+00    -4.399E+00     0.000E+00     0.000E+00     0.000E+00
X     2.549E+00     1.053E+00    -3.903E+00     1.868E-08     9.613E-08     1.088E-07
X     2.549E+00     1.053E+00    -3.408E+00     1.625E-06     8.362E-06     9.463E-06
X     2.549E+00     1.053E+00    -2.912E+00     8.705E-06     4.483E-05     5.074E-05
X     2.549E+00     1.053E+00    -2.416E+00     3.128E-05     1.611E-04     1.824E-04
X     2.549E+00     1.053E+00    -1.921E+00     1.003E-04     5.169E-04     5.850E-04
X     2.549E+00     1.053E+00    -1.425E+00     2.952E-04     1.520E-03     1.721E-03
X     2.549E+00     1.053E+00    -9.293E-01     7.599E-04     3.909E-03     4.423E-03
X     2.549E+00     1.053E+00    -4.337E-01     1.534E-03     7.871E-03     8.905E-03
X     2.549E+00     1.053E+00     6.196E-02     1.933E-03     9.889E-03     1.119E-02
X     2.549E+00     1.053E+00     5.576E-01     1.337E-03     6.833E-03     7.731E-03
X     2.549E+00     1.053E+00     1.053E+00     6.140E-04     3.140E-03     3.552E-03
X     2.549E+00     1.053E+00     1.549E+00     2.290E-04     1.172E-03     1.326E-03
X     2.549E+00     1.053E+00     2.045E+00     7.599E-05     3.892E-04     4.403E-04
X     2.549E+00     1.053E+00     2.540E+00     2.320E-05     1.190E-04     1.346E-04
X     2.549E+00     1.053E+00     3.036E+00     6.107E-06     3.137E-05     3.549E-05
X     2.549E+00     1.053E+00     3.531E+00     9.148E-07     4.701E-06     5.319E-06
X     2.549E+00     1.053E+00     4.027E+00     6.760E-12     3.475E-11     3.932E-11
X     2.549E+00     1.053E+00     4.523E+00     0.000E+00     0.000E+00     0.000E+00
X     2.549E+00     1.549E+00    -4.895E+00     0.000E+00     0.000E+00     0.000E+00
X     2.549E+00     1.549E+00    -4.399E+00     0.000E+00     0.000E+00     0.000E+00
X     2.549E+00     1.549E+00    -3.903E+00     0.000E+00     0.000E+00     0.000E+00
X     2.549E+00     1.549E+00    -3.408E+00     6.617E-07     3.405E-06     3.853E-06
X     2.549E+00     1.549E+00    -2.912E+00     4.611E-06     2.373E-05     2.685E-05
X     2.549E+00     1.549E+00    -2.416E+00     1.665E-05     8.573E-05     9.701E-05
X     2.549E+00     1.549E+00    -1.921E+00     4.879E-05     2.511E-04     2.842E-04
X     2.549E+00     1.549E+00    -1.425E+00     1.254E-04     6.451E-04     7.300E-04
X     2.549E+00     1.549E+00    -9.293E-01     2.709E-04     1.392E-03     1.575E-03
X     2.549E+00     1.549E+00    -4.337E-01     4.509E-04     2.314E-03     2.618E-03
X     2.549E+00     1.549E+00     6.196E-02     5.245E-04     2.687E-03     3.040E-03
X     2.549E+00     1.549E+00     5.576E-01     4.103E-04     2.100E-03     2.376E-03
X     2.549E+00     1.549E+00     1.053E+00     2.289E-04     1.172E-03     1.326E-03
X     2.549E+00     1.549E+00     1.549E+00     1.010E-04     5.169E-04     5.848E-04
X     2.549E+00     1.549E+00     2.045E+00     3.792E-05     1.943E-04     2.198E-04
X     2.549E+00     1.549E+00     2.540E+00     1.244E-05     6.381E-05     7.220E-05
X     2.549E+00     1.549E+00     3.036E+00     3.119E-06     1.603E-05     1.813E-05
X     2.549E+00     1.549E+00     3.531E+00     3.053E-07     1.569E-06     1.775E-06
X     2.549E+00     1.549E+00     4.027E+00     0.000E+00     0.000E+00     0.000E+00
X     2.549E+00     1.549E+00     4.523E+00     0.000E+00     0.000E+00     0.000E+00
X     2.549E+00     2.045E+00    -4.895E+00     0.000E+00     0.000E+00     0.000E+00
X     2.549E+00     2.045E+00    -4.399E+00     0.000E+00     0.000E+00     0.000E+00
X     2.549E+00     2.045E+00    -3.903E+00     0.000E+00     0.000E+00     0.000E+00
X     2.549E+00     2.045E+00    -3.408E+00     8.570E-08     4.410E-07     4.990E-07
X     2.549E+00     2.045E+00    -2.912E+00     1.689E-06     8.691E-06     9.834E-06
X     2.549E+00     2.045E+00    -2.416E+00     7.084E-06     3.645E-05     4.125E-05
X     2.549E+00     2.045E+00    -1.921E+00     1.992E-05     1.025E-04     1.159E-04
X     2.549E+00     2.045E+00    -1.425E+00     4.577E-05     2.353E-04     2.663E-04
X     2.549E+00     2.045E+00    -9.293E-01     8.719E-05     4.479E-04     5.068E-04
X     2.549E+00     2.045E+00    -4.337E-01     1.305E-04     6.699E-04     7.579E-04
X     2.549E+00     2.045E+00     6.196E-02     1.466E-04     7.514E-04     8.501E-04
X     2.549E+00     2.045E+00     5.576E-01     1.213E-04     6.214E-04     7.030E-04
X     2.549E+00     2.045E+00     1.053E+00     7.597E-05     3.892E-04     4.403E-04
X     2.549E+00     2.045E+00     1.549E+00     3.791E-05     1.943E-04     2.198E-04
X     2.549E+00     2.045E+00     2.045E+00     1.576E-05     8.080E-05     9.142E-05
X     2.549E+00     2.045E+00     2.540E+00     5.236E-06     2.690E-05     3.044E-05
X     2.549E+00     2.045E+00     3.036E+00     1.042E-06     5.355E-06     6.059E-06
X     2.549E+00     2.045E+00     3.531E+00     3.095E-09     1.590E-08     1.800E-08
X     2.549E+00     2.045E+00     4.027E+00     0.000E+00     0.000E+00     0.000E+00
X     2.549E+00     2.045E+00     4.523E+00     0.000E+00     0.000E+00     0.000E+00
X     2.549E+00     2.540E+00    -4.895E+00     0.000E+00     0.000E+00     0.000E+00
X     2.549E+00     2.540E+00    -4.399E+00     0.000E+00     0.000E+00     0.000E+00
X     2.549E+00     2.540E+00    -3.903E+00     0.000E+00     0.000E+00     0.000E+00
X     2.549E+00     2.540E+00    -3.408E+00     0.000E+00     0.000E+00     0.000E+00
X     2.549E+00     2.540E+00    -2.912E+00     2.856E-07     1.469E-06     1.663E-06
X     2.549E+00     2.540E+00    -2.416E+00     2.115E-06     1.088E-05     1.231E-05
X     2.549E+00     2.540E+00    -1.921E+00     6.677E-06     3.434E-05     3.885E-05
X     2.549E+00     2.540E+00    -1.425E+00     1.482E-05     7.617E-05     8.618E-05
X     2.549E+00     2.540E+00    -9.293E-01     2.612E-05     1.342E-04     1.518E-04
X     2.549E+00     2.540E+00    -4.337E-01     3.668E-05     1.883E-04     2.130E-04
X     2.549E+00     2.540E+00     6.196E-02     4.035E-05     2.070E-04     2.342E-04
X     2.549E+00     2.540E+00     5.576E-01     3.449E-05     1.769E-04     2.001E-04
X     2.549E+00     2.540E+00     1.053E+00     2.320E-05     1.190E-04     1.346E-04
X     2.549E+00     2.540E+00     1.549E+00     1.244E-05     6.381E-05     7.220E-05
X     2.549E+00     2.540E+00     2.045E+00     5.236E-06     2.690E-05     3.044E-05
X     2.549E+00     2.540E+00     2.540E+00     1.447E-06     7.437E-06     8.414E-06
X     2.549E+00     2.540E+00     3.036E+00     1.068E-07     5.487E-07     6.208E-07
X     2.549E+00     2.540E+00     3.531E+00     0.000E+00     0.000E+00     0.000E+00
X     2.549E+00     2.540E+00     4.027E+00     0.000E+00     0.000E+00     0.000E+00
X     2.549E+00     2.540E+00     4.523E+00     0.000E+00     0.000E+00     0.000E+00
X     2.549E+00     3.036E+00    -4.895E+00     0.000E+00     0.000E+00     0.000E+00
X     2.549E+00     3.036E+00    -4.399E+00     0.000E+00     0.000E+00     0.000E+00
X     2.549E+00     3.036E+00    -3.903E+00     0.000E+00     0.000E+00     0.000E+00
X     2.549E+00     3.036E+00    -3.408E+00     0.000E+00     0.000E+00     0.000E+00
X     2.549E+00     3.036E+00    -2.912E+00     0.000E+00     0.000E+00     0.000E+00
X     2.549E+00     3.036E+00    -2.416E+00     2.492E-07     1.282E-06     1.450E-06
X     2.549E+00     3.036E+00    -1.921E+00     1.446E-06     7.437E-06     8.414E-06
X     2.549E+00     3.036E+00    -1.425E+00     3.805E-06     1.957E-05     2.214E-05
X     2.549E+00     3.036E+00    -9.293E-01     6.884E-06     3.539E-05     4.003E-05
X     2.549E+00     3.036E+00    -4.337E-01     9.533E-06     4.898E-05     5.540E-05
X     2.549E+00     3.036E+00     6.196E-02     1.042E-05     5.349E-05     6.051E-05
X     2.549E+00     3.036E+00     5.576E-01     8.993E-06     4.618E-05     5.224E-05
X     2.549E+00     3.036E+00     1.053E+00     6.107E-06     3.137E-05     3.549E-05
X     2.549E+00     3.036E+00     1.549E+00     3.119E-06     1.603E-05     1.813E-05
X     2.549E+00     3.036E+00     2.045E+00     1.042E-06     5.355E-06     6.058E-06
X     2.549E+00     3.036E+00     2.540E+00     1.068E-07     5.487E-07     6.208E-07
X     2.549E+00     3.036E+00     3.036E+00     0.000E+00     0.000E+00     0.000E+00
X     2.549E+00     3.036E+00     3.531E+00     0.000E+00     0.000E+00     0.000E+00
X     2.549E+00     3.036E+00     4.027E+00     0.000E+00     0.000E+00     0.000E+00
X     2.549E+00     3.036E+00     4.523E+00     0.000E+00     0.000E+00     0.000E+00
X     2.549E+00     3.531E+00    -4.895E+00     0.000E+00     0.000E+00     0.000E+00
X     2.549E+00     3.531E+00    -4.399E+00     0.000E+00     0.000E+00     0.000E+00
X     2.549E+00     3.531E+00    -3.903E+00     0.000E+00     0.000E+00     0.000E+00
X     2.549E+00     3.531E+00    -3.408E+00     0.000E+00     0.000E+00     0.000E+00
X     2.549E+00     3.531E+00    -2.912E+00     0.000E+00     0.000E+00     0.000E+00
X     2.549E+00     3.531E+00    -2.416E+00     0.000E+00     0.000E+00     0.000E+00
X     2.549E+00     3.531E+00    -1.921E+00     3.674E-08     1.889E-07     2.138E-07
X     2.549E+00     3.531E+00    -1.425E+00     4.374E-07     2.249E-06     2.544E-06
X     2.549E+00     3.531E+00    -9.293E-01     1.087E-06     5.587E-06     6.321E-06
X     2.549E+00     3.531E+00    -4.337E-01     1.691E-06     8.692E-06     9.832E-06
X     2.549E+00     3.531E+00     6.196E-02     1.894E-06     9.738E-06     1.102E-05
X     2.549E+00     3.531E+00     5.576E-01     1.565E-06     8.045E-06     9.101E-06
X     2.549E+00     3.531E+00     1.053E+00     9.147E-07     4.702E-06     5.319E-06
X     2.549E+00     3.531E+00     1.549E+00     3.053E-07     1.569E-06     1.775E-06
X     2.549E+00     3.531E+00     2.045E+00     3.094E-09     1.591E-08     1.799E-08
X     2.549E+00     3.531E+00     2.540E+00     0.000E+00     0.000E+00     0.000E+00
X     2.549E+00     3.531E+00     3.036E+00     0.000E+00     0.000E+00     0.000E+00
X     2.549E+00     3.531E+00     3.531E+00     0.000E+00     0.000E+00     0.000E+00
X     2.549E+00     3.531E+00     4.027E+00     0.000E+00     0.000E+00     0.000E+00
X     2.549E+00     3.531E+00     4.523E+00     0.000E+00     0.000E+00     0.000E+00
X     2.549E+00     4.027E+00    -4.895E+00     0.000E+00     0.000E+00     0.000E+00
X     2.549E+00     4.027E+00    -4.399E+00     0.000E+00     0.000E+00     0.000E+00
X     2.549E+00     4.027E+00    -3.903E+00     0.000E+00     0.000E+00     0.000E+00
X     2.549E+00     4.027E+00    -3.408E+00     0.000E+00     0.000E+00     0.000E+00
X     2.549E+00     4.027E+00    -2.912E+00     0.000E+00     0.000E+00     0.000E+00
X     2.549E+00     4.027E+00    -2.416E+00     0.000E+00     0.000E+00     0.000E+00
X     2.549E+00     4.027E+00    -1.921E+00     0.000E+00     0.000E+00     0.000E+00
X     2.549E+00     4.027E+00    -1.425E+00     0.000E+00     0.000E+00     0.000E+00
X     2.549E+00     4.027E+00    -9.293E-01     6.437E-11     3.310E-10     3.745E-10
X     2.549E+00     4.027E+00    -4.337E-01     1.408E-08     7.241E-08     8.191E-08
X     2.549E+00     4.027E+00     6.196E-02     3.013E-08     1.549E-07     1.752E-07
X     2.549E+00     4.027E+00     5.576E-01     7.175E-09     3.689E-08     4.173E-08
X     2.549E+00     4.027E+00     1.053E+00     6.760E-12     3.475E-11     3.931E-11
X     2.549E+00     4.027E+00     1.549E+00     0.000E+00     0.000E+00     0.000E+00
X     2.549E+00     4.027E+00     2.045E+00     0.000E+00     0.000E+00     0.000E+00
X     2.549E+00     4.027E+00     2.540E+00     0.000E+00     0.000E+00     0.000E+00
X     2.549E+00     4.027E+00     3.036E+00     0.000E+00     0.000E+00     0.000E+00
X     2.549E+00     4.027E+00     3.531E+00     0.000E+00     0.000E+00     0.000E+00
X     2.549E+00     4.027E+00     4.027E+00     0.000E+00     0.000E+00     0.000E+00
X     2.549E+00     4.027E+00     4.523E+00     0.000E+00     0.000E+00     0.000E+00
X     2.549E+00     4.523E+00    -4.895E+00     0.000E+00     0.000E+00     0.000E+00
X     2.549E+00     4.523E+00    -4.399E+00     0.000E+00     0.000E+00     0.000E+00
X     2.549E+00     4.523E+00    -3.903E+00     0.000E+00     0.000E+00     0.000E+00
X     2.549E+00     4.523E+00    -3.408E+00     0.000E+00     0.000E+00     0.000E+00
X     2.549E+00     4.523E+00    -2.912E+00     0.000E+00     0.000E+00     0.000E+00
X     2.549E+00     4.523E+00    -2.416E+00     0.000E+00     0.000E+00     0.000E+00
X     2.549E+00     4.523E+00    -1.921E+00     0.000E+00     0.000E+00     0.000E+00
X     2.549E+00     4.523E+00    -1.425E+00     0.000E+00     0.000E+00     0.000E+00
X     2.549E+00     4.523E+00    -9.293E-01     0.000E+00     0.000E+00     0.000E+00
X     2.549E+00     4.523E+00    -4.337E-01     0.000E+00     0.000E+00     0.000E+00
X     2.549E+00     4.523E+00     6.196E-02     0.000E+00     0.000E+00     0.000E+00
X     2.549E+00     4.523E+00     5.576E-01     0.000E+00     0.000E+00     0.000E+00
X     2.549E+00     4.523E+00     1.053E+00     0.000E+00     0.000E+00     0.000E+00
X     2.549E+00     4.523E+00     1.549E+00     0.000E+00     0.000E+00     0.000E+00
X     2.549E+00     4.523E+00     2.045E+00     0.000E+00     0.000E+00     0.000E+00
X     2.549E+00     4.523E+00     2.540E+00     0.000E+00     0.000E+00     0.000E+00
X     2.549E+00     4.523E+00     3.036E+00     0.000E+00     0.000E+00     0.000E+00
X     2.549E+00     4.523E+00     3.531E+00     0.000E+00     0.000E+00     0.000E+00
X     2.549E+00     4.523E+00     4.027E+00     0.000E+00     0.000E+00     0.000E+00
X     2.549E+00     4.523E+00     4.523E+00     0.000E+00     0.000E+00     0.000E+00
X     3.045E+00    -4.895E+00    -4.895E+00     0.000E+00     0.000E+00     0.000E+00
X     3.045E+00    -4.895E+00    -4.399E+00     0.000E+00     0.000E+00     0.000E+00
X     3.045E+00    -4.895E+00    -3.903E+00     0.000E+00     0.000E+00     0.000E+00
X     3.045E+00    -4.895E+00    -3.408E+00     0.000E+00     0.000E+00     0.000E+00
X     3.045E+00    -4.895E+00    -2.912E+00     0.000E+00     0.000E+00     0.000E+00
X     3.045E+00    -4.895E+00    -2.416E+00     0.000E+00     0.000E+00     0.000E+00
X     3.045E+00    -4.895E+00    -1.921E+00     0.000E+00     0.000E+00     0.000E+00
X     3.045E+00    -4.895E+00    -1.425E+00     0.000E+00     0.000E+00     0.000E+00
X     3.045E+00    -4.895E+00    -9.293E-01     0.000E+00     0.000E+00     0.000E+00
X     3.045E+00    -4.895E+00    -4.337E-01     0.000E+00     0.000E+00     0.000E+00
X     3.045E+00    -4.895E+00     6.196E-02     0.000E+00     0.000E+00     0.000E+00
X     3.045E+00    -4.895E+00     5.576E-01     0.000E+00     0.000E+00     0.000E+00
X     3.045E+00    -4.895E+00     1.053E+00     0.000E+00     0.000E+00     0.000E+00
X     3.045E+00    -4.895E+00     1.549E+00     0.000E+00     0.000E+00     0.000E+00
X     3.045E+00    -4.895E+00     2.045E+00     0.000E+00     0.000E+00     0.000E+00
X     3.045E+00    -4.895E+00     2.540E+00     0.000E+00     0.000E+00     0.000E+00
X     3.045E+00    -4.895E+00     3.036E+00     0.000E+00     0.000E+00     0.000E+00
X     3.045E+00    -4.895E+00     3.531E+00     0.000E+00     0.000E+00     0.000E+00
X     3.045E+00    -4.895E+00     4.027E+00     0.000E+00     0.000E+00     0.000E+00
X     3.045E+00    -4.895E+00     4.523E+00     0.000E+00     0.000E+00     0.000E+00
X     3.045E+00    -4.399E+00    -4.895E+00     0.000E+00     0.000E+00     0.000E+00
X     3.045E+00    -4.399E+00    -4.399E+00     0.000E+00     0.000E+00     0.000E+00
X     3.045E+00    -4.399E+00    -3.903E+00     0.000E+00     0.000E+00     0.000E+00
X     3.045E+00    -4.399E+00    -3.408E+00     0.000E+00     0.000E+00     0.000E+00
X     3.045E+00    -4.399E+00    -2.912E+00     0.000E+00     0.000E+00     0.000E+00
X     3.045E+00    -4.399E+00    -2.416E+00     0.000E+00     0.000E+00     0.000E+00
X     3.045E+00    -4.399E+00    -1.921E+00     0.000E+00     0.000E+00     0.000E+00
X     3.045E+00    -4.399E+00    -1.425E+00     0.000E+00     0.000E+00     0.000E+00
X     3.045E+00    -4.399E+00    -9.293E-01     0.000E+00     0.000E+00     0.000E+00
X     3.045E+00    -4.399E+00    -4.337E-01     0.000E+00     0.000E+00     0.000E+00
X     3.045E+00    -4.399E+00     6.196E-02     0.000E+00     0.000E+00     0.000E+00
X     3.045E+00    -4.399E+00     5.576E-01     0.000E+00     0.000E+00     0.000E+00
X     3.045E+00    -4.399E+00     1.053E+00     0.000E+00     0.000E+00     0.000E+00
X     3.045E+00    -4.399E+00     1.549E+00     0.000E+00     0.000E+00     0.000E+00
X     3.045E+00    -4.399E+00     2.045E+00     0.000E+00     0.000E+00     0.000E+00
X     3.045E+00    -4.399E+00     2.540E+00     0.000E+00     0.000E+00     0.000E+00
X     3.045E+00    -4.399E+00     3.036E+00     0.000E+00     0.000E+00     0.000E+00
X     3.045E+00    -4.399E+00     3.531E+00     0.000E+00     0.000E+00     0.000E+00
X     3.045E+00    -4.399E+00     4.027E+00     0.000E+00     0.000E+00     0.000E+00
X     3.045E+00    -4.399E+00     4.523E+00     0.000E+00     0.000E+00     0.000E+00
X     3.045E+00    -3.903E+00    -4.895E+00     0.000E+00     0.000E+00     0.000E+00
X     3.045E+00    -3.903E+00    -4.399E+00     0.000E+00     0.000E+00     0.000E+00
X     3.045E+00    -3.903E+00    -3.903E+00     0.000E+00     0.000E+00     0.000E+00
X     3.045E+00    -3.903E+00    -3.408E+00     0.000E+00     0.000E+00     0.000E+00
X     3.045E+00    -3.903E+00    -2.912E+00     0.000E+00     0.000E+00     0.000E+00
X     3.045E+00    -3.903E+00    -2.416E+00     0.000E+00     0.000E+00     0.000E+00
X     3.045E+00    -3.903E+00    -1.921E+00     0.000E+00     0.000E+00     0.000E+00
X     3.045E+00    -3.903E+00    -1.425E+00     0.000E+00     0.000E+00     0.000E+00
X     3.045E+00    -3.903E+00    -9.293E-01     4.015E-10     2.068E-09     2.340E-09
X     3.045E+00    -3.903E+00    -4.337E-01     3.059E-08     1.576E-07     1.783E-07
X     3.045E+00    -3.903E+00     6.196E-02     5.140E-08     2.647E-07     2.995E-07
X     3.045E+00    -3.903E+00     5.576E-01     1.915E-08     9.861E-08     1.115E-07
X     3.045E+00    -3.903E+00     1.053E+00     3.919E-11     2.018E-10     2.283E-10
X     3.045E+00    -3.903E+00     1.549E+00     0.000E+00     0.000E+00     0.000E+00
X     3.045E+00    -3.903E+00     2.045E+00     0.000E+00     0.000E+00     0.000E+00
X     3.045E+00    -3.903E+00     2.540E+00     0.000E+00     0.000E+00     0.000E+00
X     3.045E+00    -3.903E+00     3.036E+00     0.000E+00     0.000E+00     0.000E+00
X     3.045E+00    -3.903E+00     3.531E+00     0.000E+00     0.000E+00     0.000E+00
X     3.045E+00    -3.903E+00     4.027E+00     0.000E+00     0.000E+00     0.000E+00
X     3.045E+00    -3.903E+00     4.523E+00     0.000E+00     0.000E+00     0.000E+00
X     3.045E+00    -3.408E+00    -4.895E+00     0.000E+00     0.000E+00     0.000E+00
X     3.045E+00    -3.408E+00    -4.399E+00     0.000E+00     0.000E+00     0.000E+00
X     3.045E+00    -3.408E+00    -3.903E+00     0.000E+00     0.000E+00     0.000E+00
X     3.045E+00    -3.408E+00    -3.408E+00     0.000E+00     0.000E+00     0.000E+00
X     3.045E+00    -3.408E+00    -2.912E+00     0.000E+00     0.000E+00     0.000E+00
X     3.045E+00    -3.408E+00    -2.416E+00     0.000E+00     0.000E+00     0.000E+00
X     3.045E+00    -3.408E+00    -1.921E+00     4.414E-08     2.275E-07     2.573E-07
X     3.045E+00    -3.408E+00    -1.425E+00     4.584E-07     2.362E-06     2.672E-06
X     3.045E+00    -3.408E+00    -9.293E-01     1.120E-06     5.774E-06     6.532E-06
X     3.045E+00    -3.408E+00    -4.337E-01     1.734E-06     8.936E-06     1.011E-05
X     3.045E+00    -3.408E+00     6.196E-02     1.941E-06     1.000E-05     1.131E-05
X     3.045E+00    -3.408E+00     5.576E-01     1.607E-06     8.279E-06     9.365E-06
X     3.045E+00    -3.408E+00     1.053E+00     9.460E-07     4.871E-06     5.510E-06
X     3.045E+00    -3.408E+00     1.549E+00     3.235E-07     1.665E-06     1.884E-06
X     3.045E+00    -3.408E+00     2.045E+00     5.043E-09     2.595E-08     2.936E-08
X     3.045E+00    -3.408E+00     2.540E+00     0.000E+00     0.000E+00     0.000E+00
X     3.045E+00    -3.408E+00     3.036E+00     0.000E+00     0.000E+00     0.000E+00
X     3.045E+00    -3.408E+00     3.531E+00     0.000E+00     0.000E+00     0.000E+00
X     3.045E+00    -3.408E+00     4.027E+00     0.000E+00     0.000E+00     0.000E+00
X     3.045E+00    -3.408E+00     4.523E+00     0.000E+00     0.000E+00     0.000E+00
X     3.045E+00    -2.912E+00    -4.895E+00     0.000E+00     0.000E+00     0.000E+00
X     3.045E+00    -2.912E+00    -4.399E+00     0.000E+00     0.000E+00     0.000E+00
X     3.045E+00    -2.912E+00    -3.903E+00     0.000E+00     0.000E+00     0.000E+00
X     3.045E+00    -2.912E+00    -3.408E+00     0.000E+00     0.000E+00     0.000E+00
X     3.045E+00    -2.912E+00    -2.912E+00     0.000E+00     0.000E+00     0.000E+00
X     3.045E+00    -2.912E+00    -2.416E+00     2.308E-07     1.190E-06     1.346E-06
X     3.045E+00    -2.912E+00    -1.921E+00     1.373E-06     7.078E-06     8.007E-06
X     3.045E+00    -2.912E+00    -1.425E+00     3.627E-06     1.869E-05     2.115E-05
X     3.045E+00    -2.912E+00    -9.293E-01     6.572E-06     3.388E-05     3.832E-05
X     3.045E+00    -2.912E+00    -4.337E-01     9.153E-06     4.717E-05     5.336E-05
X     3.045E+00    -2.912E+00     6.196E-02     1.002E-05     5.161E-05     5.838E-05
X     3.045E+00    -2.912E+00     5.576E-01     8.625E-06     4.443E-05     5.025E-05
X     3.045E+00    -2.912E+00     1.053E+00     5.825E-06     2.999E-05     3.393E-05
X     3.045E+00    -2.912E+00     1.549E+00     2.974E-06     1.530E-05     1.731E-05
X     3.045E+00    -2.912E+00     2.045E+00     9.884E-07     5.086E-06     5.754E-06
X     3.045E+00    -2.912E+00     2.540E+00     9.616E-08     4.947E-07     5.596E-07
X     3.045E+00    -2.912E+00     3.036E+00     0.000E+00     0.000E+00     0.000E+00
X     3.045E+00    -2.912E+00     3.531E+00     0.000E+00     0.000E+00     0.000E+00
X     3.045E+00    -2.912E+00     4.027E+00     0.000E+00     0.000E+00     0.000E+00
X     3.045E+00    -2.912E+00     4.523E+00     0.000E+00     0.000E+00     0.000E+00
X     3.045E+00    -2.416E+00    -4.895E+00     0.000E+00     0.000E+00     0.000E+00
X     3.045E+00    -2.416E+00    -4.399E+00     0.000E+00     0.000E+00     0.000E+00
X     3.045E+00    -2.416E+00    -3.903E+00     0.000E+00     0.000E+00     0.000E+00
X     3.045E+00    -2.416E+00    -3.408E+00     0.000E+00     0.000E+00     0.000E+00
X     3.045E+00    -2.416E+00    -2.912E+00     2.308E-07     1.190E-06     1.346E-06
X     3.045E+00    -2.416E+00    -2.416E+00     1.869E-06     9.634E-06     1.090E-05
X     3.045E+00    -2.416E+00    -1.921E+00     5.998E-06     3.092E-05     3.498E-05
X     3.045E+00    -2.416E+00    -1.425E+00     1.350E-05     6.963E-05     7.877E-05
X     3.045E+00    -2.416E+00    -9.293E-01     2.382E-05     1.229E-04     1.390E-04
X     3.045E+00    -2.416E+00    -4.337E-01     3.325E-05     1.715E-04     1.940E-04
X     3.045E+00    -2.416E+00     6.196E-02     3.651E-05     1.882E-04     2.129E-04
X     3.045E+00    -2.416E+00     5.576E-01     3.131E-05     1.613E-04     1.825E-04
X     3.045E+00    -2.416E+00     1.053E+00     2.117E-05     1.090E-04     1.233E-04
X     3.045E+00    -2.416E+00     1.549E+00     1.130E-05     5.817E-05     6.581E-05
X     3.045E+00    -2.416E+00     2.045E+00     4.694E-06     2.415E-05     2.732E-05
X     3.045E+00    -2.416E+00     2.540E+00     1.270E-06     6.531E-06     7.389E-06
X     3.045E+00    -2.416E+00     3.036E+00     7.654E-08     3.936E-07     4.453E-07
X     3.045E+00    -2.416E+00     3.531E+00     0.000E+00     0.000E+00     0.000E+00
X     3.045E+00    -2.416E+00     4.027E+00     0.000E+00     0.000E+00     0.000E+00
X     3.045E+00    -2.416E+00     4.523E+00     0.000E+00     0.000E+00     0.000E+00
X     3.045E+00    -1.921E+00    -4.895E+00     0.000E+00     0.000E+00     0.000E+00
X     3.045E+00    -1.921E+00    -4.399E+00     0.000E+00     0.000E+00     0.000E+00
X     3.045E+00    -1.921E+00    -3.903E+00     0.000E+00     0.000E+00     0.000E+00
X     3.045E+00    -1.921E+00    -3.408E+00     4.414E-08     2.274E-07     2.573E-07
X     3.045E+00    -1.921E+00    -2.912E+00     1.373E-06     7.077E-06     8.008E-06
X     3.045E+00    -1.921E+00    -2.416E+00     5.997E-06     3.092E-05     3.498E-05
X     3.045E+00    -1.921E+00    -1.921E+00     1.715E-05     8.845E-05     1.001E-04
X     3.045E+00    -1.921E+00    -1.425E+00     3.881E-05     2.003E-04     2.266E-04
X     3.045E+00    -1.921E+00    -9.293E-01     7.214E-05     3.723E-04     4.212E-04
X     3.045E+00    -1.921E+00    -4.337E-01     1.058E-04     5.461E-04     6.178E-04
X     3.045E+00    -1.921E+00     6.196E-02     1.180E-04     6.086E-04     6.884E-04
X     3.045E+00    -1.921E+00     5.576E-01     9.871E-05     5.086E-04     5.753E-04
X     3.045E+00    -1.921E+00     1.053E+00     6.321E-05     3.254E-04     3.681E-04
X     3.045E+00    -1.921E+00     1.549E+00     3.233E-05     1.663E-04     1.882E-04
X     3.045E+00    -1.921E+00     2.045E+00     1.354E-05     6.962E-05     7.877E-05
X     3.045E+00    -1.921E+00     2.540E+00     4.409E-06     2.267E-05     2.565E-05
X     3.045E+00    -1.921E+00     3.036E+00     8.294E-07     4.264E-06     4.825E-06
X     3.045E+00    -1.921E+00     3.531E+00     2.245E-10     1.154E-09     1.306E-09
X     3.045E+00    -1.921E+00     4.027E+00     0.000E+00     0.000E+00     0.000E+00
X     3.045E+00    -1.921E+00     4.523E+00     0.000E+00     0.000E+00     0.000E+00
X     3.045E+00    -1.425E+00    -4.895E+00     0.000E+00     0.000E+00     0.000E+00
X     3.045E+00    -1.425E+00    -4.399E+00     0.000E+00     0.000E+00     0.000E+00
X     3.045E+00    -1.425E+00    -3.903E+00     0.000E+00     0.000E+00     0.000E+00
X     3.045E+00    -1.425E+00    -3.408E+00     4.583E-07     2.362E-06     2.673E-06
X     3.045E+00    -1.425E+00    -2.912E+00     3.626E-06     1.869E-05     2.115E-05
X     3.045E+00    -1.425E+00    -2.416E+00     1.350E-05     6.962E-05     7.877E-05
X     3.045E+00    -1.425E+00    -1.921E+00     3.881E-05     2.003E-04     2.266E-04
X     3.045E+00    -1.425E+00    -1.425E+00     9.509E-05     4.909E-04     5.554E-04
X     3.045E+00    -1.425E+00    -9.293E-01     1.934E-04     9.981E-04     1.129E-03
X     3.045E+00    -1.425E+00    -4.337E-01     3.062E-04     1.579E-03     1.786E-03
X     3.045E+00    -1.425E+00     6.196E-02     3.499E-04     1.803E-03     2.040E-03
X     3.045E+00    -1.425E+00     5.576E-01     2.812E-04     1.448E-03     1.638E-03
X     3.045E+00    -1.425E+00     1.053E+00     1.657E-04     8.529E-04     9.649E-04
X     3.045E+00    -1.425E+00     1.549E+00     7.751E-05     3.986E-04     4.509E-04
X     3.045E+00    -1.425E+00     2.045E+00     3.043E-05     1.564E-04     1.770E-04
X     3.045E+00    -1.425E+00     2.540E+00     1.004E-05     5.160E-05     5.838E-05
X     3.045E+00    -1.425E+00     3.036E+00     2.418E-06     1.243E-05     1.406E-05
X     3.045E+00    -1.425E+00     3.531E+00     1.843E-07     9.472E-07     1.072E-06
X     3.045E+00    -1.425E+00     4.027E+00     0.000E+00     0.000E+00     0.000E+00
X     3.045E+00    -1.425E+00     4.523E+00     0.000E+00     0.000E+00     0.000E+00
X     3.045E+00    -9.293E-01    -4.895E+00     0.000E+00     0.000E+00     0.000E+00
X     3.045E+00    -9.293E-01    -4.399E+00     0.000E+00     0.000E+00     0.000E+00
X     3.045E+00    -9.293E-01    -3.903E+00     4.014E-10     2.068E-09     2.340E-09
X     3.045E+00    -9.293E-01    -3.408E+00     1.120E-06     5.773E-06     6.532E-06
X     3.045E+00    -9.293E-01    -2.912E+00     6.571E-06     3.387E-05     3.833E-05
X     3.045E+00    -9.293E-01    -2.416E+00     2.381E-05     1.228E-04     1.390E-04
X     3.045E+00    -9.293E-01    -1.921E+00     7.213E-05     3.723E-04     4.212E-04
X     3.045E+00    -9.293E-01    -1.425E+00     1.934E-04     9.980E-04     1.129E-03
X     3.045E+00    -9.293E-01    -9.293E-01     4.401E-04     2.269E-03     2.568E-03
X     3.045E+00    -9.293E-01    -4.337E-01     7.717E-04     3.971E-03     4.492E-03
X     3.045E+00    -9.293E-01     6.196E-02     9.161E-04     4.710E-03     5.328E-03
X     3.045E+00    -9.293E-01     5.576E-01     6.923E-04     3.562E-03     4.029E-03
X     3.045E+00    -9.293E-01     1.053E+00     3.668E-04     1.886E-03     2.134E-03
X     3.045E+00    -9.293E-01     1.549E+00     1.537E-04     7.897E-04     8.935E-04
X     3.045E+00    -9.293E-01     2.045E+00     5.549E-05     2.850E-04     3.225E-04
X     3.045E+00    -9.293E-01     2.540E+00     1.773E-05     9.111E-05     1.031E-04
X     3.045E+00    -9.293E-01     3.036E+00     4.554E-06     2.340E-05     2.648E-05
X     3.045E+00    -9.293E-01     3.531E+00     5.963E-07     3.064E-06     3.467E-06
X     3.045E+00    -9.293E-01     4.027E+00     0.000E+00     0.000E+00     0.000E+00
X     3.045E+00    -9.293E-01     4.523E+00     0.000E+00     0.000E+00     0.000E+00
X     3.045E+00    -4.337E-01    -4.895E+00     0.000E+00     0.000E+00     0.000E+00
X     3.045E+00    -4.337E-01    -4.399E+00     0.000E+00     0.000E+00     0.000E+00
X     3.045E+00    -4.337E-01    -3.903E+00     3.059E-08     1.576E-07     1.783E-07
X     3.045E+00    -4.337E-01    -3.408E+00     1.734E-06     8.934E-06     1.011E-05
X     3.045E+00    -4.337E-01    -2.912E+00     9.151E-06     4.716E-05     5.337E-05
X     3.045E+00    -4.337E-01    -2.416E+00     3.325E-05     1.715E-04     1.941E-04
X     3.045E+00    -4.337E-01    -1.921E+00     1.058E-04     5.460E-04     6.179E-04
X     3.045E+00    -4.337E-01    -1.425E+00     3.061E-04     1.579E-03     1.787E-03
X     3.045E+00    -4.337E-01    -9.293E-01     7.717E-04     3.970E-03     4.492E-03
X     3.045E+00    -4.337E-01    -4.337E-01     1.547E-03     7.916E-03     8.956E-03
X     3.045E+00    -4.337E-01     6.196E-02     1.949E-03     9.986E-03     1.130E-02
X     3.045E+00    -4.337E-01     5.576E-01     1.336E-03     6.874E-03     7.779E-03
X     3.045E+00    -4.337E-01     1.053E+00     6.236E-04     3.206E-03     3.627E-03
X     3.045E+00    -4.337E-01     1.549E+00     2.382E-04     1.223E-03     1.384E-03
X     3.045E+00    -4.337E-01     2.045E+00     8.034E-05     4.124E-04     4.667E-04
X     3.045E+00    -4.337E-01     2.540E+00     2.465E-05     1.266E-04     1.432E-04
X     3.045E+00    -4.337E-01     3.036E+00     6.396E-06     3.286E-05     3.718E-05
X     3.045E+00    -4.337E-01     3.531E+00     9.898E-07     5.085E-06     5.754E-06
X     3.045E+00    -4.337E-01     4.027E+00     2.300E-11     1.182E-10     1.337E-10
X     3.045E+00    -4.337E-01     4.523E+00     0.000E+00     0.000E+00     0.000E+00
X     3.045E+00     6.196E-02    -4.895E+00     0.000E+00     0.000E+00     0.000E+00
X     3.045E+00     6.196E-02    -4.399E+00     0.000E+00     0.000E+00     0.000E+00
X     3.045E+00     6.196E-02    -3.903E+00     5.139E-08     2.647E-07     2.995E-07
X     3.045E+00     6.196E-02    -3.408E+00     1.941E-06     9.997E-06     1.131E-05
X     3.045E+00     6.196E-02    -2.912E+00     1.001E-05     5.160E-05     5.839E-05
X     3.045E+00     6.196E-02    -2.416E+00     3.649E-05     1.882E-04     2.129E-04
X     3.045E+00     6.196E-02    -1.921E+00     1.180E-04     6.084E-04     6.886E-04
X     3.045E+00     6.196E-02    -1.425E+00     3.498E-04     1.803E-03     2.040E-03
X     3.045E+00     6.196E-02    -9.293E-01     9.162E-04     4.710E-03     5.329E-03
X     3.045E+00     6.196E-02    -4.337E-01     1.950E-03     9.988E-03     1.130E-02
X     3.045E+00     6.196E-02     6.196E-02     2.532E-03     1.305E-02     1.477E-02
X     3.045E+00     6.196E-02     5.576E-01     1.650E-03     8.527E-03     9.650E-03
X     3.045E+00     6.196E-02     1.053E+00     7.309E-04     3.758E-03     4.253E-03
X     3.045E+00     6.196E-02     1.549E+00     2.703E-04     1.387E-03     1.570E-03
X     3.045E+00     6.196E-02     2.045E+00     8.919E-05     4.576E-04     5.178E-04
X     3.045E+00     6.196E-02     2.540E+00     2.699E-05     1.385E-04     1.568E-04
X     3.045E+00     6.196E-02     3.036E+00     7.006E-06     3.598E-05     4.072E-05
X     3.045E+00     6.196E-02     3.531E+00     1.124E-06     5.773E-06     6.532E-06
X     3.045E+00     6.196E-02     4.027E+00     1.242E-10     6.381E-10     7.220E-10
X     3.045E+00     6.196E-02     4.523E+00     0.000E+00     0.000E+00     0.000E+00
X     3.045E+00     5.576E-01    -4.895E+00     0.000E+00     0.000E+00     0.000E+00
X     3.045E+00     5.576E-01    -4.399E+00     0.000E+00     0.000E+00     0.000E+00
X     3.045E+00     5.576E-01    -3.903E+00     1.914E-08     9.858E-08     1.116E-07
X     3.045E+00     5.576E-01    -3.408E+00     1.607E-06     8.277E-06     9.366E-06
X     3.045E+00     5.576E-01    -2.912E+00     8.623E-06     4.442E-05     5.026E-05
X     3.045E+00     5.576E-01    -2.416E+00     3.130E-05     1.613E-04     1.825E-04
X     3.045E+00     5.576E-01    -1.921E+00     9.867E-05     5.085E-04     5.754E-04
X     3.045E+00     5.576E-01    -1.425E+00     2.811E-04     1.448E-03     1.639E-03
X     3.045E+00     5.576E-01    -9.293E-01     6.922E-04     3.561E-03     4.030E-03
X     3.045E+00     5.576E-01    -4.337E-01     1.336E-03     6.875E-03     7.777E-03
X     3.045E+00     5.576E-01     6.196E-02     1.651E-03     8.529E-03     9.648E-03
X     3.045E+00     5.576E-01     5.576E-01     1.167E-03     6.021E-03     6.812E-03
X     3.045E+00     5.576E-01     1.053E+00     5.635E-04     2.895E-03     3.275E-03
X     3.045E+00     5.576E-01     1.549E+00     2.196E-04     1.126E-03     1.274E-03
X     3.045E+00     5.576E-01     2.045E+00     7.509E-05     3.851E-04     4.358E-04
X     3.045E+00     5.576E-01     2.540E+00     2.323E-05     1.192E-04     1.349E-04
X     3.045E+00     5.576E-01     3.036E+00     6.020E-06     3.092E-05     3.498E-05
X     3.045E+00     5.576E-01     3.531E+00     9.075E-07     4.661E-06     5.274E-06
X     3.045E+00     5.576E-01     4.027E+00     7.408E-12     3.806E-11     4.306E-11
X     3.045E+00     5.576E-01     4.523E+00     0.000E+00     0.000E+00     0.000E+00
X     3.045E+00     1.053E+00    -4.895E+00     0.000E+00     0.000E+00     0.000E+00
X     3.045E+00     1.053E+00    -4.399E+00     0.000E+00     0.000E+00     0.000E+00
X     3.045E+00     1.053E+00    -3.903E+00     3.918E-11     2.017E-10     2.283E-10
X     3.045E+00     1.053E+00    -3.408E+00     9.458E-07     4.870E-06     5.511E-06
X     3.045E+00     1.053E+00    -2.912E+00     5.824E-06     2.999E-05     3.393E-05
X     3.045E+00     1.053E+00    -2.416E+00     2.116E-05     1.090E-04     1.233E-04
X     3.045E+00     1.053E+00    -1.921E+00     6.318E-05     3.254E-04     3.682E-04
X     3.045E+00     1.053E+00    -1.425E+00     1.657E-04     8.528E-04     9.650E-04
X     3.045E+00     1.053E+00    -9.293E-01     3.667E-04     1.886E-03     2.134E-03
X     3.045E+00     1.053E+00    -4.337E-01     6.235E-04     3.206E-03     3.627E-03
X     3.045E+00     1.053E+00     6.196E-02     7.309E-04     3.759E-03     4.252E-03
X     3.045E+00     1.053E+00     5.576E-01     5.635E-04     2.895E-03     3.275E-03
X     3.045E+00     1.053E+00     1.053E+00     3.078E-04     1.579E-03     1.786E-03
X     3.045E+00     1.053E+00     1.549E+00     1.325E-04     6.794E-04     7.687E-04
X     3.045E+00     1.053E+00     2.045E+00     4.879E-05     2.502E-04     2.831E-04
X     3.045E+00     1.053E+00     2.540E+00     1.575E-05     8.086E-05     9.149E-05
X     3.045E+00     1.053E+00     3.036E+00     4.012E-06     2.060E-05     2.331E-05
X     3.045E+00     1.053E+00     3.531E+00     4.853E-07     2.493E-06     2.820E-06
X     3.045E+00     1.053E+00     4.027E+00     0.000E+00     0.000E+00     0.000E+00
X     3.045E+00     1.053E+00     4.523E+00     0.000E+00     0.000E+00     0.000E+00
X     3.045E+00     1.549E+00    -4.895E+00     0.000E+00     0.000E+00     0.000E+00
X     3.045E+00     1.549E+00    -4.399E+00     0.000E+00     0.000E+00     0.000E+00
X     3.045E+00     1.549E+00    -3.903E+00     0.000E+00     0.000E+00     0.000E+00
X     3.045E+00     1.549E+00    -3.408E+00     3.234E-07     1.665E-06     1.884E-06
X     3.045E+00     1.549E+00    -2.912E+00     2.973E-06     1.530E-05     1.732E-05
X     3.045E+00     1.549E+00    -2.416E+00     1.130E-05     5.816E-05     6.582E-05
X     3.045E+00     1.549E+00    -1.921E+00     3.231E-05     1.663E-04     1.882E-04
X     3.045E+00     1.549E+00    -1.425E+00     7.748E-05     3.985E-04     4.510E-04
X     3.045E+00     1.549E+00    -9.293E-01     1.536E-04     7.898E-04     8.935E-04
X     3.045E+00     1.549E+00    -4.337E-01     2.381E-04     1.223E-03     1.384E-03
X     3.045E+00     1.549E+00     6.196E-02     2.703E-04     1.388E-03     1.570E-03
X     3.045E+00     1.549E+00     5.576E-01     2.196E-04     1.126E-03     1.274E-03
X     3.045E+00     1.549E+00     1.053E+00     1.325E-04     6.794E-04     7.686E-04
X     3.045E+00     1.549E+00     1.549E+00     6.345E-05     3.254E-04     3.681E-04
X     3.045E+00     1.549E+00     2.045E+00     2.542E-05     1.304E-04     1.476E-04
X     3.045E+00     1.549E+00     2.540E+00     8.396E-06     4.310E-05     4.877E-05
X     3.045E+00     1.549E+00     3.036E+00     1.947E-06     9.998E-06     1.131E-05
X     3.045E+00     1.549E+00     3.531E+00     1.070E-07     5.497E-07     6.220E-07
X     3.045E+00     1.549E+00     4.027E+00     0.000E+00     0.000E+00     0.000E+00
X     3.045E+00     1.549E+00     4.523E+00     0.000E+00     0.000E+00     0.000E+00
X     3.045E+00     2.045E+00    -4.895E+00     0.000E+00     0.000E+00     0.000E+00
X     3.045E+00     2.045E+00    -4.399E+00     0.000E+00     0.000E+00     0.000E+00
X     3.045E+00     2.045E+00    -3.903E+00     0.000E+00     0.000E+00     0.000E+00
X     3.045E+00     2.045E+00    -3.408E+00     5.042E-09     2.595E-08     2.936E-08
X     3.045E+00     2.045E+00    -2.912E+00     9.882E-07     5.085E-06     5.754E-06
X     3.045E+00     2.045E+00    -2.416E+00     4.693E-06     2.415E-05     2.732E-05
X     3.045E+00     2.045E+00    -1.921E+00     1.353E-05     6.962E-05     7.877E-05
X     3.045E+00     2.045E+00    -1.425E+00     3.042E-05     1.564E-04     1.770E-04
X     3.045E+00     2.045E+00    -9.293E-01     5.547E-05     2.851E-04     3.225E-04
X     3.045E+00     2.045E+00    -4.337E-01     8.032E-05     4.125E-04     4.666E-04
X     3.045E+00     2.045E+00     6.196E-02     8.917E-05     4.576E-04     5.177E-04
X     3.045E+00     2.045E+00     5.576E-01     7.508E-05     3.852E-04     4.357E-04
X     3.045E+00     2.045E+00     1.053E+00     4.879E-05     2.503E-04     2.831E-04
X     3.045E+00     2.045E+00     1.549E+00     2.542E-05     1.304E-04     1.476E-04
X     3.045E+00     2.045E+00     2.045E+00     1.067E-05     5.478E-05     6.198E-05
X     3.045E+00     2.045E+00     2.540E+00     3.408E-06     1.750E-05     1.980E-05
X     3.045E+00     2.045E+00     3.036E+00     5.674E-07     2.914E-06     3.297E-06
X     3.045E+00     2.045E+00     3.531E+00     1.575E-13     8.089E-13     9.152E-13
X     3.045E+00     2.045E+00     4.027E+00     0.000E+00     0.000E+00     0.000E+00
X     3.045E+00     2.045E+00     4.523E+00     0.000E+00     0.000E+00     0.000E+00
X     3.045E+00     2.540E+00    -4.895E+00     0.000E+00     0.000E+00     0.000E+00
X     3.045E+00     2.540E+00    -4.399E+00     0.000E+00     0.000E+00     0.000E+00
X     3.045E+00     2.540E+00    -3.903E+00     0.000E+00     0.000E+00     0.000E+00
X     3.045E+00     2.540E+00    -3.408E+00     0.000E+00     0.000E+00     0.000E+00
X     3.045E+00     2.540E+00    -2.912E+00     9.614E-08     4.946E-07     5.597E-07
X     3.045E+00     2.540E+00    -2.416E+00     1.269E-06     6.530E-06     7.389E-06
X     3.045E+00     2.540E+00    -1.921E+00     4.408E-06     2.267E-05     2.565E-05
X     3.045E+00     2.540E+00    -1.425E+00     1.004E-05     5.160E-05     5.838E-05
X     3.045E+00     2.540E+00    -9.293E-01     1.773E-05     9.112E-05     1.031E-04
X     3.045E+00     2.540E+00    -4.337E-01     2.464E-05     1.266E-04     1.432E-04
X     3.045E+00     2.540E+00     6.196E-02     2.699E-05     1.386E-04     1.567E-04
X     3.045E+00     2.540E+00     5.576E-01     2.322E-05     1.192E-04     1.349E-04
X     3.045E+00     2.540E+00     1.053E+00     1.575E-05     8.086E-05     9.148E-05
X     3.045E+00     2.540E+00     1.549E+00     8.395E-06     4.311E-05     4.877E-05
X     3.045E+00     2.540E+00     2.045E+00     3.408E-06     1.750E-05     1.980E-05
X     3.045E+00     2.540E+00     2.540E+00     8.303E-07     4.264E-06     4.824E-06
X     3.045E+00     2.540E+00     3.036E+00     1.062E-08     5.455E-08     6.172E-08
X     3.045E+00     2.540E+00     3.531E+00     0.000E+00     0.000E+00     0.000E+00
X     3.045E+00     2.540E+00     4.027E+00     0.000E+00     0.000E+00     0.000E+00
X     3.045E+00     2.540E+00     4.523E+00     0.000E+00     0.000E+00     0.000E+00
X     3.045E+00     3.036E+00    -4.895E+00     0.000E+00     0.000E+00     0.000E+00
X     3.045E+00     3.036E+00    -4.399E+00     0.000E+00     0.000E+00     0.000E+00
X     3.045E+00     3.036E+00    -3.903E+00     0.000E+00     0.000E+00     0.000E+00
X     3.045E+00     3.036E+00    -3.408E+00     0.000E+00     0.000E+00     0.000E+00
X     3.045E+00     3.036E+00    -2.912E+00     0.000E+00     0.000E+00     0.000E+00
X     3.045E+00     3.036E+00    -2.416E+00     7.653E-08     3.936E-07     4.453E-07
X     3.045E+00     3.036E+00    -1.921E+00     8.292E-07     4.264E-06     4.825E-06
X     3.045E+00     3.036E+00    -1.425E+00     2.417E-06     1.243E-05     1.406E-05
X     3.045E+00     3.036E+00    -9.293E-01     4.553E-06     2.340E-05     2.647E-05
X     3.045E+00     3.036E+00    -4.337E-01     6.395E-06     3.286E-05     3.717E-05
X     3.045E+00     3.036E+00     6.196E-02     7.005E-06     3.599E-05     4.071E-05
X     3.045E+00     3.036E+00     5.576E-01     6.020E-06     3.092E-05     3.498E-05
X     3.045E+00     3.036E+00     1.053E+00     4.011E-06     2.060E-05     2.331E-05
X     3.045E+00     3.036E+00     1.549E+00     1.947E-06     9.998E-06     1.131E-05
X     3.045E+00     3.036E+00     2.045E+00     5.674E-07     2.914E-06     3.297E-06
X     3.045E+00     3.036E+00     2.540E+00     1.062E-08     5.455E-08     6.171E-08
X     3.045E+00     3.036E+00     3.036E+00     0.000E+00     0.000E+00     0.000E+00
X     3.045E+00     3.036E+00     3.531E+00     0.000E+00     0.000E+00     0.000E+00
X     3.045E+00     3.036E+00     4.027E+00     0.000E+00     0.000E+00     0.000E+00
X     3.045E+00     3.036E+00     4.523E+00     0.000E+00     0.000E+00     0.000E+00
X     3.045E+00     3.531E+00    -4.895E+00     0.000E+00     0.000E+00     0.000E+00
X     3.045E+00     3.531E+00    -4.399E+00     0.000E+00     0.000E+00     0.000E+00
X     3.045E+00     3.531E+00    -3.903E+00     0.000E+00     0.000E+00     0.000E+00
X     3.045E+00     3.531E+00    -3.408E+00     0.000E+00     0.000E+00     0.000E+00
X     3.045E+00     3.531E+00    -2.912E+00     0.000E+00     0.000E+00     0.000E+00
X     3.045E+00     3.531E+00    -2.416E+00     0.000E+00     0.000E+00     0.000E+00
X     3.045E+00     3.531E+00    -1.921E+00     2.245E-10     1.154E-09     1.306E-09
X     3.045E+00     3.531E+00    -1.425E+00     1.842E-07     9.473E-07     1.072E-06
X     3.045E+00     3.531E+00    -9.293E-01     5.962E-07     3.065E-06     3.467E-06
X     3.045E+00     3.531E+00    -4.337E-01     9.896E-07     5.086E-06     5.753E-06
X     3.045E+00     3.531E+00     6.196E-02     1.124E-06     5.774E-06     6.531E-06
X     3.045E+00     3.531E+00     5.576E-01     9.074E-07     4.662E-06     5.274E-06
X     3.045E+00     3.531E+00     1.053E+00     4.853E-07     2.493E-06     2.820E-06
X     3.045E+00     3.531E+00     1.549E+00     1.070E-07     5.498E-07     6.220E-07
X     3.045E+00     3.531E+00     2.045E+00     1.575E-13     8.090E-13     9.152E-13
X     3.045E+00     3.531E+00     2.540E+00     0.000E+00     0.000E+00     0.000E+00
X     3.045E+00     3.531E+00     3.036E+00     0.000E+00     0.000E+00     0.000E+00
X     3.045E+00     3.531E+00     3.531E+00     0.000E+00     0.000E+00     0.000E+00
X     3.045E+00     3.531E+00     4.027E+00     0.000E+00     0.000E+00     0.000E+00
X     3.045E+00     3.531E+00     4.523E+00     0.000E+00     0.000E+00     0.000E+00
X     3.045E+00     4.027E+00    -4.895E+00     0.000E+00     0.000E+00     0.000E+00
X     3.045E+00     4.027E+00    -4.399E+00     0.000E+00     0.000E+00     0.000E+00
X     3.045E+00     4.027E+00    -3.903E+00     0.000E+00     0.000E+00     0.000E+00
X     3.045E+00     4.027E+00    -3.408E+00     0.000E+00     0.000E+00     0.000E+00
X     3.045E+00     4.027E+00    -2.912E+00     0.000E+00     0.000E+00     0.000E+00
X     3.045E+00     4.027E+00    -2.416E+00     0.000E+00     0.000E+00     0.000E+00
X     3.045E+00     4.027E+00    -1.921E+00     0.000E+00     0.000E+00     0.000E+00
X     3.045E+00     4.027E+00    -1.425E+00     0.000E+00     0.000E+00     0.000E+00
X     3.045E+00     4.027E+00    -9.293E-01     0.000E+00     0.000E+00     0.000E+00
X     3.045E+00     4.027E+00    -4.337E-01     2.300E-11     1.182E-10     1.337E-10
X     3.045E+00     4.027E+00     6.196E-02     1.242E-10     6.382E-10     7.219E-10
X     3.045E+00     4.027E+00     5.576E-01     7.407E-12     3.806E-11     4.306E-11
X     3.045E+00     4.027E+00     1.053E+00     0.000E+00     0.000E+00     0.000E+00
X     3.045E+00     4.027E+00     1.549E+00     0.000E+00     0.000E+00     0.000E+00
X     3.045E+00     4.027E+00     2.045E+00     0.000E+00     0.000E+00     0.000E+00
X     3.045E+00     4.027E+00     2.540E+00     0.000E+00     0.000E+00     0.000E+00
X     3.045E+00     4.027E+00     3.036E+00     0.000E+00     0.000E+00     0.000E+00
X     3.045E+00     4.027E+00     3.531E+00     0.000E+00     0.000E+00     0.000E+00
X     3.045E+00     4.027E+00     4.027E+00     0.000E+00     0.000E+00     0.000E+00
X     3.045E+00     4.027E+00     4.523E+00     0.000E+00     0.000E+00     0.000E+00
X     3.045E+00     4.523E+00    -4.895E+00     0.000E+00     0.000E+00     0.000E+00
X     3.045E+00     4.523E+00    -4.399E+00     0.000E+00     0.000E+00     0.000E+00
X     3.045E+00     4.523E+00    -3.903E+00     0.000E+00     0.000E+00     0.000E+00
X     3.045E+00     4.523E+00    -3.408E+00     0.000E+00     0.000E+00     0.000E+00
X     3.045E+00     4.523E+00    -2.912E+00     0.000E+00     0.000E+00     0.000E+00
X     3.045E+00     4.523E+00    -2.416E+00     0.000E+00     0.000E+00     0.000E+00
X     3.045E+00     4.523E+00    -1.921E+00     0.000E+00     0.000E+00     0.000E+00
X     3.045E+00     4.523E+00    -1.425E+00     0.000E+00     0.000E+00     0.000E+00
X     3.045E+00     4.523E+00    -9.293E-01     0.000E+00     0.000E+00     0.000E+00
X     3.045E+00     4.523E+00    -4.337E-01     0.000E+00     0.000E+00     0.000E+00
X     3.045E+00     4.523E+00     6.196E-02     0.000E+00     0.000E+00     0.000E+00
X     3.045E+00     4.523E+00     5.576E-01     0.000E+00     0.000E+00     0.000E+00
X     3.045E+00     4.523E+00     1.053E+00     0.000E+00     0.000E+00     0.000E+00
X     3.045E+00     4.523E+00     1.549E+00     0.000E+00     0.000E+00     0.000E+00
X     3.045E+00     4.523E+00     2.045E+00     0.000E+00     0.000E+00     0.000E+00
X     3.045E+00     4.523E+00     2.540E+00     0.000E+00     0.000E+00     0.000E+00
X     3.045E+00     4.523E+00     3.036E+00     0.000E+00     0.000E+00     0.000E+00
X     3.045E+00     4.523E+00     3.531E+00     0.000E+00     0.000E+00     0.000E+00
X     3.045E+00     4.523E+00     4.027E+00     0.000E+00     0.000E+00     0.000E+00
X     3.045E+00     4.523E+00     4.523E+00     0.000E+00     0.000E+00     0.000E+00
X     3.540E+00    -4.895E+00    -4.895E+00     0.000E+00     0.000E+00     0.000E+00
X     3.540E+00    -4.895E+00    -4.399E+00     0.000E+00     0.000E+00     0.000E+00
X     3.540E+00    -4.895E+00    -3.903E+00     0.000E+00     0.000E+00     0.000E+00
X     3.540E+00    -4.895E+00    -3.408E+00     0.000E+00     0.000E+00     0.000E+00
X     3.540E+00    -4.895E+00    -2.912E+00     0.000E+00     0.000E+00     0.000E+00
X     3.540E+00    -4.895E+00    -2.416E+00     0.000E+00     0.000E+00     0.000E+00
X     3.540E+00    -4.895E+00    -1.921E+00     0.000E+00     0.000E+00     0.000E+00
X     3.540E+00    -4.895E+00    -1.425E+00     0.000E+00     0.000E+00     0.000E+00
X     3.540E+00    -4.895E+00    -9.293E-01     0.000E+00     0.000E+00     0.000E+00
X     3.540E+00    -4.895E+00    -4.337E-01     0.000E+00     0.000E+00     0.000E+00
X     3.540E+00    -4.895E+00     6.196E-02     0.000E+00     0.000E+00     0.000E+00
X     3.540E+00    -4.895E+00     5.576E-01     0.000E+00     0.000E+00     0.000E+00
X     3.540E+00    -4.895E+00     1.053E+00     0.000E+00     0.000E+00     0.000E+00
X     3.540E+00    -4.895E+00     1.549E+00     0.000E+00     0.000E+00     0.000E+00
X     3.540E+00    -4.895E+00     2.045E+00     0.000E+00     0.000E+00     0.000E+00
X     3.540E+00    -4.895E+00     2.540E+00     0.000E+00     0.000E+00     0.000E+00
X     3.540E+00    -4.895E+00     3.036E+00     0.000E+00     0.000E+00     0.000E+00
X     3.540E+00    -4.895E+00     3.531E+00     0.000E+00     0.000E+00     0.000E+00
X     3.540E+00    -4.895E+00     4.027E+00     0.000E+00     0.000E+00     0.000E+00
X     3.540E+00    -4.895E+00     4.523E+00     0.000E+00     0.000E+00     0.000E+00
X     3.540E+00    -4.399E+00    -4.895E+00     0.000E+00     0.000E+00     0.000E+00
X     3.540E+00    -4.399E+00    -4.399E+00     0.000E+00     0.000E+00     0.000E+00
X     3.540E+00    -4.399E+00    -3.903E+00     0.000E+00     0.000E+00     0.000E+00
X     3.540E+00    -4.399E+00    -3.408E+00     0.000E+00     0.000E+00     0.000E+00
X     3.540E+00    -4.399E+00    -2.912E+00     0.000E+00     0.000E+00     0.000E+00
X     3.540E+00    -4.399E+00    -2.416E+00     0.000E+00     0.000E+00     0.000E+00
X     3.540E+00    -4.399E+00    -1.921E+00     0.000E+00     0.000E+00     0.000E+00
X     3.540E+00    -4.399E+00    -1.425E+00     0.000E+00     0.000E+00     0.000E+00
X     3.540E+00    -4.399E+00    -9.293E-01     0.000E+00     0.000E+00     0.000E+00
X     3.540E+00    -4.399E+00    -4.337E-01     0.000E+00     0.000E+00     0.000E+00
X     3.540E+00    -4.399E+00     6.196E-02     0.000E+00     0.000E+00     0.000E+00
X     3.540E+00    -4.399E+00     5.576E-01     0.000E+00     0.000E+00     0.000E+00
X     3.540E+00    -4.399E+00     1.053E+00     0.000E+00     0.000E+00     0.000E+00
X     3.540E+00    -4.399E+00     1.549E+00     0.000E+00     0.000E+00     0.000E+00
X     3.540E+00    -4.399E+00     2.045E+00     0.000E+00     0.000E+00     0.000E+00
X     3.540E+00    -4.399E+00     2.540E+00     0.000E+00     0.000E+00     0.000E+00
X     3.540E+00    -4.399E+00     3.036E+00     0.000E+00     0.000E+00     0.000E+00
X     3.540E+00    -4.399E+00     3.531E+00     0.000E+00     0.000E+00     0.000E+00
X     3.540E+00    -4.399E+00     4.027E+00     0.000E+00     0.000E+00     0.000E+00
X     3.540E+00    -4.399E+00     4.523E+00     0.000E+00     0.000E+00     0.000E+00
X     3.540E+00    -3.903E+00    -4.895E+00     0.000E+00     0.000E+00     0.000E+00
X     3.540E+00    -3.903E+00    -4.399E+00     0.000E+00     0.000E+00     0.000E+00
X     3.540E+00    -3.903E+00    -3.903E+00     0.000E+00     0.000E+00     0.000E+00
X     3.540E+00    -3.903E+00    -3.408E+00     0.000E+00     0.000E+00     0.000E+00
X     3.540E+00    -3.903E+00    -2.912E+00     0.000E+00     0.000E+00     0.000E+00
X     3.540E+00    -3.903E+00    -2.416E+00     0.000E+00     0.000E+00     0.000E+00
X     3.540E+00    -3.903E+00    -1.921E+00     0.000E+00     0.000E+00     0.000E+00
X     3.540E+00    -3.903E+00    -1.425E+00     0.000E+00     0.000E+00     0.000E+00
X     3.540E+00    -3.903E+00    -9.293E-01     0.000E+00     0.000E+00     0.000E+00
X     3.540E+00    -3.903E+00    -4.337E-01     7.746E-13     3.991E-12     4.515E-12
X     3.540E+00    -3.903E+00     6.196E-02     7.991E-12     4.116E-11     4.656E-11
X     3.540E+00    -3.903E+00     5.576E-01     6.574E-12     3.386E-11     3.830E-11
X     3.540E+00    -3.903E+00     1.053E+00     0.000E+00     0.000E+00     0.000E+00
X     3.540E+00    -3.903E+00     1.549E+00     0.000E+00     0.000E+00     0.000E+00
X     3.540E+00    -3.903E+00     2.045E+00     0.000E+00     0.000E+00     0.000E+00
X     3.540E+00    -3.903E+00     2.540E+00     0.000E+00     0.000E+00     0.000E+00
X     3.540E+00    -3.903E+00     3.036E+00     0.000E+00     0.000E+00     0.000E+00
X     3.540E+00    -3.903E+00     3.531E+00     0.000E+00     0.000E+00     0.000E+00
X     3.540E+00    -3.903E+00     4.027E+00     0.000E+00     0.000E+00     0.000E+00
X     3.540E+00    -3.903E+00     4.523E+00     0.000E+00     0.000E+00     0.000E+00
X     3.540E+00    -3.408E+00    -4.895E+00     0.000E+00     0.000E+00     0.000E+00
X     3.540E+00    -3.408E+00    -4.399E+00     0.000E+00     0.000E+00     0.000E+00
X     3.540E+00    -3.408E+00    -3.903E+00     0.000E+00     0.000E+00     0.000E+00
X     3.540E+00    -3.408E+00    -3.408E+00     0.000E+00     0.000E+00     0.000E+00
X     3.540E+00    -3.408E+00    -2.912E+00     0.000E+00     0.000E+00     0.000E+00
X     3.540E+00    -3.408E+00    -2.416E+00     0.000E+00     0.000E+00     0.000E+00
X     3.540E+00    -3.408E+00    -1.921E+00     3.353E-12     1.728E-11     1.955E-11
X     3.540E+00    -3.408E+00    -1.425E+00     9.551E-08     4.922E-07     5.568E-07
X     3.540E+00    -3.408E+00    -9.293E-01     4.045E-07     2.084E-06     2.358E-06
X     3.540E+00    -3.408E+00    -4.337E-01     7.096E-07     3.656E-06     4.135E-06
X     3.540E+00    -3.408E+00     6.196E-02     8.139E-07     4.192E-06     4.742E-06
X     3.540E+00    -3.408E+00     5.576E-01     6.459E-07     3.326E-06     3.763E-06
X     3.540E+00    -3.408E+00     1.053E+00     3.193E-07     1.644E-06     1.860E-06
X     3.540E+00    -3.408E+00     1.549E+00     4.431E-08     2.281E-07     2.580E-07
X     3.540E+00    -3.408E+00     2.045E+00     0.000E+00     0.000E+00     0.000E+00
X     3.540E+00    -3.408E+00     2.540E+00     0.000E+00     0.000E+00     0.000E+00
X     3.540E+00    -3.408E+00     3.036E+00     0.000E+00     0.000E+00     0.000E+00
X     3.540E+00    -3.408E+00     3.531E+00     0.000E+00     0.000E+00     0.000E+00
X     3.540E+00    -3.408E+00     4.027E+00     0.000E+00     0.000E+00     0.000E+00
X     3.540E+00    -3.408E+00     4.523E+00     0.000E+00     0.000E+00     0.000E+00
X     3.540E+00    -2.912E+00    -4.895E+00     0.000E+00     0.000E+00     0.000E+00
X     3.540E+00    -2.912E+00    -4.399E+00     0.000E+00     0.000E+00     0.000E+00
X     3.540E+00    -2.912E+00    -3.903E+00     0.000E+00     0.000E+00     0.000E+00
X     3.540E+00    -2.912E+00    -3.408E+00     0.000E+00     0.000E+00     0.000E+00
X     3.540E+00    -2.912E+00    -2.912E+00     0.000E+00     0.000E+00     0.000E+00
X     3.540E+00    -2.912E+00    -2.416E+00     1.479E-08     7.625E-08     8.626E-08
X     3.540E+00    -2.912E+00    -1.921E+00     5.291E-07     2.727E-06     3.085E-06
X     3.540E+00    -2.912E+00    -1.425E+00     1.699E-06     8.758E-06     9.908E-06
X     3.540E+00    -2.912E+00    -9.293E-01     3.319E-06     1.710E-05     1.934E-05
X     3.540E+00    -2.912E+00    -4.337E-01     4.715E-06     2.429E-05     2.748E-05
X     3.540E+00    -2.912E+00     6.196E-02     5.174E-06     2.665E-05     3.015E-05
X     3.540E+00    -2.912E+00     5.576E-01     4.432E-06     2.282E-05     2.582E-05
X     3.540E+00    -2.912E+00     1.053E+00     2.907E-06     1.496E-05     1.693E-05
X     3.540E+00    -2.912E+00     1.549E+00     1.349E-06     6.944E-06     7.856E-06
X     3.540E+00    -2.912E+00     2.045E+00     3.398E-07     1.749E-06     1.978E-06
X     3.540E+00    -2.912E+00     2.540E+00     1.324E-10     6.809E-10     7.703E-10
X     3.540E+00    -2.912E+00     3.036E+00     0.000E+00     0.000E+00     0.000E+00
X     3.540E+00    -2.912E+00     3.531E+00     0.000E+00     0.000E+00     0.000E+00
X     3.540E+00    -2.912E+00     4.027E+00     0.000E+00     0.000E+00     0.000E+00
X     3.540E+00    -2.912E+00     4.523E+00     0.000E+00     0.000E+00     0.000E+00
X     3.540E+00    -2.416E+00    -4.895E+00     0.000E+00     0.000E+00     0.000E+00
X     3.540E+00    -2.416E+00    -4.399E+00     0.000E+00     0.000E+00     0.000E+00
X     3.540E+00    -2.416E+00    -3.903E+00     0.000E+00     0.000E+00     0.000E+00
X     3.540E+00    -2.416E+00    -3.408E+00     0.000E+00     0.000E+00     0.000E+00
X     3.540E+00    -2.416E+00    -2.912E+00     1.479E-08     7.624E-08     8.626E-08
X     3.540E+00    -2.416E+00    -2.416E+00     7.774E-07     4.007E-06     4.534E-06
X     3.540E+00    -2.416E+00    -1.921E+00     3.003E-06     1.547E-05     1.751E-05
X     3.540E+00    -2.416E+00    -1.425E+00     6.999E-06     3.606E-05     4.080E-05
X     3.540E+00    -2.416E+00    -9.293E-01     1.232E-05     6.348E-05     7.181E-05
X     3.540E+00    -2.416E+00    -4.337E-01     1.708E-05     8.798E-05     9.952E-05
X     3.540E+00    -2.416E+00     6.196E-02     1.868E-05     9.617E-05     1.088E-04
X     3.540E+00    -2.416E+00     5.576E-01     1.610E-05     8.291E-05     9.379E-05
X     3.540E+00    -2.416E+00     1.053E+00     1.095E-05     5.637E-05     6.377E-05
X     3.540E+00    -2.416E+00     1.549E+00     5.850E-06     3.010E-05     3.405E-05
X     3.540E+00    -2.416E+00     2.045E+00     2.282E-06     1.174E-05     1.328E-05
X     3.540E+00    -2.416E+00     2.540E+00     4.776E-07     2.456E-06     2.779E-06
X     3.540E+00    -2.416E+00     3.036E+00     4.162E-11     2.140E-10     2.422E-10
X     3.540E+00    -2.416E+00     3.531E+00     0.000E+00     0.000E+00     0.000E+00
X     3.540E+00    -2.416E+00     4.027E+00     0.000E+00     0.000E+00     0.000E+00
X     3.540E+00    -2.416E+00     4.523E+00     0.000E+00     0.000E+00     0.000E+00
X     3.540E+00    -1.921E+00    -4.895E+00     0.000E+00     0.000E+00     0.000E+00
X     3.540E+00    -1.921E+00    -4.399E+00     0.000E+00     0.000E+00     0.000E+00
X     3.540E+00    -1.921E+00    -3.903E+00     0.000E+00     0.000E+00     0.000E+00
X     3.540E+00    -1.921E+00    -3.408E+00     3.353E-12     1.728E-11     1.955E-11
X     3.540E+00    -1.921E+00    -2.912E+00     5.290E-07     2.727E-06     3.085E-06
X     3.540E+00    -1.921E+00    -2.416E+00     3.003E-06     1.547E-05     1.751E-05
X     3.540E+00    -1.921E+00    -1.921E+00     8.884E-06     4.578E-05     5.179E-05
X     3.540E+00    -1.921E+00    -1.425E+00     1.981E-05     1.021E-04     1.155E-04
X     3.540E+00    -1.921E+00    -9.293E-01     3.515E-05     1.810E-04     2.047E-04
X     3.540E+00    -1.921E+00    -4.337E-01     4.969E-05     2.558E-04     2.893E-04
X     3.540E+00    -1.921E+00     6.196E-02     5.474E-05     2.817E-04     3.187E-04
X     3.540E+00    -1.921E+00     5.576E-01     4.663E-05     2.399E-04     2.714E-04
X     3.540E+00    -1.921E+00     1.053E+00     3.111E-05     1.601E-04     1.811E-04
X     3.540E+00    -1.921E+00     1.549E+00     1.660E-05     8.540E-05     9.662E-05
X     3.540E+00    -1.921E+00     2.045E+00     7.011E-06     3.606E-05     4.080E-05
X     3.540E+00    -1.921E+00     2.540E+00     2.125E-06     1.093E-05     1.236E-05
X     3.540E+00    -1.921E+00     3.036E+00     2.631E-07     1.353E-06     1.530E-06
X     3.540E+00    -1.921E+00     3.531E+00     0.000E+00     0.000E+00     0.000E+00
X     3.540E+00    -1.921E+00     4.027E+00     0.000E+00     0.000E+00     0.000E+00
X     3.540E+00    -1.921E+00     4.523E+00     0.000E+00     0.000E+00     0.000E+00
X     3.540E+00    -1.425E+00    -4.895E+00     0.000E+00     0.000E+00     0.000E+00
X     3.540E+00    -1.425E+00    -4.399E+00     0.000E+00     0.000E+00     0.000E+00
X     3.540E+00    -1.425E+00    -3.903E+00     0.000E+00     0.000E+00     0.000E+00
X     3.540E+00    -1.425E+00    -3.408E+00     9.550E-08     4.921E-07     5.569E-07
X     3.540E+00    -1.425E+00    -2.912E+00     1.699E-06     8.757E-06     9.909E-06
X     3.540E+00    -1.425E+00    -2.416E+00     6.998E-06     3.606E-05     4.080E-05
X     3.540E+00    -1.425E+00    -1.921E+00     1.981E-05     1.020E-04     1.155E-04
X     3.540E+00    -1.425E+00    -1.425E+00     4.515E-05     2.324E-04     2.630E-04
X     3.540E+00    -1.425E+00    -9.293E-01     8.432E-05     4.336E-04     4.906E-04
X     3.540E+00    -1.425E+00    -4.337E-01     1.239E-04     6.369E-04     7.205E-04
X     3.540E+00    -1.425E+00     6.196E-02     1.382E-04     7.102E-04     8.035E-04
X     3.540E+00    -1.425E+00     5.576E-01     1.153E-04     5.929E-04     6.708E-04
X     3.540E+00    -1.425E+00     1.053E+00     7.365E-05     3.789E-04     4.286E-04
X     3.540E+00    -1.425E+00     1.549E+00     3.743E-05     1.925E-04     2.178E-04
X     3.540E+00    -1.425E+00     2.045E+00     1.565E-05     8.047E-05     9.105E-05
X     3.540E+00    -1.425E+00     2.540E+00     5.183E-06     2.664E-05     3.015E-05
X     3.540E+00    -1.425E+00     3.036E+00     1.058E-06     5.437E-06     6.152E-06
X     3.540E+00    -1.425E+00     3.531E+00     5.248E-09     2.697E-08     3.052E-08
X     3.540E+00    -1.425E+00     4.027E+00     0.000E+00     0.000E+00     0.000E+00
X     3.540E+00    -1.425E+00     4.523E+00     0.000E+00     0.000E+00     0.000E+00
X     3.540E+00    -9.293E-01    -4.895E+00     0.000E+00     0.000E+00     0.000E+00
X     3.540E+00    -9.293E-01    -4.399E+00     0.000E+00     0.000E+00     0.000E+00
X     3.540E+00    -9.293E-01    -3.903E+00     0.000E+00     0.000E+00     0.000E+00
X     3.540E+00    -9.293E-01    -3.408E+00     4.045E-07     2.084E-06     2.358E-06
X     3.540E+00    -9.293E-01    -2.912E+00     3.318E-06     1.710E-05     1.935E-05
X     3.540E+00    -9.293E-01    -2.416E+00     1.232E-05     6.347E-05     7.181E-05
X     3.540E+00    -9.293E-01    -1.921E+00     3.515E-05     1.810E-04     2.048E-04
X     3.540E+00    -9.293E-01    -1.425E+00     8.432E-05     4.336E-04     4.906E-04
X     3.540E+00    -9.293E-01    -9.293E-01     1.667E-04     8.556E-04     9.681E-04
X     3.540E+00    -9.293E-01    -4.337E-01     2.577E-04     1.320E-03     1.494E-03
X     3.540E+00    -9.293E-01     6.196E-02     2.916E-04     1.495E-03     1.692E-03
X     3.540E+00    -9.293E-01     5.576E-01     2.367E-04     1.217E-03     1.377E-03
X     3.540E+00    -9.293E-01     1.053E+00     1.432E-04     7.368E-04     8.337E-04
X     3.540E+00    -9.293E-01     1.549E+00     6.890E-05     3.544E-04     4.010E-04
X     3.540E+00    -9.293E-01     2.045E+00     2.758E-05     1.418E-04     1.604E-04
X     3.540E+00    -9.293E-01     2.540E+00     9.175E-06     4.716E-05     5.336E-05
X     3.540E+00    -9.293E-01     3.036E+00     2.204E-06     1.133E-05     1.282E-05
X     3.540E+00    -9.293E-01     3.531E+00     1.547E-07     7.951E-07     8.996E-07
X     3.540E+00    -9.293E-01     4.027E+00     0.000E+00     0.000E+00     0.000E+00
X     3.540E+00    -9.293E-01     4.523E+00     0.000E+00     0.000E+00     0.000E+00
X     3.540E+00    -4.337E-01    -4.895E+00     0.000E+00     0.000E+00     0.000E+00
X     3.540E+00    -4.337E-01    -4.399E+00     0.000E+00     0.000E+00     0.000E+00
X     3.540E+00    -4.337E-01    -3.903E+00     7.745E-13     3.990E-12     4.515E-12
X     3.540E+00    -4.337E-01    -3.408E+00     7.094E-07     3.655E-06     4.136E-06
X     3.540E+00    -4.337E-01    -2.912E+00     4.714E-06     2.429E-05     2.748E-05
X     3.540E+00    -4.337E-01    -2.416E+00     1.708E-05     8.796E-05     9.953E-05
X     3.540E+00    -4.337E-01    -1.921E+00     4.968E-05     2.557E-04     2.893E-04
X     3.540E+00    -4.337E-01    -1.425E+00     1.239E-04     6.369E-04     7.206E-04
X     3.540E+00    -4.337E-01    -9.293E-01     2.577E-04     1.320E-03     1.494E-03
X     3.540E+00    -4.337E-01    -4.337E-01     4.149E-04     2.120E-03     2.399E-03
X     3.540E+00    -4.337E-01     6.196E-02     4.754E-04     2.437E-03     2.758E-03
X     3.540E+00    -4.337E-01     5.576E-01     3.764E-04     1.938E-03     2.193E-03
X     3.540E+00    -4.337E-01     1.053E+00     2.180E-04     1.123E-03     1.271E-03
X     3.540E+00    -4.337E-01     1.549E+00     1.001E-04     5.150E-04     5.828E-04
X     3.540E+00    -4.337E-01     2.045E+00     3.863E-05     1.986E-04     2.247E-04
X     3.540E+00    -4.337E-01     2.540E+00     1.272E-05     6.538E-05     7.398E-05
X     3.540E+00    -4.337E-01     3.036E+00     3.219E-06     1.654E-05     1.872E-05
X     3.540E+00    -4.337E-01     3.531E+00     3.403E-07     1.748E-06     1.978E-06
X     3.540E+00    -4.337E-01     4.027E+00     0.000E+00     0.000E+00     0.000E+00
X     3.540E+00    -4.337E-01     4.523E+00     0.000E+00     0.000E+00     0.000E+00
X     3.540E+00     6.196E-02    -4.895E+00     0.000E+00     0.000E+00     0.000E+00
X     3.540E+00     6.196E-02    -4.399E+00     0.000E+00     0.000E+00     0.000E+00
X     3.540E+00     6.196E-02    -3.903E+00     7.989E-12     4.115E-11     4.657E-11
X     3.540E+00     6.196E-02    -3.408E+00     8.137E-07     4.192E-06     4.743E-06
X     3.540E+00     6.196E-02    -2.912E+00     5.173E-06     2.664E-05     3.015E-05
X     3.540E+00     6.196E-02    -2.416E+00     1.867E-05     9.615E-05     1.088E-04
X     3.540E+00     6.196E-02    -1.921E+00     5.474E-05     2.817E-04     3.187E-04
X     3.540E+00     6.196E-02    -1.425E+00     1.382E-04     7.102E-04     8.035E-04
X     3.540E+00     6.196E-02    -9.293E-01     2.917E-04     1.495E-03     1.692E-03
X     3.540E+00     6.196E-02    -4.337E-01     4.757E-04     2.438E-03     2.758E-03
X     3.540E+00     6.196E-02     6.196E-02     5.474E-04     2.820E-03     3.190E-03
X     3.540E+00     6.196E-02     5.576E-01     4.294E-04     2.220E-03     2.512E-03
X     3.540E+00     6.196E-02     1.053E+00     2.456E-04     1.267E-03     1.434E-03
X     3.540E+00     6.196E-02     1.549E+00     1.112E-04     5.722E-04     6.475E-04
X     3.540E+00     6.196E-02     2.045E+00     4.244E-05     2.182E-04     2.469E-04
X     3.540E+00     6.196E-02     2.540E+00     1.391E-05     7.146E-05     8.086E-05
X     3.540E+00     6.196E-02     3.036E+00     3.553E-06     1.825E-05     2.065E-05
X     3.540E+00     6.196E-02     3.531E+00     4.057E-07     2.084E-06     2.358E-06
X     3.540E+00     6.196E-02     4.027E+00     0.000E+00     0.000E+00     0.000E+00
X     3.540E+00     6.196E-02     4.523E+00     0.000E+00     0.000E+00     0.000E+00
X     3.540E+00     5.576E-01    -4.895E+00     0.000E+00     0.000E+00     0.000E+00
X     3.540E+00     5.576E-01    -4.399E+00     0.000E+00     0.000E+00     0.000E+00
X     3.540E+00     5.576E-01    -3.903E+00     6.573E-12     3.385E-11     3.831E-11
X     3.540E+00     5.576E-01    -3.408E+00     6.458E-07     3.326E-06     3.763E-06
X     3.540E+00     5.576E-01    -2.912E+00     4.432E-06     2.282E-05     2.582E-05
X     3.540E+00     5.576E-01    -2.416E+00     1.610E-05     8.289E-05     9.380E-05
X     3.540E+00     5.576E-01    -1.921E+00     4.662E-05     2.399E-04     2.715E-04
X     3.540E+00     5.576E-01    -1.425E+00     1.153E-04     5.929E-04     6.708E-04
X     3.540E+00     5.576E-01    -9.293E-01     2.369E-04     1.217E-03     1.377E-03
X     3.540E+00     5.576E-01    -4.337E-01     3.766E-04     1.938E-03     2.192E-03
X     3.540E+00     5.576E-01     6.196E-02     4.296E-04     2.220E-03     2.512E-03
X     3.540E+00     5.576E-01     5.576E-01     3.430E-04     1.775E-03     2.008E-03
X     3.540E+00     5.576E-01     1.053E+00     2.011E-04     1.038E-03     1.174E-03
X     3.540E+00     5.576E-01     1.549E+00     9.337E-05     4.805E-04     5.437E-04
X     3.540E+00     5.576E-01     2.045E+00     3.631E-05     1.866E-04     2.112E-04
X     3.540E+00     5.576E-01     2.540E+00     1.199E-05     6.161E-05     6.971E-05
X     3.540E+00     5.576E-01     3.036E+00     3.012E-06     1.547E-05     1.751E-05
X     3.540E+00     5.576E-01     3.531E+00     3.004E-07     1.543E-06     1.746E-06
X     3.540E+00     5.576E-01     4.027E+00     0.000E+00     0.000E+00     0.000E+00
X     3.540E+00     5.576E-01     4.523E+00     0.000E+00     0.000E+00     0.000E+00
X     3.540E+00     1.053E+00    -4.895E+00     0.000E+00     0.000E+00     0.000E+00
X     3.540E+00     1.053E+00    -4.399E+00     0.000E+00     0.000E+00     0.000E+00
X     3.540E+00     1.053E+00    -3.903E+00     0.000E+00     0.000E+00     0.000E+00
X     3.540E+00     1.053E+00    -3.408E+00     3.192E-07     1.644E-06     1.860E-06
X     3.540E+00     1.053E+00    -2.912E+00     2.906E-06     1.496E-05     1.693E-05
X     3.540E+00     1.053E+00    -2.416E+00     1.095E-05     5.636E-05     6.377E-05
X     3.540E+00     1.053E+00    -1.921E+00     3.111E-05     1.601E-04     1.811E-04
X     3.540E+00     1.053E+00    -1.425E+00     7.365E-05     3.789E-04     4.287E-04
X     3.540E+00     1.053E+00    -9.293E-01     1.432E-04     7.368E-04     8.336E-04
X     3.540E+00     1.053E+00    -4.337E-01     2.181E-04     1.123E-03     1.271E-03
X     3.540E+00     1.053E+00     6.196E-02     2.456E-04     1.267E-03     1.434E-03
X     3.540E+00     1.053E+00     5.576E-01     2.011E-04     1.038E-03     1.174E-03
X     3.540E+00     1.053E+00     1.053E+00     1.236E-04     6.369E-04     7.206E-04
X     3.540E+00     1.053E+00     1.549E+00     6.039E-05     3.106E-04     3.514E-04
X     3.540E+00     1.053E+00     2.045E+00     2.447E-05     1.257E-04     1.422E-04
X     3.540E+00     1.053E+00     2.540E+00     8.150E-06     4.186E-05     4.737E-05
X     3.540E+00     1.053E+00     3.036E+00     1.907E-06     9.794E-06     1.108E-05
X     3.540E+00     1.053E+00     3.531E+00     1.064E-07     5.465E-07     6.184E-07
X     3.540E+00     1.053E+00     4.027E+00     0.000E+00     0.000E+00     0.000E+00
X     3.540E+00     1.053E+00     4.523E+00     0.000E+00     0.000E+00     0.000E+00
X     3.540E+00     1.549E+00    -4.895E+00     0.000E+00     0.000E+00     0.000E+00
X     3.540E+00     1.549E+00    -4.399E+00     0.000E+00     0.000E+00     0.000E+00
X     3.540E+00     1.549E+00    -3.903E+00     0.000E+00     0.000E+00     0.000E+00
X     3.540E+00     1.549E+00    -3.408E+00     4.430E-08     2.280E-07     2.580E-07
X     3.540E+00     1.549E+00    -2.912E+00     1.349E-06     6.943E-06     7.857E-06
X     3.540E+00     1.549E+00    -2.416E+00     5.849E-06     3.010E-05     3.406E-05
X     3.540E+00     1.549E+00    -1.921E+00     1.660E-05     8.539E-05     9.662E-05
X     3.540E+00     1.549E+00    -1.425E+00     3.743E-05     1.925E-04     2.178E-04
X     3.540E+00     1.549E+00    -9.293E-01     6.890E-05     3.544E-04     4.010E-04
X     3.540E+00     1.549E+00    -4.337E-01     1.001E-04     5.151E-04     5.827E-04
X     3.540E+00     1.549E+00     6.196E-02     1.112E-04     5.723E-04     6.474E-04
X     3.540E+00     1.549E+00     5.576E-01     9.338E-05     4.806E-04     5.437E-04
X     3.540E+00     1.549E+00     1.053E+00     6.039E-05     3.106E-04     3.514E-04
X     3.540E+00     1.549E+00     1.549E+00     3.115E-05     1.601E-04     1.811E-04
X     3.540E+00     1.549E+00     2.045E+00     1.311E-05     6.735E-05     7.620E-05
X     3.540E+00     1.549E+00     2.540E+00     4.306E-06     2.211E-05     2.502E-05
X     3.540E+00     1.549E+00     3.036E+00     8.162E-07     4.192E-06     4.743E-06
X     3.540E+00     1.549E+00     3.531E+00     2.396E-10     1.231E-09     1.392E-09
X     3.540E+00     1.549E+00     4.027E+00     0.000E+00     0.000E+00     0.000E+00
X     3.540E+00     1.549E+00     4.523E+00     0.000E+00     0.000E+00     0.000E+00
X     3.540E+00     2.045E+00    -4.895E+00     0.000E+00     0.000E+00     0.000E+00
X     3.540E+00     2.045E+00    -4.399E+00     0.000E+00     0.000E+00     0.000E+00
X     3.540E+00     2.045E+00    -3.903E+00     0.000E+00     0.000E+00     0.000E+00
X     3.540E+00     2.045E+00    -3.408E+00     0.000E+00     0.000E+00     0.000E+00
X     3.540E+00     2.045E+00    -2.912E+00     3.397E-07     1.748E-06     1.978E-06
X     3.540E+00     2.045E+00    -2.416E+00     2.281E-06     1.174E-05     1.328E-05
X     3.540E+00     2.045E+00    -1.921E+00     7.010E-06     3.606E-05     4.080E-05
X     3.540E+00     2.045E+00    -1.425E+00     1.565E-05     8.048E-05     9.105E-05
X     3.540E+00     2.045E+00    -9.293E-01     2.757E-05     1.418E-04     1.604E-04
X     3.540E+00     2.045E+00    -4.337E-01     3.863E-05     1.986E-04     2.247E-04
X     3.540E+00     2.045E+00     6.196E-02     4.244E-05     2.182E-04     2.468E-04
X     3.540E+00     2.045E+00     5.576E-01     3.631E-05     1.867E-04     2.112E-04
X     3.540E+00     2.045E+00     1.053E+00     2.446E-05     1.257E-04     1.422E-04
X     3.540E+00     2.045E+00     1.549E+00     1.311E-05     6.735E-05     7.620E-05
X     3.540E+00     2.045E+00     2.045E+00     5.515E-06     2.833E-05     3.205E-05
X     3.540E+00     2.045E+00     2.540E+00     1.580E-06     8.115E-06     9.182E-06
X     3.540E+00     2.045E+00     3.036E+00     1.418E-07     7.283E-07     8.240E-07
X     3.540E+00     2.045E+00     3.531E+00     0.000E+00     0.000E+00     0.000E+00
X     3.540E+00     2.045E+00     4.027E+00     0.000E+00     0.000E+00     0.000E+00
X     3.540E+00     2.045E+00     4.523E+00     0.000E+00     0.000E+00     0.000E+00
X     3.540E+00     2.540E+00    -4.895E+00     0.000E+00     0.000E+00     0.000E+00
X     3.540E+00     2.540E+00    -4.399E+00     0.000E+00     0.000E+00     0.000E+00
X     3.540E+00     2.540E+00    -3.903E+00     0.000E+00     0.000E+00     0.000E+00
X     3.540E+00     2.540E+00    -3.408E+00     0.000E+00     0.000E+00     0.000E+00
X     3.540E+00     2.540E+00    -2.912E+00     1.323E-10     6.808E-10     7.704E-10
X     3.540E+00     2.540E+00    -2.416E+00     4.775E-07     2.456E-06     2.779E-06
X     3.540E+00     2.540E+00    -1.921E+00     2.125E-06     1.093E-05     1.236E-05
X     3.540E+00     2.540E+00    -1.425E+00     5.182E-06     2.665E-05     3.015E-05
X     3.540E+00     2.540E+00    -9.293E-01     9.173E-06     4.716E-05     5.335E-05
X     3.540E+00     2.540E+00    -4.337E-01     1.272E-05     6.539E-05     7.397E-05
X     3.540E+00     2.540E+00     6.196E-02     1.391E-05     7.147E-05     8.086E-05
X     3.540E+00     2.540E+00     5.576E-01     1.199E-05     6.162E-05     6.970E-05
X     3.540E+00     2.540E+00     1.053E+00     8.150E-06     4.187E-05     4.737E-05
X     3.540E+00     2.540E+00     1.549E+00     4.306E-06     2.212E-05     2.502E-05
X     3.540E+00     2.540E+00     2.045E+00     1.580E-06     8.116E-06     9.182E-06
X     3.540E+00     2.540E+00     2.540E+00     2.634E-07     1.353E-06     1.530E-06
X     3.540E+00     2.540E+00     3.036E+00     0.000E+00     0.000E+00     0.000E+00
X     3.540E+00     2.540E+00     3.531E+00     0.000E+00     0.000E+00     0.000E+00
X     3.540E+00     2.540E+00     4.027E+00     0.000E+00     0.000E+00     0.000E+00
X     3.540E+00     2.540E+00     4.523E+00     0.000E+00     0.000E+00     0.000E+00
X     3.540E+00     3.036E+00    -4.895E+00     0.000E+00     0.000E+00     0.000E+00
X     3.540E+00     3.036E+00    -4.399E+00     0.000E+00     0.000E+00     0.000E+00
X     3.540E+00     3.036E+00    -3.903E+00     0.000E+00     0.000E+00     0.000E+00
X     3.540E+00     3.036E+00    -3.408E+00     0.000E+00     0.000E+00     0.000E+00
X     3.540E+00     3.036E+00    -2.912E+00     0.000E+00     0.000E+00     0.000E+00
X     3.540E+00     3.036E+00    -2.416E+00     4.161E-11     2.140E-10     2.422E-10
X     3.540E+00     3.036E+00    -1.921E+00     2.630E-07     1.353E-06     1.530E-06
X     3.540E+00     3.036E+00    -1.425E+00     1.058E-06     5.437E-06     6.151E-06
X     3.540E+00     3.036E+00    -9.293E-01     2.204E-06     1.133E-05     1.282E-05
X     3.540E+00     3.036E+00    -4.337E-01     3.219E-06     1.654E-05     1.871E-05
X     3.540E+00     3.036E+00     6.196E-02     3.553E-06     1.825E-05     2.065E-05
X     3.540E+00     3.036E+00     5.576E-01     3.012E-06     1.547E-05     1.751E-05
X     3.540E+00     3.036E+00     1.053E+00     1.907E-06     9.795E-06     1.108E-05
X     3.540E+00     3.036E+00     1.549E+00     8.162E-07     4.192E-06     4.742E-06
X     3.540E+00     3.036E+00     2.045E+00     1.418E-07     7.283E-07     8.239E-07
X     3.540E+00     3.036E+00     2.540E+00     0.000E+00     0.000E+00     0.000E+00
X     3.540E+00     3.036E+00     3.036E+00     0.000E+00     0.000E+00     0.000E+00
X     3.540E+00     3.036E+00     3.531E+00     0.000E+00     0.000E+00     0.000E+00
X     3.540E+00     3.036E+00     4.027E+00     0.000E+00     0.000E+00     0.000E+00
X     3.540E+00     3.036E+00     4.523E+00     0.000E+00     0.000E+00     0.000E+00
X     3.540E+00     3.531E+00    -4.895E+00     0.000E+00     0.000E+00     0.000E+00
X     3.540E+00     3.531E+00    -4.399E+00     0.000E+00     0.000E+00     0.000E+00
X     3.540E+00     3.531E+00    -3.903E+00     0.000E+00     0.000E+00     0.000E+00
X     3.540E+00     3.531E+00    -3.408E+00     0.000E+00     0.000E+00     0.000E+00
X     3.540E+00     3.531E+00    -2.912E+00     0.000E+00     0.000E+00     0.000E+00
X     3.540E+00     3.531E+00    -2.416E+00     0.000E+00     0.000E+00     0.000E+00
X     3.540E+00     3.531E+00    -1.921E+00     0.000E+00     0.000E+00     0.000E+00
X     3.540E+00     3.531E+00    -1.425E+00     5.247E-09     2.697E-08     3.052E-08
X     3.540E+00     3.531E+00    -9.293E-01     1.547E-07     7.952E-07     8.996E-07
X     3.540E+00     3.531E+00    -4.337E-01     3.402E-07     1.748E-06     1.978E-06
X     3.540E+00     3.531E+00     6.196E-02     4.057E-07     2.084E-06     2.358E-06
X     3.540E+00     3.531E+00     5.576E-01     3.004E-07     1.543E-06     1.746E-06
X     3.540E+00     3.531E+00     1.053E+00     1.064E-07     5.466E-07     6.183E-07
X     3.540E+00     3.531E+00     1.549E+00     2.396E-10     1.231E-09     1.392E-09
X     3.540E+00     3.531E+00     2.045E+00     0.000E+00     0.000E+00     0.000E+00
X     3.540E+00     3.531E+00     2.540E+00     0.000E+00     0.000E+00     0.000E+00
X     3.540E+00     3.531E+00     3.036E+00     0.000E+00     0.000E+00     0.000E+00
X     3.540E+00     3.531E+00     3.531E+00     0.000E+00     0.000E+00     0.000E+00
X     3.540E+00     3.531E+00     4.027E+00     0.000E+00     0.000E+00     0.000E+00
X     3.540E+00     3.531E+00     4.523E+00     0.000E+00     0.000E+00     0.000E+00
X     3.540E+00     4.027E+00    -4.895E+00     0.000E+00     0.000E+00     0.000E+00
X     3.540E+00     4.027E+00    -4.399E+00     0.000E+00     0.000E+00     0.000E+00
X     3.540E+00     4.027E+00    -3.903E+00     0.000E+00     0.000E+00     0.000E+00
X     3.540E+00     4.027E+00    -3.408E+00     0.000E+00     0.000E+00     0.000E+00
X     3.540E+00     4.027E+00    -2.912E+00     0.000E+00     0.000E+00     0.000E+00
X     3.540E+00     4.027E+00    -2.416E+00     0.000E+00     0.000E+00     0.000E+00
X     3.540E+00     4.027E+00    -1.921E+00     0.000E+00     0.000E+00     0.000E+00
X     3.540E+00     4.027E+00    -1.425E+00     0.000E+00     0.000E+00     0.000E+00
X     3.540E+00     4.027E+00    -9.293E-01     0.000E+00     0.000E+00     0.000E+00
X     3.540E+00     4.027E+00    -4.337E-01     0.000E+00     0.000E+00     0.000E+00
X     3.540E+00     4.027E+00     6.196E-02     0.000E+00     0.000E+00     0.000E+00
X     3.540E+00     4.027E+00     5.576E-01     0.000E+00     0.000E+00     0.000E+00
X     3.540E+00     4.027E+00     1.053E+00     0.000E+00     0.000E+00     0.000E+00
X     3.540E+00     4.027E+00     1.549E+00     0.000E+00     0.000E+00     0.000E+00
X     3.540E+00     4.027E+00     2.045E+00     0.000E+00     0.000E+00     0.000E+00
X     3.540E+00     4.027E+00     2.540E+00     0.000E+00     0.000E+00     0.000E+00
X     3.540E+00     4.027E+00     3.036E+00     0.000E+00     0.000E+00     0.000E+00
X     3.540E+00     4.027E+00     3.531E+00     0.000E+00     0.000E+00     0.000E+00
X     3.540E+00     4.027E+00     4.027E+00     0.000E+00     0.000E+00     0.000E+00
X     3.540E+00     4.027E+00     4.523E+00     0.000E+00     0.000E+00     0.000E+00
X     3.540E+00     4.523E+00    -4.895E+00     0.000E+00     0.000E+00     0.000E+00
X     3.540E+00     4.523E+00    -4.399E+00     0.000E+00     0.000E+00     0.000E+00
X     3.540E+00     4.523E+00    -3.903E+00     0.000E+00     0.000E+00     0.000E+00
X     3.540E+00     4.523E+00    -3.408E+00     0.000E+00     0.000E+00     0.000E+00
X     3.540E+00     4.523E+00    -2.912E+00     0.000E+00     0.000E+00     0.000E+00
X     3.540E+00     4.523E+00    -2.416E+00     0.000E+00     0.000E+00     0.000E+00
X     3.540E+00     4.523E+00    -1.921E+00     0.000E+00     0.000E+00     0.000E+00
X     3.540E+00     4.523E+00    -1.425E+00     0.000E+00     0.000E+00     0.000E+00
X     3.540E+00     4.523E+00    -9.293E-01     0.000E+00     0.000E+00     0.000E+00
X     3.540E+00     4.523E+00    -4.337E-01     0.000E+00     0.000E+00     0.000E+00
X     3.540E+00     4.523E+00     6.196E-02     0.000E+00     0.000E+00     0.000E+00
X     3.540E+00     4.523E+00     5.576E-01     0.000E+00     0.000E+00     0.000E+00
X     3.540E+00     4.523E+00     1.053E+00     0.000E+00     0.000E+00     0.000E+00
X     3.540E+00     4.523E+00     1.549E+00     0.000E+00     0.000E+00     0.000E+00
X     3.540E+00     4.523E+00     2.045E+00     0.000E+00     0.000E+00     0.000E+00
X     3.540E+00     4.523E+00     2.540E+00     0.000E+00     0.000E+00     0.000E+00
X     3.540E+00     4.523E+00     3.036E+00     0.000E+00     0.000E+00     0.000E+00
X     3.540E+00     4.523E+00     3.531E+00     0.000E+00     0.000E+00     0.000E+00
X     3.540E+00     4.523E+00     4.027E+00     0.000E+00     0.000E+00     0.000E+00
X     3.540E+00     4.523E+00     4.523E+00     0.000E+00     0.000E+00     0.000E+00
X     4.036E+00    -4.895E+00    -4.895E+00     0.000E+00     0.000E+00     0.000E+00
X     4.036E+00    -4.895E+00    -4.399E+00     0.000E+00     0.000E+00     0.000E+00
X     4.036E+00    -4.895E+00    -3.903E+00     0.000E+00     0.000E+00     0.000E+00
X     4.036E+00    -4.895E+00    -3.408E+00     0.000E+00     0.000E+00     0.000E+00
X     4.036E+00    -4.895E+00    -2.912E+00     0.000E+00     0.000E+00     0.000E+00
X     4.036E+00    -4.895E+00    -2.416E+00     0.000E+00     0.000E+00     0.000E+00
X     4.036E+00    -4.895E+00    -1.921E+00     0.000E+00     0.000E+00     0.000E+00
X     4.036E+00    -4.895E+00    -1.425E+00     0.000E+00     0.000E+00     0.000E+00
X     4.036E+00    -4.895E+00    -9.293E-01     0.000E+00     0.000E+00     0.000E+00
X     4.036E+00    -4.895E+00    -4.337E-01     0.000E+00     0.000E+00     0.000E+00
X     4.036E+00    -4.895E+00     6.196E-02     0.000E+00     0.000E+00     0.000E+00
X     4.036E+00    -4.895E+00     5.576E-01     0.000E+00     0.000E+00     0.000E+00
X     4.036E+00    -4.895E+00     1.053E+00     0.000E+00     0.000E+00     0.000E+00
X     4.036E+00    -4.895E+00     1.549E+00     0.000E+00     0.000E+00     0.000E+00
X     4.036E+00    -4.895E+00     2.045E+00     0.000E+00     0.000E+00     0.000E+00
X     4.036E+00    -4.895E+00     2.540E+00     0.000E+00     0.000E+00     0.000E+00
X     4.036E+00    -4.895E+00     3.036E+00     0.000E+00     0.000E+00     0.000E+00
X     4.036E+00    -4.895E+00     3.531E+00     0.000E+00     0.000E+00     0.000E+00
X     4.036E+00    -4.895E+00     4.027E+00     0.000E+00     0.000E+00     0.000E+00
X     4.036E+00    -4.895E+00     4.523E+00     0.000E+00     0.000E+00     0.000E+00
X     4.036E+00    -4.399E+00    -4.895E+00     0.000E+00     0.000E+00     0.000E+00
X     4.036E+00    -4.399E+00    -4.399E+00     0.000E+00     0.000E+00     0.000E+00
X     4.036E+00    -4.399E+00    -3.903E+00     0.000E+00     0.000E+00     0.000E+00
X     4.036E+00    -4.399E+00    -3.408E+00     0.000E+00     0.000E+00     0.000E+00
X     4.036E+00    -4.399E+00    -2.912E+00     0.000E+00     0.000E+00     0.000E+00
X     4.036E+00    -4.399E+00    -2.416E+00     0.000E+00     0.000E+00     0.000E+00
X     4.036E+00    -4.399E+00    -1.921E+00     0.000E+00     0.000E+00     0.000E+00
X     4.036E+00    -4.399E+00    -1.425E+00     0.000E+00     0.000E+00     0.000E+00
X     4.036E+00    -4.399E+00    -9.293E-01     0.000E+00     0.000E+00     0.000E+00
X     4.036E+00    -4.399E+00    -4.337E-01     0.000E+00     0.000E+00     0.000E+00
X     4.036E+00    -4.399E+00     6.196E-02     0.000E+00     0.000E+00     0.000E+00
X     4.036E+00    -4.399E+00     5.576E-01     0.000E+00     0.000E+00     0.000E+00
X     4.036E+00    -4.399E+00     1.053E+00     0.000E+00     0.000E+00     0.000E+00
X     4.036E+00    -4.399E+00     1.549E+00     0.000E+00     0.000E+00     0.000E+00
X     4.036E+00    -4.399E+00     2.045E+00     0.000E+00     0.000E+00     0.000E+00
X     4.036E+00    -4.399E+00     2.540E+00     0.000E+00     0.000E+00     0.000E+00
X     4.036E+00    -4.399E+00     3.036E+00     0.000E+00     0.000E+00     0.000E+00
X     4.036E+00    -4.399E+00     3.531E+00     0.000E+00     0.000E+00     0.000E+00
X     4.036E+00    -4.399E+00     4.027E+00     0.000E+00     0.000E+00     0.000E+00
X     4.036E+00    -4.399E+00     4.523E+00     0.000E+00     0.000E+00     0.000E+00
X     4.036E+00    -3.903E+00    -4.895E+00     0.000E+00     0.000E+00     0.000E+00
X     4.036E+00    -3.903E+00    -4.399E+00     0.000E+00     0.000E+00     0.000E+00
X     4.036E+00    -3.903E+00    -3.903E+00     0.000E+00     0.000E+00     0.000E+00
X     4.036E+00    -3.903E+00    -3.408E+00     0.000E+00     0.000E+00     0.000E+00
X     4.036E+00    -3.903E+00    -2.912E+00     0.000E+00     0.000E+00     0.000E+00
X     4.036E+00    -3.903E+00    -2.416E+00     0.000E+00     0.000E+00     0.000E+00
X     4.036E+00    -3.903E+00    -1.921E+00     0.000E+00     0.000E+00     0.000E+00
X     4.036E+00    -3.903E+00    -1.425E+00     0.000E+00     0.000E+00     0.000E+00
X     4.036E+00    -3.903E+00    -9.293E-01     0.000E+00     0.000E+00     0.000E+00
X     4.036E+00    -3.903E+00    -4.337E-01     0.000E+00     0.000E+00     0.000E+00
X     4.036E+00    -3.903E+00     6.196E-02     0.000E+00     0.000E+00     0.000E+00
X     4.036E+00    -3.903E+00     5.576E-01     0.000E+00     0.000E+00     0.000E+00
X     4.036E+00    -3.903E+00     1.053E+00     0.000E+00     0.000E+00     0.000E+00
X     4.036E+00    -3.903E+00     1.549E+00     0.000E+00     0.000E+00     0.000E+00
X     4.036E+00    -3.903E+00     2.045E+00     0.000E+00     0.000E+00     0.000E+00
X     4.036E+00    -3.903E+00     2.540E+00     0.000E+00     0.000E+00     0.000E+00
X     4.036E+00    -3.903E+00     3.036E+00     0.000E+00     0.000E+00     0.000E+00
X     4.036E+00    -3.903E+00     3.531E+00     0.000E+00     0.000E+00     0.000E+00
X     4.036E+00    -3.903E+00     4.027E+00     0.000E+00     0.000E+00     0.000E+00
X     4.036E+00    -3.903E+00     4.523E+00     0.000E+00     0.000E+00     0.000E+00
X     4.036E+00    -3.408E+00    -4.895E+00     0.000E+00     0.000E+00     0.000E+00
X     4.036E+00    -3.408E+00    -4.399E+00     0.000E+00     0.000E+00     0.000E+00
X     4.036E+00    -3.408E+00    -3.903E+00     0.000E+00     0.000E+00     0.000E+00
X     4.036E+00    -3.408E+00    -3.408E+00     0.000E+00     0.000E+00     0.000E+00
X     4.036E+00    -3.408E+00    -2.912E+00     0.000E+00     0.000E+00     0.000E+00
X     4.036E+00    -3.408E+00    -2.416E+00     0.000E+00     0.000E+00     0.000E+00
X     4.036E+00    -3.408E+00    -1.921E+00     0.000E+00     0.000E+00     0.000E+00
X     4.036E+00    -3.408E+00    -1.425E+00     4.687E-13     2.414E-12     2.731E-12
X     4.036E+00    -3.408E+00    -9.293E-01     1.967E-08     1.013E-07     1.146E-07
X     4.036E+00    -3.408E+00    -4.337E-01     1.047E-07     5.394E-07     6.102E-07
X     4.036E+00    -3.408E+00     6.196E-02     1.393E-07     7.172E-07     8.113E-07
X     4.036E+00    -3.408E+00     5.576E-01     8.464E-08     4.357E-07     4.929E-07
X     4.036E+00    -3.408E+00     1.053E+00     5.404E-09     2.782E-08     3.147E-08
X     4.036E+00    -3.408E+00     1.549E+00     0.000E+00     0.000E+00     0.000E+00
X     4.036E+00    -3.408E+00     2.045E+00     0.000E+00     0.000E+00     0.000E+00
X     4.036E+00    -3.408E+00     2.540E+00     0.000E+00     0.000E+00     0.000E+00
X     4.036E+00    -3.408E+00     3.036E+00     0.000E+00     0.000E+00     0.000E+00
X     4.036E+00    -3.408E+00     3.531E+00     0.000E+00     0.000E+00     0.000E+00
X     4.036E+00    -3.408E+00     4.027E+00     0.000E+00     0.000E+00     0.000E+00
X     4.036E+00    -3.408E+00     4.523E+00     0.000E+00     0.000E+00     0.000E+00
X     4.036E+00    -2.912E+00    -4.895E+00     0.000E+00     0.000E+00     0.000E+00
X     4.036E+00    -2.912E+00    -4.399E+00     0.000E+00     0.000E+00     0.000E+00
X     4.036E+00    -2.912E+00    -3.903E+00     0.000E+00     0.000E+00     0.000E+00
X     4.036E+00    -2.912E+00    -3.408E+00     0.000E+00     0.000E+00     0.000E+00
X     4.036E+00    -2.912E+00    -2.912E+00     0.000E+00     0.000E+00     0.000E+00
X     4.036E+00    -2.912E+00    -2.416E+00     0.000E+00     0.000E+00     0.000E+00
X     4.036E+00    -2.912E+00    -1.921E+00     5.107E-08     2.630E-07     2.976E-07
X     4.036E+00    -2.912E+00    -1.425E+00     4.662E-07     2.401E-06     2.716E-06
X     4.036E+00    -2.912E+00    -9.293E-01     1.117E-06     5.750E-06     6.504E-06
X     4.036E+00    -2.912E+00    -4.337E-01     1.716E-06     8.831E-06     9.990E-06
X     4.036E+00    -2.912E+00     6.196E-02     1.916E-06     9.863E-06     1.116E-05
X     4.036E+00    -2.912E+00     5.576E-01     1.592E-06     8.192E-06     9.267E-06
X     4.036E+00    -2.912E+00     1.053E+00     9.456E-07     4.866E-06     5.505E-06
X     4.036E+00    -2.912E+00     1.549E+00     3.327E-07     1.712E-06     1.937E-06
X     4.036E+00    -2.912E+00     2.045E+00     7.907E-09     4.068E-08     4.602E-08
X     4.036E+00    -2.912E+00     2.540E+00     0.000E+00     0.000E+00     0.000E+00
X     4.036E+00    -2.912E+00     3.036E+00     0.000E+00     0.000E+00     0.000E+00
X     4.036E+00    -2.912E+00     3.531E+00     0.000E+00     0.000E+00     0.000E+00
X     4.036E+00    -2.912E+00     4.027E+00     0.000E+00     0.000E+00     0.000E+00
X     4.036E+00    -2.912E+00     4.523E+00     0.000E+00     0.000E+00     0.000E+00
X     4.036E+00    -2.416E+00    -4.895E+00     0.000E+00     0.000E+00     0.000E+00
X     4.036E+00    -2.416E+00    -4.399E+00     0.000E+00     0.000E+00     0.000E+00
X     4.036E+00    -2.416E+00    -3.903E+00     0.000E+00     0.000E+00     0.000E+00
X     4.036E+00    -2.416E+00    -3.408E+00     0.000E+00     0.000E+00     0.000E+00
X     4.036E+00    -2.416E+00    -2.912E+00     0.000E+00     0.000E+00     0.000E+00
X     4.036E+00    -2.416E+00    -2.416E+00     1.271E-07     6.549E-07     7.409E-07
X     4.036E+00    -2.416E+00    -1.921E+00     9.859E-07     5.076E-06     5.743E-06
X     4.036E+00    -2.416E+00    -1.425E+00     2.721E-06     1.401E-05     1.585E-05
X     4.036E+00    -2.416E+00    -9.293E-01     4.993E-06     2.569E-05     2.906E-05
X     4.036E+00    -2.416E+00    -4.337E-01     6.944E-06     3.571E-05     4.040E-05
X     4.036E+00    -2.416E+00     6.196E-02     7.589E-06     3.903E-05     4.415E-05
X     4.036E+00    -2.416E+00     5.576E-01     6.543E-06     3.366E-05     3.808E-05
X     4.036E+00    -2.416E+00     1.053E+00     4.417E-06     2.272E-05     2.570E-05
X     4.036E+00    -2.416E+00     1.549E+00     2.213E-06     1.138E-05     1.288E-05
X     4.036E+00    -2.416E+00     2.045E+00     6.931E-07     3.566E-06     4.034E-06
X     4.036E+00    -2.416E+00     2.540E+00     3.740E-08     1.924E-07     2.176E-07
X     4.036E+00    -2.416E+00     3.036E+00     0.000E+00     0.000E+00     0.000E+00
X     4.036E+00    -2.416E+00     3.531E+00     0.000E+00     0.000E+00     0.000E+00
X     4.036E+00    -2.416E+00     4.027E+00     0.000E+00     0.000E+00     0.000E+00
X     4.036E+00    -2.416E+00     4.523E+00     0.000E+00     0.000E+00     0.000E+00
X     4.036E+00    -1.921E+00    -4.895E+00     0.000E+00     0.000E+00     0.000E+00
X     4.036E+00    -1.921E+00    -4.399E+00     0.000E+00     0.000E+00     0.000E+00
X     4.036E+00    -1.921E+00    -3.903E+00     0.000E+00     0.000E+00     0.000E+00
X     4.036E+00    -1.921E+00    -3.408E+00     0.000E+00     0.000E+00     0.000E+00
X     4.036E+00    -1.921E+00    -2.912E+00     5.107E-08     2.630E-07     2.976E-07
X     4.036E+00    -1.921E+00    -2.416E+00     9.859E-07     5.076E-06     5.743E-06
X     4.036E+00    -1.921E+00    -1.921E+00     3.542E-06     1.823E-05     2.062E-05
X     4.036E+00    -1.921E+00    -1.425E+00     8.051E-06     4.140E-05     4.684E-05
X     4.036E+00    -1.921E+00    -9.293E-01     1.408E-05     7.234E-05     8.185E-05
X     4.036E+00    -1.921E+00    -4.337E-01     1.943E-05     9.983E-05     1.129E-04
X     4.036E+00    -1.921E+00     6.196E-02     2.122E-05     1.090E-04     1.233E-04
X     4.036E+00    -1.921E+00     5.576E-01     1.832E-05     9.415E-05     1.065E-04
X     4.036E+00    -1.921E+00     1.053E+00     1.251E-05     6.434E-05     7.279E-05
X     4.036E+00    -1.921E+00     1.549E+00     6.740E-06     3.467E-05     3.923E-05
X     4.036E+00    -1.921E+00     2.045E+00     2.723E-06     1.401E-05     1.585E-05
X     4.036E+00    -1.921E+00     2.540E+00     6.311E-07     3.246E-06     3.672E-06
X     4.036E+00    -1.921E+00     3.036E+00     1.340E-09     6.889E-09     7.794E-09
X     4.036E+00    -1.921E+00     3.531E+00     0.000E+00     0.000E+00     0.000E+00
X     4.036E+00    -1.921E+00     4.027E+00     0.000E+00     0.000E+00     0.000E+00
X     4.036E+00    -1.921E+00     4.523E+00     0.000E+00     0.000E+00     0.000E+00
X     4.036E+00    -1.425E+00    -4.895E+00     0.000E+00     0.000E+00     0.000E+00
X     4.036E+00    -1.425E+00    -4.399E+00     0.000E+00     0.000E+00     0.000E+00
X     4.036E+00    -1.425E+00    -3.903E+00     0.000E+00     0.000E+00     0.000E+00
X     4.036E+00    -1.425E+00    -3.408E+00     4.686E-13     2.414E-12     2.731E-12
X     4.036E+00    -1.425E+00    -2.912E+00     4.662E-07     2.401E-06     2.716E-06
X     4.036E+00    -1.425E+00    -2.416E+00     2.721E-06     1.400E-05     1.585E-05
X     4.036E+00    -1.425E+00    -1.921E+00     8.051E-06     4.140E-05     4.684E-05
X     4.036E+00    -1.425E+00    -1.425E+00     1.780E-05     9.143E-05     1.034E-04
X     4.036E+00    -1.425E+00    -9.293E-01     3.125E-05     1.603E-04     1.814E-04
X     4.036E+00    -1.425E+00    -4.337E-01     4.380E-05     2.246E-04     2.541E-04
X     4.036E+00    -1.425E+00     6.196E-02     4.809E-05     2.468E-04     2.792E-04
X     4.036E+00    -1.425E+00     5.576E-01     4.108E-05     2.110E-04     2.388E-04
X     4.036E+00    -1.425E+00     1.053E+00     2.766E-05     1.422E-04     1.609E-04
X     4.036E+00    -1.425E+00     1.549E+00     1.491E-05     7.670E-05     8.679E-05
X     4.036E+00    -1.425E+00     2.045E+00     6.351E-06     3.267E-05     3.696E-05
X     4.036E+00    -1.425E+00     2.540E+00     1.918E-06     9.861E-06     1.116E-05
X     4.036E+00    -1.425E+00     3.036E+00     2.246E-07     1.155E-06     1.307E-06
X     4.036E+00    -1.425E+00     3.531E+00     0.000E+00     0.000E+00     0.000E+00
X     4.036E+00    -1.425E+00     4.027E+00     0.000E+00     0.000E+00     0.000E+00
X     4.036E+00    -1.425E+00     4.523E+00     0.000E+00     0.000E+00     0.000E+00
X     4.036E+00    -9.293E-01    -4.895E+00     0.000E+00     0.000E+00     0.000E+00
X     4.036E+00    -9.293E-01    -4.399E+00     0.000E+00     0.000E+00     0.000E+00
X     4.036E+00    -9.293E-01    -3.903E+00     0.000E+00     0.000E+00     0.000E+00
X     4.036E+00    -9.293E-01    -3.408E+00     1.967E-08     1.013E-07     1.146E-07
X     4.036E+00    -9.293E-01    -2.912E+00     1.117E-06     5.749E-06     6.505E-06
X     4.036E+00    -9.293E-01    -2.416E+00     4.993E-06     2.568E-05     2.906E-05
X     4.036E+00    -9.293E-01    -1.921E+00     1.408E-05     7.234E-05     8.185E-05
X     4.036E+00    -9.293E-01    -1.425E+00     3.125E-05     1.603E-04     1.814E-04
X     4.036E+00    -9.293E-01    -9.293E-01     5.649E-05     2.893E-04     3.273E-04
X     4.036E+00    -9.293E-01    -4.337E-01     8.098E-05     4.145E-04     4.690E-04
X     4.036E+00    -9.293E-01     6.196E-02     8.942E-05     4.584E-04     5.187E-04
X     4.036E+00    -9.293E-01     5.576E-01     7.548E-05     3.878E-04     4.389E-04
X     4.036E+00    -9.293E-01     1.053E+00     4.949E-05     2.547E-04     2.882E-04
X     4.036E+00    -9.293E-01     1.549E+00     2.604E-05     1.340E-04     1.516E-04
X     4.036E+00    -9.293E-01     2.045E+00     1.112E-05     5.721E-05     6.474E-05
X     4.036E+00    -9.293E-01     2.540E+00     3.659E-06     1.882E-05     2.129E-05
X     4.036E+00    -9.293E-01     3.036E+00     6.619E-07     3.403E-06     3.850E-06
X     4.036E+00    -9.293E-01     3.531E+00     2.552E-11     1.312E-10     1.484E-10
X     4.036E+00    -9.293E-01     4.027E+00     0.000E+00     0.000E+00     0.000E+00
X     4.036E+00    -9.293E-01     4.523E+00     0.000E+00     0.000E+00     0.000E+00
X     4.036E+00    -4.337E-01    -4.895E+00     0.000E+00     0.000E+00     0.000E+00
X     4.036E+00    -4.337E-01    -4.399E+00     0.000E+00     0.000E+00     0.000E+00
X     4.036E+00    -4.337E-01    -3.903E+00     0.000E+00     0.000E+00     0.000E+00
X     4.036E+00    -4.337E-01    -3.408E+00     1.047E-07     5.393E-07     6.102E-07
X     4.036E+00    -4.337E-01    -2.912E+00     1.716E-06     8.830E-06     9.991E-06
X     4.036E+00    -4.337E-01    -2.416E+00     6.944E-06     3.571E-05     4.041E-05
X     4.036E+00    -4.337E-01    -1.921E+00     1.944E-05     9.983E-05     1.129E-04
X     4.036E+00    -4.337E-01    -1.425E+00     4.381E-05     2.246E-04     2.541E-04
X     4.036E+00    -4.337E-01    -9.293E-01     8.099E-05     4.145E-04     4.690E-04
X     4.036E+00    -4.337E-01    -4.337E-01     1.180E-04     6.039E-04     6.832E-04
X     4.036E+00    -4.337E-01     6.196E-02     1.309E-04     6.717E-04     7.601E-04
X     4.036E+00    -4.337E-01     5.576E-01     1.094E-04     5.630E-04     6.371E-04
X     4.036E+00    -4.337E-01     1.053E+00     7.045E-05     3.631E-04     4.109E-04
X     4.036E+00    -4.337E-01     1.549E+00     3.621E-05     1.866E-04     2.111E-04
X     4.036E+00    -4.337E-01     2.045E+00     1.534E-05     7.898E-05     8.937E-05
X     4.036E+00    -4.337E-01     2.540E+00     5.147E-06     2.648E-05     2.996E-05
X     4.036E+00    -4.337E-01     3.036E+00     1.073E-06     5.517E-06     6.243E-06
X     4.036E+00    -4.337E-01     3.531E+00     7.914E-09     4.067E-08     4.602E-08
X     4.036E+00    -4.337E-01     4.027E+00     0.000E+00     0.000E+00     0.000E+00
X     4.036E+00    -4.337E-01     4.523E+00     0.000E+00     0.000E+00     0.000E+00
X     4.036E+00     6.196E-02    -4.895E+00     0.000E+00     0.000E+00     0.000E+00
X     4.036E+00     6.196E-02    -4.399E+00     0.000E+00     0.000E+00     0.000E+00
X     4.036E+00     6.196E-02    -3.903E+00     0.000E+00     0.000E+00     0.000E+00
X     4.036E+00     6.196E-02    -3.408E+00     1.393E-07     7.171E-07     8.114E-07
X     4.036E+00     6.196E-02    -2.912E+00     1.916E-06     9.861E-06     1.116E-05
X     4.036E+00     6.196E-02    -2.416E+00     7.589E-06     3.902E-05     4.416E-05
X     4.036E+00     6.196E-02    -1.921E+00     2.122E-05     1.090E-04     1.233E-04
X     4.036E+00     6.196E-02    -1.425E+00     4.811E-05     2.468E-04     2.792E-04
X     4.036E+00     6.196E-02    -9.293E-01     8.947E-05     4.584E-04     5.186E-04
X     4.036E+00     6.196E-02    -4.337E-01     1.310E-04     6.718E-04     7.600E-04
X     4.036E+00     6.196E-02     6.196E-02     1.455E-04     7.489E-04     8.473E-04
X     4.036E+00     6.196E-02     5.576E-01     1.211E-04     6.256E-04     7.079E-04
X     4.036E+00     6.196E-02     1.053E+00     7.763E-05     4.009E-04     4.537E-04
X     4.036E+00     6.196E-02     1.549E+00     3.968E-05     2.046E-04     2.315E-04
X     4.036E+00     6.196E-02     2.045E+00     1.675E-05     8.623E-05     9.758E-05
X     4.036E+00     6.196E-02     2.540E+00     5.634E-06     2.898E-05     3.280E-05
X     4.036E+00     6.196E-02     3.036E+00     1.213E-06     6.234E-06     7.054E-06
X     4.036E+00     6.196E-02     3.531E+00     1.971E-08     1.013E-07     1.146E-07
X     4.036E+00     6.196E-02     4.027E+00     0.000E+00     0.000E+00     0.000E+00
X     4.036E+00     6.196E-02     4.523E+00     0.000E+00     0.000E+00     0.000E+00
X     4.036E+00     5.576E-01    -4.895E+00     0.000E+00     0.000E+00     0.000E+00
X     4.036E+00     5.576E-01    -4.399E+00     0.000E+00     0.000E+00     0.000E+00
X     4.036E+00     5.576E-01    -3.903E+00     0.000E+00     0.000E+00     0.000E+00
X     4.036E+00     5.576E-01    -3.408E+00     8.463E-08     4.356E-07     4.930E-07
X     4.036E+00     5.576E-01    -2.912E+00     1.592E-06     8.191E-06     9.268E-06
X     4.036E+00     5.576E-01    -2.416E+00     6.543E-06     3.365E-05     3.808E-05
X     4.036E+00     5.576E-01    -1.921E+00     1.832E-05     9.415E-05     1.065E-04
X     4.036E+00     5.576E-01    -1.425E+00     4.109E-05     2.111E-04     2.388E-04
X     4.036E+00     5.576E-01    -9.293E-01     7.553E-05     3.879E-04     4.388E-04
X     4.036E+00     5.576E-01    -4.337E-01     1.094E-04     5.632E-04     6.370E-04
X     4.036E+00     5.576E-01     6.196E-02     1.212E-04     6.257E-04     7.078E-04
X     4.036E+00     5.576E-01     5.576E-01     1.016E-04     5.255E-04     5.945E-04
X     4.036E+00     5.576E-01     1.053E+00     6.581E-05     3.401E-04     3.848E-04
X     4.036E+00     5.576E-01     1.549E+00     3.403E-05     1.756E-04     1.986E-04
X     4.036E+00     5.576E-01     2.045E+00     1.447E-05     7.449E-05     8.429E-05
X     4.036E+00     5.576E-01     2.540E+00     4.843E-06     2.491E-05     2.819E-05
X     4.036E+00     5.576E-01     3.036E+00     9.875E-07     5.076E-06     5.743E-06
X     4.036E+00     5.576E-01     3.531E+00     3.543E-09     1.821E-08     2.060E-08
X     4.036E+00     5.576E-01     4.027E+00     0.000E+00     0.000E+00     0.000E+00
X     4.036E+00     5.576E-01     4.523E+00     0.000E+00     0.000E+00     0.000E+00
X     4.036E+00     1.053E+00    -4.895E+00     0.000E+00     0.000E+00     0.000E+00
X     4.036E+00     1.053E+00    -4.399E+00     0.000E+00     0.000E+00     0.000E+00
X     4.036E+00     1.053E+00    -3.903E+00     0.000E+00     0.000E+00     0.000E+00
X     4.036E+00     1.053E+00    -3.408E+00     5.404E-09     2.781E-08     3.147E-08
X     4.036E+00     1.053E+00    -2.912E+00     9.455E-07     4.865E-06     5.505E-06
X     4.036E+00     1.053E+00    -2.416E+00     4.416E-06     2.272E-05     2.571E-05
X     4.036E+00     1.053E+00    -1.921E+00     1.251E-05     6.434E-05     7.279E-05
X     4.036E+00     1.053E+00    -1.425E+00     2.766E-05     1.422E-04     1.609E-04
X     4.036E+00     1.053E+00    -9.293E-01     4.952E-05     2.547E-04     2.882E-04
X     4.036E+00     1.053E+00    -4.337E-01     7.049E-05     3.632E-04     4.108E-04
X     4.036E+00     1.053E+00     6.196E-02     7.767E-05     4.010E-04     4.536E-04
X     4.036E+00     1.053E+00     5.576E-01     6.583E-05     3.402E-04     3.848E-04
X     4.036E+00     1.053E+00     1.053E+00     4.351E-05     2.246E-04     2.541E-04
X     4.036E+00     1.053E+00     1.549E+00     2.310E-05     1.191E-04     1.347E-04
X     4.036E+00     1.053E+00     2.045E+00     9.882E-06     5.087E-05     5.756E-05
X     4.036E+00     1.053E+00     2.540E+00     3.216E-06     1.654E-05     1.871E-05
X     4.036E+00     1.053E+00     3.036E+00     5.452E-07     2.802E-06     3.171E-06
X     4.036E+00     1.053E+00     3.531E+00     6.142E-13     3.156E-12     3.571E-12
X     4.036E+00     1.053E+00     4.027E+00     0.000E+00     0.000E+00     0.000E+00
X     4.036E+00     1.053E+00     4.523E+00     0.000E+00     0.000E+00     0.000E+00
X     4.036E+00     1.549E+00    -4.895E+00     0.000E+00     0.000E+00     0.000E+00
X     4.036E+00     1.549E+00    -4.399E+00     0.000E+00     0.000E+00     0.000E+00
X     4.036E+00     1.549E+00    -3.903E+00     0.000E+00     0.000E+00     0.000E+00
X     4.036E+00     1.549E+00    -3.408E+00     0.000E+00     0.000E+00     0.000E+00
X     4.036E+00     1.549E+00    -2.912E+00     3.327E-07     1.712E-06     1.937E-06
X     4.036E+00     1.549E+00    -2.416E+00     2.213E-06     1.138E-05     1.288E-05
X     4.036E+00     1.549E+00    -1.921E+00     6.740E-06     3.467E-05     3.923E-05
X     4.036E+00     1.549E+00    -1.425E+00     1.491E-05     7.671E-05     8.679E-05
X     4.036E+00     1.549E+00    -9.293E-01     2.604E-05     1.340E-04     1.516E-04
X     4.036E+00     1.549E+00    -4.337E-01     3.623E-05     1.866E-04     2.111E-04
X     4.036E+00     1.549E+00     6.196E-02     3.969E-05     2.046E-04     2.315E-04
X     4.036E+00     1.549E+00     5.576E-01     3.404E-05     1.756E-04     1.986E-04
X     4.036E+00     1.549E+00     1.053E+00     2.310E-05     1.191E-04     1.347E-04
X     4.036E+00     1.549E+00     1.549E+00     1.249E-05     6.434E-05     7.279E-05
X     4.036E+00     1.549E+00     2.045E+00     5.305E-06     2.729E-05     3.088E-05
X     4.036E+00     1.549E+00     2.540E+00     1.534E-06     7.886E-06     8.922E-06
X     4.036E+00     1.549E+00     3.036E+00     1.395E-07     7.171E-07     8.113E-07
X     4.036E+00     1.549E+00     3.531E+00     0.000E+00     0.000E+00     0.000E+00
X     4.036E+00     1.549E+00     4.027E+00     0.000E+00     0.000E+00     0.000E+00
X     4.036E+00     1.549E+00     4.523E+00     0.000E+00     0.000E+00     0.000E+00
X     4.036E+00     2.045E+00    -4.895E+00     0.000E+00     0.000E+00     0.000E+00
X     4.036E+00     2.045E+00    -4.399E+00     0.000E+00     0.000E+00     0.000E+00
X     4.036E+00     2.045E+00    -3.903E+00     0.000E+00     0.000E+00     0.000E+00
X     4.036E+00     2.045E+00    -3.408E+00     0.000E+00     0.000E+00     0.000E+00
X     4.036E+00     2.045E+00    -2.912E+00     7.905E-09     4.067E-08     4.602E-08
X     4.036E+00     2.045E+00    -2.416E+00     6.931E-07     3.565E-06     4.034E-06
X     4.036E+00     2.045E+00    -1.921E+00     2.723E-06     1.401E-05     1.585E-05
X     4.036E+00     2.045E+00    -1.425E+00     6.351E-06     3.267E-05     3.696E-05
X     4.036E+00     2.045E+00    -9.293E-01     1.112E-05     5.722E-05     6.473E-05
X     4.036E+00     2.045E+00    -4.337E-01     1.535E-05     7.900E-05     8.936E-05
X     4.036E+00     2.045E+00     6.196E-02     1.675E-05     8.625E-05     9.756E-05
X     4.036E+00     2.045E+00     5.576E-01     1.447E-05     7.450E-05     8.428E-05
X     4.036E+00     2.045E+00     1.053E+00     9.882E-06     5.087E-05     5.755E-05
X     4.036E+00     2.045E+00     1.549E+00     5.305E-06     2.729E-05     3.088E-05
X     4.036E+00     2.045E+00     2.045E+00     2.062E-06     1.060E-05     1.199E-05
X     4.036E+00     2.045E+00     2.540E+00     4.194E-07     2.155E-06     2.438E-06
X     4.036E+00     2.045E+00     3.036E+00     1.512E-11     7.769E-11     8.790E-11
X     4.036E+00     2.045E+00     3.531E+00     0.000E+00     0.000E+00     0.000E+00
X     4.036E+00     2.045E+00     4.027E+00     0.000E+00     0.000E+00     0.000E+00
X     4.036E+00     2.045E+00     4.523E+00     0.000E+00     0.000E+00     0.000E+00
X     4.036E+00     2.540E+00    -4.895E+00     0.000E+00     0.000E+00     0.000E+00
X     4.036E+00     2.540E+00    -4.399E+00     0.000E+00     0.000E+00     0.000E+00
X     4.036E+00     2.540E+00    -3.903E+00     0.000E+00     0.000E+00     0.000E+00
X     4.036E+00     2.540E+00    -3.408E+00     0.000E+00     0.000E+00     0.000E+00
X     4.036E+00     2.540E+00    -2.912E+00     0.000E+00     0.000E+00     0.000E+00
X     4.036E+00     2.540E+00    -2.416E+00     3.739E-08     1.924E-07     2.176E-07
X     4.036E+00     2.540E+00    -1.921E+00     6.310E-07     3.246E-06     3.672E-06
X     4.036E+00     2.540E+00    -1.425E+00     1.917E-06     9.862E-06     1.116E-05
X     4.036E+00     2.540E+00    -9.293E-01     3.659E-06     1.882E-05     2.129E-05
X     4.036E+00     2.540E+00    -4.337E-01     5.147E-06     2.648E-05     2.996E-05
X     4.036E+00     2.540E+00     6.196E-02     5.634E-06     2.899E-05     3.279E-05
X     4.036E+00     2.540E+00     5.576E-01     4.843E-06     2.491E-05     2.819E-05
X     4.036E+00     2.540E+00     1.053E+00     3.216E-06     1.654E-05     1.871E-05
X     4.036E+00     2.540E+00     1.549E+00     1.534E-06     7.886E-06     8.922E-06
X     4.036E+00     2.540E+00     2.045E+00     4.194E-07     2.155E-06     2.438E-06
X     4.036E+00     2.540E+00     2.540E+00     1.341E-09     6.889E-09     7.794E-09
X     4.036E+00     2.540E+00     3.036E+00     0.000E+00     0.000E+00     0.000E+00
X     4.036E+00     2.540E+00     3.531E+00     0.000E+00     0.000E+00     0.000E+00
X     4.036E+00     2.540E+00     4.027E+00     0.000E+00     0.000E+00     0.000E+00
X     4.036E+00     2.540E+00     4.523E+00     0.000E+00     0.000E+00     0.000E+00
X     4.036E+00     3.036E+00    -4.895E+00     0.000E+00     0.000E+00     0.000E+00
X     4.036E+00     3.036E+00    -4.399E+00     0.000E+00     0.000E+00     0.000E+00
X     4.036E+00     3.036E+00    -3.903E+00     0.000E+00     0.000E+00     0.000E+00
X     4.036E+00     3.036E+00    -3.408E+00     0.000E+00     0.000E+00     0.000E+00
X     4.036E+00     3.036E+00    -2.912E+00     0.000E+00     0.000E+00     0.000E+00
X     4.036E+00     3.036E+00    -2.416E+00     0.000E+00     0.000E+00     0.000E+00
X     4.036E+00     3.036E+00    -1.921E+00     1.340E-09     6.889E-09     7.794E-09
X     4.036E+00     3.036E+00    -1.425E+00     2.246E-07     1.155E-06     1.307E-06
X     4.036E+00     3.036E+00    -9.293E-01     6.618E-07     3.403E-06     3.850E-06
X     4.036E+00     3.036E+00    -4.337E-01     1.073E-06     5.518E-06     6.242E-06
X     4.036E+00     3.036E+00     6.196E-02     1.213E-06     6.235E-06     7.054E-06
X     4.036E+00     3.036E+00     5.576E-01     9.874E-07     5.077E-06     5.743E-06
X     4.036E+00     3.036E+00     1.053E+00     5.452E-07     2.802E-06     3.170E-06
X     4.036E+00     3.036E+00     1.549E+00     1.395E-07     7.171E-07     8.113E-07
X     4.036E+00     3.036E+00     2.045E+00     1.512E-11     7.770E-11     8.790E-11
X     4.036E+00     3.036E+00     2.540E+00     0.000E+00     0.000E+00     0.000E+00
X     4.036E+00     3.036E+00     3.036E+00     0.000E+00     0.000E+00     0.000E+00
X     4.036E+00     3.036E+00     3.531E+00     0.000E+00     0.000E+00     0.000E+00
X     4.036E+00     3.036E+00     4.027E+00     0.000E+00     0.000E+00     0.000E+00
X     4.036E+00     3.036E+00     4.523E+00     0.000E+00     0.000E+00     0.000E+00
X     4.036E+00     3.531E+00    -4.895E+00     0.000E+00     0.000E+00     0.000E+00
X     4.036E+00     3.531E+00    -4.399E+00     0.000E+00     0.000E+00     0.000E+00
X     4.036E+00     3.531E+00    -3.903E+00     0.000E+00     0.000E+00     0.000E+00
X     4.036E+00     3.531E+00    -3.408E+00     0.000E+00     0.000E+00     0.000E+00
X     4.036E+00     3.531E+00    -2.912E+00     0.000E+00     0.000E+00     0.000E+00
X     4.036E+00     3.531E+00    -2.416E+00     0.000E+00     0.000E+00     0.000E+00
X     4.036E+00     3.531E+00    -1.921E+00     0.000E+00     0.000E+00     0.000E+00
X     4.036E+00     3.531E+00    -1.425E+00     0.000E+00     0.000E+00     0.000E+00
X     4.036E+00     3.531E+00    -9.293E-01     2.552E-11     1.312E-10     1.484E-10
X     4.036E+00     3.531E+00    -4.337E-01     7.913E-09     4.068E-08     4.602E-08
X     4.036E+00     3.531E+00     6.196E-02     1.970E-08     1.013E-07     1.146E-07
X     4.036E+00     3.531E+00     5.576E-01     3.543E-09     1.821E-08     2.060E-08
X     4.036E+00     3.531E+00     1.053E+00     6.142E-13     3.156E-12     3.571E-12
X     4.036E+00     3.531E+00     1.549E+00     0.000E+00     0.000E+00     0.000E+00
X     4.036E+00     3.531E+00     2.045E+00     0.000E+00     0.000E+00     0.000E+00
X     4.036E+00     3.531E+00     2.540E+00     0.000E+00     0.000E+00     0.000E+00
X     4.036E+00     3.531E+00     3.036E+00     0.000E+00     0.000E+00     0.000E+00
X     4.036E+00     3.531E+00     3.531E+00     0.000E+00     0.000E+00     0.000E+00
X     4.036E+00     3.531E+00     4.027E+00     0.000E+00     0.000E+00     0.000E+00
X     4.036E+00     3.531E+00     4.523E+00     0.000E+00     0.000E+00     0.000E+00
X     4.036E+00     4.027E+00    -4.895E+00     0.000E+00     0.000E+00     0.000E+00
X     4.036E+00     4.027E+00    -4.399E+00     0.000E+00     0.000E+00     0.000E+00
X     4.036E+00     4.027E+00    -3.903E+00     0.000E+00     0.000E+00     0.000E+00
X     4.036E+00     4.027E+00    -3.408E+00     0.000E+00     0.000E+00     0.000E+00
X     4.036E+00     4.027E+00    -2.912E+00     0.000E+00     0.000E+00     0.000E+00
X     4.036E+00     4.027E+00    -2.416E+00     0.000E+00     0.000E+00     0.000E+00
X     4.036E+00     4.027E+00    -1.921E+00     0.000E+00     0.000E+00     0.000E+00
X     4.036E+00     4.027E+00    -1.425E+00     0.000E+00     0.000E+00     0.000E+00
X     4.036E+00     4.027E+00    -9.293E-01     0.000E+00     0.000E+00     0.000E+00
X     4.036E+00     4.027E+00    -4.337E-01     0.000E+00     0.000E+00     0.000E+00
X     4.036E+00     4.027E+00     6.196E-02     0.000E+00     0.000E+00     0.000E+00
X     4.036E+00     4.027E+00     5.576E-01     0.000E+00     0.000E+00     0.000E+00
X     4.036E+00     4.027E+00     1.053E+00     0.000E+00     0.000E+00     0.000E+00
X     4.036E+00     4.027E+00     1.549E+00     0.000E+00     0.000E+00     0.000E+00
X     4.036E+00     4.027E+00     2.045E+00     0.000E+00     0.000E+00     0.000E+00
X     4.036E+00     4.027E+00     2.540E+00     0.000E+00     0.000E+00     0.000E+00
X     4.036E+00     4.027E+00     3.036E+00     0.000E+00     0.000E+00     0.000E+00
X     4.036E+00     4.027E+00     3.531E+00     0.000E+00     0.000E+00     0.000E+00
X     4.036E+00     4.027E+00     4.027E+00     0.000E+00     0.000E+00     0.000E+00
X     4.036E+00     4.027E+00     4.523E+00     0.000E+00     0.000E+00     0.000E+00
X     4.036E+00     4.523E+00    -4.895E+00     0.000E+00     0.000E+00     0.000E+00
X     4.036E+00     4.523E+00    -4.399E+00     0.000E+00     0.000E+00     0.000E+00
X     4.036E+00     4.523E+00    -3.903E+00     0.000E+00     0.000E+00     0.000E+00
X     4.036E+00     4.523E+00    -3.408E+00     0.000E+00     0.000E+00     0.000E+00
X     4.036E+00     4.523E+00    -2.912E+00     0.000E+00     0.000E+00     0.000E+00
X     4.036E+00     4.523E+00    -2.416E+00     0.000E+00     0.000E+00     0.000E+00
X     4.036E+00     4.523E+00    -1.921E+00     0.000E+00     0.000E+00     0.000E+00
X     4.036E+00     4.523E+00    -1.425E+00     0.000E+00     0.000E+00     0.000E+00
X     4.036E+00     4.523E+00    -9.293E-01     0.000E+00     0.000E+00     0.000E+00
X     4.036E+00     4.523E+00    -4.337E-01     0.000E+00     0.000E+00     0.000E+00
X     4.036E+00     4.523E+00     6.196E-02     0.000E+00     0.000E+00     0.000E+00
X     4.036E+00     4.523E+00     5.576E-01     0.000E+00     0.000E+00     0.000E+00
X     4.036E+00     4.523E+00     1.053E+00     0.000E+00     0.000E+00     0.000E+00
X     4.036E+00     4.523E+00     1.549E+00     0.000E+00     0.000E+00     0.000E+00
X     4.036E+00     4.523E+00     2.045E+00     0.000E+00     0.000E+00     0.000E+00
X     4.036E+00     4.523E+00     2.540E+00     0.000E+00     0.000E+00     0.000E+00
X     4.036E+00     4.523E+00     3.036E+00     0.000E+00     0.000E+00     0.000E+00
X     4.036E+00     4.523E+00     3.531E+00     0.000E+00     0.000E+00     0.000E+00
X     4.036E+00     4.523E+00     4.027E+00     0.000E+00     0.000E+00     0.000E+00
X     4.036E+00     4.523E+00     4.523E+00     0.000E+00     0.000E+00     0.000E+00
X     4.531E+00    -4.895E+00    -4.895E+00     0.000E+00     0.000E+00     0.000E+00
X     4.531E+00    -4.895E+00    -4.399E+00     0.000E+00     0.000E+00     0.000E+00
X     4.531E+00    -4.895E+00    -3.903E+00     0.000E+00     0.000E+00     0.000E+00
X     4.531E+00    -4.895E+00    -3.408E+00     0.000E+00     0.000E+00     0.000E+00
X     4.531E+00    -4.895E+00    -2.912E+00     0.000E+00     0.000E+00     0.000E+00
X     4.531E+00    -4.895E+00    -2.416E+00     0.000E+00     0.000E+00     0.000E+00
X     4.531E+00    -4.895E+00    -1.921E+00     0.000E+00     0.000E+00     0.000E+00
X     4.531E+00    -4.895E+00    -1.425E+00     0.000E+00     0.000E+00     0.000E+00
X     4.531E+00    -4.895E+00    -9.293E-01     0.000E+00     0.000E+00     0.000E+00
X     4.531E+00    -4.895E+00    -4.337E-01     0.000E+00     0.000E+00     0.000E+00
X     4.531E+00    -4.895E+00     6.196E-02     0.000E+00     0.000E+00     0.000E+00
X     4.531E+00    -4.895E+00     5.576E-01     0.000E+00     0.000E+00     0.000E+00
X     4.531E+00    -4.895E+00     1.053E+00     0.000E+00     0.000E+00     0.000E+00
X     4.531E+00    -4.895E+00     1.549E+00     0.000E+00     0.000E+00     0.000E+00
X     4.531E+00    -4.895E+00     2.045E+00     0.000E+00     0.000E+00     0.000E+00
X     4.531E+00    -4.895E+00     2.540E+00     0.000E+00     0.000E+00     0.000E+00
X     4.531E+00    -4.895E+00     3.036E+00     0.000E+00     0.000E+00     0.000E+00
X     4.531E+00    -4.895E+00     3.531E+00     0.000E+00     0.000E+00     0.000E+00
X     4.531E+00    -4.895E+00     4.027E+00     0.000E+00     0.000E+00     0.000E+00
X     4.531E+00    -4.895E+00     4.523E+00     0.000E+00     0.000E+00     0.000E+00
X     4.531E+00    -4.399E+00    -4.895E+00     0.000E+00     0.000E+00     0.000E+00
X     4.531E+00    -4.399E+00    -4.399E+00     0.000E+00     0.000E+00     0.000E+00
X     4.531E+00    -4.399E+00    -3.903E+00     0.000E+00     0.000E+00     0.000E+00
X     4.531E+00    -4.399E+00    -3.408E+00     0.000E+00     0.000E+00     0.000E+00
X     4.531E+00    -4.399E+00    -2.912E+00     0.000E+00     0.000E+00     0.000E+00
X     4.531E+00    -4.399E+00    -2.416E+00     0.000E+00     0.000E+00     0.000E+00
X     4.531E+00    -4.399E+00    -1.921E+00     0.000E+00     0.000E+00     0.000E+00
X     4.531E+00    -4.399E+00    -1.425E+00     0.000E+00     0.000E+00     0.000E+00
X     4.531E+00    -4.399E+00    -9.293E-01     0.000E+00     0.000E+00     0.000E+00
X     4.531E+00    -4.399E+00    -4.337E-01     0.000E+00     0.000E+00     0.000E+00
X     4.531E+00    -4.399E+00     6.196E-02     0.000E+00     0.000E+00     0.000E+00
X     4.531E+00    -4.399E+00     5.576E-01     0.000E+00     0.000E+00     0.000E+00
X     4.531E+00    -4.399E+00     1.053E+00     0.000E+00     0.000E+00     0.000E+00
X     4.531E+00    -4.399E+00     1.549E+00     0.000E+00     0.000E+00     0.000E+00
X     4.531E+00    -4.399E+00     2.045E+00     0.000E+00     0.000E+00     0.000E+00
X     4.531E+00    -4.399E+00     2.540E+00     0.000E+00     0.000E+00     0.000E+00
X     4.531E+00    -4.399E+00     3.036E+00     0.000E+00     0.000E+00     0.000E+00
X     4.531E+00    -4.399E+00     3.531E+00     0.000E+00     0.000E+00     0.000E+00
X     4.531E+00    -4.399E+00     4.027E+00     0.000E+00     0.000E+00     0.000E+00
X     4.531E+00    -4.399E+00     4.523E+00     0.000E+00     0.000E+00     0.000E+00
X     4.531E+00    -3.903E+00    -4.895E+00     0.000E+00     0.000E+00     0.000E+00
X     4.531E+00    -3.903E+00    -4.399E+00     0.000E+00     0.000E+00     0.000E+00
X     4.531E+00    -3.903E+00    -3.903E+00     0.000E+00     0.000E+00     0.000E+00
X     4.531E+00    -3.903E+00    -3.408E+00     0.000E+00     0.000E+00     0.000E+00
X     4.531E+00    -3.903E+00    -2.912E+00     0.000E+00     0.000E+00     0.000E+00
X     4.531E+00    -3.903E+00    -2.416E+00     0.000E+00     0.000E+00     0.000E+00
X     4.531E+00    -3.903E+00    -1.921E+00     0.000E+00     0.000E+00     0.000E+00
X     4.531E+00    -3.903E+00    -1.425E+00     0.000E+00     0.000E+00     0.000E+00
X     4.531E+00    -3.903E+00    -9.293E-01     0.000E+00     0.000E+00     0.000E+00
X     4.531E+00    -3.903E+00    -4.337E-01     0.000E+00     0.000E+00     0.000E+00
X     4.531E+00    -3.903E+00     6.196E-02     0.000E+00     0.000E+00     0.000E+00
X     4.531E+00    -3.903E+00     5.576E-01     0.000E+00     0.000E+00     0.000E+00
X     4.531E+00    -3.903E+00     1.053E+00     0.000E+00     0.000E+00     0.000E+00
X     4.531E+00    -3.903E+00     1.549E+00     0.000E+00     0.000E+00     0.000E+00
X     4.531E+00    -3.903E+00     2.045E+00     0.000E+00     0.000E+00     0.000E+00
X     4.531E+00    -3.903E+00     2.540E+00     0.000E+00     0.000E+00     0.000E+00
X     4.531E+00    -3.903E+00     3.036E+00     0.000E+00     0.000E+00     0.000E+00
X     4.531E+00    -3.903E+00     3.531E+00     0.000E+00     0.000E+00     0.000E+00
X     4.531E+00    -3.903E+00     4.027E+00     0.000E+00     0.000E+00     0.000E+00
X     4.531E+00    -3.903E+00     4.523E+00     0.000E+00     0.000E+00     0.000E+00
X     4.531E+00    -3.408E+00    -4.895E+00     0.000E+00     0.000E+00     0.000E+00
X     4.531E+00    -3.408E+00    -4.399E+00     0.000E+00     0.000E+00     0.000E+00
X     4.531E+00    -3.408E+00    -3.903E+00     0.000E+00     0.000E+00     0.000E+00
X     4.531E+00    -3.408E+00    -3.408E+00     0.000E+00     0.000E+00     0.000E+00
X     4.531E+00    -3.408E+00    -2.912E+00     0.000E+00     0.000E+00     0.000E+00
X     4.531E+00    -3.408E+00    -2.416E+00     0.000E+00     0.000E+00     0.000E+00
X     4.531E+00    -3.408E+00    -1.921E+00     0.000E+00     0.000E+00     0.000E+00
X     4.531E+00    -3.408E+00    -1.425E+00     0.000E+00     0.000E+00     0.000E+00
X     4.531E+00    -3.408E+00    -9.293E-01     0.000E+00     0.000E+00     0.000E+00
X     4.531E+00    -3.408E+00    -4.337E-01     0.000E+00     0.000E+00     0.000E+00
X     4.531E+00    -3.408E+00     6.196E-02     0.000E+00     0.000E+00     0.000E+00
X     4.531E+00    -3.408E+00     5.576E-01     0.000E+00     0.000E+00     0.000E+00
X     4.531E+00    -3.408E+00     1.053E+00     0.000E+00     0.000E+00     0.000E+00
X     4.531E+00    -3.408E+00     1.549E+00     0.000E+00     0.000E+00     0.000E+00
X     4.531E+00    -3.408E+00     2.045E+00     0.000E+00     0.000E+00     0.000E+00
X     4.531E+00    -3.408E+00     2.540E+00     0.000E+00     0.000E+00     0.000E+00
X     4.531E+00    -3.408E+00     3.036E+00     0.000E+00     0.000E+00     0.000E+00
X     4.531E+00    -3.408E+00     3.531E+00     0.000E+00     0.000E+00     0.000E+00
X     4.531E+00    -3.408E+00     4.027E+00     0.000E+00     0.000E+00     0.000E+00
X     4.531E+00    -3.408E+00     4.523E+00     0.000E+00     0.000E+00     0.000E+00
X     4.531E+00    -2.912E+00    -4.895E+00     0.000E+00     0.000E+00     0.000E+00
X     4.531E+00    -2.912E+00    -4.399E+00     0.000E+00     0.000E+00     0.000E+00
X     4.531E+00    -2.912E+00    -3.903E+00     0.000E+00     0.000E+00     0.000E+00
X     4.531E+00    -2.912E+00    -3.408E+00     0.000E+00     0.000E+00     0.000E+00
X     4.531E+00    -2.912E+00    -2.912E+00     0.000E+00     0.000E+00     0.000E+00
X     4.531E+00    -2.912E+00    -2.416E+00     0.000E+00     0.000E+00     0.000E+00
X     4.531E+00    -2.912E+00    -1.921E+00     0.000E+00     0.000E+00     0.000E+00
X     4.531E+00    -2.912E+00    -1.425E+00     3.647E-09     1.876E-08     2.122E-08
X     4.531E+00    -2.912E+00    -9.293E-01     1.363E-07     7.012E-07     7.932E-07
X     4.531E+00    -2.912E+00    -4.337E-01     3.045E-07     1.566E-06     1.772E-06
X     4.531E+00    -2.912E+00     6.196E-02     3.639E-07     1.871E-06     2.117E-06
X     4.531E+00    -2.912E+00     5.576E-01     2.682E-07     1.379E-06     1.561E-06
X     4.531E+00    -2.912E+00     1.053E+00     9.268E-08     4.767E-07     5.393E-07
X     4.531E+00    -2.912E+00     1.549E+00     1.477E-10     7.598E-10     8.596E-10
X     4.531E+00    -2.912E+00     2.045E+00     0.000E+00     0.000E+00     0.000E+00
X     4.531E+00    -2.912E+00     2.540E+00     0.000E+00     0.000E+00     0.000E+00
X     4.531E+00    -2.912E+00     3.036E+00     0.000E+00     0.000E+00     0.000E+00
X     4.531E+00    -2.912E+00     3.531E+00     0.000E+00     0.000E+00     0.000E+00
X     4.531E+00    -2.912E+00     4.027E+00     0.000E+00     0.000E+00     0.000E+00
X     4.531E+00    -2.912E+00     4.523E+00     0.000E+00     0.000E+00     0.000E+00
X     4.531E+00    -2.416E+00    -4.895E+00     0.000E+00     0.000E+00     0.000E+00
X     4.531E+00    -2.416E+00    -4.399E+00     0.000E+00     0.000E+00     0.000E+00
X     4.531E+00    -2.416E+00    -3.903E+00     0.000E+00     0.000E+00     0.000E+00
X     4.531E+00    -2.416E+00    -3.408E+00     0.000E+00     0.000E+00     0.000E+00
X     4.531E+00    -2.416E+00    -2.912E+00     0.000E+00     0.000E+00     0.000E+00
X     4.531E+00    -2.416E+00    -2.416E+00     0.000E+00     0.000E+00     0.000E+00
X     4.531E+00    -2.416E+00    -1.921E+00     1.028E-07     5.285E-07     5.979E-07
X     4.531E+00    -2.416E+00    -1.425E+00     6.116E-07     3.143E-06     3.556E-06
X     4.531E+00    -2.416E+00    -9.293E-01     1.370E-06     7.040E-06     7.965E-06
X     4.531E+00    -2.416E+00    -4.337E-01     2.057E-06     1.057E-05     1.195E-05
X     4.531E+00    -2.416E+00     6.196E-02     2.284E-06     1.173E-05     1.328E-05
X     4.531E+00    -2.416E+00     5.576E-01     1.914E-06     9.840E-06     1.113E-05
X     4.531E+00    -2.416E+00     1.053E+00     1.170E-06     6.017E-06     6.808E-06
X     4.531E+00    -2.416E+00     1.549E+00     4.528E-07     2.329E-06     2.635E-06
X     4.531E+00    -2.416E+00     2.045E+00     3.706E-08     1.907E-07     2.157E-07
X     4.531E+00    -2.416E+00     2.540E+00     0.000E+00     0.000E+00     0.000E+00
X     4.531E+00    -2.416E+00     3.036E+00     0.000E+00     0.000E+00     0.000E+00
X     4.531E+00    -2.416E+00     3.531E+00     0.000E+00     0.000E+00     0.000E+00
X     4.531E+00    -2.416E+00     4.027E+00     0.000E+00     0.000E+00     0.000E+00
X     4.531E+00    -2.416E+00     4.523E+00     0.000E+00     0.000E+00     0.000E+00
X     4.531E+00    -1.921E+00    -4.895E+00     0.000E+00     0.000E+00     0.000E+00
X     4.531E+00    -1.921E+00    -4.399E+00     0.000E+00     0.000E+00     0.000E+00
X     4.531E+00    -1.921E+00    -3.903E+00     0.000E+00     0.000E+00     0.000E+00
X     4.531E+00    -1.921E+00    -3.408E+00     0.000E+00     0.000E+00     0.000E+00
X     4.531E+00    -1.921E+00    -2.912E+00     0.000E+00     0.000E+00     0.000E+00
X     4.531E+00    -1.921E+00    -2.416E+00     1.028E-07     5.285E-07     5.979E-07
X     4.531E+00    -1.921E+00    -1.921E+00     8.769E-07     4.506E-06     5.098E-06
X     4.531E+00    -1.921E+00    -1.425E+00     2.448E-06     1.257E-05     1.422E-05
X     4.531E+00    -1.921E+00    -9.293E-01     4.500E-06     2.309E-05     2.612E-05
X     4.531E+00    -1.921E+00    -4.337E-01     6.248E-06     3.205E-05     3.627E-05
X     4.531E+00    -1.921E+00     6.196E-02     6.819E-06     3.500E-05     3.960E-05
X     4.531E+00    -1.921E+00     5.576E-01     5.883E-06     3.022E-05     3.419E-05
X     4.531E+00    -1.921E+00     1.053E+00     3.973E-06     2.043E-05     2.311E-05
X     4.531E+00    -1.921E+00     1.549E+00     1.983E-06     1.020E-05     1.154E-05
X     4.531E+00    -1.921E+00     2.045E+00     6.111E-07     3.143E-06     3.557E-06
X     4.531E+00    -1.921E+00     2.540E+00     2.499E-08     1.285E-07     1.454E-07
X     4.531E+00    -1.921E+00     3.036E+00     0.000E+00     0.000E+00     0.000E+00
X     4.531E+00    -1.921E+00     3.531E+00     0.000E+00     0.000E+00     0.000E+00
X     4.531E+00    -1.921E+00     4.027E+00     0.000E+00     0.000E+00     0.000E+00
X     4.531E+00    -1.921E+00     4.523E+00     0.000E+00     0.000E+00     0.000E+00
X     4.531E+00    -1.425E+00    -4.895E+00     0.000E+00     0.000E+00     0.000E+00
X     4.531E+00    -1.425E+00    -4.399E+00     0.000E+00     0.000E+00     0.000E+00
X     4.531E+00    -1.425E+00    -3.903E+00     0.000E+00     0.000E+00     0.000E+00
X     4.531E+00    -1.425E+00    -3.408E+00     0.000E+00     0.000E+00     0.000E+00
X     4.531E+00    -1.425E+00    -2.912E+00     3.647E-09     1.876E-08     2.122E-08
X     4.531E+00    -1.425E+00    -2.416E+00     6.116E-07     3.143E-06     3.556E-06
X     4.531E+00    -1.425E+00    -1.921E+00     2.448E-06     1.257E-05     1.422E-05
X     4.531E+00    -1.425E+00    -1.425E+00     5.721E-06     2.934E-05     3.319E-05
X     4.531E+00    -1.425E+00    -9.293E-01     9.976E-06     5.111E-05     5.783E-05
X     4.531E+00    -1.425E+00    -4.337E-01     1.372E-05     7.028E-05     7.952E-05
X     4.531E+00    -1.425E+00     6.196E-02     1.494E-05     7.664E-05     8.672E-05
X     4.531E+00    -1.425E+00     5.576E-01     1.292E-05     6.634E-05     7.506E-05
X     4.531E+00    -1.425E+00     1.053E+00     8.851E-06     4.551E-05     5.149E-05
X     4.531E+00    -1.425E+00     1.549E+00     4.768E-06     2.453E-05     2.776E-05
X     4.531E+00    -1.425E+00     2.045E+00     1.844E-06     9.491E-06     1.074E-05
X     4.531E+00    -1.425E+00     2.540E+00     3.637E-07     1.871E-06     2.117E-06
X     4.531E+00    -1.425E+00     3.036E+00     4.282E-12     2.202E-11     2.492E-11
X     4.531E+00    -1.425E+00     3.531E+00     0.000E+00     0.000E+00     0.000E+00
X     4.531E+00    -1.425E+00     4.027E+00     0.000E+00     0.000E+00     0.000E+00
X     4.531E+00    -1.425E+00     4.523E+00     0.000E+00     0.000E+00     0.000E+00
X     4.531E+00    -9.293E-01    -4.895E+00     0.000E+00     0.000E+00     0.000E+00
X     4.531E+00    -9.293E-01    -4.399E+00     0.000E+00     0.000E+00     0.000E+00
X     4.531E+00    -9.293E-01    -3.903E+00     0.000E+00     0.000E+00     0.000E+00
X     4.531E+00    -9.293E-01    -3.408E+00     0.000E+00     0.000E+00     0.000E+00
X     4.531E+00    -9.293E-01    -2.912E+00     1.364E-07     7.011E-07     7.933E-07
X     4.531E+00    -9.293E-01    -2.416E+00     1.370E-06     7.040E-06     7.965E-06
X     4.531E+00    -9.293E-01    -1.921E+00     4.500E-06     2.309E-05     2.612E-05
X     4.531E+00    -9.293E-01    -1.425E+00     9.977E-06     5.111E-05     5.783E-05
X     4.531E+00    -9.293E-01    -9.293E-01     1.730E-05     8.853E-05     1.002E-04
X     4.531E+00    -9.293E-01    -4.337E-01     2.377E-05     1.217E-04     1.377E-04
X     4.531E+00    -9.293E-01     6.196E-02     2.590E-05     1.328E-04     1.503E-04
X     4.531E+00    -9.293E-01     5.576E-01     2.234E-05     1.148E-04     1.299E-04
X     4.531E+00    -9.293E-01     1.053E+00     1.533E-05     7.888E-05     8.926E-05
X     4.531E+00    -9.293E-01     1.549E+00     8.338E-06     4.293E-05     4.858E-05
X     4.531E+00    -9.293E-01     2.045E+00     3.500E-06     1.802E-05     2.039E-05
X     4.531E+00    -9.293E-01     2.540E+00     9.136E-07     4.702E-06     5.320E-06
X     4.531E+00    -9.293E-01     3.036E+00     3.081E-08     1.585E-07     1.793E-07
X     4.531E+00    -9.293E-01     3.531E+00     0.000E+00     0.000E+00     0.000E+00
X     4.531E+00    -9.293E-01     4.027E+00     0.000E+00     0.000E+00     0.000E+00
X     4.531E+00    -9.293E-01     4.523E+00     0.000E+00     0.000E+00     0.000E+00
X     4.531E+00    -4.337E-01    -4.895E+00     0.000E+00     0.000E+00     0.000E+00
X     4.531E+00    -4.337E-01    -4.399E+00     0.000E+00     0.000E+00     0.000E+00
X     4.531E+00    -4.337E-01    -3.903E+00     0.000E+00     0.000E+00     0.000E+00
X     4.531E+00    -4.337E-01    -3.408E+00     0.000E+00     0.000E+00     0.000E+00
X     4.531E+00    -4.337E-01    -2.912E+00     3.046E-07     1.566E-06     1.772E-06
X     4.531E+00    -4.337E-01    -2.416E+00     2.057E-06     1.057E-05     1.195E-05
X     4.531E+00    -4.337E-01    -1.921E+00     6.249E-06     3.205E-05     3.627E-05
X     4.531E+00    -4.337E-01    -1.425E+00     1.372E-05     7.028E-05     7.952E-05
X     4.531E+00    -4.337E-01    -9.293E-01     2.377E-05     1.217E-04     1.377E-04
X     4.531E+00    -4.337E-01    -4.337E-01     3.286E-05     1.683E-04     1.904E-04
X     4.531E+00    -4.337E-01     6.196E-02     3.588E-05     1.842E-04     2.084E-04
X     4.531E+00    -4.337E-01     5.576E-01     3.080E-05     1.586E-04     1.794E-04
X     4.531E+00    -4.337E-01     1.053E+00     2.102E-05     1.084E-04     1.226E-04
X     4.531E+00    -4.337E-01     1.549E+00     1.146E-05     5.909E-05     6.686E-05
X     4.531E+00    -4.337E-01     2.045E+00     4.906E-06     2.528E-05     2.860E-05
X     4.531E+00    -4.337E-01     2.540E+00     1.421E-06     7.316E-06     8.278E-06
X     4.531E+00    -4.337E-01     3.036E+00     1.245E-07     6.406E-07     7.249E-07
X     4.531E+00    -4.337E-01     3.531E+00     0.000E+00     0.000E+00     0.000E+00
X     4.531E+00    -4.337E-01     4.027E+00     0.000E+00     0.000E+00     0.000E+00
X     4.531E+00    -4.337E-01     4.523E+00     0.000E+00     0.000E+00     0.000E+00
X     4.531E+00     6.196E-02    -4.895E+00     0.000E+00     0.000E+00     0.000E+00
X     4.531E+00     6.196E-02    -4.399E+00     0.000E+00     0.000E+00     0.000E+00
X     4.531E+00     6.196E-02    -3.903E+00     0.000E+00     0.000E+00     0.000E+00
X     4.531E+00     6.196E-02    -3.408E+00     0.000E+00     0.000E+00     0.000E+00
X     4.531E+00     6.196E-02    -2.912E+00     3.639E-07     1.871E-06     2.117E-06
X     4.531E+00     6.196E-02    -2.416E+00     2.284E-06     1.173E-05     1.328E-05
X     4.531E+00     6.196E-02    -1.921E+00     6.821E-06     3.500E-05     3.960E-05
X     4.531E+00     6.196E-02    -1.425E+00     1.495E-05     7.665E-05     8.671E-05
X     4.531E+00     6.196E-02    -9.293E-01     2.591E-05     1.328E-04     1.503E-04
X     4.531E+00     6.196E-02    -4.337E-01     3.589E-05     1.842E-04     2.084E-04
X     4.531E+00     6.196E-02     6.196E-02     3.921E-05     2.018E-04     2.283E-04
X     4.531E+00     6.196E-02     5.576E-01     3.362E-05     1.735E-04     1.963E-04
X     4.531E+00     6.196E-02     1.053E+00     2.289E-05     1.182E-04     1.338E-04
X     4.531E+00     6.196E-02     1.549E+00     1.249E-05     6.445E-05     7.293E-05
X     4.531E+00     6.196E-02     2.045E+00     5.363E-06     2.765E-05     3.128E-05
X     4.531E+00     6.196E-02     2.540E+00     1.591E-06     8.194E-06     9.271E-06
X     4.531E+00     6.196E-02     3.036E+00     1.614E-07     8.307E-07     9.400E-07
X     4.531E+00     6.196E-02     3.531E+00     0.000E+00     0.000E+00     0.000E+00
X     4.531E+00     6.196E-02     4.027E+00     0.000E+00     0.000E+00     0.000E+00
X     4.531E+00     6.196E-02     4.523E+00     0.000E+00     0.000E+00     0.000E+00
X     4.531E+00     5.576E-01    -4.895E+00     0.000E+00     0.000E+00     0.000E+00
X     4.531E+00     5.576E-01    -4.399E+00     0.000E+00     0.000E+00     0.000E+00
X     4.531E+00     5.576E-01    -3.903E+00     0.000E+00     0.000E+00     0.000E+00
X     4.531E+00     5.576E-01    -3.408E+00     0.000E+00     0.000E+00     0.000E+00
X     4.531E+00     5.576E-01    -2.912E+00     2.683E-07     1.379E-06     1.561E-06
X     4.531E+00     5.576E-01    -2.416E+00     1.915E-06     9.839E-06     1.113E-05
X     4.531E+00     5.576E-01    -1.921E+00     5.885E-06     3.022E-05     3.419E-05
X     4.531E+00     5.576E-01    -1.425E+00     1.292E-05     6.634E-05     7.505E-05
X     4.531E+00     5.576E-01    -9.293E-01     2.236E-05     1.148E-04     1.299E-04
X     4.531E+00     5.576E-01    -4.337E-01     3.082E-05     1.586E-04     1.794E-04
X     4.531E+00     5.576E-01     6.196E-02     3.363E-05     1.735E-04     1.962E-04
X     4.531E+00     5.576E-01     5.576E-01     2.892E-05     1.494E-04     1.691E-04
X     4.531E+00     5.576E-01     1.053E+00     1.979E-05     1.023E-04     1.157E-04
X     4.531E+00     5.576E-01     1.549E+00     1.080E-05     5.577E-05     6.310E-05
X     4.531E+00     5.576E-01     2.045E+00     4.615E-06     2.380E-05     2.693E-05
X     4.531E+00     5.576E-01     2.540E+00     1.315E-06     6.773E-06     7.663E-06
X     4.531E+00     5.576E-01     3.036E+00     1.027E-07     5.284E-07     5.979E-07
X     4.531E+00     5.576E-01     3.531E+00     0.000E+00     0.000E+00     0.000E+00
X     4.531E+00     5.576E-01     4.027E+00     0.000E+00     0.000E+00     0.000E+00
X     4.531E+00     5.576E-01     4.523E+00     0.000E+00     0.000E+00     0.000E+00
X     4.531E+00     1.053E+00    -4.895E+00     0.000E+00     0.000E+00     0.000E+00
X     4.531E+00     1.053E+00    -4.399E+00     0.000E+00     0.000E+00     0.000E+00
X     4.531E+00     1.053E+00    -3.903E+00     0.000E+00     0.000E+00     0.000E+00
X     4.531E+00     1.053E+00    -3.408E+00     0.000E+00     0.000E+00     0.000E+00
X     4.531E+00     1.053E+00    -2.912E+00     9.268E-08     4.766E-07     5.393E-07
X     4.531E+00     1.053E+00    -2.416E+00     1.170E-06     6.017E-06     6.808E-06
X     4.531E+00     1.053E+00    -1.921E+00     3.974E-06     2.043E-05     2.311E-05
X     4.531E+00     1.053E+00    -1.425E+00     8.855E-06     4.551E-05     5.149E-05
X     4.531E+00     1.053E+00    -9.293E-01     1.534E-05     7.890E-05     8.925E-05
X     4.531E+00     1.053E+00    -4.337E-01     2.103E-05     1.084E-04     1.226E-04
X     4.531E+00     1.053E+00     6.196E-02     2.290E-05     1.182E-04     1.337E-04
X     4.531E+00     1.053E+00     5.576E-01     1.979E-05     1.023E-04     1.157E-04
X     4.531E+00     1.053E+00     1.053E+00     1.360E-05     7.029E-05     7.953E-05
X     4.531E+00     1.053E+00     1.549E+00     7.403E-06     3.822E-05     4.324E-05
X     4.531E+00     1.053E+00     2.045E+00     3.076E-06     1.586E-05     1.794E-05
X     4.531E+00     1.053E+00     2.540E+00     7.676E-07     3.952E-06     4.472E-06
X     4.531E+00     1.053E+00     3.036E+00     1.123E-08     5.780E-08     6.540E-08
X     4.531E+00     1.053E+00     3.531E+00     0.000E+00     0.000E+00     0.000E+00
X     4.531E+00     1.053E+00     4.027E+00     0.000E+00     0.000E+00     0.000E+00
X     4.531E+00     1.053E+00     4.523E+00     0.000E+00     0.000E+00     0.000E+00
X     4.531E+00     1.549E+00    -4.895E+00     0.000E+00     0.000E+00     0.000E+00
X     4.531E+00     1.549E+00    -4.399E+00     0.000E+00     0.000E+00     0.000E+00
X     4.531E+00     1.549E+00    -3.903E+00     0.000E+00     0.000E+00     0.000E+00
X     4.531E+00     1.549E+00    -3.408E+00     0.000E+00     0.000E+00     0.000E+00
X     4.531E+00     1.549E+00    -2.912E+00     1.477E-10     7.598E-10     8.597E-10
X     4.531E+00     1.549E+00    -2.416E+00     4.529E-07     2.329E-06     2.635E-06
X     4.531E+00     1.549E+00    -1.921E+00     1.983E-06     1.020E-05     1.154E-05
X     4.531E+00     1.549E+00    -1.425E+00     4.769E-06     2.453E-05     2.775E-05
X     4.531E+00     1.549E+00    -9.293E-01     8.342E-06     4.294E-05     4.858E-05
X     4.531E+00     1.549E+00    -4.337E-01     1.147E-05     5.910E-05     6.685E-05
X     4.531E+00     1.549E+00     6.196E-02     1.249E-05     6.446E-05     7.292E-05
X     4.531E+00     1.549E+00     5.576E-01     1.080E-05     5.577E-05     6.309E-05
X     4.531E+00     1.549E+00     1.053E+00     7.403E-06     3.822E-05     4.324E-05
X     4.531E+00     1.549E+00     1.549E+00     3.961E-06     2.043E-05     2.311E-05
X     4.531E+00     1.549E+00     2.045E+00     1.475E-06     7.600E-06     8.599E-06
X     4.531E+00     1.549E+00     2.540E+00     2.509E-07     1.291E-06     1.461E-06
X     4.531E+00     1.549E+00     3.036E+00     0.000E+00     0.000E+00     0.000E+00
X     4.531E+00     1.549E+00     3.531E+00     0.000E+00     0.000E+00     0.000E+00
X     4.531E+00     1.549E+00     4.027E+00     0.000E+00     0.000E+00     0.000E+00
X     4.531E+00     1.549E+00     4.523E+00     0.000E+00     0.000E+00     0.000E+00
X     4.531E+00     2.045E+00    -4.895E+00     0.000E+00     0.000E+00     0.000E+00
X     4.531E+00     2.045E+00    -4.399E+00     0.000E+00     0.000E+00     0.000E+00
X     4.531E+00     2.045E+00    -3.903E+00     0.000E+00     0.000E+00     0.000E+00
X     4.531E+00     2.045E+00    -3.408E+00     0.000E+00     0.000E+00     0.000E+00
X     4.531E+00     2.045E+00    -2.912E+00     0.000E+00     0.000E+00     0.000E+00
X     4.531E+00     2.045E+00    -2.416E+00     3.707E-08     1.907E-07     2.157E-07
X     4.531E+00     2.045E+00    -1.921E+00     6.111E-07     3.144E-06     3.556E-06
X     4.531E+00     2.045E+00    -1.425E+00     1.845E-06     9.492E-06     1.074E-05
X     4.531E+00     2.045E+00    -9.293E-01     3.501E-06     1.802E-05     2.039E-05
X     4.531E+00     2.045E+00    -4.337E-01     4.908E-06     2.528E-05     2.860E-05
X     4.531E+00     2.045E+00     6.196E-02     5.364E-06     2.765E-05     3.128E-05
X     4.531E+00     2.045E+00     5.576E-01     4.616E-06     2.380E-05     2.693E-05
X     4.531E+00     2.045E+00     1.053E+00     3.076E-06     1.586E-05     1.794E-05
X     4.531E+00     2.045E+00     1.549E+00     1.475E-06     7.600E-06     8.599E-06
X     4.531E+00     2.045E+00     2.045E+00     4.064E-07     2.092E-06     2.367E-06
X     4.531E+00     2.045E+00     2.540E+00     1.394E-09     7.171E-09     8.113E-09
X     4.531E+00     2.045E+00     3.036E+00     0.000E+00     0.000E+00     0.000E+00
X     4.531E+00     2.045E+00     3.531E+00     0.000E+00     0.000E+00     0.000E+00
X     4.531E+00     2.045E+00     4.027E+00     0.000E+00     0.000E+00     0.000E+00
X     4.531E+00     2.045E+00     4.523E+00     0.000E+00     0.000E+00     0.000E+00
X     4.531E+00     2.540E+00    -4.895E+00     0.000E+00     0.000E+00     0.000E+00
X     4.531E+00     2.540E+00    -4.399E+00     0.000E+00     0.000E+00     0.000E+00
X     4.531E+00     2.540E+00    -3.903E+00     0.000E+00     0.000E+00     0.000E+00
X     4.531E+00     2.540E+00    -3.408E+00     0.000E+00     0.000E+00     0.000E+00
X     4.531E+00     2.540E+00    -2.912E+00     0.000E+00     0.000E+00     0.000E+00
X     4.531E+00     2.540E+00    -2.416E+00     0.000E+00     0.000E+00     0.000E+00
X     4.531E+00     2.540E+00    -1.921E+00     2.499E-08     1.286E-07     1.454E-07
X     4.531E+00     2.540E+00    -1.425E+00     3.637E-07     1.871E-06     2.117E-06
X     4.531E+00     2.540E+00    -9.293E-01     9.137E-07     4.702E-06     5.320E-06
X     4.531E+00     2.540E+00    -4.337E-01     1.421E-06     7.317E-06     8.277E-06
X     4.531E+00     2.540E+00     6.196E-02     1.591E-06     8.195E-06     9.270E-06
X     4.531E+00     2.540E+00     5.576E-01     1.315E-06     6.773E-06     7.662E-06
X     4.531E+00     2.540E+00     1.053E+00     7.676E-07     3.953E-06     4.472E-06
X     4.531E+00     2.540E+00     1.549E+00     2.509E-07     1.291E-06     1.461E-06
X     4.531E+00     2.540E+00     2.045E+00     1.394E-09     7.171E-09     8.113E-09
X     4.531E+00     2.540E+00     2.540E+00     0.000E+00     0.000E+00     0.000E+00
X     4.531E+00     2.540E+00     3.036E+00     0.000E+00     0.000E+00     0.000E+00
X     4.531E+00     2.540E+00     3.531E+00     0.000E+00     0.000E+00     0.000E+00
X     4.531E+00     2.540E+00     4.027E+00     0.000E+00     0.000E+00     0.000E+00
X     4.531E+00     2.540E+00     4.523E+00     0.000E+00     0.000E+00     0.000E+00
X     4.531E+00     3.036E+00    -4.895E+00     0.000E+00     0.000E+00     0.000E+00
X     4.531E+00     3.036E+00    -4.399E+00     0.000E+00     0.000E+00     0.000E+00
X     4.531E+00     3.036E+00    -3.903E+00     0.000E+00     0.000E+00     0.000E+00
X     4.531E+00     3.036E+00    -3.408E+00     0.000E+00     0.000E+00     0.000E+00
X     4.531E+00     3.036E+00    -2.912E+00     0.000E+00     0.000E+00     0.000E+00
X     4.531E+00     3.036E+00    -2.416E+00     0.000E+00     0.000E+00     0.000E+00
X     4.531E+00     3.036E+00    -1.921E+00     0.000E+00     0.000E+00     0.000E+00
X     4.531E+00     3.036E+00    -1.425E+00     4.282E-12     2.203E-11     2.492E-11
X     4.531E+00     3.036E+00    -9.293E-01     3.081E-08     1.585E-07     1.793E-07
X     4.531E+00     3.036E+00    -4.337E-01     1.245E-07     6.407E-07     7.248E-07
X     4.531E+00     3.036E+00     6.196E-02     1.614E-07     8.308E-07     9.399E-07
X     4.531E+00     3.036E+00     5.576E-01     1.027E-07     5.285E-07     5.979E-07
X     4.531E+00     3.036E+00     1.053E+00     1.123E-08     5.781E-08     6.539E-08
X     4.531E+00     3.036E+00     1.549E+00     0.000E+00     0.000E+00     0.000E+00
X     4.531E+00     3.036E+00     2.045E+00     0.000E+00     0.000E+00     0.000E+00
X     4.531E+00     3.036E+00     2.540E+00     0.000E+00     0.000E+00     0.000E+00
X     4.531E+00     3.036E+00     3.036E+00     0.000E+00     0.000E+00     0.000E+00
X     4.531E+00     3.036E+00     3.531E+00     0.000E+00     0.000E+00     0.000E+00
X     4.531E+00     3.036E+00     4.027E+00     0.000E+00     0.000E+00     0.000E+00
X     4.531E+00     3.036E+00     4.523E+00     0.000E+00     0.000E+00     0.000E+00
X     4.531E+00     3.531E+00    -4.895E+00     0.000E+00     0.000E+00     0.000E+00
X     4.531E+00     3.531E+00    -4.399E+00     0.000E+00     0.000E+00     0.000E+00
X     4.531E+00     3.531E+00    -3.903E+00     0.000E+00     0.000E+00     0.000E+00
X     4.531E+00     3.531E+00    -3.408E+00     0.000E+00     0.000E+00     0.000E+00
X     4.531E+00     3.531E+00    -2.912E+00     0.000E+00     0.000E+00     0.000E+00
X     4.531E+00     3.531E+00    -2.416E+00     0.000E+00     0.000E+00     0.000E+00
X     4.531E+00     3.531E+00    -1.921E+00     0.000E+00     0.000E+00     0.000E+00
X     4.531E+00     3.531E+00    -1.425E+00     0.000E+00     0.000E+00     0.000E+00
X     4.531E+00     3.531E+00    -9.293E-01     0.000E+00     0.000E+00     0.000E+00
X     4.531E+00     3.531E+00    -4.337E-01     0.000E+00     0.000E+00     0.000E+00
X     4.531E+00     3.531E+00     6.196E-02     0.000E+00     0.000E+00     0.000E+00
X     4.531E+00     3.531E+00     5.576E-01     0.000E+00     0.000E+00     0.000E+00
X     4.531E+00     3.531E+00     1.053E+00     0.000E+00     0.000E+00     0.000E+00
X     4.531E+00     3.531E+00     1.549E+00     0.000E+00     0.000E+00     0.000E+00
X     4.531E+00     3.531E+00     2.045E+00     0.000E+00     0.000E+00     0.000E+00
X     4.531E+00     3.531E+00     2.540E+00     0.000E+00     0.000E+00     0.000E+00
X     4.531E+00     3.531E+00     3.036E+00     0.000E+00     0.000E+00     0.000E+00
X     4.531E+00     3.531E+00     3.531E+00     0.000E+00     0.000E+00     0.000E+00
X     4.531E+00     3.531E+00     4.027E+00     0.000E+00     0.000E+00     0.000E+00
X     4.531E+00     3.531E+00     4.523E+00     0.000E+00     0.000E+00     0.000E+00
X     4.531E+00     4.027E+00    -4.895E+00     0.000E+00     0.000E+00     0.000E+00
X     4.531E+00     4.027E+00    -4.399E+00     0.000E+00     0.000E+00     0.000E+00
X     4.531E+00     4.027E+00    -3.903E+00     0.000E+00     0.000E+00     0.000E+00
X     4.531E+00     4.027E+00    -3.408E+00     0.000E+00     0.000E+00     0.000E+00
X     4.531E+00     4.027E+00    -2.912E+00     0.000E+00     0.000E+00     0.000E+00
X     4.531E+00     4.027E+00    -2.416E+00     0.000E+00     0.000E+00     0.000E+00
X     4.531E+00     4.027E+00    -1.921E+00     0.000E+00     0.000E+00     0.000E+00
X     4.531E+00     4.027E+00    -1.425E+00     0.000E+00     0.000E+00     0.000E+00
X     4.531E+00     4.027E+00    -9.293E-01     0.000E+00     0.000E+00     0.000E+00
X     4.531E+00     4.027E+00    -4.337E-01     0.000E+00     0.000E+00     0.000E+00
X     4.531E+00     4.027E+00     6.196E-02     0.000E+00     0.000E+00     0.000E+00
X     4.531E+00     4.027E+00     5.576E-01     0.000E+00     0.000E+00     0.000E+00
X     4.531E+00     4.027E+00     1.053E+00     0.000E+00     0.000E+00     0.000E+00
X     4.531E+00     4.027E+00     1.549E+00     0.000E+00     0.000E+00     0.000E+00
X     4.531E+00     4.027E+00     2.045E+00     0.000E+00     0.000E+00     0.000E+00
X     4.531E+00     4.027E+00     2.540E+00     0.000E+00     0.000E+00     0.000E+00
X     4.531E+00     4.027E+00     3.036E+00     0.000E+00     0.000E+00     0.000E+00
X     4.531E+00     4.027E+00     3.531E+00     0.000E+00     0.000E+00     0.000E+00
X     4.531E+00     4.027E+00     4.027E+00     0.000E+00     0.000E+00     0.000E+00
X     4.531E+00     4.027E+00     4.523E+00     0.000E+00     0.000E+00     0.000E+00
X     4.531E+00     4.523E+00    -4.895E+00     0.000E+00     0.000E+00     0.000E+00
X     4.531E+00     4.523E+00    -4.399E+00     0.000E+00     0.000E+00     0.000E+00
X     4.531E+00     4.523E+00    -3.903E+00     0.000E+00     0.000E+00     0.000E+00
X     4.531E+00     4.523E+00    -3.408E+00     0.000E+00     0.000E+00     0.000E+00
X     4.531E+00     4.523E+00    -2.912E+00     0.000E+00     0.000E+00     0.000E+00
X     4.531E+00     4.523E+00    -2.416E+00     0.000E+00     0.000E+00     0.000E+00
X     4.531E+00     4.523E+00    -1.921E+00     0.000E+00     0.000E+00     0.000E+00
X     4.531E+00     4.523E+00    -1.425E+00     0.000E+00     0.000E+00     0.000E+00
X     4.531E+00     4.523E+00    -9.293E-01     0.000E+00     0.000E+00     0.000E+00
X     4.531E+00     4.523E+00    -4.337E-01     0.000E+00     0.000E+00     0.000E+00
X     4.531E+00     4.523E+00     6.196E-02     0.000E+00     0.000E+00     0.000E+00
X     4.531E+00     4.523E+00     5.576E-01     0.000E+00     0.000E+00     0.000E+00
X     4.531E+00     4.523E+00     1.053E+00     0.000E+00     0.000E+00     0.000E+00
X     4.531E+00     4.523E+00     1.549E+00     0.000E+00     0.000E+00     0.000E+00
X     4.531E+00     4.523E+00     2.045E+00     0.000E+00     0.000E+00     0.000E+00
X     4.531E+00     4.523E+00     2.540E+00     0.000E+00     0.000E+00     0.000E+00
X     4.531E+00     4.523E+00     3.036E+00     0.000E+00     0.000E+00     0.000E+00
X     4.531E+00     4.523E+00     3.531E+00     0.000E+00     0.000E+00     0.000E+00
X     4.531E+00     4.523E+00     4.027E+00     0.000E+00     0.000E+00     0.000E+00
X     4.531E+00     4.523E+00     4.523E+00     0.000E+00     0.000E+00     0.000E+00
X     5.027E+00    -4.895E+00    -4.895E+00     0.000E+00     0.000E+00     0.000E+00
X     5.027E+00    -4.895E+00    -4.399E+00     0.000E+00     0.000E+00     0.000E+00
X     5.027E+00    -4.895E+00    -3.903E+00     0.000E+00     0.000E+00     0.000E+00
X     5.027E+00    -4.895E+00    -3.408E+00     0.000E+00     0.000E+00     0.000E+00
X     5.027E+00    -4.895E+00    -2.912E+00     0.000E+00     0.000E+00     0.000E+00
X     5.027E+00    -4.895E+00    -2.416E+00     0.000E+00     0.000E+00     0.000E+00
X     5.027E+00    -4.895E+00    -1.921E+00     0.000E+00     0.000E+00     0.000E+00
X     5.027E+00    -4.895E+00    -1.425E+00     0.000E+00     0.000E+00     0.000E+00
X     5.027E+00    -4.895E+00    -9.293E-01     0.000E+00     0.000E+00     0.000E+00
X     5.027E+00    -4.895E+00    -4.337E-01     0.000E+00     0.000E+00     0.000E+00
X     5.027E+00    -4.895E+00     6.196E-02     0.000E+00     0.000E+00     0.000E+00
X     5.027E+00    -4.895E+00     5.576E-01     0.000E+00     0.000E+00     0.000E+00
X     5.027E+00    -4.895E+00     1.053E+00     0.000E+00     0.000E+00     0.000E+00
X     5.027E+00    -4.895E+00     1.549E+00     0.000E+00     0.000E+00     0.000E+00
X     5.027E+00    -4.895E+00     2.045E+00     0.000E+00     0.000E+00     0.000E+00
X     5.027E+00    -4.895E+00     2.540E+00     0.000E+00     0.000E+00     0.000E+00
X     5.027E+00    -4.895E+00     3.036E+00     0.000E+00     0.000E+00     0.000E+00
X     5.027E+00    -4.895E+00     3.531E+00     0.000E+00     0.000E+00     0.000E+00
X     5.027E+00    -4.895E+00     4.027E+00     0.000E+00     0.000E+00     0.000E+00
X     5.027E+00    -4.895E+00     4.523E+00     0.000E+00     0.000E+00     0.000E+00
X     5.027E+00    -4.399E+00    -4.895E+00     0.000E+00     0.000E+00     0.000E+00
X     5.027E+00    -4.399E+00    -4.399E+00     0.000E+00     0.000E+00     0.000E+00
X     5.027E+00    -4.399E+00    -3.903E+00     0.000E+00     0.000E+00     0.000E+00
X     5.027E+00    -4.399E+00    -3.408E+00     0.000E+00     0.000E+00     0.000E+00
X     5.027E+00    -4.399E+00    -2.912E+00     0.000E+00     0.000E+00     0.000E+00
X     5.027E+00    -4.399E+00    -2.416E+00     0.000E+00     0.000E+00     0.000E+00
X     5.027E+00    -4.399E+00    -1.921E+00     0.000E+00     0.000E+00     0.000E+00
X     5.027E+00    -4.399E+00    -1.425E+00     0.000E+00     0.000E+00     0.000E+00
X     5.027E+00    -4.399E+00    -9.293E-01     0.000E+00     0.000E+00     0.000E+00
X     5.027E+00    -4.399E+00    -4.337E-01     0.000E+00     0.000E+00     0.000E+00
X     5.027E+00    -4.399E+00     6.196E-02     0.000E+00     0.000E+00     0.000E+00
X     5.027E+00    -4.399E+00     5.576E-01     0.000E+00     0.000E+00     0.000E+00
X     5.027E+00    -4.399E+00     1.053E+00     0.000E+00     0.000E+00     0.000E+00
X     5.027E+00    -4.399E+00     1.549E+00     0.000E+00     0.000E+00     0.000E+00
X     5.027E+00    -4.399E+00     2.045E+00     0.000E+00     0.000E+00     0.000E+00
X     5.027E+00    -4.399E+00     2.540E+00     0.000E+00     0.000E+00     0.000E+00
X     5.027E+00    -4.399E+00     3.036E+00     0.000E+00     0.000E+00     0.000E+00
X     5.027E+00    -4.399E+00     3.531E+00     0.000E+00     0.000E+00     0.000E+00
X     5.027E+00    -4.399E+00     4.027E+00     0.000E+00     0.000E+00     0.000E+00
X     5.027E+00    -4.399E+00     4.523E+00     0.000E+00     0.000E+00     0.000E+00
X     5.027E+00    -3.903E+00    -4.895E+00     0.000E+00     0.000E+00     0.000E+00
X     5.027E+00    -3.903E+00    -4.399E+00     0.000E+00     0.000E+00     0.000E+00
X     5.027E+00    -3.903E+00    -3.903E+00     0.000E+00     0.000E+00     0.000E+00
X     5.027E+00    -3.903E+00    -3.408E+00     0.000E+00     0.000E+00     0.000E+00
X     5.027E+00    -3.903E+00    -2.912E+00     0.000E+00     0.000E+00     0.000E+00
X     5.027E+00    -3.903E+00    -2.416E+00     0.000E+00     0.000E+00     0.000E+00
X     5.027E+00    -3.903E+00    -1.921E+00     0.000E+00     0.000E+00     0.000E+00
X     5.027E+00    -3.903E+00    -1.425E+00     0.000E+00     0.000E+00     0.000E+00
X     5.027E+00    -3.903E+00    -9.293E-01     0.000E+00     0.000E+00     0.000E+00
X     5.027E+00    -3.903E+00    -4.337E-01     0.000E+00     0.000E+00     0.000E+00
X     5.027E+00    -3.903E+00     6.196E-02     0.000E+00     0.000E+00     0.000E+00
X     5.027E+00    -3.903E+00     5.576E-01     0.000E+00     0.000E+00     0.000E+00
X     5.027E+00    -3.903E+00     1.053E+00     0.000E+00     0.000E+00     0.000E+00
X     5.027E+00    -3.903E+00     1.549E+00     0.000E+00     0.000E+00     0.000E+00
X     5.027E+00    -3.903E+00     2.045E+00     0.000E+00     0.000E+00     0.000E+00
X     5.027E+00    -3.903E+00     2.540E+00     0.000E+00     0.000E+00     0.000E+00
X     5.027E+00    -3.903E+00     3.036E+00     0.000E+00     0.000E+00     0.000E+00
X     5.027E+00    -3.903E+00     3.531E+00     0.000E+00     0.000E+00     0.000E+00
X     5.027E+00    -3.903E+00     4.027E+00     0.000E+00     0.000E+00     0.000E+00
X     5.027E+00    -3.903E+00     4.523E+00     0.000E+00     0.000E+00     0.000E+00
X     5.027E+00    -3.408E+00    -4.895E+00     0.000E+00     0.000E+00     0.000E+00
X     5.027E+00    -3.408E+00    -4.399E+00     0.000E+00     0.000E+00     0.000E+00
X     5.027E+00    -3.408E+00    -3.903E+00     0.000E+00     0.000E+00     0.000E+00
X     5.027E+00    -3.408E+00    -3.408E+00     0.000E+00     0.000E+00     0.000E+00
X     5.027E+00    -3.408E+00    -2.912E+00     0.000E+00     0.000E+00     0.000E+00
X     5.027E+00    -3.408E+00    -2.416E+00     0.000E+00     0.000E+00     0.000E+00
X     5.027E+00    -3.408E+00    -1.921E+00     0.000E+00     0.000E+00     0.000E+00
X     5.027E+00    -3.408E+00    -1.425E+00     0.000E+00     0.000E+00     0.000E+00
X     5.027E+00    -3.408E+00    -9.293E-01     0.000E+00     0.000E+00     0.000E+00
X     5.027E+00    -3.408E+00    -4.337E-01     0.000E+00     0.000E+00     0.000E+00
X     5.027E+00    -3.408E+00     6.196E-02     0.000E+00     0.000E+00     0.000E+00
X     5.027E+00    -3.408E+00     5.576E-01     0.000E+00     0.000E+00     0.000E+00
X     5.027E+00    -3.408E+00     1.053E+00     0.000E+00     0.000E+00     0.000E+00
X     5.027E+00    -3.408E+00     1.549E+00     0.000E+00     0.000E+00     0.000E+00
X     5.027E+00    -3.408E+00     2.045E+00     0.000E+00     0.000E+00     0.000E+00
X     5.027E+00    -3.408E+00     2.540E+00     0.000E+00     0.000E+00     0.000E+00
X     5.027E+00    -3.408E+00     3.036E+00     0.000E+00     0.000E+00     0.000E+00
X     5.027E+00    -3.408E+00     3.531E+00     0.000E+00     0.000E+00     0.000E+00
X     5.027E+00    -3.408E+00     4.027E+00     0.000E+00     0.000E+00     0.000E+00
X     5.027E+00    -3.408E+00     4.523E+00     0.000E+00     0.000E+00     0.000E+00
X     5.027E+00    -2.912E+00    -4.895E+00     0.000E+00     0.000E+00     0.000E+00
X     5.027E+00    -2.912E+00    -4.399E+00     0.000E+00     0.000E+00     0.000E+00
X     5.027E+00    -2.912E+00    -3.903E+00     0.000E+00     0.000E+00     0.000E+00
X     5.027E+00    -2.912E+00    -3.408E+00     0.000E+00     0.000E+00     0.000E+00
X     5.027E+00    -2.912E+00    -2.912E+00     0.000E+00     0.000E+00     0.000E+00
X     5.027E+00    -2.912E+00    -2.416E+00     0.000E+00     0.000E+00     0.000E+00
X     5.027E+00    -2.912E+00    -1.921E+00     0.000E+00     0.000E+00     0.000E+00
X     5.027E+00    -2.912E+00    -1.425E+00     0.000E+00     0.000E+00     0.000E+00
X     5.027E+00    -2.912E+00    -9.293E-01     0.000E+00     0.000E+00     0.000E+00
X     5.027E+00    -2.912E+00    -4.337E-01     2.193E-12     1.127E-11     1.274E-11
X     5.027E+00    -2.912E+00     6.196E-02     4.702E-12     2.415E-11     2.733E-11
X     5.027E+00    -2.912E+00     5.576E-01     0.000E+00     0.000E+00     0.000E+00
X     5.027E+00    -2.912E+00     1.053E+00     0.000E+00     0.000E+00     0.000E+00
X     5.027E+00    -2.912E+00     1.549E+00     0.000E+00     0.000E+00     0.000E+00
X     5.027E+00    -2.912E+00     2.045E+00     0.000E+00     0.000E+00     0.000E+00
X     5.027E+00    -2.912E+00     2.540E+00     0.000E+00     0.000E+00     0.000E+00
X     5.027E+00    -2.912E+00     3.036E+00     0.000E+00     0.000E+00     0.000E+00
X     5.027E+00    -2.912E+00     3.531E+00     0.000E+00     0.000E+00     0.000E+00
X     5.027E+00    -2.912E+00     4.027E+00     0.000E+00     0.000E+00     0.000E+00
X     5.027E+00    -2.912E+00     4.523E+00     0.000E+00     0.000E+00     0.000E+00
X     5.027E+00    -2.416E+00    -4.895E+00     0.000E+00     0.000E+00     0.000E+00
X     5.027E+00    -2.416E+00    -4.399E+00     0.000E+00     0.000E+00     0.000E+00
X     5.027E+00    -2.416E+00    -3.903E+00     0.000E+00     0.000E+00     0.000E+00
X     5.027E+00    -2.416E+00    -3.408E+00     0.000E+00     0.000E+00     0.000E+00
X     5.027E+00    -2.416E+00    -2.912E+00     0.000E+00     0.000E+00     0.000E+00
X     5.027E+00    -2.416E+00    -2.416E+00     0.000E+00     0.000E+00     0.000E+00
X     5.027E+00    -2.416E+00    -1.921E+00     0.000E+00     0.000E+00     0.000E+00
X     5.027E+00    -2.416E+00    -1.425E+00     1.445E-09     7.418E-09     8.393E-09
X     5.027E+00    -2.416E+00    -9.293E-01     1.106E-07     5.674E-07     6.419E-07
X     5.027E+00    -2.416E+00    -4.337E-01     2.599E-07     1.334E-06     1.509E-06
X     5.027E+00    -2.416E+00     6.196E-02     3.131E-07     1.607E-06     1.819E-06
X     5.027E+00    -2.416E+00     5.576E-01     2.274E-07     1.168E-06     1.321E-06
X     5.027E+00    -2.416E+00     1.053E+00     7.248E-08     3.725E-07     4.215E-07
X     5.027E+00    -2.416E+00     1.549E+00     4.800E-11     2.468E-10     2.792E-10
X     5.027E+00    -2.416E+00     2.045E+00     0.000E+00     0.000E+00     0.000E+00
X     5.027E+00    -2.416E+00     2.540E+00     0.000E+00     0.000E+00     0.000E+00
X     5.027E+00    -2.416E+00     3.036E+00     0.000E+00     0.000E+00     0.000E+00
X     5.027E+00    -2.416E+00     3.531E+00     0.000E+00     0.000E+00     0.000E+00
X     5.027E+00    -2.416E+00     4.027E+00     0.000E+00     0.000E+00     0.000E+00
X     5.027E+00    -2.416E+00     4.523E+00     0.000E+00     0.000E+00     0.000E+00
X     5.027E+00    -1.921E+00    -4.895E+00     0.000E+00     0.000E+00     0.000E+00
X     5.027E+00    -1.921E+00    -4.399E+00     0.000E+00     0.000E+00     0.000E+00
X     5.027E+00    -1.921E+00    -3.903E+00     0.000E+00     0.000E+00     0.000E+00
X     5.027E+00    -1.921E+00    -3.408E+00     0.000E+00     0.000E+00     0.000E+00
X     5.027E+00    -1.921E+00    -2.912E+00     0.000E+00     0.000E+00     0.000E+00
X     5.027E+00    -1.921E+00    -2.416E+00     0.000E+00     0.000E+00     0.000E+00
X     5.027E+00    -1.921E+00    -1.921E+00     2.484E-08     1.275E-07     1.442E-07
X     5.027E+00    -1.921E+00    -1.425E+00     3.521E-07     1.806E-06     2.043E-06
X     5.027E+00    -1.921E+00    -9.293E-01     8.805E-07     4.513E-06     5.107E-06
X     5.027E+00    -1.921E+00    -4.337E-01     1.366E-06     7.004E-06     7.925E-06
X     5.027E+00    -1.921E+00     6.196E-02     1.528E-06     7.839E-06     8.870E-06
X     5.027E+00    -1.921E+00     5.576E-01     1.263E-06     6.487E-06     7.340E-06
X     5.027E+00    -1.921E+00     1.053E+00     7.390E-07     3.798E-06     4.297E-06
X     5.027E+00    -1.921E+00     1.549E+00     2.429E-07     1.249E-06     1.414E-06
X     5.027E+00    -1.921E+00     2.045E+00     1.442E-09     7.418E-09     8.393E-09
X     5.027E+00    -1.921E+00     2.540E+00     0.000E+00     0.000E+00     0.000E+00
X     5.027E+00    -1.921E+00     3.036E+00     0.000E+00     0.000E+00     0.000E+00
X     5.027E+00    -1.921E+00     3.531E+00     0.000E+00     0.000E+00     0.000E+00
X     5.027E+00    -1.921E+00     4.027E+00     0.000E+00     0.000E+00     0.000E+00
X     5.027E+00    -1.921E+00     4.523E+00     0.000E+00     0.000E+00     0.000E+00
X     5.027E+00    -1.425E+00    -4.895E+00     0.000E+00     0.000E+00     0.000E+00
X     5.027E+00    -1.425E+00    -4.399E+00     0.000E+00     0.000E+00     0.000E+00
X     5.027E+00    -1.425E+00    -3.903E+00     0.000E+00     0.000E+00     0.000E+00
X     5.027E+00    -1.425E+00    -3.408E+00     0.000E+00     0.000E+00     0.000E+00
X     5.027E+00    -1.425E+00    -2.912E+00     0.000E+00     0.000E+00     0.000E+00
X     5.027E+00    -1.425E+00    -2.416E+00     1.445E-09     7.418E-09     8.393E-09
X     5.027E+00    -1.425E+00    -1.921E+00     3.521E-07     1.806E-06     2.043E-06
X     5.027E+00    -1.425E+00    -1.425E+00     1.218E-06     6.240E-06     7.060E-06
X     5.027E+00    -1.425E+00    -9.293E-01     2.421E-06     1.240E-05     1.403E-05
X     5.027E+00    -1.425E+00    -4.337E-01     3.452E-06     1.768E-05     2.001E-05
X     5.027E+00    -1.425E+00     6.196E-02     3.784E-06     1.940E-05     2.195E-05
X     5.027E+00    -1.425E+00     5.576E-01     3.234E-06     1.661E-05     1.879E-05
X     5.027E+00    -1.425E+00     1.053E+00     2.104E-06     1.082E-05     1.224E-05
X     5.027E+00    -1.425E+00     1.549E+00     9.534E-07     4.906E-06     5.551E-06
X     5.027E+00    -1.425E+00     2.045E+00     2.117E-07     1.090E-06     1.233E-06
X     5.027E+00    -1.425E+00     2.540E+00     4.693E-12     2.415E-11     2.733E-11
X     5.027E+00    -1.425E+00     3.036E+00     0.000E+00     0.000E+00     0.000E+00
X     5.027E+00    -1.425E+00     3.531E+00     0.000E+00     0.000E+00     0.000E+00
X     5.027E+00    -1.425E+00     4.027E+00     0.000E+00     0.000E+00     0.000E+00
X     5.027E+00    -1.425E+00     4.523E+00     0.000E+00     0.000E+00     0.000E+00
X     5.027E+00    -9.293E-01    -4.895E+00     0.000E+00     0.000E+00     0.000E+00
X     5.027E+00    -9.293E-01    -4.399E+00     0.000E+00     0.000E+00     0.000E+00
X     5.027E+00    -9.293E-01    -3.903E+00     0.000E+00     0.000E+00     0.000E+00
X     5.027E+00    -9.293E-01    -3.408E+00     0.000E+00     0.000E+00     0.000E+00
X     5.027E+00    -9.293E-01    -2.912E+00     0.000E+00     0.000E+00     0.000E+00
X     5.027E+00    -9.293E-01    -2.416E+00     1.106E-07     5.674E-07     6.420E-07
X     5.027E+00    -9.293E-01    -1.921E+00     8.806E-07     4.513E-06     5.107E-06
X     5.027E+00    -9.293E-01    -1.425E+00     2.421E-06     1.240E-05     1.403E-05
X     5.027E+00    -9.293E-01    -9.293E-01     4.410E-06     2.257E-05     2.554E-05
X     5.027E+00    -9.293E-01    -4.337E-01     6.094E-06     3.121E-05     3.531E-05
X     5.027E+00    -9.293E-01     6.196E-02     6.638E-06     3.405E-05     3.852E-05
X     5.027E+00    -9.293E-01     5.576E-01     5.730E-06     2.944E-05     3.332E-05
X     5.027E+00    -9.293E-01     1.053E+00     3.887E-06     2.000E-05     2.264E-05
X     5.027E+00    -9.293E-01     1.549E+00     1.959E-06     1.009E-05     1.142E-05
X     5.027E+00    -9.293E-01     2.045E+00     6.153E-07     3.169E-06     3.586E-06
X     5.027E+00    -9.293E-01     2.540E+00     3.041E-08     1.566E-07     1.772E-07
X     5.027E+00    -9.293E-01     3.036E+00     0.000E+00     0.000E+00     0.000E+00
X     5.027E+00    -9.293E-01     3.531E+00     0.000E+00     0.000E+00     0.000E+00
X     5.027E+00    -9.293E-01     4.027E+00     0.000E+00     0.000E+00     0.000E+00
X     5.027E+00    -9.293E-01     4.523E+00     0.000E+00     0.000E+00     0.000E+00
X     5.027E+00    -4.337E-01    -4.895E+00     0.000E+00     0.000E+00     0.000E+00
X     5.027E+00    -4.337E-01    -4.399E+00     0.000E+00     0.000E+00     0.000E+00
X     5.027E+00    -4.337E-01    -3.903E+00     0.000E+00     0.000E+00     0.000E+00
X     5.027E+00    -4.337E-01    -3.408E+00     0.000E+00     0.000E+00     0.000E+00
X     5.027E+00    -4.337E-01    -2.912E+00     2.193E-12     1.126E-11     1.275E-11
X     5.027E+00    -4.337E-01    -2.416E+00     2.600E-07     1.334E-06     1.509E-06
X     5.027E+00    -4.337E-01    -1.921E+00     1.367E-06     7.004E-06     7.925E-06
X     5.027E+00    -4.337E-01    -1.425E+00     3.453E-06     1.768E-05     2.001E-05
X     5.027E+00    -4.337E-01    -9.293E-01     6.095E-06     3.121E-05     3.531E-05
X     5.027E+00    -4.337E-01    -4.337E-01     8.366E-06     4.289E-05     4.852E-05
X     5.027E+00    -4.337E-01     6.196E-02     9.102E-06     4.675E-05     5.289E-05
X     5.027E+00    -4.337E-01     5.576E-01     7.866E-06     4.049E-05     4.581E-05
X     5.027E+00    -4.337E-01     1.053E+00     5.388E-06     2.777E-05     3.143E-05
X     5.027E+00    -4.337E-01     1.549E+00     2.835E-06     1.462E-05     1.654E-05
X     5.027E+00    -4.337E-01     2.045E+00     9.915E-07     5.111E-06     5.784E-06
X     5.027E+00    -4.337E-01     2.540E+00     1.209E-07     6.229E-07     7.049E-07
X     5.027E+00    -4.337E-01     3.036E+00     0.000E+00     0.000E+00     0.000E+00
X     5.027E+00    -4.337E-01     3.531E+00     0.000E+00     0.000E+00     0.000E+00
X     5.027E+00    -4.337E-01     4.027E+00     0.000E+00     0.000E+00     0.000E+00
X     5.027E+00    -4.337E-01     4.523E+00     0.000E+00     0.000E+00     0.000E+00
X     5.027E+00     6.196E-02    -4.895E+00     0.000E+00     0.000E+00     0.000E+00
X     5.027E+00     6.196E-02    -4.399E+00     0.000E+00     0.000E+00     0.000E+00
X     5.027E+00     6.196E-02    -3.903E+00     0.000E+00     0.000E+00     0.000E+00
X     5.027E+00     6.196E-02    -3.408E+00     0.000E+00     0.000E+00     0.000E+00
X     5.027E+00     6.196E-02    -2.912E+00     4.702E-12     2.415E-11     2.733E-11
X     5.027E+00     6.196E-02    -2.416E+00     3.132E-07     1.607E-06     1.819E-06
X     5.027E+00     6.196E-02    -1.921E+00     1.529E-06     7.840E-06     8.869E-06
X     5.027E+00     6.196E-02    -1.425E+00     3.785E-06     1.940E-05     2.195E-05
X     5.027E+00     6.196E-02    -9.293E-01     6.640E-06     3.405E-05     3.852E-05
X     5.027E+00     6.196E-02    -4.337E-01     9.104E-06     4.675E-05     5.289E-05
X     5.027E+00     6.196E-02     6.196E-02     9.901E-06     5.095E-05     5.765E-05
X     5.027E+00     6.196E-02     5.576E-01     8.559E-06     4.414E-05     4.994E-05
X     5.027E+00     6.196E-02     1.053E+00     5.873E-06     3.032E-05     3.431E-05
X     5.027E+00     6.196E-02     1.549E+00     3.117E-06     1.609E-05     1.821E-05
X     5.027E+00     6.196E-02     2.045E+00     1.118E-06     5.768E-06     6.526E-06
X     5.027E+00     6.196E-02     2.540E+00     1.564E-07     8.061E-07     9.122E-07
X     5.027E+00     6.196E-02     3.036E+00     0.000E+00     0.000E+00     0.000E+00
X     5.027E+00     6.196E-02     3.531E+00     0.000E+00     0.000E+00     0.000E+00
X     5.027E+00     6.196E-02     4.027E+00     0.000E+00     0.000E+00     0.000E+00
X     5.027E+00     6.196E-02     4.523E+00     0.000E+00     0.000E+00     0.000E+00
X     5.027E+00     5.576E-01    -4.895E+00     0.000E+00     0.000E+00     0.000E+00
X     5.027E+00     5.576E-01    -4.399E+00     0.000E+00     0.000E+00     0.000E+00
X     5.027E+00     5.576E-01    -3.903E+00     0.000E+00     0.000E+00     0.000E+00
X     5.027E+00     5.576E-01    -3.408E+00     0.000E+00     0.000E+00     0.000E+00
X     5.027E+00     5.576E-01    -2.912E+00     0.000E+00     0.000E+00     0.000E+00
X     5.027E+00     5.576E-01    -2.416E+00     2.274E-07     1.168E-06     1.321E-06
X     5.027E+00     5.576E-01    -1.921E+00     1.264E-06     6.488E-06     7.340E-06
X     5.027E+00     5.576E-01    -1.425E+00     3.236E-06     1.661E-05     1.879E-05
X     5.027E+00     5.576E-01    -9.293E-01     5.733E-06     2.945E-05     3.331E-05
X     5.027E+00     5.576E-01    -4.337E-01     7.870E-06     4.049E-05     4.581E-05
X     5.027E+00     5.576E-01     6.196E-02     8.561E-06     4.414E-05     4.994E-05
X     5.027E+00     5.576E-01     5.576E-01     7.401E-06     3.822E-05     4.325E-05
X     5.027E+00     5.576E-01     1.053E+00     5.068E-06     2.619E-05     2.963E-05
X     5.027E+00     5.576E-01     1.549E+00     2.651E-06     1.370E-05     1.550E-05
X     5.027E+00     5.576E-01     2.045E+00     9.119E-07     4.707E-06     5.326E-06
X     5.027E+00     5.576E-01     2.540E+00     9.981E-08     5.146E-07     5.823E-07
X     5.027E+00     5.576E-01     3.036E+00     0.000E+00     0.000E+00     0.000E+00
X     5.027E+00     5.576E-01     3.531E+00     0.000E+00     0.000E+00     0.000E+00
X     5.027E+00     5.576E-01     4.027E+00     0.000E+00     0.000E+00     0.000E+00
X     5.027E+00     5.576E-01     4.523E+00     0.000E+00     0.000E+00     0.000E+00
X     5.027E+00     1.053E+00    -4.895E+00     0.000E+00     0.000E+00     0.000E+00
X     5.027E+00     1.053E+00    -4.399E+00     0.000E+00     0.000E+00     0.000E+00
X     5.027E+00     1.053E+00    -3.903E+00     0.000E+00     0.000E+00     0.000E+00
X     5.027E+00     1.053E+00    -3.408E+00     0.000E+00     0.000E+00     0.000E+00
X     5.027E+00     1.053E+00    -2.912E+00     0.000E+00     0.000E+00     0.000E+00
X     5.027E+00     1.053E+00    -2.416E+00     7.250E-08     3.725E-07     4.215E-07
X     5.027E+00     1.053E+00    -1.921E+00     7.393E-07     3.798E-06     4.297E-06
X     5.027E+00     1.053E+00    -1.425E+00     2.105E-06     1.082E-05     1.224E-05
X     5.027E+00     1.053E+00    -9.293E-01     3.889E-06     2.001E-05     2.263E-05
X     5.027E+00     1.053E+00    -4.337E-01     5.391E-06     2.778E-05     3.142E-05
X     5.027E+00     1.053E+00     6.196E-02     5.875E-06     3.032E-05     3.430E-05
X     5.027E+00     1.053E+00     5.576E-01     5.068E-06     2.619E-05     2.963E-05
X     5.027E+00     1.053E+00     1.053E+00     3.422E-06     1.769E-05     2.001E-05
X     5.027E+00     1.053E+00     1.549E+00     1.694E-06     8.751E-06     9.901E-06
X     5.027E+00     1.053E+00     2.045E+00     5.069E-07     2.616E-06     2.960E-06
X     5.027E+00     1.053E+00     2.540E+00     1.127E-08     5.810E-08     6.574E-08
X     5.027E+00     1.053E+00     3.036E+00     0.000E+00     0.000E+00     0.000E+00
X     5.027E+00     1.053E+00     3.531E+00     0.000E+00     0.000E+00     0.000E+00
X     5.027E+00     1.053E+00     4.027E+00     0.000E+00     0.000E+00     0.000E+00
X     5.027E+00     1.053E+00     4.523E+00     0.000E+00     0.000E+00     0.000E+00
X     5.027E+00     1.549E+00    -4.895E+00     0.000E+00     0.000E+00     0.000E+00
X     5.027E+00     1.549E+00    -4.399E+00     0.000E+00     0.000E+00     0.000E+00
X     5.027E+00     1.549E+00    -3.903E+00     0.000E+00     0.000E+00     0.000E+00
X     5.027E+00     1.549E+00    -3.408E+00     0.000E+00     0.000E+00     0.000E+00
X     5.027E+00     1.549E+00    -2.912E+00     0.000E+00     0.000E+00     0.000E+00
X     5.027E+00     1.549E+00    -2.416E+00     4.801E-11     2.468E-10     2.792E-10
X     5.027E+00     1.549E+00    -1.921E+00     2.430E-07     1.249E-06     1.413E-06
X     5.027E+00     1.549E+00    -1.425E+00     9.539E-07     4.906E-06     5.550E-06
X     5.027E+00     1.549E+00    -9.293E-01     1.960E-06     1.009E-05     1.142E-05
X     5.027E+00     1.549E+00    -4.337E-01     2.836E-06     1.462E-05     1.654E-05
X     5.027E+00     1.549E+00     6.196E-02     3.118E-06     1.610E-05     1.821E-05
X     5.027E+00     1.549E+00     5.576E-01     2.652E-06     1.370E-05     1.550E-05
X     5.027E+00     1.549E+00     1.053E+00     1.694E-06     8.752E-06     9.901E-06
X     5.027E+00     1.549E+00     1.549E+00     7.357E-07     3.798E-06     4.297E-06
X     5.027E+00     1.549E+00     2.045E+00     1.321E-07     6.813E-07     7.708E-07
X     5.027E+00     1.549E+00     2.540E+00     0.000E+00     0.000E+00     0.000E+00
X     5.027E+00     1.549E+00     3.036E+00     0.000E+00     0.000E+00     0.000E+00
X     5.027E+00     1.549E+00     3.531E+00     0.000E+00     0.000E+00     0.000E+00
X     5.027E+00     1.549E+00     4.027E+00     0.000E+00     0.000E+00     0.000E+00
X     5.027E+00     1.549E+00     4.523E+00     0.000E+00     0.000E+00     0.000E+00
X     5.027E+00     2.045E+00    -4.895E+00     0.000E+00     0.000E+00     0.000E+00
X     5.027E+00     2.045E+00    -4.399E+00     0.000E+00     0.000E+00     0.000E+00
X     5.027E+00     2.045E+00    -3.903E+00     0.000E+00     0.000E+00     0.000E+00
X     5.027E+00     2.045E+00    -3.408E+00     0.000E+00     0.000E+00     0.000E+00
X     5.027E+00     2.045E+00    -2.912E+00     0.000E+00     0.000E+00     0.000E+00
X     5.027E+00     2.045E+00    -2.416E+00     0.000E+00     0.000E+00     0.000E+00
X     5.027E+00     2.045E+00    -1.921E+00     1.442E-09     7.418E-09     8.393E-09
X     5.027E+00     2.045E+00    -1.425E+00     2.118E-07     1.090E-06     1.233E-06
X     5.027E+00     2.045E+00    -9.293E-01     6.155E-07     3.170E-06     3.586E-06
X     5.027E+00     2.045E+00    -4.337E-01     9.919E-07     5.112E-06     5.783E-06
X     5.027E+00     2.045E+00     6.196E-02     1.118E-06     5.769E-06     6.525E-06
X     5.027E+00     2.045E+00     5.576E-01     9.121E-07     4.707E-06     5.325E-06
X     5.027E+00     2.045E+00     1.053E+00     5.069E-07     2.616E-06     2.960E-06
X     5.027E+00     2.045E+00     1.549E+00     1.321E-07     6.813E-07     7.708E-07
X     5.027E+00     2.045E+00     2.045E+00     1.632E-11     8.412E-11     9.518E-11
X     5.027E+00     2.045E+00     2.540E+00     0.000E+00     0.000E+00     0.000E+00
X     5.027E+00     2.045E+00     3.036E+00     0.000E+00     0.000E+00     0.000E+00
X     5.027E+00     2.045E+00     3.531E+00     0.000E+00     0.000E+00     0.000E+00
X     5.027E+00     2.045E+00     4.027E+00     0.000E+00     0.000E+00     0.000E+00
X     5.027E+00     2.045E+00     4.523E+00     0.000E+00     0.000E+00     0.000E+00
X     5.027E+00     2.540E+00    -4.895E+00     0.000E+00     0.000E+00     0.000E+00
X     5.027E+00     2.540E+00    -4.399E+00     0.000E+00     0.000E+00     0.000E+00
X     5.027E+00     2.540E+00    -3.903E+00     0.000E+00     0.000E+00     0.000E+00
X     5.027E+00     2.540E+00    -3.408E+00     0.000E+00     0.000E+00     0.000E+00
X     5.027E+00     2.540E+00    -2.912E+00     0.000E+00     0.000E+00     0.000E+00
X     5.027E+00     2.540E+00    -2.416E+00     0.000E+00     0.000E+00     0.000E+00
X     5.027E+00     2.540E+00    -1.921E+00     0.000E+00     0.000E+00     0.000E+00
X     5.027E+00     2.540E+00    -1.425E+00     4.694E-12     2.416E-11     2.733E-11
X     5.027E+00     2.540E+00    -9.293E-01     3.042E-08     1.566E-07     1.772E-07
X     5.027E+00     2.540E+00    -4.337E-01     1.209E-07     6.230E-07     7.048E-07
X     5.027E+00     2.540E+00     6.196E-02     1.564E-07     8.063E-07     9.121E-07
X     5.027E+00     2.540E+00     5.576E-01     9.983E-08     5.147E-07     5.822E-07
X     5.027E+00     2.540E+00     1.053E+00     1.127E-08     5.811E-08     6.574E-08
X     5.027E+00     2.540E+00     1.549E+00     0.000E+00     0.000E+00     0.000E+00
X     5.027E+00     2.540E+00     2.045E+00     0.000E+00     0.000E+00     0.000E+00
X     5.027E+00     2.540E+00     2.540E+00     0.000E+00     0.000E+00     0.000E+00
X     5.027E+00     2.540E+00     3.036E+00     0.000E+00     0.000E+00     0.000E+00
X     5.027E+00     2.540E+00     3.531E+00     0.000E+00     0.000E+00     0.000E+00
X     5.027E+00     2.540E+00     4.027E+00     0.000E+00     0.000E+00     0.000E+00
X     5.027E+00     2.540E+00     4.523E+00     0.000E+00     0.000E+00     0.000E+00
X     5.027E+00     3.036E+00    -4.895E+00     0.000E+00     0.000E+00     0.000E+00
X     5.027E+00     3.036E+00    -4.399E+00     0.000E+00     0.000E+00     0.000E+00
X     5.027E+00     3.036E+00    -3.903E+00     0.000E+00     0.000E+00     0.000E+00
X     5.027E+00     3.036E+00    -3.408E+00     0.000E+00     0.000E+00     0.000E+00
X     5.027E+00     3.036E+00    -2.912E+00     0.000E+00     0.000E+00     0.000E+00
X     5.027E+00     3.036E+00    -2.416E+00     0.000E+00     0.000E+00     0.000E+00
X     5.027E+00     3.036E+00    -1.921E+00     0.000E+00     0.000E+00     0.000E+00
X     5.027E+00     3.036E+00    -1.425E+00     0.000E+00     0.000E+00     0.000E+00
X     5.027E+00     3.036E+00    -9.293E-01     0.000E+00     0.000E+00     0.000E+00
X     5.027E+00     3.036E+00    -4.337E-01     0.000E+00     0.000E+00     0.000E+00
X     5.027E+00     3.036E+00     6.196E-02     0.000E+00     0.000E+00     0.000E+00
X     5.027E+00     3.036E+00     5.576E-01     0.000E+00     0.000E+00     0.000E+00
X     5.027E+00     3.036E+00     1.053E+00     0.000E+00     0.000E+00     0.000E+00
X     5.027E+00     3.036E+00     1.549E+00     0.000E+00     0.000E+00     0.000E+00
X     5.027E+00     3.036E+00     2.045E+00     0.000E+00     0.000E+00     0.000E+00
X     5.027E+00     3.036E+00     2.540E+00     0.000E+00     0.000E+00     0.000E+00
X     5.027E+00     3.036E+00     3.036E+00     0.000E+00     0.000E+00     0.000E+00
X     5.027E+00     3.036E+00     3.531E+00     0.000E+00     0.000E+00     0.000E+00
X     5.027E+00     3.036E+00     4.027E+00     0.000E+00     0.000E+00     0.000E+00
X     5.027E+00     3.036E+00     4.523E+00     0.000E+00     0.000E+00     0.000E+00
X     5.027E+00     3.531E+00    -4.895E+00     0.000E+00     0.000E+00     0.000E+00
X     5.027E+00     3.531E+00    -4.399E+00     0.000E+00     0.000E+00     0.000E+00
X     5.027E+00     3.531E+00    -3.903E+00     0.000E+00     0.000E+00     0.000E+00
X     5.027E+00     3.531E+00    -3.408E+00     0.000E+00     0.000E+00     0.000E+00
X     5.027E+00     3.531E+00    -2.912E+00     0.000E+00     0.000E+00     0.000E+00
X     5.027E+00     3.531E+00    -2.416E+00     0.000E+00     0.000E+00     0.000E+00
X     5.027E+00     3.531E+00    -1.921E+00     0.000E+00     0.000E+00     0.000E+00
X     5.027E+00     3.531E+00    -1.425E+00     0.000E+00     0.000E+00     0.000E+00
X     5.027E+00     3.531E+00    -9.293E-01     0.000E+00     0.000E+00     0.000E+00
X     5.027E+00     3.531E+00    -4.337E-01     0.000E+00     0.000E+00     0.000E+00
X     5.027E+00     3.531E+00     6.196E-02     0.000E+00     0.000E+00     0.000E+00
X     5.027E+00     3.531E+00     5.576E-01     0.000E+00     0.000E+00     0.000E+00
X     5.027E+00     3.531E+00     1.053E+00     0.000E+00     0.000E+00     0.000E+00
X     5.027E+00     3.531E+00     1.549E+00     0.000E+00     0.000E+00     0.000E+00
X     5.027E+00     3.531E+00     2.045E+00     0.000E+00     0.000E+00     0.000E+00
X     5.027E+00     3.531E+00     2.540E+00     0.000E+00     0.000E+00     0.000E+00
X     5.027E+00     3.531E+00     3.036E+00     0.000E+00     0.000E+00     0.000E+00
X     5.027E+00     3.531E+00     3.531E+00     0.000E+00     0.000E+00     0.000E+00
X     5.027E+00     3.531E+00     4.027E+00     0.000E+00     0.000E+00     0.000E+00
X     5.027E+00     3.531E+00     4.523E+00     0.000E+00     0.000E+00     0.000E+00
X     5.027E+00     4.027E+00    -4.895E+00     0.000E+00     0.000E+00     0.000E+00
X     5.027E+00     4.027E+00    -4.399E+00     0.000E+00     0.000E+00     0.000E+00
X     5.027E+00     4.027E+00    -3.903E+00     0.000E+00     0.000E+00     0.000E+00
X     5.027E+00     4.027E+00    -3.408E+00     0.000E+00     0.000E+00     0.000E+00
X     5.027E+00     4.027E+00    -2.912E+00     0.000E+00     0.000E+00     0.000E+00
X     5.027E+00     4.027E+00    -2.416E+00     0.000E+00     0.000E+00     0.000E+00
X     5.027E+00     4.027E+00    -1.921E+00     0.000E+00     0.000E+00     0.000E+00
X     5.027E+00     4.027E+00    -1.425E+00     0.000E+00     0.000E+00     0.000E+00
X     5.027E+00     4.027E+00    -9.293E-01     0.000E+00     0.000E+00     0.000E+00
X     5.027E+00     4.027E+00    -4.337E-01     0.000E+00     0.000E+00     0.000E+00
X     5.027E+00     4.027E+00     6.196E-02     0.000E+00     0.000E+00     0.000E+00
X     5.027E+00     4.027E+00     5.576E-01     0.000E+00     0.000E+00     0.000E+00
X     5.027E+00     4.027E+00     1.053E+00     0.000E+00     0.000E+00     0.000E+00
X     5.027E+00     4.027E+00     1.549E+00     0.000E+00     0.000E+00     0.000E+00
X     5.027E+00     4.027E+00     2.045E+00     0.000E+00     0.000E+00     0.000E+00
X     5.027E+00     4.027E+00     2.540E+00     0.000E+00     0.000E+00     0.000E+00
X     5.027E+00     4.027E+00     3.036E+00     0.000E+00     0.000E+00     0.000E+00
X     5.027E+00     4.027E+00     3.531E+00     0.000E+00     0.000E+00     0.000E+00
X     5.027E+00     4.027E+00     4.027E+00     0.000E+00     0.000E+00     0.000E+00
X     5.027E+00     4.027E+00     4.523E+00     0.000E+00     0.000E+00     0.000E+00
X     5.027E+00     4.523E+00    -4.895E+00     0.000E+00     0.000E+00     0.000E+00
X     5.027E+00     4.523E+00    -4.399E+00     0.000E+00     0.000E+00     0.000E+00
X     5.027E+00     4.523E+00    -3.903E+00     0.000E+00     0.000E+00     0.000E+00
X     5.027E+00     4.523E+00    -3.408E+00     0.000E+00     0.000E+00     0.000E+00
X     5.027E+00     4.523E+00    -2.912E+00     0.000E+00     0.000E+00     0.000E+00
X     5.027E+00     4.523E+00    -2.416E+00     0.000E+00     0.000E+00     0.000E+00
X     5.027E+00     4.523E+00    -1.921E+00     0.000E+00     0.000E+00     0.000E+00
X     5.027E+00     4.523E+00    -1.425E+00     0.000E+00     0.000E+00     0.000E+00
X     5.027E+00     4.523E+00    -9.293E-01     0.000E+00     0.000E+00     0.000E+00
X     5.027E+00     4.523E+00    -4.337E-01     0.000E+00     0.000E+00     0.000E+00
X     5.027E+00     4.523E+00     6.196E-02     0.000E+00     0.000E+00     0.000E+00
X     5.027E+00     4.523E+00     5.576E-01     0.000E+00     0.000E+00     0.000E+00
X     5.027E+00     4.523E+00     1.053E+00     0.000E+00     0.000E+00     0.000E+00
X     5.027E+00     4.523E+00     1.549E+00     0.000E+00     0.000E+00     0.000E+00
X     5.027E+00     4.523E+00     2.045E+00     0.000E+00     0.000E+00     0.000E+00
X     5.027E+00     4.523E+00     2.540E+00     0.000E+00     0.000E+00     0.000E+00
X     5.027E+00     4.523E+00     3.036E+00     0.000E+00     0.000E+00     0.000E+00
X     5.027E+00     4.523E+00     3.531E+00     0.000E+00     0.000E+00     0.000E+00
X     5.027E+00     4.523E+00     4.027E+00     0.000E+00     0.000E+00     0.000E+00
X     5.027E+00     4.523E+00     4.523E+00     0.000E+00     0.000E+00     0.000E+00
X     5.523E+00    -4.895E+00    -4.895E+00     0.000E+00     0.000E+00     0.000E+00
X     5.523E+00    -4.895E+00    -4.399E+00     0.000E+00     0.000E+00     0.000E+00
X     5.523E+00    -4.895E+00    -3.903E+00     0.000E+00     0.000E+00     0.000E+00
X     5.523E+00    -4.895E+00    -3.408E+00     0.000E+00     0.000E+00     0.000E+00
X     5.523E+00    -4.895E+00    -2.912E+00     0.000E+00     0.000E+00     0.000E+00
X     5.523E+00    -4.895E+00    -2.416E+00     0.000E+00     0.000E+00     0.000E+00
X     5.523E+00    -4.895E+00    -1.921E+00     0.000E+00     0.000E+00     0.000E+00
X     5.523E+00    -4.895E+00    -1.425E+00     0.000E+00     0.000E+00     0.000E+00
X     5.523E+00    -4.895E+00    -9.293E-01     0.000E+00     0.000E+00     0.000E+00
X     5.523E+00    -4.895E+00    -4.337E-01     0.000E+00     0.000E+00     0.000E+00
X     5.523E+00    -4.895E+00     6.196E-02     0.000E+00     0.000E+00     0.000E+00
X     5.523E+00    -4.895E+00     5.576E-01     0.000E+00     0.000E+00     0.000E+00
X     5.523E+00    -4.895E+00     1.053E+00     0.000E+00     0.000E+00     0.000E+00
X     5.523E+00    -4.895E+00     1.549E+00     0.000E+00     0.000E+00     0.000E+00
X     5.523E+00    -4.895E+00     2.045E+00     0.000E+00     0.000E+00     0.000E+00
X     5.523E+00    -4.895E+00     2.540E+00     0.000E+00     0.000E+00     0.000E+00
X     5.523E+00    -4.895E+00     3.036E+00     0.000E+00     0.000E+00     0.000E+00
X     5.523E+00    -4.895E+00     3.531E+00     0.000E+00     0.000E+00     0.000E+00
X     5.523E+00    -4.895E+00     4.027E+00     0.000E+00     0.000E+00     0.000E+00
X     5.523E+00    -4.895E+00     4.523E+00     0.000E+00     0.000E+00     0.000E+00
X     5.523E+00    -4.399E+00    -4.895E+00     0.000E+00     0.000E+00     0.000E+00
X     5.523E+00    -4.399E+00    -4.399E+00     0.000E+00     0.000E+00     0.000E+00
X     5.523E+00    -4.399E+00    -3.903E+00     0.000E+00     0.000E+00     0.000E+00
X     5.523E+00    -4.399E+00    -3.408E+00     0.000E+00     0.000E+00     0.000E+00
X     5.523E+00    -4.399E+00    -2.912E+00     0.000E+00     0.000E+00     0.000E+00
X     5.523E+00    -4.399E+00    -2.416E+00     0.000E+00     0.000E+00     0.000E+00
X     5.523E+00    -4.399E+00    -1.921E+00     0.000E+00     0.000E+00     0.000E+00
X     5.523E+00    -4.399E+00    -1.425E+00     0.000E+00     0.000E+00     0.000E+00
X     5.523E+00    -4.399E+00    -9.293E-01     0.000E+00     0.000E+00     0.000E+00
X     5.523E+00    -4.399E+00    -4.337E-01     0.000E+00     0.000E+00     0.000E+00
X     5.523E+00    -4.399E+00     6.196E-02     0.000E+00     0.000E+00     0.000E+00
X     5.523E+00    -4.399E+00     5.576E-01     0.000E+00     0.000E+00     0.000E+00
X     5.523E+00    -4.399E+00     1.053E+00     0.000E+00     0.000E+00     0.000E+00
X     5.523E+00    -4.399E+00     1.549E+00     0.000E+00     0.000E+00     0.000E+00
X     5.523E+00    -4.399E+00     2.045E+00     0.000E+00     0.000E+00     0.000E+00
X     5.523E+00    -4.399E+00     2.540E+00     0.000E+00     0.000E+00     0.000E+00
X     5.523E+00    -4.399E+00     3.036E+00     0.000E+00     0.000E+00     0.000E+00
X     5.523E+00    -4.399E+00     3.531E+00     0.000E+00     0.000E+00     0.000E+00
X     5.523E+00    -4.399E+00     4.027E+00     0.000E+00     0.000E+00     0.000E+00
X     5.523E+00    -4.399E+00     4.523E+00     0.000E+00     0.000E+00     0.000E+00
X     5.523E+00    -3.903E+00    -4.895E+00     0.000E+00     0.000E+00     0.000E+00
X     5.523E+00    -3.903E+00    -4.399E+00     0.000E+00     0.000E+00     0.000E+00
X     5.523E+00    -3.903E+00    -3.903E+00     0.000E+00     0.000E+00     0.000E+00
X     5.523E+00    -3.903E+00    -3.408E+00     0.000E+00     0.000E+00     0.000E+00
X     5.523E+00    -3.903E+00    -2.912E+00     0.000E+00     0.000E+00     0.000E+00
X     5.523E+00    -3.903E+00    -2.416E+00     0.000E+00     0.000E+00     0.000E+00
X     5.523E+00    -3.903E+00    -1.921E+00     0.000E+00     0.000E+00     0.000E+00
X     5.523E+00    -3.903E+00    -1.425E+00     0.000E+00     0.000E+00     0.000E+00
X     5.523E+00    -3.903E+00    -9.293E-01     0.000E+00     0.000E+00     0.000E+00
X     5.523E+00    -3.903E+00    -4.337E-01     0.000E+00     0.000E+00     0.000E+00
X     5.523E+00    -3.903E+00     6.196E-02     0.000E+00     0.000E+00     0.000E+00
X     5.523E+00    -3.903E+00     5.576E-01     0.000E+00     0.000E+00     0.000E+00
X     5.523E+00    -3.903E+00     1.053E+00     0.000E+00     0.000E+00     0.000E+00
X     5.523E+00    -3.903E+00     1.549E+00     0.000E+00     0.000E+00     0.000E+00
X     5.523E+00    -3.903E+00     2.045E+00     0.000E+00     0.000E+00     0.000E+00
X     5.523E+00    -3.903E+00     2.540E+00     0.000E+00     0.000E+00     0.000E+00
X     5.523E+00    -3.903E+00     3.036E+00     0.000E+00     0.000E+00     0.000E+00
X     5.523E+00    -3.903E+00     3.531E+00     0.000E+00     0.000E+00     0.000E+00
X     5.523E+00    -3.903E+00     4.027E+00     0.000E+00     0.000E+00     0.000E+00
X     5.523E+00    -3.903E+00     4.523E+00     0.000E+00     0.000E+00     0.000E+00
X     5.523E+00    -3.408E+00    -4.895E+00     0.000E+00     0.000E+00     0.000E+00
X     5.523E+00    -3.408E+00    -4.399E+00     0.000E+00     0.000E+00     0.000E+00
X     5.523E+00    -3.408E+00    -3.903E+00     0.000E+00     0.000E+00     0.000E+00
X     5.523E+00    -3.408E+00    -3.408E+00     0.000E+00     0.000E+00     0.000E+00
X     5.523E+00    -3.408E+00    -2.912E+00     0.000E+00     0.000E+00     0.000E+00
X     5.523E+00    -3.408E+00    -2.416E+00     0.000E+00     0.000E+00     0.000E+00
X     5.523E+00    -3.408E+00    -1.921E+00     0.000E+00     0.000E+00     0.000E+00
X     5.523E+00    -3.408E+00    -1.425E+00     0.000E+00     0.000E+00     0.000E+00
X     5.523E+00    -3.408E+00    -9.293E-01     0.000E+00     0.000E+00     0.000E+00
X     5.523E+00    -3.408E+00    -4.337E-01     0.000E+00     0.000E+00     0.000E+00
X     5.523E+00    -3.408E+00     6.196E-02     0.000E+00     0.000E+00     0.000E+00
X     5.523E+00    -3.408E+00     5.576E-01     0.000E+00     0.000E+00     0.000E+00
X     5.523E+00    -3.408E+00     1.053E+00     0.000E+00     0.000E+00     0.000E+00
X     5.523E+00    -3.408E+00     1.549E+00     0.000E+00     0.000E+00     0.000E+00
X     5.523E+00    -3.408E+00     2.045E+00     0.000E+00     0.000E+00     0.000E+00
X     5.523E+00    -3.408E+00     2.540E+00     0.000E+00     0.000E+00     0.000E+00
X     5.523E+00    -3.408E+00     3.036E+00     0.000E+00     0.000E+00     0.000E+00
X     5.523E+00    -3.408E+00     3.531E+00     0.000E+00     0.000E+00     0.000E+00
X     5.523E+00    -3.408E+00     4.027E+00     0.000E+00     0.000E+00     0.000E+00
X     5.523E+00    -3.408E+00     4.523E+00     0.000E+00     0.000E+00     0.000E+00
X     5.523E+00    -2.912E+00    -4.895E+00     0.000E+00     0.000E+00     0.000E+00
X     5.523E+00    -2.912E+00    -4.399E+00     0.000E+00     0.000E+00     0.000E+00
X     5.523E+00    -2.912E+00    -3.903E+00     0.000E+00     0.000E+00     0.000E+00
X     5.523E+00    -2.912E+00    -3.408E+00     0.000E+00     0.000E+00     0.000E+00
X     5.523E+00    -2.912E+00    -2.912E+00     0.000E+00     0.000E+00     0.000E+00
X     5.523E+00    -2.912E+00    -2.416E+00     0.000E+00     0.000E+00     0.000E+00
X     5.523E+00    -2.912E+00    -1.921E+00     0.000E+00     0.000E+00     0.000E+00
X     5.523E+00    -2.912E+00    -1.425E+00     0.000E+00     0.000E+00     0.000E+00
X     5.523E+00    -2.912E+00    -9.293E-01     0.000E+00     0.000E+00     0.000E+00
X     5.523E+00    -2.912E+00    -4.337E-01     0.000E+00     0.000E+00     0.000E+00
X     5.523E+00    -2.912E+00     6.196E-02     0.000E+00     0.000E+00     0.000E+00
X     5.523E+00    -2.912E+00     5.576E-01     0.000E+00     0.000E+00     0.000E+00
X     5.523E+00    -2.912E+00     1.053E+00     0.000E+00     0.000E+00     0.000E+00
X     5.523E+00    -2.912E+00     1.549E+00     0.000E+00     0.000E+00     0.000E+00
X     5.523E+00    -2.912E+00     2.045E+00     0.000E+00     0.000E+00     0.000E+00
X     5.523E+00    -2.912E+00     2.540E+00     0.000E+00     0.000E+00     0.000E+00
X     5.523E+00    -2.912E+00     3.036E+00     0.000E+00     0.000E+00     0.000E+00
X     5.523E+00    -2.912E+00     3.531E+00     0.000E+00     0.000E+00     0.000E+00
X     5.523E+00    -2.912E+00     4.027E+00     0.000E+00     0.000E+00     0.000E+00
X     5.523E+00    -2.912E+00     4.523E+00     0.000E+00     0.000E+00     0.000E+00
X     5.523E+00    -2.416E+00    -4.895E+00     0.000E+00     0.000E+00     0.000E+00
X     5.523E+00    -2.416E+00    -4.399E+00     0.000E+00     0.000E+00     0.000E+00
X     5.523E+00    -2.416E+00    -3.903E+00     0.000E+00     0.000E+00     0.000E+00
X     5.523E+00    -2.416E+00    -3.408E+00     0.000E+00     0.000E+00     0.000E+00
X     5.523E+00    -2.416E+00    -2.912E+00     0.000E+00     0.000E+00     0.000E+00
X     5.523E+00    -2.416E+00    -2.416E+00     0.000E+00     0.000E+00     0.000E+00
X     5.523E+00    -2.416E+00    -1.921E+00     0.000E+00     0.000E+00     0.000E+00
X     5.523E+00    -2.416E+00    -1.425E+00     0.000E+00     0.000E+00     0.000E+00
X     5.523E+00    -2.416E+00    -9.293E-01     0.000E+00     0.000E+00     0.000E+00
X     5.523E+00    -2.416E+00    -4.337E-01     0.000E+00     0.000E+00     0.000E+00
X     5.523E+00    -2.416E+00     6.196E-02     0.000E+00     0.000E+00     0.000E+00
X     5.523E+00    -2.416E+00     5.576E-01     0.000E+00     0.000E+00     0.000E+00
X     5.523E+00    -2.416E+00     1.053E+00     0.000E+00     0.000E+00     0.000E+00
X     5.523E+00    -2.416E+00     1.549E+00     0.000E+00     0.000E+00     0.000E+00
X     5.523E+00    -2.416E+00     2.045E+00     0.000E+00     0.000E+00     0.000E+00
X     5.523E+00    -2.416E+00     2.540E+00     0.000E+00     0.000E+00     0.000E+00
X     5.523E+00    -2.416E+00     3.036E+00     0.000E+00     0.000E+00     0.000E+00
X     5.523E+00    -2.416E+00     3.531E+00     0.000E+00     0.000E+00     0.000E+00
X     5.523E+00    -2.416E+00     4.027E+00     0.000E+00     0.000E+00     0.000E+00
X     5.523E+00    -2.416E+00     4.523E+00     0.000E+00     0.000E+00     0.000E+00
X     5.523E+00    -1.921E+00    -4.895E+00     0.000E+00     0.000E+00     0.000E+00
X     5.523E+00    -1.921E+00    -4.399E+00     0.000E+00     0.000E+00     0.000E+00
X     5.523E+00    -1.921E+00    -3.903E+00     0.000E+00     0.000E+00     0.000E+00
X     5.523E+00    -1.921E+00    -3.408E+00     0.000E+00     0.000E+00     0.000E+00
X     5.523E+00    -1.921E+00    -2.912E+00     0.000E+00     0.000E+00     0.000E+00
X     5.523E+00    -1.921E+00    -2.416E+00     0.000E+00     0.000E+00     0.000E+00
X     5.523E+00    -1.921E+00    -1.921E+00     0.000E+00     0.000E+00     0.000E+00
X     5.523E+00    -1.921E+00    -1.425E+00     0.000E+00     0.000E+00     0.000E+00
X     5.523E+00    -1.921E+00    -9.293E-01     2.432E-09     1.246E-08     1.410E-08
X     5.523E+00    -1.921E+00    -4.337E-01     4.839E-08     2.480E-07     2.806E-07
X     5.523E+00    -1.921E+00     6.196E-02     7.057E-08     3.619E-07     4.095E-07
X     5.523E+00    -1.921E+00     5.576E-01     3.582E-08     1.839E-07     2.081E-07
X     5.523E+00    -1.921E+00     1.053E+00     2.899E-10     1.490E-09     1.686E-09
X     5.523E+00    -1.921E+00     1.549E+00     0.000E+00     0.000E+00     0.000E+00
X     5.523E+00    -1.921E+00     2.045E+00     0.000E+00     0.000E+00     0.000E+00
X     5.523E+00    -1.921E+00     2.540E+00     0.000E+00     0.000E+00     0.000E+00
X     5.523E+00    -1.921E+00     3.036E+00     0.000E+00     0.000E+00     0.000E+00
X     5.523E+00    -1.921E+00     3.531E+00     0.000E+00     0.000E+00     0.000E+00
X     5.523E+00    -1.921E+00     4.027E+00     0.000E+00     0.000E+00     0.000E+00
X     5.523E+00    -1.921E+00     4.523E+00     0.000E+00     0.000E+00     0.000E+00
X     5.523E+00    -1.425E+00    -4.895E+00     0.000E+00     0.000E+00     0.000E+00
X     5.523E+00    -1.425E+00    -4.399E+00     0.000E+00     0.000E+00     0.000E+00
X     5.523E+00    -1.425E+00    -3.903E+00     0.000E+00     0.000E+00     0.000E+00
X     5.523E+00    -1.425E+00    -3.408E+00     0.000E+00     0.000E+00     0.000E+00
X     5.523E+00    -1.425E+00    -2.912E+00     0.000E+00     0.000E+00     0.000E+00
X     5.523E+00    -1.425E+00    -2.416E+00     0.000E+00     0.000E+00     0.000E+00
X     5.523E+00    -1.425E+00    -1.921E+00     0.000E+00     0.000E+00     0.000E+00
X     5.523E+00    -1.425E+00    -1.425E+00     3.006E-08     1.539E-07     1.741E-07
X     5.523E+00    -1.425E+00    -9.293E-01     2.197E-07     1.125E-06     1.273E-06
X     5.523E+00    -1.425E+00    -4.337E-01     4.202E-07     2.153E-06     2.436E-06
X     5.523E+00    -1.425E+00     6.196E-02     4.888E-07     2.506E-06     2.836E-06
X     5.523E+00    -1.425E+00     5.576E-01     3.771E-07     1.936E-06     2.191E-06
X     5.523E+00    -1.425E+00     1.053E+00     1.638E-07     8.421E-07     9.529E-07
X     5.523E+00    -1.425E+00     1.549E+00     5.688E-09     2.927E-08     3.312E-08
X     5.523E+00    -1.425E+00     2.045E+00     0.000E+00     0.000E+00     0.000E+00
X     5.523E+00    -1.425E+00     2.540E+00     0.000E+00     0.000E+00     0.000E+00
X     5.523E+00    -1.425E+00     3.036E+00     0.000E+00     0.000E+00     0.000E+00
X     5.523E+00    -1.425E+00     3.531E+00     0.000E+00     0.000E+00     0.000E+00
X     5.523E+00    -1.425E+00     4.027E+00     0.000E+00     0.000E+00     0.000E+00
X     5.523E+00    -1.425E+00     4.523E+00     0.000E+00     0.000E+00     0.000E+00
X     5.523E+00    -9.293E-01    -4.895E+00     0.000E+00     0.000E+00     0.000E+00
X     5.523E+00    -9.293E-01    -4.399E+00     0.000E+00     0.000E+00     0.000E+00
X     5.523E+00    -9.293E-01    -3.903E+00     0.000E+00     0.000E+00     0.000E+00
X     5.523E+00    -9.293E-01    -3.408E+00     0.000E+00     0.000E+00     0.000E+00
X     5.523E+00    -9.293E-01    -2.912E+00     0.000E+00     0.000E+00     0.000E+00
X     5.523E+00    -9.293E-01    -2.416E+00     0.000E+00     0.000E+00     0.000E+00
X     5.523E+00    -9.293E-01    -1.921E+00     2.433E-09     1.246E-08     1.410E-08
X     5.523E+00    -9.293E-01    -1.425E+00     2.197E-07     1.125E-06     1.273E-06
X     5.523E+00    -9.293E-01    -9.293E-01     6.203E-07     3.176E-06     3.593E-06
X     5.523E+00    -9.293E-01    -4.337E-01     9.916E-07     5.080E-06     5.748E-06
X     5.523E+00    -9.293E-01     6.196E-02     1.115E-06     5.723E-06     6.475E-06
X     5.523E+00    -9.293E-01     5.576E-01     9.115E-07     4.684E-06     5.300E-06
X     5.523E+00    -9.293E-01     1.053E+00     5.115E-07     2.632E-06     2.979E-06
X     5.523E+00    -9.293E-01     1.549E+00     1.392E-07     7.172E-07     8.116E-07
X     5.523E+00    -9.293E-01     2.045E+00     2.856E-11     1.471E-10     1.665E-10
X     5.523E+00    -9.293E-01     2.540E+00     0.000E+00     0.000E+00     0.000E+00
X     5.523E+00    -9.293E-01     3.036E+00     0.000E+00     0.000E+00     0.000E+00
X     5.523E+00    -9.293E-01     3.531E+00     0.000E+00     0.000E+00     0.000E+00
X     5.523E+00    -9.293E-01     4.027E+00     0.000E+00     0.000E+00     0.000E+00
X     5.523E+00    -9.293E-01     4.523E+00     0.000E+00     0.000E+00     0.000E+00
X     5.523E+00    -4.337E-01    -4.895E+00     0.000E+00     0.000E+00     0.000E+00
X     5.523E+00    -4.337E-01    -4.399E+00     0.000E+00     0.000E+00     0.000E+00
X     5.523E+00    -4.337E-01    -3.903E+00     0.000E+00     0.000E+00     0.000E+00
X     5.523E+00    -4.337E-01    -3.408E+00     0.000E+00     0.000E+00     0.000E+00
X     5.523E+00    -4.337E-01    -2.912E+00     0.000E+00     0.000E+00     0.000E+00
X     5.523E+00    -4.337E-01    -2.416E+00     0.000E+00     0.000E+00     0.000E+00
X     5.523E+00    -4.337E-01    -1.921E+00     4.840E-08     2.480E-07     2.806E-07
X     5.523E+00    -4.337E-01    -1.425E+00     4.204E-07     2.153E-06     2.436E-06
X     5.523E+00    -4.337E-01    -9.293E-01     9.917E-07     5.081E-06     5.748E-06
X     5.523E+00    -4.337E-01    -4.337E-01     1.510E-06     7.745E-06     8.762E-06
X     5.523E+00    -4.337E-01     6.196E-02     1.680E-06     8.631E-06     9.766E-06
X     5.523E+00    -4.337E-01     5.576E-01     1.398E-06     7.194E-06     8.141E-06
X     5.523E+00    -4.337E-01     1.053E+00     8.367E-07     4.312E-06     4.879E-06
X     5.523E+00    -4.337E-01     1.549E+00     2.996E-07     1.545E-06     1.748E-06
X     5.523E+00    -4.337E-01     2.045E+00     8.152E-09     4.204E-08     4.757E-08
X     5.523E+00    -4.337E-01     2.540E+00     0.000E+00     0.000E+00     0.000E+00
X     5.523E+00    -4.337E-01     3.036E+00     0.000E+00     0.000E+00     0.000E+00
X     5.523E+00    -4.337E-01     3.531E+00     0.000E+00     0.000E+00     0.000E+00
X     5.523E+00    -4.337E-01     4.027E+00     0.000E+00     0.000E+00     0.000E+00
X     5.523E+00    -4.337E-01     4.523E+00     0.000E+00     0.000E+00     0.000E+00
X     5.523E+00     6.196E-02    -4.895E+00     0.000E+00     0.000E+00     0.000E+00
X     5.523E+00     6.196E-02    -4.399E+00     0.000E+00     0.000E+00     0.000E+00
X     5.523E+00     6.196E-02    -3.903E+00     0.000E+00     0.000E+00     0.000E+00
X     5.523E+00     6.196E-02    -3.408E+00     0.000E+00     0.000E+00     0.000E+00
X     5.523E+00     6.196E-02    -2.912E+00     0.000E+00     0.000E+00     0.000E+00
X     5.523E+00     6.196E-02    -2.416E+00     0.000E+00     0.000E+00     0.000E+00
X     5.523E+00     6.196E-02    -1.921E+00     7.060E-08     3.619E-07     4.095E-07
X     5.523E+00     6.196E-02    -1.425E+00     4.890E-07     2.507E-06     2.836E-06
X     5.523E+00     6.196E-02    -9.293E-01     1.116E-06     5.723E-06     6.475E-06
X     5.523E+00     6.196E-02    -4.337E-01     1.681E-06     8.632E-06     9.766E-06
X     5.523E+00     6.196E-02     6.196E-02     1.865E-06     9.596E-06     1.086E-05
X     5.523E+00     6.196E-02     5.576E-01     1.558E-06     8.032E-06     9.088E-06
X     5.523E+00     6.196E-02     1.053E+00     9.455E-07     4.880E-06     5.521E-06
X     5.523E+00     6.196E-02     1.549E+00     3.552E-07     1.834E-06     2.075E-06
X     5.523E+00     6.196E-02     2.045E+00     1.940E-08     1.001E-07     1.133E-07
X     5.523E+00     6.196E-02     2.540E+00     0.000E+00     0.000E+00     0.000E+00
X     5.523E+00     6.196E-02     3.036E+00     0.000E+00     0.000E+00     0.000E+00
X     5.523E+00     6.196E-02     3.531E+00     0.000E+00     0.000E+00     0.000E+00
X     5.523E+00     6.196E-02     4.027E+00     0.000E+00     0.000E+00     0.000E+00
X     5.523E+00     6.196E-02     4.523E+00     0.000E+00     0.000E+00     0.000E+00
X     5.523E+00     5.576E-01    -4.895E+00     0.000E+00     0.000E+00     0.000E+00
X     5.523E+00     5.576E-01    -4.399E+00     0.000E+00     0.000E+00     0.000E+00
X     5.523E+00     5.576E-01    -3.903E+00     0.000E+00     0.000E+00     0.000E+00
X     5.523E+00     5.576E-01    -3.408E+00     0.000E+00     0.000E+00     0.000E+00
X     5.523E+00     5.576E-01    -2.912E+00     0.000E+00     0.000E+00     0.000E+00
X     5.523E+00     5.576E-01    -2.416E+00     0.000E+00     0.000E+00     0.000E+00
X     5.523E+00     5.576E-01    -1.921E+00     3.584E-08     1.839E-07     2.081E-07
X     5.523E+00     5.576E-01    -1.425E+00     3.773E-07     1.937E-06     2.191E-06
X     5.523E+00     5.576E-01    -9.293E-01     9.119E-07     4.685E-06     5.300E-06
X     5.523E+00     5.576E-01    -4.337E-01     1.398E-06     7.195E-06     8.140E-06
X     5.523E+00     5.576E-01     6.196E-02     1.559E-06     8.033E-06     9.088E-06
X     5.523E+00     5.576E-01     5.576E-01     1.293E-06     6.676E-06     7.553E-06
X     5.523E+00     5.576E-01     1.053E+00     7.668E-07     3.962E-06     4.482E-06
X     5.523E+00     5.576E-01     1.549E+00     2.647E-07     1.368E-06     1.547E-06
X     5.523E+00     5.576E-01     2.045E+00     3.782E-09     1.953E-08     2.210E-08
X     5.523E+00     5.576E-01     2.540E+00     0.000E+00     0.000E+00     0.000E+00
X     5.523E+00     5.576E-01     3.036E+00     0.000E+00     0.000E+00     0.000E+00
X     5.523E+00     5.576E-01     3.531E+00     0.000E+00     0.000E+00     0.000E+00
X     5.523E+00     5.576E-01     4.027E+00     0.000E+00     0.000E+00     0.000E+00
X     5.523E+00     5.576E-01     4.523E+00     0.000E+00     0.000E+00     0.000E+00
X     5.523E+00     1.053E+00    -4.895E+00     0.000E+00     0.000E+00     0.000E+00
X     5.523E+00     1.053E+00    -4.399E+00     0.000E+00     0.000E+00     0.000E+00
X     5.523E+00     1.053E+00    -3.903E+00     0.000E+00     0.000E+00     0.000E+00
X     5.523E+00     1.053E+00    -3.408E+00     0.000E+00     0.000E+00     0.000E+00
X     5.523E+00     1.053E+00    -2.912E+00     0.000E+00     0.000E+00     0.000E+00
X     5.523E+00     1.053E+00    -2.416E+00     0.000E+00     0.000E+00     0.000E+00
X     5.523E+00     1.053E+00    -1.921E+00     2.901E-10     1.490E-09     1.686E-09
X     5.523E+00     1.053E+00    -1.425E+00     1.639E-07     8.423E-07     9.528E-07
X     5.523E+00     1.053E+00    -9.293E-01     5.118E-07     2.633E-06     2.978E-06
X     5.523E+00     1.053E+00    -4.337E-01     8.371E-07     4.313E-06     4.878E-06
X     5.523E+00     1.053E+00     6.196E-02     9.458E-07     4.880E-06     5.521E-06
X     5.523E+00     1.053E+00     5.576E-01     7.669E-07     3.962E-06     4.482E-06
X     5.523E+00     1.053E+00     1.053E+00     4.166E-07     2.153E-06     2.436E-06
X     5.523E+00     1.053E+00     1.549E+00     9.650E-08     4.987E-07     5.642E-07
X     5.523E+00     1.053E+00     2.045E+00     1.548E-12     7.996E-12     9.047E-12
X     5.523E+00     1.053E+00     2.540E+00     0.000E+00     0.000E+00     0.000E+00
X     5.523E+00     1.053E+00     3.036E+00     0.000E+00     0.000E+00     0.000E+00
X     5.523E+00     1.053E+00     3.531E+00     0.000E+00     0.000E+00     0.000E+00
X     5.523E+00     1.053E+00     4.027E+00     0.000E+00     0.000E+00     0.000E+00
X     5.523E+00     1.053E+00     4.523E+00     0.000E+00     0.000E+00     0.000E+00
X     5.523E+00     1.549E+00    -4.895E+00     0.000E+00     0.000E+00     0.000E+00
X     5.523E+00     1.549E+00    -4.399E+00     0.000E+00     0.000E+00     0.000E+00
X     5.523E+00     1.549E+00    -3.903E+00     0.000E+00     0.000E+00     0.000E+00
X     5.523E+00     1.549E+00    -3.408E+00     0.000E+00     0.000E+00     0.000E+00
X     5.523E+00     1.549E+00    -2.912E+00     0.000E+00     0.000E+00     0.000E+00
X     5.523E+00     1.549E+00    -2.416E+00     0.000E+00     0.000E+00     0.000E+00
X     5.523E+00     1.549E+00    -1.921E+00     0.000E+00     0.000E+00     0.000E+00
X     5.523E+00     1.549E+00    -1.425E+00     5.691E-09     2.927E-08     3.311E-08
X     5.523E+00     1.549E+00    -9.293E-01     1.393E-07     7.173E-07     8.114E-07
X     5.523E+00     1.549E+00    -4.337E-01     2.997E-07     1.545E-06     1.748E-06
X     5.523E+00     1.549E+00     6.196E-02     3.553E-07     1.834E-06     2.075E-06
X     5.523E+00     1.549E+00     5.576E-01     2.648E-07     1.368E-06     1.547E-06
X     5.523E+00     1.549E+00     1.053E+00     9.651E-08     4.987E-07     5.642E-07
X     5.523E+00     1.549E+00     1.549E+00     2.884E-10     1.490E-09     1.686E-09
X     5.523E+00     1.549E+00     2.045E+00     0.000E+00     0.000E+00     0.000E+00
X     5.523E+00     1.549E+00     2.540E+00     0.000E+00     0.000E+00     0.000E+00
X     5.523E+00     1.549E+00     3.036E+00     0.000E+00     0.000E+00     0.000E+00
X     5.523E+00     1.549E+00     3.531E+00     0.000E+00     0.000E+00     0.000E+00
X     5.523E+00     1.549E+00     4.027E+00     0.000E+00     0.000E+00     0.000E+00
X     5.523E+00     1.549E+00     4.523E+00     0.000E+00     0.000E+00     0.000E+00
X     5.523E+00     2.045E+00    -4.895E+00     0.000E+00     0.000E+00     0.000E+00
X     5.523E+00     2.045E+00    -4.399E+00     0.000E+00     0.000E+00     0.000E+00
X     5.523E+00     2.045E+00    -3.903E+00     0.000E+00     0.000E+00     0.000E+00
X     5.523E+00     2.045E+00    -3.408E+00     0.000E+00     0.000E+00     0.000E+00
X     5.523E+00     2.045E+00    -2.912E+00     0.000E+00     0.000E+00     0.000E+00
X     5.523E+00     2.045E+00    -2.416E+00     0.000E+00     0.000E+00     0.000E+00
X     5.523E+00     2.045E+00    -1.921E+00     0.000E+00     0.000E+00     0.000E+00
X     5.523E+00     2.045E+00    -1.425E+00     0.000E+00     0.000E+00     0.000E+00
X     5.523E+00     2.045E+00    -9.293E-01     2.857E-11     1.472E-10     1.665E-10
X     5.523E+00     2.045E+00    -4.337E-01     8.156E-09     4.205E-08     4.756E-08
X     5.523E+00     2.045E+00     6.196E-02     1.941E-08     1.002E-07     1.133E-07
X     5.523E+00     2.045E+00     5.576E-01     3.783E-09     1.953E-08     2.209E-08
X     5.523E+00     2.045E+00     1.053E+00     1.549E-12     7.996E-12     9.046E-12
X     5.523E+00     2.045E+00     1.549E+00     0.000E+00     0.000E+00     0.000E+00
X     5.523E+00     2.045E+00     2.045E+00     0.000E+00     0.000E+00     0.000E+00
X     5.523E+00     2.045E+00     2.540E+00     0.000E+00     0.000E+00     0.000E+00
X     5.523E+00     2.045E+00     3.036E+00     0.000E+00     0.000E+00     0.000E+00
X     5.523E+00     2.045E+00     3.531E+00     0.000E+00     0.000E+00     0.000E+00
X     5.523E+00     2.045E+00     4.027E+00     0.000E+00     0.000E+00     0.000E+00
X     5.523E+00     2.045E+00     4.523E+00     0.000E+00     0.000E+00     0.000E+00
X     5.523E+00     2.540E+00    -4.895E+00     0.000E+00     0.000E+00     0.000E+00
X     5.523E+00     2.540E+00    -4.399E+00     0.000E+00     0.000E+00     0.000E+00
X     5.523E+00     2.540E+00    -3.903E+00     0.000E+00     0.000E+00     0.000E+00
X     5.523E+00     2.540E+00    -3.408E+00     0.000E+00     0.000E+00     0.000E+00
X     5.523E+00     2.540E+00    -2.912E+00     0.000E+00     0.000E+00     0.000E+00
X     5.523E+00     2.540E+00    -2.416E+00     0.000E+00     0.000E+00     0.000E+00
X     5.523E+00     2.540E+00    -1.921E+00     0.000E+00     0.000E+00     0.000E+00
X     5.523E+00     2.540E+00    -1.425E+00     0.000E+00     0.000E+00     0.000E+00
X     5.523E+00     2.540E+00    -9.293E-01     0.000E+00     0.000E+00     0.000E+00
X     5.523E+00     2.540E+00    -4.337E-01     0.000E+00     0.000E+00     0.000E+00
X     5.523E+00     2.540E+00     6.196E-02     0.000E+00     0.000E+00     0.000E+00
X     5.523E+00     2.540E+00     5.576E-01     0.000E+00     0.000E+00     0.000E+00
X     5.523E+00     2.540E+00     1.053E+00     0.000E+00     0.000E+00     0.000E+00
X     5.523E+00     2.540E+00     1.549E+00     0.000E+00     0.000E+00     0.000E+00
X     5.523E+00     2.540E+00     2.045E+00     0.000E+00     0.000E+00     0.000E+00
X     5.523E+00     2.540E+00     2.540E+00     0.000E+00     0.000E+00     0.000E+00
X     5.523E+00     2.540E+00     3.036E+00     0.000E+00     0.000E+00     0.000E+00
X     5.523E+00     2.540E+00     3.531E+00     0.000E+00     0.000E+00     0.000E+00
X     5.523E+00     2.540E+00     4.027E+00     0.000E+00     0.000E+00     0.000E+00
X     5.523E+00     2.540E+00     4.523E+00     0.000E+00     0.000E+00     0.000E+00
X     5.523E+00     3.036E+00    -4.895E+00     0.000E+00     0.000E+00     0.000E+00
X     5.523E+00     3.036E+00    -4.399E+00     0.000E+00     0.000E+00     0.000E+00
X     5.523E+00     3.036E+00    -3.903E+00     0.000E+00     0.000E+00     0.000E+00
X     5.523E+00     3.036E+00    -3.408E+00     0.000E+00     0.000E+00     0.000E+00
X     5.523E+00     3.036E+00    -2.912E+00     0.000E+00     0.000E+00     0.000E+00
X     5.523E+00     3.036E+00    -2.416E+00     0.000E+00     0.000E+00     0.000E+00
X     5.523E+00     3.036E+00    -1.921E+00     0.000E+00     0.000E+00     0.000E+00
X     5.523E+00     3.036E+00    -1.425E+00     0.000E+00     0.000E+00     0.000E+00
X     5.523E+00     3.036E+00    -9.293E-01     0.000E+00     0.000E+00     0.000E+00
X     5.523E+00     3.036E+00    -4.337E-01     0.000E+00     0.000E+00     0.000E+00
X     5.523E+00     3.036E+00     6.196E-02     0.000E+00     0.000E+00     0.000E+00
X     5.523E+00     3.036E+00     5.576E-01     0.000E+00     0.000E+00     0.000E+00
X     5.523E+00     3.036E+00     1.053E+00     0.000E+00     0.000E+00     0.000E+00
X     5.523E+00     3.036E+00     1.549E+00     0.000E+00     0.000E+00     0.000E+00
X     5.523E+00     3.036E+00     2.045E+00     0.000E+00     0.000E+00     0.000E+00
X     5.523E+00     3.036E+00     2.540E+00     0.000E+00     0.000E+00     0.000E+00
X     5.523E+00     3.036E+00     3.036E+00     0.000E+00     0.000E+00     0.000E+00
X     5.523E+00     3.036E+00     3.531E+00     0.000E+00     0.000E+00     0.000E+00
X     5.523E+00     3.036E+00     4.027E+00     0.000E+00     0.000E+00     0.000E+00
X     5.523E+00     3.036E+00     4.523E+00     0.000E+00     0.000E+00     0.000E+00
X     5.523E+00     3.531E+00    -4.895E+00     0.000E+00     0.000E+00     0.000E+00
X     5.523E+00     3.531E+00    -4.399E+00     0.000E+00     0.000E+00     0.000E+00
X     5.523E+00     3.531E+00    -3.903E+00     0.000E+00     0.000E+00     0.000E+00
X     5.523E+00     3.531E+00    -3.408E+00     0.000E+00     0.000E+00     0.000E+00
X     5.523E+00     3.531E+00    -2.912E+00     0.000E+00     0.000E+00     0.000E+00
X     5.523E+00     3.531E+00    -2.416E+00     0.000E+00     0.000E+00     0.000E+00
X     5.523E+00     3.531E+00    -1.921E+00     0.000E+00     0.000E+00     0.000E+00
X     5.523E+00     3.531E+00    -1.425E+00     0.000E+00     0.000E+00     0.000E+00
X     5.523E+00     3.531E+00    -9.293E-01     0.000E+00     0.000E+00     0.000E+00
X     5.523E+00     3.531E+00    -4.337E-01     0.000E+00     0.000E+00     0.000E+00
X     5.523E+00     3.531E+00     6.196E-02     0.000E+00     0.000E+00     0.000E+00
X     5.523E+00     3.531E+00     5.576E-01     0.000E+00     0.000E+00     0.000E+00
X     5.523E+00     3.531E+00     1.053E+00     0.000E+00     0.000E+00     0.000E+00
X     5.523E+00     3.531E+00     1.549E+00     0.000E+00     0.000E+00     0.000E+00
X     5.523E+00     3.531E+00     2.045E+00     0.000E+00     0.000E+00     0.000E+00
X     5.523E+00     3.531E+00     2.540E+00     0.000E+00     0.000E+00     0.000E+00
X     5.523E+00     3.531E+00     3.036E+00     0.000E+00     0.000E+00     0.000E+00
X     5.523E+00     3.531E+00     3.531E+00     0.000E+00     0.000E+00     0.000E+00
X     5.523E+00     3.531E+00     4.027E+00     0.000E+00     0.000E+00     0.000E+00
X     5.523E+00     3.531E+00     4.523E+00     0.000E+00     0.000E+00     0.000E+00
X     5.523E+00     4.027E+00    -4.895E+00     0.000E+00     0.000E+00     0.000E+00
X     5.523E+00     4.027E+00    -4.399E+00     0.000E+00     0.000E+00     0.000E+00
X     5.523E+00     4.027E+00    -3.903E+00     0.000E+00     0.000E+00     0.000E+00
X     5.523E+00     4.027E+00    -3.408E+00     0.000E+00     0.000E+00     0.000E+00
X     5.523E+00     4.027E+00    -2.912E+00     0.000E+00     0.000E+00     0.000E+00
X     5.523E+00     4.027E+00    -2.416E+00     0.000E+00     0.000E+00     0.000E+00
X     5.523E+00     4.027E+00    -1.921E+00     0.000E+00     0.000E+00     0.000E+00
X     5.523E+00     4.027E+00    -1.425E+00     0.000E+00     0.000E+00     0.000E+00
X     5.523E+00     4.027E+00    -9.293E-01     0.000E+00     0.000E+00     0.000E+00
X     5.523E+00     4.027E+00    -4.337E-01     0.000E+00     0.000E+00     0.000E+00
X     5.523E+00     4.027E+00     6.196E-02     0.000E+00     0.000E+00     0.000E+00
X     5.523E+00     4.027E+00     5.576E-01     0.000E+00     0.000E+00     0.000E+00
X     5.523E+00     4.027E+00     1.053E+00     0.000E+00     0.000E+00     0.000E+00
X     5.523E+00     4.027E+00     1.549E+00     0.000E+00     0.000E+00     0.000E+00
X     5.523E+00     4.027E+00     2.045E+00     0.000E+00     0.000E+00     0.000E+00
X     5.523E+00     4.027E+00     2.540E+00     0.000E+00     0.000E+00     0.000E+00
X     5.523E+00     4.027E+00     3.036E+00     0.000E+00     0.000E+00     0.000E+00
X     5.523E+00     4.027E+00     3.531E+00     0.000E+00     0.000E+00     0.000E+00
X     5.523E+00     4.027E+00     4.027E+00     0.000E+00     0.000E+00     0.000E+00
X     5.523E+00     4.027E+00     4.523E+00     0.000E+00     0.000E+00     0.000E+00
X     5.523E+00     4.523E+00    -4.895E+00     0.000E+00     0.000E+00     0.000E+00
X     5.523E+00     4.523E+00    -4.399E+00     0.000E+00     0.000E+00     0.000E+00
X     5.523E+00     4.523E+00    -3.903E+00     0.000E+00     0.000E+00     0.000E+00
X     5.523E+00     4.523E+00    -3.408E+00     0.000E+00     0.000E+00     0.000E+00
X     5.523E+00     4.523E+00    -2.912E+00     0.000E+00     0.000E+00     0.000E+00
X     5.523E+00     4.523E+00    -2.416E+00     0.000E+00     0.000E+00     0.000E+00
X     5.523E+00     4.523E+00    -1.921E+00     0.000E+00     0.000E+00     0.000E+00
X     5.523E+00     4.523E+00    -1.425E+00     0.000E+00     0.000E+00     0.000E+00
X     5.523E+00     4.523E+00    -9.293E-01     0.000E+00     0.000E+00     0.000E+00
X     5.523E+00     4.523E+00    -4.337E-01     0.000E+00     0.000E+00     0.000E+00
X     5.523E+00     4.523E+00     6.196E-02     0.000E+00     0.000E+00     0.000E+00
X     5.523E+00     4.523E+00     5.576E-01     0.000E+00     0.000E+00     0.000E+00
X     5.523E+00     4.523E+00     1.053E+00     0.000E+00     0.000E+00     0.000E+00
X     5.523E+00     4.523E+00     1.549E+00     0.000E+00     0.000E+00     0.000E+00
X     5.523E+00     4.523E+00     2.045E+00     0.000E+00     0.000E+00     0.000E+00
X     5.523E+00     4.523E+00     2.540E+00     0.000E+00     0.000E+00     0.000E+00
X     5.523E+00     4.523E+00     3.036E+00     0.000E+00     0.000E+00     0.000E+00
X     5.523E+00     4.523E+00     3.531E+00     0.000E+00     0.000E+00     0.000E+00
X     5.523E+00     4.523E+00     4.027E+00     0.000E+00     0.000E+00     0.000E+00
X     5.523E+00     4.523E+00     4.523E+00     0.000E+00     0.000E+00     0.000E+00
X     6.018E+00    -4.895E+00    -4.895E+00     0.000E+00     0.000E+00     0.000E+00
X     6.018E+00    -4.895E+00    -4.399E+00     0.000E+00     0.000E+00     0.000E+00
X     6.018E+00    -4.895E+00    -3.903E+00     0.000E+00     0.000E+00     0.000E+00
X     6.018E+00    -4.895E+00    -3.408E+00     0.000E+00     0.000E+00     0.000E+00
X     6.018E+00    -4.895E+00    -2.912E+00     0.000E+00     0.000E+00     0.000E+00
X     6.018E+00    -4.895E+00    -2.416E+00     0.000E+00     0.000E+00     0.000E+00
X     6.018E+00    -4.895E+00    -1.921E+00     0.000E+00     0.000E+00     0.000E+00
X     6.018E+00    -4.895E+00    -1.425E+00     0.000E+00     0.000E+00     0.000E+00
X     6.018E+00    -4.895E+00    -9.293E-01     0.000E+00     0.000E+00     0.000E+00
X     6.018E+00    -4.895E+00    -4.337E-01     0.000E+00     0.000E+00     0.000E+00
X     6.018E+00    -4.895E+00     6.196E-02     0.000E+00     0.000E+00     0.000E+00
X     6.018E+00    -4.895E+00     5.576E-01     0.000E+00     0.000E+00     0.000E+00
X     6.018E+00    -4.895E+00     1.053E+00     0.000E+00     0.000E+00     0.000E+00
X     6.018E+00    -4.895E+00     1.549E+00     0.000E+00     0.000E+00     0.000E+00
X     6.018E+00    -4.895E+00     2.045E+00     0.000E+00     0.000E+00     0.000E+00
X     6.018E+00    -4.895E+00     2.540E+00     0.000E+00     0.000E+00     0.000E+00
X     6.018E+00    -4.895E+00     3.036E+00     0.000E+00     0.000E+00     0.000E+00
X     6.018E+00    -4.895E+00     3.531E+00     0.000E+00     0.000E+00     0.000E+00
X     6.018E+00    -4.895E+00     4.027E+00     0.000E+00     0.000E+00     0.000E+00
X     6.018E+00    -4.895E+00     4.523E+00     0.000E+00     0.000E+00     0.000E+00
X     6.018E+00    -4.399E+00    -4.895E+00     0.000E+00     0.000E+00     0.000E+00
X     6.018E+00    -4.399E+00    -4.399E+00     0.000E+00     0.000E+00     0.000E+00
X     6.018E+00    -4.399E+00    -3.903E+00     0.000E+00     0.000E+00     0.000E+00
X     6.018E+00    -4.399E+00    -3.408E+00     0.000E+00     0.000E+00     0.000E+00
X     6.018E+00    -4.399E+00    -2.912E+00     0.000E+00     0.000E+00     0.000E+00
X     6.018E+00    -4.399E+00    -2.416E+00     0.000E+00     0.000E+00     0.000E+00
X     6.018E+00    -4.399E+00    -1.921E+00     0.000E+00     0.000E+00     0.000E+00
X     6.018E+00    -4.399E+00    -1.425E+00     0.000E+00     0.000E+00     0.000E+00
X     6.018E+00    -4.399E+00    -9.293E-01     0.000E+00     0.000E+00     0.000E+00
X     6.018E+00    -4.399E+00    -4.337E-01     0.000E+00     0.000E+00     0.000E+00
X     6.018E+00    -4.399E+00     6.196E-02     0.000E+00     0.000E+00     0.000E+00
X     6.018E+00    -4.399E+00     5.576E-01     0.000E+00     0.000E+00     0.000E+00
X     6.018E+00    -4.399E+00     1.053E+00     0.000E+00     0.000E+00     0.000E+00
X     6.018E+00    -4.399E+00     1.549E+00     0.000E+00     0.000E+00     0.000E+00
X     6.018E+00    -4.399E+00     2.045E+00     0.000E+00     0.000E+00     0.000E+00
X     6.018E+00    -4.399E+00     2.540E+00     0.000E+00     0.000E+00     0.000E+00
X     6.018E+00    -4.399E+00     3.036E+00     0.000E+00     0.000E+00     0.000E+00
X     6.018E+00    -4.399E+00     3.531E+00     0.000E+00     0.000E+00     0.000E+00
X     6.018E+00    -4.399E+00     4.027E+00     0.000E+00     0.000E+00     0.000E+00
X     6.018E+00    -4.399E+00     4.523E+00     0.000E+00     0.000E+00     0.000E+00
X     6.018E+00    -3.903E+00    -4.895E+00     0.000E+00     0.000E+00     0.000E+00
X     6.018E+00    -3.903E+00    -4.399E+00     0.000E+00     0.000E+00     0.000E+00
X     6.018E+00    -3.903E+00    -3.903E+00     0.000E+00     0.000E+00     0.000E+00
X     6.018E+00    -3.903E+00    -3.408E+00     0.000E+00     0.000E+00     0.000E+00
X     6.018E+00    -3.903E+00    -2.912E+00     0.000E+00     0.000E+00     0.000E+00
X     6.018E+00    -3.903E+00    -2.416E+00     0.000E+00     0.000E+00     0.000E+00
X     6.018E+00    -3.903E+00    -1.921E+00     0.000E+00     0.000E+00     0.000E+00
X     6.018E+00    -3.903E+00    -1.425E+00     0.000E+00     0.000E+00     0.000E+00
X     6.018E+00    -3.903E+00    -9.293E-01     0.000E+00     0.000E+00     0.000E+00
X     6.018E+00    -3.903E+00    -4.337E-01     0.000E+00     0.000E+00     0.000E+00
X     6.018E+00    -3.903E+00     6.196E-02     0.000E+00     0.000E+00     0.000E+00
X     6.018E+00    -3.903E+00     5.576E-01     0.000E+00     0.000E+00     0.000E+00
X     6.018E+00    -3.903E+00     1.053E+00     0.000E+00     0.000E+00     0.000E+00
X     6.018E+00    -3.903E+00     1.549E+00     0.000E+00     0.000E+00     0.000E+00
X     6.018E+00    -3.903E+00     2.045E+00     0.000E+00     0.000E+00     0.000E+00
X     6.018E+00    -3.903E+00     2.540E+00     0.000E+00     0.000E+00     0.000E+00
X     6.018E+00    -3.903E+00     3.036E+00     0.000E+00     0.000E+00     0.000E+00
X     6.018E+00    -3.903E+00     3.531E+00     0.000E+00     0.000E+00     0.000E+00
X     6.018E+00    -3.903E+00     4.027E+00     0.000E+00     0.000E+00     0.000E+00
X     6.018E+00    -3.903E+00     4.523E+00     0.000E+00     0.000E+00     0.000E+00
X     6.018E+00    -3.408E+00    -4.895E+00     0.000E+00     0.000E+00     0.000E+00
X     6.018E+00    -3.408E+00    -4.399E+00     0.000E+00     0.000E+00     0.000E+00
X     6.018E+00    -3.408E+00    -3.903E+00     0.000E+00     0.000E+00     0.000E+00
X     6.018E+00    -3.408E+00    -3.408E+00     0.000E+00     0.000E+00     0.000E+00
X     6.018E+00    -3.408E+00    -2.912E+00     0.000E+00     0.000E+00     0.000E+00
X     6.018E+00    -3.408E+00    -2.416E+00     0.000E+00     0.000E+00     0.000E+00
X     6.018E+00    -3.408E+00    -1.921E+00     0.000E+00     0.000E+00     0.000E+00
X     6.018E+00    -3.408E+00    -1.425E+00     0.000E+00     0.000E+00     0.000E+00
X     6.018E+00    -3.408E+00    -9.293E-01     0.000E+00     0.000E+00     0.000E+00
X     6.018E+00    -3.408E+00    -4.337E-01     0.000E+00     0.000E+00     0.000E+00
X     6.018E+00    -3.408E+00     6.196E-02     0.000E+00     0.000E+00     0.000E+00
X     6.018E+00    -3.408E+00     5.576E-01     0.000E+00     0.000E+00     0.000E+00
X     6.018E+00    -3.408E+00     1.053E+00     0.000E+00     0.000E+00     0.000E+00
X     6.018E+00    -3.408E+00     1.549E+00     0.000E+00     0.000E+00     0.000E+00
X     6.018E+00    -3.408E+00     2.045E+00     0.000E+00     0.000E+00     0.000E+00
X     6.018E+00    -3.408E+00     2.540E+00     0.000E+00     0.000E+00     0.000E+00
X     6.018E+00    -3.408E+00     3.036E+00     0.000E+00     0.000E+00     0.000E+00
X     6.018E+00    -3.408E+00     3.531E+00     0.000E+00     0.000E+00     0.000E+00
X     6.018E+00    -3.408E+00     4.027E+00     0.000E+00     0.000E+00     0.000E+00
X     6.018E+00    -3.408E+00     4.523E+00     0.000E+00     0.000E+00     0.000E+00
X     6.018E+00    -2.912E+00    -4.895E+00     0.000E+00     0.000E+00     0.000E+00
X     6.018E+00    -2.912E+00    -4.399E+00     0.000E+00     0.000E+00     0.000E+00
X     6.018E+00    -2.912E+00    -3.903E+00     0.000E+00     0.000E+00     0.000E+00
X     6.018E+00    -2.912E+00    -3.408E+00     0.000E+00     0.000E+00     0.000E+00
X     6.018E+00    -2.912E+00    -2.912E+00     0.000E+00     0.000E+00     0.000E+00
X     6.018E+00    -2.912E+00    -2.416E+00     0.000E+00     0.000E+00     0.000E+00
X     6.018E+00    -2.912E+00    -1.921E+00     0.000E+00     0.000E+00     0.000E+00
X     6.018E+00    -2.912E+00    -1.425E+00     0.000E+00     0.000E+00     0.000E+00
X     6.018E+00    -2.912E+00    -9.293E-01     0.000E+00     0.000E+00     0.000E+00
X     6.018E+00    -2.912E+00    -4.337E-01     0.000E+00     0.000E+00     0.000E+00
X     6.018E+00    -2.912E+00     6.196E-02     0.000E+00     0.000E+00     0.000E+00
X     6.018E+00    -2.912E+00     5.576E-01     0.000E+00     0.000E+00     0.000E+00
X     6.018E+00    -2.912E+00     1.053E+00     0.000E+00     0.000E+00     0.000E+00
X     6.018E+00    -2.912E+00     1.549E+00     0.000E+00     0.000E+00     0.000E+00
X     6.018E+00    -2.912E+00     2.045E+00     0.000E+00     0.000E+00     0.000E+00
X     6.018E+00    -2.912E+00     2.540E+00     0.000E+00     0.000E+00     0.000E+00
X     6.018E+00    -2.912E+00     3.036E+00     0.000E+00     0.000E+00     0.000E+00
X     6.018E+00    -2.912E+00     3.531E+00     0.000E+00     0.000E+00     0.000E+00
X     6.018E+00    -2.912E+00     4.027E+00     0.000E+00     0.000E+00     0.000E+00
X     6.018E+00    -2.912E+00     4.523E+00     0.000E+00     0.000E+00     0.000E+00
X     6.018E+00    -2.416E+00    -4.895E+00     0.000E+00     0.000E+00     0.000E+00
X     6.018E+00    -2.416E+00    -4.399E+00     0.000E+00     0.000E+00     0.000E+00
X     6.018E+00    -2.416E+00    -3.903E+00     0.000E+00     0.000E+00     0.000E+00
X     6.018E+00    -2.416E+00    -3.408E+00     0.000E+00     0.000E+00     0.000E+00
X     6.018E+00    -2.416E+00    -2.912E+00     0.000E+00     0.000E+00     0.000E+00
X     6.018E+00    -2.416E+00    -2.416E+00     0.000E+00     0.000E+00     0.000E+00
X     6.018E+00    -2.416E+00    -1.921E+00     0.000E+00     0.000E+00     0.000E+00
X     6.018E+00    -2.416E+00    -1.425E+00     0.000E+00     0.000E+00     0.000E+00
X     6.018E+00    -2.416E+00    -9.293E-01     0.000E+00     0.000E+00     0.000E+00
X     6.018E+00    -2.416E+00    -4.337E-01     0.000E+00     0.000E+00     0.000E+00
X     6.018E+00    -2.416E+00     6.196E-02     0.000E+00     0.000E+00     0.000E+00
X     6.018E+00    -2.416E+00     5.576E-01     0.000E+00     0.000E+00     0.000E+00
X     6.018E+00    -2.416E+00     1.053E+00     0.000E+00     0.000E+00     0.000E+00
X     6.018E+00    -2.416E+00     1.549E+00     0.000E+00     0.000E+00     0.000E+00
X     6.018E+00    -2.416E+00     2.045E+00     0.000E+00     0.000E+00     0.000E+00
X     6.018E+00    -2.416E+00     2.540E+00     0.000E+00     0.000E+00     0.000E+00
X     6.018E+00    -2.416E+00     3.036E+00     0.000E+00     0.000E+00     0.000E+00
X     6.018E+00    -2.416E+00     3.531E+00     0.000E+00     0.000E+00     0.000E+00
X     6.018E+00    -2.416E+00     4.027E+00     0.000E+00     0.000E+00     0.000E+00
X     6.018E+00    -2.416E+00     4.523E+00     0.000E+00     0.000E+00     0.000E+00
X     6.018E+00    -1.921E+00    -4.895E+00     0.000E+00     0.000E+00     0.000E+00
X     6.018E+00    -1.921E+00    -4.399E+00     0.000E+00     0.000E+00     0.000E+00
X     6.018E+00    -1.921E+00    -3.903E+00     0.000E+00     0.000E+00     0.000E+00
X     6.018E+00    -1.921E+00    -3.408E+00     0.000E+00     0.000E+00     0.000E+00
X     6.018E+00    -1.921E+00    -2.912E+00     0.000E+00     0.000E+00     0.000E+00
X     6.018E+00    -1.921E+00    -2.416E+00     0.000E+00     0.000E+00     0.000E+00
X     6.018E+00    -1.921E+00    -1.921E+00     0.000E+00     0.000E+00     0.000E+00
X     6.018E+00    -1.921E+00    -1.425E+00     0.000E+00     0.000E+00     0.000E+00
X     6.018E+00    -1.921E+00    -9.293E-01     0.000E+00     0.000E+00     0.000E+00
X     6.018E+00    -1.921E+00    -4.337E-01     0.000E+00     0.000E+00     0.000E+00
X     6.018E+00    -1.921E+00     6.196E-02     0.000E+00     0.000E+00     0.000E+00
X     6.018E+00    -1.921E+00     5.576E-01     0.000E+00     0.000E+00     0.000E+00
X     6.018E+00    -1.921E+00     1.053E+00     0.000E+00     0.000E+00     0.000E+00
X     6.018E+00    -1.921E+00     1.549E+00     0.000E+00     0.000E+00     0.000E+00
X     6.018E+00    -1.921E+00     2.045E+00     0.000E+00     0.000E+00     0.000E+00
X     6.018E+00    -1.921E+00     2.540E+00     0.000E+00     0.000E+00     0.000E+00
X     6.018E+00    -1.921E+00     3.036E+00     0.000E+00     0.000E+00     0.000E+00
X     6.018E+00    -1.921E+00     3.531E+00     0.000E+00     0.000E+00     0.000E+00
X     6.018E+00    -1.921E+00     4.027E+00     0.000E+00     0.000E+00     0.000E+00
X     6.018E+00    -1.921E+00     4.523E+00     0.000E+00     0.000E+00     0.000E+00
X     6.018E+00    -1.425E+00    -4.895E+00     0.000E+00     0.000E+00     0.000E+00
X     6.018E+00    -1.425E+00    -4.399E+00     0.000E+00     0.000E+00     0.000E+00
X     6.018E+00    -1.425E+00    -3.903E+00     0.000E+00     0.000E+00     0.000E+00
X     6.018E+00    -1.425E+00    -3.408E+00     0.000E+00     0.000E+00     0.000E+00
X     6.018E+00    -1.425E+00    -2.912E+00     0.000E+00     0.000E+00     0.000E+00
X     6.018E+00    -1.425E+00    -2.416E+00     0.000E+00     0.000E+00     0.000E+00
X     6.018E+00    -1.425E+00    -1.921E+00     0.000E+00     0.000E+00     0.000E+00
X     6.018E+00    -1.425E+00    -1.425E+00     0.000E+00     0.000E+00     0.000E+00
X     6.018E+00    -1.425E+00    -9.293E-01     0.000E+00     0.000E+00     0.000E+00
X     6.018E+00    -1.425E+00    -4.337E-01     0.000E+00     0.000E+00     0.000E+00
X     6.018E+00    -1.425E+00     6.196E-02     0.000E+00     0.000E+00     0.000E+00
X     6.018E+00    -1.425E+00     5.576E-01     0.000E+00     0.000E+00     0.000E+00
X     6.018E+00    -1.425E+00     1.053E+00     0.000E+00     0.000E+00     0.000E+00
X     6.018E+00    -1.425E+00     1.549E+00     0.000E+00     0.000E+00     0.000E+00
X     6.018E+00    -1.425E+00     2.045E+00     0.000E+00     0.000E+00     0.000E+00
X     6.018E+00    -1.425E+00     2.540E+00     0.000E+00     0.000E+00     0.000E+00
X     6.018E+00    -1.425E+00     3.036E+00     0.000E+00     0.000E+00     0.000E+00
X     6.018E+00    -1.425E+00     3.531E+00     0.000E+00     0.000E+00     0.000E+00
X     6.018E+00    -1.425E+00     4.027E+00     0.000E+00     0.000E+00     0.000E+00
X     6.018E+00    -1.425E+00     4.523E+00     0.000E+00     0.000E+00     0.000E+00
X     6.018E+00    -9.293E-01    -4.895E+00     0.000E+00     0.000E+00     0.000E+00
X     6.018E+00    -9.293E-01    -4.399E+00     0.000E+00     0.000E+00     0.000E+00
X     6.018E+00    -9.293E-01    -3.903E+00     0.000E+00     0.000E+00     0.000E+00
X     6.018E+00    -9.293E-01    -3.408E+00     0.000E+00     0.000E+00     0.000E+00
X     6.018E+00    -9.293E-01    -2.912E+00     0.000E+00     0.000E+00     0.000E+00
X     6.018E+00    -9.293E-01    -2.416E+00     0.000E+00     0.000E+00     0.000E+00
X     6.018E+00    -9.293E-01    -1.921E+00     0.000E+00     0.000E+00     0.000E+00
X     6.018E+00    -9.293E-01    -1.425E+00     0.000E+00     0.000E+00     0.000E+00
X     6.018E+00    -9.293E-01    -9.293E-01     3.949E-12     2.022E-11     2.288E-11
X     6.018E+00    -9.293E-01    -4.337E-01     3.011E-10     1.543E-09     1.746E-09
X     6.018E+00    -9.293E-01     6.196E-02     1.524E-09     7.823E-09     8.852E-09
X     6.018E+00    -9.293E-01     5.576E-01     9.258E-11     4.758E-10     5.384E-10
X     6.018E+00    -9.293E-01     1.053E+00     0.000E+00     0.000E+00     0.000E+00
X     6.018E+00    -9.293E-01     1.549E+00     0.000E+00     0.000E+00     0.000E+00
X     6.018E+00    -9.293E-01     2.045E+00     0.000E+00     0.000E+00     0.000E+00
X     6.018E+00    -9.293E-01     2.540E+00     0.000E+00     0.000E+00     0.000E+00
X     6.018E+00    -9.293E-01     3.036E+00     0.000E+00     0.000E+00     0.000E+00
X     6.018E+00    -9.293E-01     3.531E+00     0.000E+00     0.000E+00     0.000E+00
X     6.018E+00    -9.293E-01     4.027E+00     0.000E+00     0.000E+00     0.000E+00
X     6.018E+00    -9.293E-01     4.523E+00     0.000E+00     0.000E+00     0.000E+00
X     6.018E+00    -4.337E-01    -4.895E+00     0.000E+00     0.000E+00     0.000E+00
X     6.018E+00    -4.337E-01    -4.399E+00     0.000E+00     0.000E+00     0.000E+00
X     6.018E+00    -4.337E-01    -3.903E+00     0.000E+00     0.000E+00     0.000E+00
X     6.018E+00    -4.337E-01    -3.408E+00     0.000E+00     0.000E+00     0.000E+00
X     6.018E+00    -4.337E-01    -2.912E+00     0.000E+00     0.000E+00     0.000E+00
X     6.018E+00    -4.337E-01    -2.416E+00     0.000E+00     0.000E+00     0.000E+00
X     6.018E+00    -4.337E-01    -1.921E+00     0.000E+00     0.000E+00     0.000E+00
X     6.018E+00    -4.337E-01    -1.425E+00     0.000E+00     0.000E+00     0.000E+00
X     6.018E+00    -4.337E-01    -9.293E-01     3.012E-10     1.544E-09     1.746E-09
X     6.018E+00    -4.337E-01    -4.337E-01     2.409E-08     1.236E-07     1.398E-07
X     6.018E+00    -4.337E-01     6.196E-02     4.072E-08     2.092E-07     2.367E-07
X     6.018E+00    -4.337E-01     5.576E-01     1.492E-08     7.677E-08     8.686E-08
X     6.018E+00    -4.337E-01     1.053E+00     2.945E-11     1.517E-10     1.717E-10
X     6.018E+00    -4.337E-01     1.549E+00     0.000E+00     0.000E+00     0.000E+00
X     6.018E+00    -4.337E-01     2.045E+00     0.000E+00     0.000E+00     0.000E+00
X     6.018E+00    -4.337E-01     2.540E+00     0.000E+00     0.000E+00     0.000E+00
X     6.018E+00    -4.337E-01     3.036E+00     0.000E+00     0.000E+00     0.000E+00
X     6.018E+00    -4.337E-01     3.531E+00     0.000E+00     0.000E+00     0.000E+00
X     6.018E+00    -4.337E-01     4.027E+00     0.000E+00     0.000E+00     0.000E+00
X     6.018E+00    -4.337E-01     4.523E+00     0.000E+00     0.000E+00     0.000E+00
X     6.018E+00     6.196E-02    -4.895E+00     0.000E+00     0.000E+00     0.000E+00
X     6.018E+00     6.196E-02    -4.399E+00     0.000E+00     0.000E+00     0.000E+00
X     6.018E+00     6.196E-02    -3.903E+00     0.000E+00     0.000E+00     0.000E+00
X     6.018E+00     6.196E-02    -3.408E+00     0.000E+00     0.000E+00     0.000E+00
X     6.018E+00     6.196E-02    -2.912E+00     0.000E+00     0.000E+00     0.000E+00
X     6.018E+00     6.196E-02    -2.416E+00     0.000E+00     0.000E+00     0.000E+00
X     6.018E+00     6.196E-02    -1.921E+00     0.000E+00     0.000E+00     0.000E+00
X     6.018E+00     6.196E-02    -1.425E+00     0.000E+00     0.000E+00     0.000E+00
X     6.018E+00     6.196E-02    -9.293E-01     1.525E-09     7.824E-09     8.851E-09
X     6.018E+00     6.196E-02    -4.337E-01     4.073E-08     2.092E-07     2.367E-07
X     6.018E+00     6.196E-02     6.196E-02     6.056E-08     3.116E-07     3.526E-07
X     6.018E+00     6.196E-02     5.576E-01     2.925E-08     1.507E-07     1.705E-07
X     6.018E+00     6.196E-02     1.053E+00     1.667E-10     8.602E-10     9.733E-10
X     6.018E+00     6.196E-02     1.549E+00     0.000E+00     0.000E+00     0.000E+00
X     6.018E+00     6.196E-02     2.045E+00     0.000E+00     0.000E+00     0.000E+00
X     6.018E+00     6.196E-02     2.540E+00     0.000E+00     0.000E+00     0.000E+00
X     6.018E+00     6.196E-02     3.036E+00     0.000E+00     0.000E+00     0.000E+00
X     6.018E+00     6.196E-02     3.531E+00     0.000E+00     0.000E+00     0.000E+00
X     6.018E+00     6.196E-02     4.027E+00     0.000E+00     0.000E+00     0.000E+00
X     6.018E+00     6.196E-02     4.523E+00     0.000E+00     0.000E+00     0.000E+00
X     6.018E+00     5.576E-01    -4.895E+00     0.000E+00     0.000E+00     0.000E+00
X     6.018E+00     5.576E-01    -4.399E+00     0.000E+00     0.000E+00     0.000E+00
X     6.018E+00     5.576E-01    -3.903E+00     0.000E+00     0.000E+00     0.000E+00
X     6.018E+00     5.576E-01    -3.408E+00     0.000E+00     0.000E+00     0.000E+00
X     6.018E+00     5.576E-01    -2.912E+00     0.000E+00     0.000E+00     0.000E+00
X     6.018E+00     5.576E-01    -2.416E+00     0.000E+00     0.000E+00     0.000E+00
X     6.018E+00     5.576E-01    -1.921E+00     0.000E+00     0.000E+00     0.000E+00
X     6.018E+00     5.576E-01    -1.425E+00     0.000E+00     0.000E+00     0.000E+00
X     6.018E+00     5.576E-01    -9.293E-01     9.262E-11     4.759E-10     5.384E-10
X     6.018E+00     5.576E-01    -4.337E-01     1.492E-08     7.677E-08     8.685E-08
X     6.018E+00     5.576E-01     6.196E-02     2.925E-08     1.507E-07     1.705E-07
X     6.018E+00     5.576E-01     5.576E-01     8.155E-09     4.208E-08     4.761E-08
X     6.018E+00     5.576E-01     1.053E+00     1.017E-11     5.252E-11     5.943E-11
X     6.018E+00     5.576E-01     1.549E+00     0.000E+00     0.000E+00     0.000E+00
X     6.018E+00     5.576E-01     2.045E+00     0.000E+00     0.000E+00     0.000E+00
X     6.018E+00     5.576E-01     2.540E+00     0.000E+00     0.000E+00     0.000E+00
X     6.018E+00     5.576E-01     3.036E+00     0.000E+00     0.000E+00     0.000E+00
X     6.018E+00     5.576E-01     3.531E+00     0.000E+00     0.000E+00     0.000E+00
X     6.018E+00     5.576E-01     4.027E+00     0.000E+00     0.000E+00     0.000E+00
X     6.018E+00     5.576E-01     4.523E+00     0.000E+00     0.000E+00     0.000E+00
X     6.018E+00     1.053E+00    -4.895E+00     0.000E+00     0.000E+00     0.000E+00
X     6.018E+00     1.053E+00    -4.399E+00     0.000E+00     0.000E+00     0.000E+00
X     6.018E+00     1.053E+00    -3.903E+00     0.000E+00     0.000E+00     0.000E+00
X     6.018E+00     1.053E+00    -3.408E+00     0.000E+00     0.000E+00     0.000E+00
X     6.018E+00     1.053E+00    -2.912E+00     0.000E+00     0.000E+00     0.000E+00
X     6.018E+00     1.053E+00    -2.416E+00     0.000E+00     0.000E+00     0.000E+00
X     6.018E+00     1.053E+00    -1.921E+00     0.000E+00     0.000E+00     0.000E+00
X     6.018E+00     1.053E+00    -1.425E+00     0.000E+00     0.000E+00     0.000E+00
X     6.018E+00     1.053E+00    -9.293E-01     0.000E+00     0.000E+00     0.000E+00
X     6.018E+00     1.053E+00    -4.337E-01     2.946E-11     1.518E-10     1.717E-10
X     6.018E+00     1.053E+00     6.196E-02     1.668E-10     8.603E-10     9.732E-10
X     6.018E+00     1.053E+00     5.576E-01     1.017E-11     5.252E-11     5.942E-11
X     6.018E+00     1.053E+00     1.053E+00     0.000E+00     0.000E+00     0.000E+00
X     6.018E+00     1.053E+00     1.549E+00     0.000E+00     0.000E+00     0.000E+00
X     6.018E+00     1.053E+00     2.045E+00     0.000E+00     0.000E+00     0.000E+00
X     6.018E+00     1.053E+00     2.540E+00     0.000E+00     0.000E+00     0.000E+00
X     6.018E+00     1.053E+00     3.036E+00     0.000E+00     0.000E+00     0.000E+00
X     6.018E+00     1.053E+00     3.531E+00     0.000E+00     0.000E+00     0.000E+00
X     6.018E+00     1.053E+00     4.027E+00     0.000E+00     0.000E+00     0.000E+00
X     6.018E+00     1.053E+00     4.523E+00     0.000E+00     0.000E+00     0.000E+00
X     6.018E+00     1.549E+00    -4.895E+00     0.000E+00     0.000E+00     0.000E+00
X     6.018E+00     1.549E+00    -4.399E+00     0.000E+00     0.000E+00     0.000E+00
X     6.018E+00     1.549E+00    -3.903E+00     0.000E+00     0.000E+00     0.000E+00
X     6.018E+00     1.549E+00    -3.408E+00     0.000E+00     0.000E+00     0.000E+00
X     6.018E+00     1.549E+00    -2.912E+00     0.000E+00     0.000E+00     0.000E+00
X     6.018E+00     1.549E+00    -2.416E+00     0.000E+00     0.000E+00     0.000E+00
X     6.018E+00     1.549E+00    -1.921E+00     0.000E+00     0.000E+00     0.000E+00
X     6.018E+00     1.549E+00    -1.425E+00     0.000E+00     0.000E+00     0.000E+00
X     6.018E+00     1.549E+00    -9.293E-01     0.000E+00     0.000E+00     0.000E+00
X     6.018E+00     1.549E+00    -4.337E-01     0.000E+00     0.000E+00     0.000E+00
X     6.018E+00     1.549E+00     6.196E-02     0.000E+00     0.000E+00     0.000E+00
X     6.018E+00     1.549E+00     5.576E-01     0.000E+00     0.000E+00     0.000E+00
X     6.018E+00     1.549E+00     1.053E+00     0.000E+00     0.000E+00     0.000E+00
X     6.018E+00     1.549E+00     1.549E+00     0.000E+00     0.000E+00     0.000E+00
X     6.018E+00     1.549E+00     2.045E+00     0.000E+00     0.000E+00     0.000E+00
X     6.018E+00     1.549E+00     2.540E+00     0.000E+00     0.000E+00     0.000E+00
X     6.018E+00     1.549E+00     3.036E+00     0.000E+00     0.000E+00     0.000E+00
X     6.018E+00     1.549E+00     3.531E+00     0.000E+00     0.000E+00     0.000E+00
X     6.018E+00     1.549E+00     4.027E+00     0.000E+00     0.000E+00     0.000E+00
X     6.018E+00     1.549E+00     4.523E+00     0.000E+00     0.000E+00     0.000E+00
X     6.018E+00     2.045E+00    -4.895E+00     0.000E+00     0.000E+00     0.000E+00
X     6.018E+00     2.045E+00    -4.399E+00     0.000E+00     0.000E+00     0.000E+00
X     6.018E+00     2.045E+00    -3.903E+00     0.000E+00     0.000E+00     0.000E+00
X     6.018E+00     2.045E+00    -3.408E+00     0.000E+00     0.000E+00     0.000E+00
X     6.018E+00     2.045E+00    -2.912E+00     0.000E+00     0.000E+00     0.000E+00
X     6.018E+00     2.045E+00    -2.416E+00     0.000E+00     0.000E+00     0.000E+00
X     6.018E+00     2.045E+00    -1.921E+00     0.000E+00     0.000E+00     0.000E+00
X     6.018E+00     2.045E+00    -1.425E+00     0.000E+00     0.000E+00     0.000E+00
X     6.018E+00     2.045E+00    -9.293E-01     0.000E+00     0.000E+00     0.000E+00
X     6.018E+00     2.045E+00    -4.337E-01     0.000E+00     0.000E+00     0.000E+00
X     6.018E+00     2.045E+00     6.196E-02     0.000E+00     0.000E+00     0.000E+00
X     6.018E+00     2.045E+00     5.576E-01     0.000E+00     0.000E+00     0.000E+00
X     6.018E+00     2.045E+00     1.053E+00     0.000E+00     0.000E+00     0.000E+00
X     6.018E+00     2.045E+00     1.549E+00     0.000E+00     0.000E+00     0.000E+00
X     6.018E+00     2.045E+00     2.045E+00     0.000E+00     0.000E+00     0.000E+00
X     6.018E+00     2.045E+00     2.540E+00     0.000E+00     0.000E+00     0.000E+00
X     6.018E+00     2.045E+00     3.036E+00     0.000E+00     0.000E+00     0.000E+00
X     6.018E+00     2.045E+00     3.531E+00     0.000E+00     0.000E+00     0.000E+00
X     6.018E+00     2.045E+00     4.027E+00     0.000E+00     0.000E+00     0.000E+00
X     6.018E+00     2.045E+00     4.523E+00     0.000E+00     0.000E+00     0.000E+00
X     6.018E+00     2.540E+00    -4.895E+00     0.000E+00     0.000E+00     0.000E+00
X     6.018E+00     2.540E+00    -4.399E+00     0.000E+00     0.000E+00     0.000E+00
X     6.018E+00     2.540E+00    -3.903E+00     0.000E+00     0.000E+00     0.000E+00
X     6.018E+00     2.540E+00    -3.408E+00     0.000E+00     0.000E+00     0.000E+00
X     6.018E+00     2.540E+00    -2.912E+00     0.000E+00     0.000E+00     0.000E+00
X     6.018E+00     2.540E+00    -2.416E+00     0.000E+00     0.000E+00     0.000E+00
X     6.018E+00     2.540E+00    -1.921E+00     0.000E+00     0.000E+00     0.000E+00
X     6.018E+00     2.540E+00    -1.425E+00     0.000E+00     0.000E+00     0.000E+00
X     6.018E+00     2.540E+00    -9.293E-01     0.000E+00     0.000E+00     0.000E+00
X     6.018E+00     2.540E+00    -4.337E-01     0.000E+00     0.000E+00     0.000E+00
X     6.018E+00     2.540E+00     6.196E-02     0.000E+00     0.000E+00     0.000E+00
X     6.018E+00     2.540E+00     5.576E-01     0.000E+00     0.000E+00     0.000E+00
X     6.018E+00     2.540E+00     1.053E+00     0.000E+00     0.000E+00     0.000E+00
X     6.018E+00     2.540E+00     1.549E+00     0.000E+00     0.000E+00     0.000E+00
X     6.018E+00     2.540E+00     2.045E+00     0.000E+00     0.000E+00     0.000E+00
X     6.018E+00     2.540E+00     2.540E+00     0.000E+00     0.000E+00     0.000E+00
X     6.018E+00     2.540E+00     3.036E+00     0.000E+00     0.000E+00     0.000E+00
X     6.018E+00     2.540E+00     3.531E+00     0.000E+00     0.000E+00     0.000E+00
X     6.018E+00     2.540E+00     4.027E+00     0.000E+00     0.000E+00     0.000E+00
X     6.018E+00     2.540E+00     4.523E+00     0.000E+00     0.000E+00     0.000E+00
X     6.018E+00     3.036E+00    -4.895E+00     0.000E+00     0.000E+00     0.000E+00
X     6.018E+00     3.036E+00    -4.399E+00     0.000E+00     0.000E+00     0.000E+00
X     6.018E+00     3.036E+00    -3.903E+00     0.000E+00     0.000E+00     0.000E+00
X     6.018E+00     3.036E+00    -3.408E+00     0.000E+00     0.000E+00     0.000E+00
X     6.018E+00     3.036E+00    -2.912E+00     0.000E+00     0.000E+00     0.000E+00
X     6.018E+00     3.036E+00    -2.416E+00     0.000E+00     0.000E+00     0.000E+00
X     6.018E+00     3.036E+00    -1.921E+00     0.000E+00     0.000E+00     0.000E+00
X     6.018E+00     3.036E+00    -1.425E+00     0.000E+00     0.000E+00     0.000E+00
X     6.018E+00     3.036E+00    -9.293E-01     0.000E+00     0.000E+00     0.000E+00
X     6.018E+00     3.036E+00    -4.337E-01     0.000E+00     0.000E+00     0.000E+00
X     6.018E+00     3.036E+00     6.196E-02     0.000E+00     0.000E+00     0.000E+00
X     6.018E+00     3.036E+00     5.576E-01     0.000E+00     0.000E+00     0.000E+00
X     6.018E+00     3.036E+00     1.053E+00     0.000E+00     0.000E+00     0.000E+00
X     6.018E+00     3.036E+00     1.549E+00     0.000E+00     0.000E+00     0.000E+00
X     6.018E+00     3.036E+00     2.045E+00     0.000E+00     0.000E+00     0.000E+00
X     6.018E+00     3.036E+00     2.540E+00     0.000E+00     0.000E+00     0.000E+00
X     6.018E+00     3.036E+00     3.036E+00     0.000E+00     0.000E+00     0.000E+00
X     6.018E+00     3.036E+00     3.531E+00     0.000E+00     0.000E+00     0.000E+00
X     6.018E+00     3.036E+00     4.027E+00     0.000E+00     0.000E+00     0.000E+00
X     6.018E+00     3.036E+00     4.523E+00     0.000E+00     0.000E+00     0.000E+00
X     6.018E+00     3.531E+00    -4.895E+00     0.000E+00     0.000E+00     0.000E+00
X     6.018E+00     3.531E+00    -4.399E+00     0.000E+00     0.000E+00     0.000E+00
X     6.018E+00     3.531E+00    -3.903E+00     0.000E+00     0.000E+00     0.000E+00
X     6.018E+00     3.531E+00    -3.408E+00     0.000E+00     0.000E+00     0.000E+00
X     6.018E+00     3.531E+00    -2.912E+00     0.000E+00     0.000E+00     0.000E+00
X     6.018E+00     3.531E+00    -2.416E+00     0.000E+00     0.000E+00     0.000E+00
X     6.018E+00     3.531E+00    -1.921E+00     0.000E+00     0.000E+00     0.000E+00
X     6.018E+00     3.531E+00    -1.425E+00     0.000E+00     0.000E+00     0.000E+00
X     6.018E+00     3.531E+00    -9.293E-01     0.000E+00     0.000E+00     0.000E+00
X     6.018E+00     3.531E+00    -4.337E-01     0.000E+00     0.000E+00     0.000E+00
X     6.018E+00     3.531E+00     6.196E-02     0.000E+00     0.000E+00     0.000E+00
X     6.018E+00     3.531E+00     5.576E-01     0.000E+00     0.000E+00     0.000E+00
X     6.018E+00     3.531E+00     1.053E+00     0.000E+00     0.000E+00     0.000E+00
X     6.018E+00     3.531E+00     1.549E+00     0.000E+00     0.000E+00     0.000E+00
X     6.018E+00     3.531E+00     2.045E+00     0.000E+00     0.000E+00     0.000E+00
X     6.018E+00     3.531E+00     2.540E+00     0.000E+00     0.000E+00     0.000E+00
X     6.018E+00     3.531E+00     3.036E+00     0.000E+00     0.000E+00     0.000E+00
X     6.018E+00     3.531E+00     3.531E+00     0.000E+00     0.000E+00     0.000E+00
X     6.018E+00     3.531E+00     4.027E+00     0.000E+00     0.000E+00     0.000E+00
X     6.018E+00     3.531E+00     4.523E+00     0.000E+00     0.000E+00     0.000E+00
X     6.018E+00     4.027E+00    -4.895E+00     0.000E+00     0.000E+00     0.000E+00
X     6.018E+00     4.027E+00    -4.399E+00     0.000E+00     0.000E+00     0.000E+00
X     6.018E+00     4.027E+00    -3.903E+00     0.000E+00     0.000E+00     0.000E+00
X     6.018E+00     4.027E+00    -3.408E+00     0.000E+00     0.000E+00     0.000E+00
X     6.018E+00     4.027E+00    -2.912E+00     0.000E+00     0.000E+00     0.000E+00
X     6.018E+00     4.027E+00    -2.416E+00     0.000E+00     0.000E+00     0.000E+00
X     6.018E+00     4.027E+00    -1.921E+00     0.000E+00     0.000E+00     0.000E+00
X     6.018E+00     4.027E+00    -1.425E+00     0.000E+00     0.000E+00     0.000E+00
X     6.018E+00     4.027E+00    -9.293E-01     0.000E+00     0.000E+00     0.000E+00
X     6.018E+00     4.027E+00    -4.337E-01     0.000E+00     0.000E+00     0.000E+00
X     6.018E+00     4.027E+00     6.196E-02     0.000E+00     0.000E+00     0.000E+00
X     6.018E+00     4.027E+00     5.576E-01     0.000E+00     0.000E+00     0.000E+00
X     6.018E+00     4.027E+00     1.053E+00     0.000E+00     0.000E+00     0.000E+00
X     6.018E+00     4.027E+00     1.549E+00     0.000E+00     0.000E+00     0.000E+00
X     6.018E+00     4.027E+00     2.045E+00     0.000E+00     0.000E+00     0.000E+00
X     6.018E+00     4.027E+00     2.540E+00     0.000E+00     0.000E+00     0.000E+00
X     6.018E+00     4.027E+00     3.036E+00     0.000E+00     0.000E+00     0.000E+00
X     6.018E+00     4.027E+00     3.531E+00     0.000E+00     0.000E+00     0.000E+00
X     6.018E+00     4.027E+00     4.027E+00     0.000E+00     0.000E+00     0.000E+00
X     6.018E+00     4.027E+00     4.523E+00     0.000E+00     0.000E+00     0.000E+00
X     6.018E+00     4.523E+00    -4.895E+00     0.000E+00     0.000E+00     0.000E+00
X     6.018E+00     4.523E+00    -4.399E+00     0.000E+00     0.000E+00     0.000E+00
X     6.018E+00     4.523E+00    -3.903E+00     0.000E+00     0.000E+00     0.000E+00
X     6.018E+00     4.523E+00    -3.408E+00     0.000E+00     0.000E+00     0.000E+00
X     6.018E+00     4.523E+00    -2.912E+00     0.000E+00     0.000E+00     0.000E+00
X     6.018E+00     4.523E+00    -2.416E+00     0.000E+00     0.000E+00     0.000E+00
X     6.018E+00     4.523E+00    -1.921E+00     0.000E+00     0.000E+00     0.000E+00
X     6.018E+00     4.523E+00    -1.425E+00     0.000E+00     0.000E+00     0.000E+00
X     6.018E+00     4.523E+00    -9.293E-01     0.000E+00     0.000E+00     0.000E+00
X     6.018E+00     4.523E+00    -4.337E-01     0.000E+00     0.000E+00     0.000E+00
X     6.018E+00     4.523E+00     6.196E-02     0.000E+00     0.000E+00     0.000E+00
X     6.018E+00     4.523E+00     5.576E-01     0.000E+00     0.000E+00     0.000E+00
X     6.018E+00     4.523E+00     1.053E+00     0.000E+00     0.000E+00     0.000E+00
X     6.018E+00     4.523E+00     1.549E+00     0.000E+00     0.000E+00     0.000E+00
X     6.018E+00     4.523E+00     2.045E+00     0.000E+00     0.000E+00     0.000E+00
X     6.018E+00     4.523E+00     2.540E+00     0.000E+00     0.000E+00     0.000E+00
X     6.018E+00     4.523E+00     3.036E+00     0.000E+00     0.000E+00     0.000E+00
X     6.018E+00     4.523E+00     3.531E+00     0.000E+00     0.000E+00     0.000E+00
X     6.018E+00     4.523E+00     4.027E+00     0.000E+00     0.000E+00     0.000E+00
X     6.018E+00     4.523E+00     4.523E+00     0.000E+00     0.000E+00     0.000E+00
X     6.514E+00    -4.895E+00    -4.895E+00     0.000E+00     0.000E+00     0.000E+00
X     6.514E+00    -4.895E+00    -4.399E+00     0.000E+00     0.000E+00     0.000E+00
X     6.514E+00    -4.895E+00    -3.903E+00     0.000E+00     0.000E+00     0.000E+00
X     6.514E+00    -4.895E+00    -3.408E+00     0.000E+00     0.000E+00     0.000E+00
X     6.514E+00    -4.895E+00    -2.912E+00     0.000E+00     0.000E+00     0.000E+00
X     6.514E+00    -4.895E+00    -2.416E+00     0.000E+00     0.000E+00     0.000E+00
X     6.514E+00    -4.895E+00    -1.921E+00     0.000E+00     0.000E+00     0.000E+00
X     6.514E+00    -4.895E+00    -1.425E+00     0.000E+00     0.000E+00     0.000E+00
X     6.514E+00    -4.895E+00    -9.293E-01     0.000E+00     0.000E+00     0.000E+00
X     6.514E+00    -4.895E+00    -4.337E-01     0.000E+00     0.000E+00     0.000E+00
X     6.514E+00    -4.895E+00     6.196E-02     0.000E+00     0.000E+00     0.000E+00
X     6.514E+00    -4.895E+00     5.576E-01     0.000E+00     0.000E+00     0.000E+00
X     6.514E+00    -4.895E+00     1.053E+00     0.000E+00     0.000E+00     0.000E+00
X     6.514E+00    -4.895E+00     1.549E+00     0.000E+00     0.000E+00     0.000E+00
X     6.514E+00    -4.895E+00     2.045E+00     0.000E+00     0.000E+00     0.000E+00
X     6.514E+00    -4.895E+00     2.540E+00     0.000E+00     0.000E+00     0.000E+00
X     6.514E+00    -4.895E+00     3.036E+00     0.000E+00     0.000E+00     0.000E+00
X     6.514E+00    -4.895E+00     3.531E+00     0.000E+00     0.000E+00     0.000E+00
X     6.514E+00    -4.895E+00     4.027E+00     0.000E+00     0.000E+00     0.000E+00
X     6.514E+00    -4.895E+00     4.523E+00     0.000E+00     0.000E+00     0.000E+00
X     6.514E+00    -4.399E+00    -4.895E+00     0.000E+00     0.000E+00     0.000E+00
X     6.514E+00    -4.399E+00    -4.399E+00     0.000E+00     0.000E+00     0.000E+00
X     6.514E+00    -4.399E+00    -3.903E+00     0.000E+00     0.000E+00     0.000E+00
X     6.514E+00    -4.399E+00    -3.408E+00     0.000E+00     0.000E+00     0.000E+00
X     6.514E+00    -4.399E+00    -2.912E+00     0.000E+00     0.000E+00     0.000E+00
X     6.514E+00    -4.399E+00    -2.416E+00     0.000E+00     0.000E+00     0.000E+00
X     6.514E+00    -4.399E+00    -1.921E+00     0.000E+00     0.000E+00     0.000E+00
X     6.514E+00    -4.399E+00    -1.425E+00     0.000E+00     0.000E+00     0.000E+00
X     6.514E+00    -4.399E+00    -9.293E-01     0.000E+00     0.000E+00     0.000E+00
X     6.514E+00    -4.399E+00    -4.337E-01     0.000E+00     0.000E+00     0.000E+00
X     6.514E+00    -4.399E+00     6.196E-02     0.000E+00     0.000E+00     0.000E+00
X     6.514E+00    -4.399E+00     5.576E-01     0.000E+00     0.000E+00     0.000E+00
X     6.514E+00    -4.399E+00     1.053E+00     0.000E+00     0.000E+00     0.000E+00
X     6.514E+00    -4.399E+00     1.549E+00     0.000E+00     0.000E+00     0.000E+00
X     6.514E+00    -4.399E+00     2.045E+00     0.000E+00     0.000E+00     0.000E+00
X     6.514E+00    -4.399E+00     2.540E+00     0.000E+00     0.000E+00     0.000E+00
X     6.514E+00    -4.399E+00     3.036E+00     0.000E+00     0.000E+00     0.000E+00
X     6.514E+00    -4.399E+00     3.531E+00     0.000E+00     0.000E+00     0.000E+00
X     6.514E+00    -4.399E+00     4.027E+00     0.000E+00     0.000E+00     0.000E+00
X     6.514E+00    -4.399E+00     4.523E+00     0.000E+00     0.000E+00     0.000E+00
X     6.514E+00    -3.903E+00    -4.895E+00     0.000E+00     0.000E+00     0.000E+00
X     6.514E+00    -3.903E+00    -4.399E+00     0.000E+00     0.000E+00     0.000E+00
X     6.514E+00    -3.903E+00    -3.903E+00     0.000E+00     0.000E+00     0.000E+00
X     6.514E+00    -3.903E+00    -3.408E+00     0.000E+00     0.000E+00     0.000E+00
X     6.514E+00    -3.903E+00    -2.912E+00     0.000E+00     0.000E+00     0.000E+00
X     6.514E+00    -3.903E+00    -2.416E+00     0.000E+00     0.000E+00     0.000E+00
X     6.514E+00    -3.903E+00    -1.921E+00     0.000E+00     0.000E+00     0.000E+00
X     6.514E+00    -3.903E+00    -1.425E+00     0.000E+00     0.000E+00     0.000E+00
X     6.514E+00    -3.903E+00    -9.293E-01     0.000E+00     0.000E+00     0.000E+00
X     6.514E+00    -3.903E+00    -4.337E-01     0.000E+00     0.000E+00     0.000E+00
X     6.514E+00    -3.903E+00     6.196E-02     0.000E+00     0.000E+00     0.000E+00
X     6.514E+00    -3.903E+00     5.576E-01     0.000E+00     0.000E+00     0.000E+00
X     6.514E+00    -3.903E+00     1.053E+00     0.000E+00     0.000E+00     0.000E+00
X     6.514E+00    -3.903E+00     1.549E+00     0.000E+00     0.000E+00     0.000E+00
X     6.514E+00    -3.903E+00     2.045E+00     0.000E+00     0.000E+00     0.000E+00
X     6.514E+00    -3.903E+00     2.540E+00     0.000E+00     0.000E+00     0.000E+00
X     6.514E+00    -3.903E+00     3.036E+00     0.000E+00     0.000E+00     0.000E+00
X     6.514E+00    -3.903E+00     3.531E+00     0.000E+00     0.000E+00     0.000E+00
X     6.514E+00    -3.903E+00     4.027E+00     0.000E+00     0.000E+00     0.000E+00
X     6.514E+00    -3.903E+00     4.523E+00     0.000E+00     0.000E+00     0.000E+00
X     6.514E+00    -3.408E+00    -4.895E+00     0.000E+00     0.000E+00     0.000E+00
X     6.514E+00    -3.408E+00    -4.399E+00     0.000E+00     0.000E+00     0.000E+00
X     6.514E+00    -3.408E+00    -3.903E+00     0.000E+00     0.000E+00     0.000E+00
X     6.514E+00    -3.408E+00    -3.408E+00     0.000E+00     0.000E+00     0.000E+00
X     6.514E+00    -3.408E+00    -2.912E+00     0.000E+00     0.000E+00     0.000E+00
X     6.514E+00    -3.408E+00    -2.416E+00     0.000E+00     0.000E+00     0.000E+00
X     6.514E+00    -3.408E+00    -1.921E+00     0.000E+00     0.000E+00     0.000E+00
X     6.514E+00    -3.408E+00    -1.425E+00     0.000E+00     0.000E+00     0.000E+00
X     6.514E+00    -3.408E+00    -9.293E-01     0.000E+00     0.000E+00     0.000E+00
X     6.514E+00    -3.408E+00    -4.337E-01     0.000E+00     0.000E+00     0.000E+00
X     6.514E+00    -3.408E+00     6.196E-02     0.000E+00     0.000E+00     0.000E+00
X     6.514E+00    -3.408E+00     5.576E-01     0.000E+00     0.000E+00     0.000E+00
X     6.514E+00    -3.408E+00     1.053E+00     0.000E+00     0.000E+00     0.000E+00
X     6.514E+00    -3.408E+00     1.549E+00     0.000E+00     0.000E+00     0.000E+00
X     6.514E+00    -3.408E+00     2.045E+00     0.000E+00     0.000E+00     0.000E+00
X     6.514E+00    -3.408E+00     2.540E+00     0.000E+00     0.000E+00     0.000E+00
X     6.514E+00    -3.408E+00     3.036E+00     0.000E+00     0.000E+00     0.000E+00
X     6.514E+00    -3.408E+00     3.531E+00     0.000E+00     0.000E+00     0.000E+00
X     6.514E+00    -3.408E+00     4.027E+00     0.000E+00     0.000E+00     0.000E+00
X     6.514E+00    -3.408E+00     4.523E+00     0.000E+00     0.000E+00     0.000E+00
X     6.514E+00    -2.912E+00    -4.895E+00     0.000E+00     0.000E+00     0.000E+00
X     6.514E+00    -2.912E+00    -4.399E+00     0.000E+00     0.000E+00     0.000E+00
X     6.514E+00    -2.912E+00    -3.903E+00     0.000E+00     0.000E+00     0.000E+00
X     6.514E+00    -2.912E+00    -3.408E+00     0.000E+00     0.000E+00     0.000E+00
X     6.514E+00    -2.912E+00    -2.912E+00     0.000E+00     0.000E+00     0.000E+00
X     6.514E+00    -2.912E+00    -2.416E+00     0.000E+00     0.000E+00     0.000E+00
X     6.514E+00    -2.912E+00    -1.921E+00     0.000E+00     0.000E+00     0.000E+00
X     6.514E+00    -2.912E+00    -1.425E+00     0.000E+00     0.000E+00     0.000E+00
X     6.514E+00    -2.912E+00    -9.293E-01     0.000E+00     0.000E+00     0.000E+00
X     6.514E+00    -2.912E+00    -4.337E-01     0.000E+00     0.000E+00     0.000E+00
X     6.514E+00    -2.912E+00     6.196E-02     0.000E+00     0.000E+00     0.000E+00
X     6.514E+00    -2.912E+00     5.576E-01     0.000E+00     0.000E+00     0.000E+00
X     6.514E+00    -2.912E+00     1.053E+00     0.000E+00     0.000E+00     0.000E+00
X     6.514E+00    -2.912E+00     1.549E+00     0.000E+00     0.000E+00     0.000E+00
X     6.514E+00    -2.912E+00     2.045E+00     0.000E+00     0.000E+00     0.000E+00
X     6.514E+00    -2.912E+00     2.540E+00     0.000E+00     0.000E+00     0.000E+00
X     6.514E+00    -2.912E+00     3.036E+00     0.000E+00     0.000E+00     0.000E+00
X     6.514E+00    -2.912E+00     3.531E+00     0.000E+00     0.000E+00     0.000E+00
X     6.514E+00    -2.912E+00     4.027E+00     0.000E+00     0.000E+00     0.000E+00
X     6.514E+00    -2.912E+00     4.523E+00     0.000E+00     0.000E+00     0.000E+00
X     6.514E+00    -2.416E+00    -4.895E+00     0.000E+00     0.000E+00     0.000E+00
X     6.514E+00    -2.416E+00    -4.399E+00     0.000E+00     0.000E+00     0.000E+00
X     6.514E+00    -2.416E+00    -3.903E+00     0.000E+00     0.000E+00     0.000E+00
X     6.514E+00    -2.416E+00    -3.408E+00     0.000E+00     0.000E+00     0.000E+00
X     6.514E+00    -2.416E+00    -2.912E+00     0.000E+00     0.000E+00     0.000E+00
X     6.514E+00    -2.416E+00    -2.416E+00     0.000E+00     0.000E+00     0.000E+00
X     6.514E+00    -2.416E+00    -1.921E+00     0.000E+00     0.000E+00     0.000E+00
X     6.514E+00    -2.416E+00    -1.425E+00     0.000E+00     0.000E+00     0.000E+00
X     6.514E+00    -2.416E+00    -9.293E-01     0.000E+00     0.000E+00     0.000E+00
X     6.514E+00    -2.416E+00    -4.337E-01     0.000E+00     0.000E+00     0.000E+00
X     6.514E+00    -2.416E+00     6.196E-02     0.000E+00     0.000E+00     0.000E+00
X     6.514E+00    -2.416E+00     5.576E-01     0.000E+00     0.000E+00     0.000E+00
X     6.514E+00    -2.416E+00     1.053E+00     0.000E+00     0.000E+00     0.000E+00
X     6.514E+00    -2.416E+00     1.549E+00     0.000E+00     0.000E+00     0.000E+00
X     6.514E+00    -2.416E+00     2.045E+00     0.000E+00     0.000E+00     0.000E+00
X     6.514E+00    -2.416E+00     2.540E+00     0.000E+00     0.000E+00     0.000E+00
X     6.514E+00    -2.416E+00     3.036E+00     0.000E+00     0.000E+00     0.000E+00
X     6.514E+00    -2.416E+00     3.531E+00     0.000E+00     0.000E+00     0.000E+00
X     6.514E+00    -2.416E+00     4.027E+00     0.000E+00     0.000E+00     0.000E+00
X     6.514E+00    -2.416E+00     4.523E+00     0.000E+00     0.000E+00     0.000E+00
X     6.514E+00    -1.921E+00    -4.895E+00     0.000E+00     0.000E+00     0.000E+00
X     6.514E+00    -1.921E+00    -4.399E+00     0.000E+00     0.000E+00     0.000E+00
X     6.514E+00    -1.921E+00    -3.903E+00     0.000E+00     0.000E+00     0.000E+00
X     6.514E+00    -1.921E+00    -3.408E+00     0.000E+00     0.000E+00     0.000E+00
X     6.514E+00    -1.921E+00    -2.912E+00     0.000E+00     0.000E+00     0.000E+00
X     6.514E+00    -1.921E+00    -2.416E+00     0.000E+00     0.000E+00     0.000E+00
X     6.514E+00    -1.921E+00    -1.921E+00     0.000E+00     0.000E+00     0.000E+00
X     6.514E+00    -1.921E+00    -1.425E+00     0.000E+00     0.000E+00     0.000E+00
X     6.514E+00    -1.921E+00    -9.293E-01     0.000E+00     0.000E+00     0.000E+00
X     6.514E+00    -1.921E+00    -4.337E-01     0.000E+00     0.000E+00     0.000E+00
X     6.514E+00    -1.921E+00     6.196E-02     0.000E+00     0.000E+00     0.000E+00
X     6.514E+00    -1.921E+00     5.576E-01     0.000E+00     0.000E+00     0.000E+00
X     6.514E+00    -1.921E+00     1.053E+00     0.000E+00     0.000E+00     0.000E+00
X     6.514E+00    -1.921E+00     1.549E+00     0.000E+00     0.000E+00     0.000E+00
X     6.514E+00    -1.921E+00     2.045E+00     0.000E+00     0.000E+00     0.000E+00
X     6.514E+00    -1.921E+00     2.540E+00     0.000E+00     0.000E+00     0.000E+00
X     6.514E+00    -1.921E+00     3.036E+00     0.000E+00     0.000E+00     0.000E+00
X     6.514E+00    -1.921E+00     3.531E+00     0.000E+00     0.000E+00     0.000E+00
X     6.514E+00    -1.921E+00     4.027E+00     0.000E+00     0.000E+00     0.000E+00
X     6.514E+00    -1.921E+00     4.523E+00     0.000E+00     0.000E+00     0.000E+00
X     6.514E+00    -1.425E+00    -4.895E+00     0.000E+00     0.000E+00     0.000E+00
X     6.514E+00    -1.425E+00    -4.399E+00     0.000E+00     0.000E+00     0.000E+00
X     6.514E+00    -1.425E+00    -3.903E+00     0.000E+00     0.000E+00     0.000E+00
X     6.514E+00    -1.425E+00    -3.408E+00     0.000E+00     0.000E+00     0.000E+00
X     6.514E+00    -1.425E+00    -2.912E+00     0.000E+00     0.000E+00     0.000E+00
X     6.514E+00    -1.425E+00    -2.416E+00     0.000E+00     0.000E+00     0.000E+00
X     6.514E+00    -1.425E+00    -1.921E+00     0.000E+00     0.000E+00     0.000E+00
X     6.514E+00    -1.425E+00    -1.425E+00     0.000E+00     0.000E+00     0.000E+00
X     6.514E+00    -1.425E+00    -9.293E-01     0.000E+00     0.000E+00     0.000E+00
X     6.514E+00    -1.425E+00    -4.337E-01     0.000E+00     0.000E+00     0.000E+00
X     6.514E+00    -1.425E+00     6.196E-02     0.000E+00     0.000E+00     0.000E+00
X     6.514E+00    -1.425E+00     5.576E-01     0.000E+00     0.000E+00     0.000E+00
X     6.514E+00    -1.425E+00     1.053E+00     0.000E+00     0.000E+00     0.000E+00
X     6.514E+00    -1.425E+00     1.549E+00     0.000E+00     0.000E+00     0.000E+00
X     6.514E+00    -1.425E+00     2.045E+00     0.000E+00     0.000E+00     0.000E+00
X     6.514E+00    -1.425E+00     2.540E+00     0.000E+00     0.000E+00     0.000E+00
X     6.514E+00    -1.425E+00     3.036E+00     0.000E+00     0.000E+00     0.000E+00
X     6.514E+00    -1.425E+00     3.531E+00     0.000E+00     0.000E+00     0.000E+00
X     6.514E+00    -1.425E+00     4.027E+00     0.000E+00     0.000E+00     0.000E+00
X     6.514E+00    -1.425E+00     4.523E+00     0.000E+00     0.000E+00     0.000E+00
X     6.514E+00    -9.293E-01    -4.895E+00     0.000E+00     0.000E+00     0.000E+00
X     6.514E+00    -9.293E-01    -4.399E+00     0.000E+00     0.000E+00     0.000E+00
X     6.514E+00    -9.293E-01    -3.903E+00     0.000E+00     0.000E+00     0.000E+00
X     6.514E+00    -9.293E-01    -3.408E+00     0.000E+00     0.000E+00     0.000E+00
X     6.514E+00    -9.293E-01    -2.912E+00     0.000E+00     0.000E+00     0.000E+00
X     6.514E+00    -9.293E-01    -2.416E+00     0.000E+00     0.000E+00     0.000E+00
X     6.514E+00    -9.293E-01    -1.921E+00     0.000E+00     0.000E+00     0.000E+00
X     6.514E+00    -9.293E-01    -1.425E+00     0.000E+00     0.000E+00     0.000E+00
X     6.514E+00    -9.293E-01    -9.293E-01     0.000E+00     0.000E+00     0.000E+00
X     6.514E+00    -9.293E-01    -4.337E-01     0.000E+00     0.000E+00     0.000E+00
X     6.514E+00    -9.293E-01     6.196E-02     0.000E+00     0.000E+00     0.000E+00
X     6.514E+00    -9.293E-01     5.576E-01     0.000E+00     0.000E+00     0.000E+00
X     6.514E+00    -9.293E-01     1.053E+00     0.000E+00     0.000E+00     0.000E+00
X     6.514E+00    -9.293E-01     1.549E+00     0.000E+00     0.000E+00     0.000E+00
X     6.514E+00    -9.293E-01     2.045E+00     0.000E+00     0.000E+00     0.000E+00
X     6.514E+00    -9.293E-01     2.540E+00     0.000E+00     0.000E+00     0.000E+00
X     6.514E+00    -9.293E-01     3.036E+00     0.000E+00     0.000E+00     0.000E+00
X     6.514E+00    -9.293E-01     3.531E+00     0.000E+00     0.000E+00     0.000E+00
X     6.514E+00    -9.293E-01     4.027E+00     0.000E+00     0.000E+00     0.000E+00
X     6.514E+00    -9.293E-01     4.523E+00     0.000E+00     0.000E+00     0.000E+00
X     6.514E+00    -4.337E-01    -4.895E+00     0.000E+00     0.000E+00     0.000E+00
X     6.514E+00    -4.337E-01    -4.399E+00     0.000E+00     0.000E+00     0.000E+00
X     6.514E+00    -4.337E-01    -3.903E+00     0.000E+00     0.000E+00     0.000E+00
X     6.514E+00    -4.337E-01    -3.408E+00     0.000E+00     0.000E+00     0.000E+00
X     6.514E+00    -4.337E-01    -2.912E+00     0.000E+00     0.000E+00     0.000E+00
X     6.514E+00    -4.337E-01    -2.416E+00     0.000E+00     0.000E+00     0.000E+00
X     6.514E+00    -4.337E-01    -1.921E+00     0.000E+00     0.000E+00     0.000E+00
X     6.514E+00    -4.337E-01    -1.425E+00     0.000E+00     0.000E+00     0.000E+00
X     6.514E+00    -4.337E-01    -9.293E-01     0.000E+00     0.000E+00     0.000E+00
X     6.514E+00    -4.337E-01    -4.337E-01     0.000E+00     0.000E+00     0.000E+00
X     6.514E+00    -4.337E-01     6.196E-02     0.000E+00     0.000E+00     0.000E+00
X     6.514E+00    -4.337E-01     5.576E-01     0.000E+00     0.000E+00     0.000E+00
X     6.514E+00    -4.337E-01     1.053E+00     0.000E+00     0.000E+00     0.000E+00
X     6.514E+00    -4.337E-01     1.549E+00     0.000E+00     0.000E+00     0.000E+00
X     6.514E+00    -4.337E-01     2.045E+00     0.000E+00     0.000E+00     0.000E+00
X     6.514E+00    -4.337E-01     2.540E+00     0.000E+00     0.000E+00     0.000E+00
X     6.514E+00    -4.337E-01     3.036E+00     0.000E+00     0.000E+00     0.000E+00
X     6.514E+00    -4.337E-01     3.531E+00     0.000E+00     0.000E+00     0.000E+00
X     6.514E+00    -4.337E-01     4.027E+00     0.000E+00     0.000E+00     0.000E+00
X     6.514E+00    -4.337E-01     4.523E+00     0.000E+00     0.000E+00     0.000E+00
X     6.514E+00     6.196E-02    -4.895E+00     0.000E+00     0.000E+00     0.000E+00
X     6.514E+00     6.196E-02    -4.399E+00     0.000E+00     0.000E+00     0.000E+00
X     6.514E+00     6.196E-02    -3.903E+00     0.000E+00     0.000E+00     0.000E+00
X     6.514E+00     6.196E-02    -3.408E+00     0.000E+00     0.000E+00     0.000E+00
X     6.514E+00     6.196E-02    -2.912E+00     0.000E+00     0.000E+00     0.000E+00
X     6.514E+00     6.196E-02    -2.416E+00     0.000E+00     0.000E+00     0.000E+00
X     6.514E+00     6.196E-02    -1.921E+00     0.000E+00     0.000E+00     0.000E+00
X     6.514E+00     6.196E-02    -1.425E+00     0.000E+00     0.000E+00     0.000E+00
X     6.514E+00     6.196E-02    -9.293E-01     0.000E+00     0.000E+00     0.000E+00
X     6.514E+00     6.196E-02    -4.337E-01     0.000E+00     0.000E+00     0.000E+00
X     6.514E+00     6.196E-02     6.196E-02     0.000E+00     0.000E+00     0.000E+00
X     6.514E+00     6.196E-02     5.576E-01     0.000E+00     0.000E+00     0.000E+00
X     6.514E+00     6.196E-02     1.053E+00     0.000E+00     0.000E+00     0.000E+00
X     6.514E+00     6.196E-02     1.549E+00     0.000E+00     0.000E+00     0.000E+00
X     6.514E+00     6.196E-02     2.045E+00     0.000E+00     0.000E+00     0.000E+00
X     6.514E+00     6.196E-02     2.540E+00     0.000E+00     0.000E+00     0.000E+00
X     6.514E+00     6.196E-02     3.036E+00     0.000E+00     0.000E+00     0.000E+00
X     6.514E+00     6.196E-02     3.531E+00     0.000E+00     0.000E+00     0.000E+00
X     6.514E+00     6.196E-02     4.027E+00     0.000E+00     0.000E+00     0.000E+00
X     6.514E+00     6.196E-02     4.523E+00     0.000E+00     0.000E+00     0.000E+00
X     6.514E+00     5.576E-01    -4.895E+00     0.000E+00     0.000E+00     0.000E+00
X     6.514E+00     5.576E-01    -4.399E+00     0.000E+00     0.000E+00     0.000E+00
X     6.514E+00     5.576E-01    -3.903E+00     0.000E+00     0.000E+00     0.000E+00
X     6.514E+00     5.576E-01    -3.408E+00     0.000E+00     0.000E+00     0.000E+00
X     6.514E+00     5.576E-01    -2.912E+00     0.000E+00     0.000E+00     0.000E+00
X     6.514E+00     5.576E-01    -2.416E+00     0.000E+00     0.000E+00     0.000E+00
X     6.514E+00     5.576E-01    -1.921E+00     0.000E+00     0.000E+00     0.000E+00
X     6.514E+00     5.576E-01    -1.425E+00     0.000E+00     0.000E+00     0.000E+00
X     6.514E+00     5.576E-01    -9.293E-01     0.000E+00     0.000E+00     0.000E+00
X     6.514E+00     5.576E-01    -4.337E-01     0.000E+00     0.000E+00     0.000E+00
X     6.514E+00     5.576E-01     6.196E-02     0.000E+00     0.000E+00     0.000E+00
X     6.514E+00     5.576E-01     5.576E-01     0.000E+00     0.000E+00     0.000E+00
X     6.514E+00     5.576E-01     1.053E+00     0.000E+00     0.000E+00     0.000E+00
X     6.514E+00     5.576E-01     1.549E+00     0.000E+00     0.000E+00     0.000E+00
X     6.514E+00     5.576E-01     2.045E+00     0.000E+00     0.000E+00     0.000E+00
X     6.514E+00     5.576E-01     2.540E+00     0.000E+00     0.000E+00     0.000E+00
X     6.514E+00     5.576E-01     3.036E+00     0.000E+00     0.000E+00     0.000E+00
X     6.514E+00     5.576E-01     3.531E+00     0.000E+00     0.000E+00     0.000E+00
X     6.514E+00     5.576E-01     4.027E+00     0.000E+00     0.000E+00     0.000E+00
X     6.514E+00     5.576E-01     4.523E+00     0.000E+00     0.000E+00     0.000E+00
X     6.514E+00     1.053E+00    -4.895E+00     0.000E+00     0.000E+00     0.000E+00
X     6.514E+00     1.053E+00    -4.399E+00     0.000E+00     0.000E+00     0.000E+00
X     6.514E+00     1.053E+00    -3.903E+00     0.000E+00     0.000E+00     0.000E+00
X     6.514E+00     1.053E+00    -3.408E+00     0.000E+00     0.000E+00     0.000E+00
X     6.514E+00     1.053E+00    -2.912E+00     0.000E+00     0.000E+00     0.000E+00
X     6.514E+00     1.053E+00    -2.416E+00     0.000E+00     0.000E+00     0.000E+00
X     6.514E+00     1.053E+00    -1.921E+00     0.000E+00     0.000E+00     0.000E+00
X     6.514E+00     1.053E+00    -1.425E+00     0.000E+00     0.000E+00     0.000E+00
X     6.514E+00     1.053E+00    -9.293E-01     0.000E+00     0.000E+00     0.000E+00
X     6.514E+00     1.053E+00    -4.337E-01     0.000E+00     0.000E+00     0.000E+00
X     6.514E+00     1.053E+00     6.196E-02     0.000E+00     0.000E+00     0.000E+00
X     6.514E+00     1.053E+00     5.576E-01     0.000E+00     0.000E+00     0.000E+00
X     6.514E+00     1.053E+00     1.053E+00     0.000E+00     0.000E+00     0.000E+00
X     6.514E+00     1.053E+00     1.549E+00     0.000E+00     0.000E+00     0.000E+00
X     6.514E+00     1.053E+00     2.045E+00     0.000E+00     0.000E+00     0.000E+00
X     6.514E+00     1.053E+00     2.540E+00     0.000E+00     0.000E+00     0.000E+00
X     6.514E+00     1.053E+00     3.036E+00     0.000E+00     0.000E+00     0.000E+00
X     6.514E+00     1.053E+00     3.531E+00     0.000E+00     0.000E+00     0.000E+00
X     6.514E+00     1.053E+00     4.027E+00     0.000E+00     0.000E+00     0.000E+00
X     6.514E+00     1.053E+00     4.523E+00     0.000E+00     0.000E+00     0.000E+00
X     6.514E+00     1.549E+00    -4.895E+00     0.000E+00     0.000E+00     0.000E+00
X     6.514E+00     1.549E+00    -4.399E+00     0.000E+00     0.000E+00     0.000E+00
X     6.514E+00     1.549E+00    -3.903E+00     0.000E+00     0.000E+00     0.000E+00
X     6.514E+00     1.549E+00    -3.408E+00     0.000E+00     0.000E+00     0.000E+00
X     6.514E+00     1.549E+00    -2.912E+00     0.000E+00     0.000E+00     0.000E+00
X     6.514E+00     1.549E+00    -2.416E+00     0.000E+00     0.000E+00     0.000E+00
X     6.514E+00     1.549E+00    -1.921E+00     0.000E+00     0.000E+00     0.000E+00
X     6.514E+00     1.549E+00    -1.425E+00     0.000E+00     0.000E+00     0.000E+00
X     6.514E+00     1.549E+00    -9.293E-01     0.000E+00     0.000E+00     0.000E+00
X     6.514E+00     1.549E+00    -4.337E-01     0.000E+00     0.000E+00     0.000E+00
X     6.514E+00     1.549E+00     6.196E-02     0.000E+00     0.000E+00     0.000E+00
X     6.514E+00     1.549E+00     5.576E-01     0.000E+00     0.000E+00     0.000E+00
X     6.514E+00     1.549E+00     1.053E+00     0.000E+00     0.000E+00     0.000E+00
X     6.514E+00     1.549E+00     1.549E+00     0.000E+00     0.000E+00     0.000E+00
X     6.514E+00     1.549E+00     2.045E+00     0.000E+00     0.000E+00     0.000E+00
X     6.514E+00     1.549E+00     2.540E+00     0.000E+00     0.000E+00     0.000E+00
X     6.514E+00     1.549E+00     3.036E+00     0.000E+00     0.000E+00     0.000E+00
X     6.514E+00     1.549E+00     3.531E+00     0.000E+00     0.000E+00     0.000E+00
X     6.514E+00     1.549E+00     4.027E+00     0.000E+00     0.000E+00     0.000E+00
X     6.514E+00     1.549E+00     4.523E+00     0.000E+00     0.000E+00     0.000E+00
X     6.514E+00     2.045E+00    -4.895E+00     0.000E+00     0.000E+00     0.000E+00
X     6.514E+00     2.045E+00    -4.399E+00     0.000E+00     0.000E+00     0.000E+00
X     6.514E+00     2.045E+00    -3.903E+00     0.000E+00     0.000E+00     0.000E+00
X     6.514E+00     2.045E+00    -3.408E+00     0.000E+00     0.000E+00     0.000E+00
X     6.514E+00     2.045E+00    -2.912E+00     0.000E+00     0.000E+00     0.000E+00
X     6.514E+00     2.045E+00    -2.416E+00     0.000E+00     0.000E+00     0.000E+00
X     6.514E+00     2.045E+00    -1.921E+00     0.000E+00     0.000E+00     0.000E+00
X     6.514E+00     2.045E+00    -1.425E+00     0.000E+00     0.000E+00     0.000E+00
X     6.514E+00     2.045E+00    -9.293E-01     0.000E+00     0.000E+00     0.000E+00
X     6.514E+00     2.045E+00    -4.337E-01     0.000E+00     0.000E+00     0.000E+00
X     6.514E+00     2.045E+00     6.196E-02     0.000E+00     0.000E+00     0.000E+00
X     6.514E+00     2.045E+00     5.576E-01     0.000E+00     0.000E+00     0.000E+00
X     6.514E+00     2.045E+00     1.053E+00     0.000E+00     0.000E+00     0.000E+00
X     6.514E+00     2.045E+00     1.549E+00     0.000E+00     0.000E+00     0.000E+00
X     6.514E+00     2.045E+00     2.045E+00     0.000E+00     0.000E+00     0.000E+00
X     6.514E+00     2.045E+00     2.540E+00     0.000E+00     0.000E+00     0.000E+00
X     6.514E+00     2.045E+00     3.036E+00     0.000E+00     0.000E+00     0.000E+00
X     6.514E+00     2.045E+00     3.531E+00     0.000E+00     0.000E+00     0.000E+00
X     6.514E+00     2.045E+00     4.027E+00     0.000E+00     0.000E+00     0.000E+00
X     6.514E+00     2.045E+00     4.523E+00     0.000E+00     0.000E+00     0.000E+00
X     6.514E+00     2.540E+00    -4.895E+00     0.000E+00     0.000E+00     0.000E+00
X     6.514E+00     2.540E+00    -4.399E+00     0.000E+00     0.000E+00     0.000E+00
X     6.514E+00     2.540E+00    -3.903E+00     0.000E+00     0.000E+00     0.000E+00
X     6.514E+00     2.540E+00    -3.408E+00     0.000E+00     0.000E+00     0.000E+00
X     6.514E+00     2.540E+00    -2.912E+00     0.000E+00     0.000E+00     0.000E+00
X     6.514E+00     2.540E+00    -2.416E+00     0.000E+00     0.000E+00     0.000E+00
X     6.514E+00     2.540E+00    -1.921E+00     0.000E+00     0.000E+00     0.000E+00
X     6.514E+00     2.540E+00    -1.425E+00     0.000E+00     0.000E+00     0.000E+00
X     6.514E+00     2.540E+00    -9.293E-01     0.000E+00     0.000E+00     0.000E+00
X     6.514E+00     2.540E+00    -4.337E-01     0.000E+00     0.000E+00     0.000E+00
X     6.514E+00     2.540E+00     6.196E-02     0.000E+00     0.000E+00     0.000E+00
X     6.514E+00     2.540E+00     5.576E-01     0.000E+00     0.000E+00     0.000E+00
X     6.514E+00     2.540E+00     1.053E+00     0.000E+00     0.000E+00     0.000E+00
X     6.514E+00     2.540E+00     1.549E+00     0.000E+00     0.000E+00     0.000E+00
X     6.514E+00     2.540E+00     2.045E+00     0.000E+00     0.000E+00     0.000E+00
X     6.514E+00     2.540E+00     2.540E+00     0.000E+00     0.000E+00     0.000E+00
X     6.514E+00     2.540E+00     3.036E+00     0.000E+00     0.000E+00     0.000E+00
X     6.514E+00     2.540E+00     3.531E+00     0.000E+00     0.000E+00     0.000E+00
X     6.514E+00     2.540E+00     4.027E+00     0.000E+00     0.000E+00     0.000E+00
X     6.514E+00     2.540E+00     4.523E+00     0.000E+00     0.000E+00     0.000E+00
X     6.514E+00     3.036E+00    -4.895E+00     0.000E+00     0.000E+00     0.000E+00
X     6.514E+00     3.036E+00    -4.399E+00     0.000E+00     0.000E+00     0.000E+00
X     6.514E+00     3.036E+00    -3.903E+00     0.000E+00     0.000E+00     0.000E+00
X     6.514E+00     3.036E+00    -3.408E+00     0.000E+00     0.000E+00     0.000E+00
X     6.514E+00     3.036E+00    -2.912E+00     0.000E+00     0.000E+00     0.000E+00
X     6.514E+00     3.036E+00    -2.416E+00     0.000E+00     0.000E+00     0.000E+00
X     6.514E+00     3.036E+00    -1.921E+00     0.000E+00     0.000E+00     0.000E+00
X     6.514E+00     3.036E+00    -1.425E+00     0.000E+00     0.000E+00     0.000E+00
X     6.514E+00     3.036E+00    -9.293E-01     0.000E+00     0.000E+00     0.000E+00
X     6.514E+00     3.036E+00    -4.337E-01     0.000E+00     0.000E+00     0.000E+00
X     6.514E+00     3.036E+00     6.196E-02     0.000E+00     0.000E+00     0.000E+00
X     6.514E+00     3.036E+00     5.576E-01     0.000E+00     0.000E+00     0.000E+00
X     6.514E+00     3.036E+00     1.053E+00     0.000E+00     0.000E+00     0.000E+00
X     6.514E+00     3.036E+00     1.549E+00     0.000E+00     0.000E+00     0.000E+00
X     6.514E+00     3.036E+00     2.045E+00     0.000E+00     0.000E+00     0.000E+00
X     6.514E+00     3.036E+00     2.540E+00     0.000E+00     0.000E+00     0.000E+00
X     6.514E+00     3.036E+00     3.036E+00     0.000E+00     0.000E+00     0.000E+00
X     6.514E+00     3.036E+00     3.531E+00     0.000E+00     0.000E+00     0.000E+00
X     6.514E+00     3.036E+00     4.027E+00     0.000E+00     0.000E+00     0.000E+00
X     6.514E+00     3.036E+00     4.523E+00     0.000E+00     0.000E+00     0.000E+00
X     6.514E+00     3.531E+00    -4.895E+00     0.000E+00     0.000E+00     0.000E+00
X     6.514E+00     3.531E+00    -4.399E+00     0.000E+00     0.000E+00     0.000E+00
X     6.514E+00     3.531E+00    -3.903E+00     0.000E+00     0.000E+00     0.000E+00
X     6.514E+00     3.531E+00    -3.408E+00     0.000E+00     0.000E+00     0.000E+00
X     6.514E+00     3.531E+00    -2.912E+00     0.000E+00     0.000E+00     0.000E+00
X     6.514E+00     3.531E+00    -2.416E+00     0.000E+00     0.000E+00     0.000E+00
X     6.514E+00     3.531E+00    -1.921E+00     0.000E+00     0.000E+00     0.000E+00
X     6.514E+00     3.531E+00    -1.425E+00     0.000E+00     0.000E+00     0.000E+00
X     6.514E+00     3.531E+00    -9.293E-01     0.000E+00     0.000E+00     0.000E+00
X     6.514E+00     3.531E+00    -4.337E-01     0.000E+00     0.000E+00     0.000E+00
X     6.514E+00     3.531E+00     6.196E-02     0.000E+00     0.000E+00     0.000E+00
X     6.514E+00     3.531E+00     5.576E-01     0.000E+00     0.000E+00     0.000E+00
X     6.514E+00     3.531E+00     1.053E+00     0.000E+00     0.000E+00     0.000E+00
X     6.514E+00     3.531E+00     1.549E+00     0.000E+00     0.000E+00     0.000E+00
X     6.514E+00     3.531E+00     2.045E+00     0.000E+00     0.000E+00     0.000E+00
X     6.514E+00     3.531E+00     2.540E+00     0.000E+00     0.000E+00     0.000E+00
X     6.514E+00     3.531E+00     3.036E+00     0.000E+00     0.000E+00     0.000E+00
X     6.514E+00     3.531E+00     3.531E+00     0.000E+00     0.000E+00     0.000E+00
X     6.514E+00     3.531E+00     4.027E+00     0.000E+00     0.000E+00     0.000E+00
X     6.514E+00     3.531E+00     4.523E+00     0.000E+00     0.000E+00     0.000E+00
X     6.514E+00     4.027E+00    -4.895E+00     0.000E+00     0.000E+00     0.000E+00
X     6.514E+00     4.027E+00    -4.399E+00     0.000E+00     0.000E+00     0.000E+00
X     6.514E+00     4.027E+00    -3.903E+00     0.000E+00     0.000E+00     0.000E+00
X     6.514E+00     4.027E+00    -3.408E+00     0.000E+00     0.000E+00     0.000E+00
X     6.514E+00     4.027E+00    -2.912E+00     0.000E+00     0.000E+00     0.000E+00
X     6.514E+00     4.027E+00    -2.416E+00     0.000E+00     0.000E+00     0.000E+00
X     6.514E+00     4.027E+00    -1.921E+00     0.000E+00     0.000E+00     0.000E+00
X     6.514E+00     4.027E+00    -1.425E+00     0.000E+00     0.000E+00     0.000E+00
X     6.514E+00     4.027E+00    -9.293E-01     0.000E+00     0.000E+00     0.000E+00
X     6.514E+00     4.027E+00    -4.337E-01     0.000E+00     0.000E+00     0.000E+00
X     6.514E+00     4.027E+00     6.196E-02     0.000E+00     0.000E+00     0.000E+00
X     6.514E+00     4.027E+00     5.576E-01     0.000E+00     0.000E+00     0.000E+00
X     6.514E+00     4.027E+00     1.053E+00     0.000E+00     0.000E+00     0.000E+00
X     6.514E+00     4.027E+00     1.549E+00     0.000E+00     0.000E+00     0.000E+00
X     6.514E+00     4.027E+00     2.045E+00     0.000E+00     0.000E+00     0.000E+00
X     6.514E+00     4.027E+00     2.540E+00     0.000E+00     0.000E+00     0.000E+00
X     6.514E+00     4.027E+00     3.036E+00     0.000E+00     0.000E+00     0.000E+00
X     6.514E+00     4.027E+00     3.531E+00     0.000E+00     0.000E+00     0.000E+00
X     6.514E+00     4.027E+00     4.027E+00     0.000E+00     0.000E+00     0.000E+00
X     6.514E+00     4.027E+00     4.523E+00     0.000E+00     0.000E+00     0.000E+00
X     6.514E+00     4.523E+00    -4.895E+00     0.000E+00     0.000E+00     0.000E+00
X     6.514E+00     4.523E+00    -4.399E+00     0.000E+00     0.000E+00     0.000E+00
X     6.514E+00     4.523E+00    -3.903E+00     0.000E+00     0.000E+00     0.000E+00
X     6.514E+00     4.523E+00    -3.408E+00     0.000E+00     0.000E+00     0.000E+00
X     6.514E+00     4.523E+00    -2.912E+00     0.000E+00     0.000E+00     0.000E+00
X     6.514E+00     4.523E+00    -2.416E+00     0.000E+00     0.000E+00     0.000E+00
X     6.514E+00     4.523E+00    -1.921E+00     0.000E+00     0.000E+00     0.000E+00
X     6.514E+00     4.523E+00    -1.425E+00     0.000E+00     0.000E+00     0.000E+00
X     6.514E+00     4.523E+00    -9.293E-01     0.000E+00     0.000E+00     0.000E+00
X     6.514E+00     4.523E+00    -4.337E-01     0.000E+00     0.000E+00     0.000E+00
X     6.514E+00     4.523E+00     6.196E-02     0.000E+00     0.000E+00     0.000E+00
X     6.514E+00     4.523E+00     5.576E-01     0.000E+00     0.000E+00     0.000E+00
X     6.514E+00     4.523E+00     1.053E+00     0.000E+00     0.000E+00     0.000E+00
X     6.514E+00     4.523E+00     1.549E+00     0.000E+00     0.000E+00     0.000E+00
X     6.514E+00     4.523E+00     2.045E+00     0.000E+00     0.000E+00     0.000E+00
X     6.514E+00     4.523E+00     2.540E+00     0.000E+00     0.000E+00     0.000E+00
X     6.514E+00     4.523E+00     3.036E+00     0.000E+00     0.000E+00     0.000E+00
X     6.514E+00     4.523E+00     3.531E+00     0.000E+00     0.000E+00     0.000E+00
X     6.514E+00     4.523E+00     4.027E+00     0.000E+00     0.000E+00     0.000E+00
X     6.514E+00     4.523E+00     4.523E+00     0.000E+00     0.000E+00     0.000E+00
