CRYSTAL
PRIMVEC
   2.825000   2.825000   0.000000
   2.825000   0.000000   2.825000
   0.000000   2.825000   2.825000
PRIMCOORD
 218 1
Ga   -0.00000  -0.00000  -0.00000   0.0 0.0 0.0
As    1.41250   1.41250   1.41250   0.0 0.0 0.0
X    -2.001E+00    -2.001E+00    -2.001E+00     1.426E-15     0.000E+00    -2.952E-14
X    -2.001E+00    -1.530E+00    -1.530E+00     1.405E-15     0.000E+00    -7.611E-14
X    -2.001E+00    -1.059E+00    -1.059E+00     2.048E-16     0.000E+00    -6.049E-14
X    -2.001E+00    -5.885E-01    -5.885E-01     4.065E-16     0.000E+00    -1.436E-14
X    -2.001E+00    -1.177E-01    -1.177E-01     6.974E-15     0.000E+00     4.270E-31
X    -2.001E+00     3.531E-01     3.531E-01     4.882E-16     0.000E+00    -1.202E-14
X    -1.530E+00    -2.001E+00    -1.530E+00     3.806E-15     0.000E+00     2.330E-31
X    -1.530E+00    -1.530E+00    -1.059E+00     2.129E-15     0.000E+00    -1.040E-14
X    -1.530E+00    -1.059E+00    -5.885E-01     3.250E-15     0.000E+00    -2.519E-14
X    -1.530E+00    -5.885E-01    -1.177E-01     2.780E-15     0.000E+00    -8.725E-14
X    -1.530E+00    -1.177E-01     3.531E-01     2.145E-15     0.000E+00    -1.108E-13
X    -1.530E+00     3.531E-01     8.240E-01     2.650E-15     0.000E+00    -5.299E-14
X    -1.059E+00    -2.001E+00    -1.059E+00     1.198E-15     0.000E+00     1.895E-14
X    -1.059E+00    -1.530E+00    -5.885E-01     4.053E-15     0.000E+00    -1.196E-14
X    -1.059E+00    -1.059E+00    -1.177E-01     6.873E-15     0.000E+00    -1.334E-13
X    -1.059E+00    -5.885E-01     3.531E-01     3.076E-15     0.000E+00    -2.519E-13
X    -1.059E+00    -1.177E-01     8.240E-01     4.767E-15     0.000E+00    -2.071E-13
X    -1.059E+00     3.531E-01     1.295E+00     2.894E-15     0.000E+00    -4.911E-14
X    -5.885E-01    -2.001E+00    -5.885E-01     1.172E-15     0.000E+00     2.030E-14
X    -5.885E-01    -1.530E+00    -1.177E-01     6.520E-15     0.000E+00    -7.960E-14
X    -5.885E-01    -1.059E+00     3.531E-01    -1.066E-14    -2.547E-15    -3.012E-13
X    -5.885E-01    -5.885E-01     8.240E-01     2.995E-15     0.000E+00    -3.674E-13
X    -5.885E-01    -1.177E-01     1.295E+00     3.811E-15     0.000E+00    -1.470E-13
X    -5.885E-01     3.531E-01     1.766E+00     5.116E-15     0.000E+00     3.132E-31
X    -1.177E-01    -2.001E+00    -1.177E-01     8.913E-15     0.000E+00     5.458E-31
X    -1.177E-01    -1.530E+00     3.531E-01     6.777E-15     0.000E+00    -1.752E-13
X    -1.177E-01    -1.059E+00     8.240E-01     8.041E-15     0.000E+00    -4.023E-13
X    -1.177E-01    -5.885E-01     1.295E+00     3.205E-16     0.000E+00    -2.757E-13
X    -1.177E-01    -1.177E-01     1.766E+00     3.352E-15     0.000E+00    -3.682E-14
X    -1.177E-01     3.531E-01     2.236E+00     1.229E-15     0.000E+00     3.170E-14
X     3.531E-01    -2.001E+00     3.531E-01     2.182E-15     0.000E+00    -2.873E-14
X     3.531E-01    -1.530E+00     8.240E-01     3.388E-15     0.000E+00    -1.655E-13
X     3.531E-01    -1.059E+00     1.295E+00     8.225E-16     0.000E+00    -2.065E-13
X     3.531E-01    -5.885E-01     1.766E+00     2.313E-15     0.000E+00    -7.413E-14
X     3.531E-01    -1.177E-01     2.236E+00     2.061E-15     0.000E+00     1.630E-14
X     3.531E-01     3.531E-01     2.707E+00     1.217E-15     0.000E+00     2.690E-14
X    -1.530E+00    -1.530E+00    -2.001E+00     8.128E-15     0.000E+00     4.977E-31
X    -1.530E+00    -1.059E+00    -1.530E+00     1.402E-15     0.000E+00    -1.545E-14
X    -1.530E+00    -5.885E-01    -1.059E+00     2.771E-15     0.000E+00    -1.938E-14
X    -1.530E+00    -1.177E-01    -5.885E-01     3.803E-15     0.000E+00    -1.001E-13
X    -1.530E+00     3.531E-01    -1.177E-01     3.120E-15     0.000E+00    -1.377E-13
X    -1.530E+00     8.240E-01     3.531E-01     2.884E-15     0.000E+00    -6.887E-14
X    -1.059E+00    -1.530E+00    -1.530E+00     1.532E-15     0.000E+00     3.642E-14
X    -1.059E+00    -1.059E+00    -1.059E+00     1.997E-15     0.000E+00     2.622E-14
X    -1.059E+00    -5.885E-01    -5.885E-01     1.897E-15     0.000E+00    -1.321E-13
X    -1.059E+00    -1.177E-01    -1.177E-01     4.260E-15     0.000E+00    -3.704E-13
X    -1.059E+00     3.531E-01     3.531E-01     2.726E-15     0.000E+00    -3.555E-13
X    -1.059E+00     8.240E-01     8.240E-01     2.493E-16     0.000E+00    -5.268E-14
X    -5.885E-01    -1.530E+00    -1.059E+00     9.798E-16     0.000E+00     1.212E-13
X    -5.885E-01    -1.059E+00    -5.885E-01     1.079E-15     0.000E+00     1.659E-13
X    -5.885E-01    -5.885E-01    -1.177E-01     5.479E-15     0.000E+00     1.664E-13
X    -5.885E-01    -1.177E-01     3.531E-01     2.636E-15     0.000E+00     6.713E-13
X    -5.885E-01     3.531E-01     8.240E-01     3.497E-15     0.000E+00     2.141E-31
X    -5.885E-01     8.240E-01     1.295E+00     1.031E-15     0.000E+00     1.142E-13
X    -1.177E-01    -1.530E+00    -5.885E-01     2.355E-15     0.000E+00     1.792E-13
X    -1.177E-01    -1.059E+00    -1.177E-01     4.561E-15     0.000E+00     1.600E-13
X    -1.177E-01    -5.885E-01     3.531E-01    -1.002E-14     5.254E-15    -3.523E-13
X    -1.177E-01    -1.177E-01     8.240E-01    -1.041E-14    -1.674E-15    -2.135E-13
X    -1.177E-01     3.531E-01     1.295E+00     1.349E-15     0.000E+00     1.761E-13
X    -1.177E-01     8.240E-01     1.766E+00     1.257E-15     0.000E+00     1.028E-13
X     3.531E-01    -1.530E+00    -1.177E-01     5.520E-15     0.000E+00     1.126E-13
X     3.531E-01    -1.059E+00     3.531E-01     5.667E-15     0.000E+00    -1.992E-13
X     3.531E-01    -5.885E-01     8.240E-01     7.621E-15     0.000E+00    -4.956E-13
X     3.531E-01    -1.177E-01     1.295E+00     9.121E-15     0.000E+00     5.585E-31
X     3.531E-01     3.531E-01     1.766E+00     4.511E-15     0.000E+00     8.740E-14
X     3.531E-01     8.240E-01     2.236E+00     4.678E-15     0.000E+00     3.121E-14
X     8.240E-01    -1.530E+00     3.531E-01     3.247E-15     0.000E+00     2.422E-14
X     8.240E-01    -1.059E+00     8.240E-01     1.465E-15     0.000E+00    -7.550E-14
X     8.240E-01    -5.885E-01     1.295E+00     3.417E-15     0.000E+00    -3.243E-14
X     8.240E-01    -1.177E-01     1.766E+00     5.330E-15     0.000E+00     4.242E-14
X     8.240E-01     3.531E-01     2.236E+00     4.190E-15     0.000E+00     9.379E-14
X     8.240E-01     8.240E-01     2.707E+00     6.317E-15     0.000E+00     5.189E-14
X    -1.059E+00    -1.059E+00    -2.001E+00     1.741E-15     0.000E+00     1.164E-14
X    -1.059E+00    -5.885E-01    -1.530E+00     3.604E-15     0.000E+00    -1.721E-14
X    -1.059E+00    -1.177E-01    -1.059E+00     6.363E-15     0.000E+00    -1.602E-13
X    -1.059E+00     3.531E-01    -5.885E-01     7.732E-15     0.000E+00    -3.484E-13
X    -1.059E+00     8.240E-01    -1.177E-01     8.618E-15     0.000E+00    -2.687E-13
X    -1.059E+00     1.295E+00     3.531E-01     4.791E-15     0.000E+00    -6.043E-14
X    -5.885E-01    -1.059E+00    -1.530E+00     2.980E-15     0.000E+00     1.182E-13
X    -5.885E-01    -5.885E-01    -1.059E+00     1.087E-15     0.000E+00     1.745E-13
X    -5.885E-01    -1.177E-01    -5.885E-01     1.157E-14     1.443E-16     2.008E-13
X    -5.885E-01     3.531E-01    -1.177E-01     6.422E-15     0.000E+00     3.945E-13
X    -5.885E-01     8.240E-01     3.531E-01     3.501E-15     0.000E+00    -2.850E-14
X    -5.885E-01     1.295E+00     8.240E-01     2.471E-15     0.000E+00     1.205E-13
X    -1.177E-01    -1.059E+00    -1.059E+00     1.813E-15     0.000E+00     3.395E-13
X    -1.177E-01    -5.885E-01    -5.885E-01     1.059E-14    -1.348E-15     9.567E-13
X    -1.177E-01    -1.177E-01    -1.177E-01     3.511E-15     0.000E+00     5.977E-13
X    -1.177E-01     3.531E-01     3.531E-01     4.632E-15     0.000E+00     6.963E-13
X    -1.177E-01     8.240E-01     8.240E-01     5.615E-15     0.000E+00     4.923E-13
X    -1.177E-01     1.295E+00     1.295E+00     3.505E-15     0.000E+00     1.020E-13
X     3.531E-01    -1.059E+00    -5.885E-01     1.088E-14    -1.987E-15     4.245E-13
X     3.531E-01    -5.885E-01    -1.177E-01     2.260E-15     0.000E+00    -1.697E-13
X     3.531E-01    -1.177E-01     3.531E-01    -1.232E-14     5.470E-15    -1.407E-12
X     3.531E-01     3.531E-01     8.240E-01     7.657E-15     0.000E+00     4.896E-13
X     3.531E-01     8.240E-01     1.295E+00     2.064E-15     0.000E+00    -8.649E-14
X     3.531E-01     1.295E+00     1.766E+00     2.046E-15     0.000E+00    -4.471E-13
X     8.240E-01    -1.059E+00    -1.177E-01     9.492E-15    -3.977E-15     2.006E-13
X     8.240E-01    -5.885E-01     3.531E-01     5.726E-15     0.000E+00     1.702E-13
X     8.240E-01    -1.177E-01     8.240E-01     7.140E-15     0.000E+00     2.207E-13
X     8.240E-01     3.531E-01     1.295E+00     5.479E-15     8.675E-15    -5.388E-14
X     8.240E-01     8.240E-01     1.766E+00     8.170E-15     0.000E+00     2.955E-13
X     8.240E-01     1.295E+00     2.236E+00     9.467E-15    -7.275E-15    -1.728E-13
X     1.295E+00    -1.059E+00     3.531E-01     4.230E-15     0.000E+00     4.773E-14
X     1.295E+00    -5.885E-01     8.240E-01     2.952E-15     0.000E+00     4.489E-14
X     1.295E+00    -1.177E-01     1.295E+00     9.114E-15     0.000E+00     5.581E-31
X     1.295E+00     3.531E-01     1.766E+00     4.242E-15     9.440E-15     2.034E-13
X     1.295E+00     8.240E-01     2.236E+00     9.381E-15     0.000E+00     5.303E-13
X     1.295E+00     1.295E+00     2.707E+00     9.306E-15    -1.020E-14    -1.872E-14
X    -5.885E-01    -5.885E-01    -2.001E+00     8.869E-15     0.000E+00     5.431E-31
X    -5.885E-01    -1.177E-01    -1.530E+00     4.787E-15     0.000E+00    -8.428E-14
X    -5.885E-01     3.531E-01    -1.059E+00     7.447E-15     0.000E+00    -3.098E-13
X    -5.885E-01     8.240E-01    -5.885E-01     1.095E-14     1.600E-15    -3.888E-13
X    -5.885E-01     1.295E+00    -1.177E-01     7.679E-15     0.000E+00    -1.683E-13
X    -5.885E-01     1.766E+00     3.531E-01     4.914E-15     0.000E+00     3.009E-31
X    -1.177E-01    -5.885E-01    -1.530E+00     3.057E-15     0.000E+00     1.722E-13
X    -1.177E-01    -1.177E-01    -1.059E+00     9.967E-15     0.000E+00     2.481E-13
X    -1.177E-01     3.531E-01    -5.885E-01     1.579E-14    -2.920E-15    -1.194E-13
X    -1.177E-01     8.240E-01    -1.177E-01     5.524E-15     0.000E+00    -1.274E-13
X    -1.177E-01     1.295E+00     3.531E-01     4.161E-15     0.000E+00     1.641E-13
X    -1.177E-01     1.766E+00     8.240E-01     5.684E-15     0.000E+00     7.894E-14
X     3.531E-01    -5.885E-01    -1.059E+00     3.692E-15     0.000E+00     4.309E-13
X     3.531E-01    -1.177E-01    -5.885E-01     1.445E-14    -6.522E-15    -2.415E-13
X     3.531E-01     3.531E-01    -1.177E-01     3.544E-15     0.000E+00    -1.905E-12
X     3.531E-01     8.240E-01     3.531E-01     9.966E-15     0.000E+00     5.290E-13
X     3.531E-01     1.295E+00     8.240E-01     8.990E-15     0.000E+00    -1.659E-13
X     3.531E-01     1.766E+00     1.295E+00     8.949E-15     0.000E+00    -5.415E-13
X     8.240E-01    -5.885E-01    -5.885E-01     8.702E-15     0.000E+00     3.941E-13
X     8.240E-01    -1.177E-01    -1.177E-01     2.059E-15     0.000E+00     1.338E-13
X     8.240E-01     3.531E-01     3.531E-01     9.462E-15     0.000E+00     5.269E-13
X     8.240E-01     8.240E-01     8.240E-01     7.972E-16     0.000E+00    -3.563E-13
X     8.240E-01     1.295E+00     1.295E+00     4.258E-15     0.000E+00     3.226E-12
X     8.240E-01     1.766E+00     1.766E+00     8.761E-15     0.000E+00    -3.973E-13
X     1.295E+00    -5.885E-01    -1.177E-01     5.309E-15     0.000E+00     1.870E-13
X     1.295E+00    -1.177E-01     3.531E-01     4.549E-15     0.000E+00     2.645E-13
X     1.295E+00     3.531E-01     8.240E-01     7.907E-15     0.000E+00    -1.836E-13
X     1.295E+00     8.240E-01     1.295E+00     7.165E-15     0.000E+00     4.401E-13
X     1.295E+00     1.295E+00     1.766E+00    -1.570E-14     3.838E-17     5.971E-12
X     1.295E+00     1.766E+00     2.236E+00     9.247E-15     0.000E+00    -7.753E-13
X     1.766E+00    -5.885E-01     3.531E-01     6.807E-15     0.000E+00     4.168E-31
X     1.766E+00    -1.177E-01     8.240E-01     4.772E-15     0.000E+00    -6.195E-14
X     1.766E+00     3.531E-01     1.295E+00    -2.701E-15     9.664E-15     6.280E-16
X     1.766E+00     8.240E-01     1.766E+00     4.153E-15     0.000E+00     6.403E-13
X     1.766E+00     1.295E+00     2.236E+00     1.000E-14    -1.296E-14     1.758E-13
X     1.766E+00     1.766E+00     2.707E+00     6.630E-15    -8.525E-15    -8.188E-14
X    -1.177E-01    -1.177E-01    -2.001E+00     7.814E-15     0.000E+00     4.785E-31
X    -1.177E-01     3.531E-01    -1.530E+00     3.827E-15     0.000E+00    -1.474E-13
X    -1.177E-01     8.240E-01    -1.059E+00     4.516E-15     0.000E+00    -3.175E-13
X    -1.177E-01     1.295E+00    -5.885E-01     5.536E-15     0.000E+00    -2.271E-13
X    -1.177E-01     1.766E+00    -1.177E-01     3.009E-15     0.000E+00    -4.667E-14
X    -1.177E-01     2.236E+00     3.531E-01     2.896E-15     0.000E+00     2.998E-14
X     3.531E-01    -1.177E-01    -1.530E+00     3.981E-15     0.000E+00     1.229E-13
X     3.531E-01     3.531E-01    -1.059E+00     5.086E-15     0.000E+00    -8.571E-14
X     3.531E-01     8.240E-01    -5.885E-01     2.407E-15     0.000E+00    -3.233E-13
X     3.531E-01     1.295E+00    -1.177E-01     3.788E-15     0.000E+00     5.019E-14
X     3.531E-01     1.766E+00     3.531E-01     7.570E-15     0.000E+00     4.433E-14
X     3.531E-01     2.236E+00     8.240E-01     6.835E-15     0.000E+00    -9.349E-15
X     8.240E-01    -1.177E-01    -1.059E+00     2.003E-15     0.000E+00     2.308E-13
X     8.240E-01     3.531E-01    -5.885E-01     4.298E-15     0.000E+00     2.097E-13
X     8.240E-01     8.240E-01    -1.177E-01     6.376E-15     0.000E+00     2.929E-13
X     8.240E-01     1.295E+00     3.531E-01    -5.712E-15    -8.337E-15    -8.348E-14
X     8.240E-01     1.766E+00     8.240E-01     8.958E-15     0.000E+00     1.569E-13
X     8.240E-01     2.236E+00     1.295E+00    -6.022E-15     1.251E-14    -4.690E-13
X     1.295E+00    -1.177E-01    -5.885E-01     1.249E-15     0.000E+00     2.255E-13
X     1.295E+00     3.531E-01    -1.177E-01     3.160E-15     0.000E+00     3.078E-13
X     1.295E+00     8.240E-01     3.531E-01     4.941E-15     0.000E+00    -1.687E-13
X     1.295E+00     1.295E+00     8.240E-01     2.112E-14    -1.877E-14     9.338E-13
X     1.295E+00     1.766E+00     1.295E+00     9.710E-15     0.000E+00     4.675E-12
X     1.295E+00     2.236E+00     1.766E+00     3.637E-15     1.703E-14    -8.734E-13
X     1.766E+00    -1.177E-01    -1.177E-01     7.324E-16     0.000E+00     4.790E-14
X     1.766E+00     3.531E-01     3.531E-01     2.959E-15     0.000E+00    -9.247E-14
X     1.766E+00     8.240E-01     8.240E-01     8.251E-15     0.000E+00    -6.230E-13
X     1.766E+00     1.295E+00     1.295E+00     2.045E-14     3.848E-16    -1.151E-11
X     1.766E+00     1.766E+00     1.766E+00     4.144E-15     0.000E+00    -3.005E-12
X     1.766E+00     2.236E+00     2.236E+00     5.568E-15     0.000E+00    -2.460E-13
X     2.236E+00    -1.177E-01     3.531E-01     1.878E-15     0.000E+00    -3.450E-14
X     2.236E+00     3.531E-01     8.240E-01     6.435E-15     0.000E+00    -1.095E-13
X     2.236E+00     8.240E-01     1.295E+00     9.675E-15     0.000E+00     4.261E-13
X     2.236E+00     1.295E+00     1.766E+00     7.908E-15     0.000E+00     6.349E-13
X     2.236E+00     1.766E+00     2.236E+00     7.676E-15    -6.914E-15     1.035E-13
X     2.236E+00     2.236E+00     2.707E+00     3.824E-15     0.000E+00    -4.795E-14
X     3.531E-01     3.531E-01    -2.001E+00     3.364E-15     0.000E+00    -2.328E-14
X     3.531E-01     8.240E-01    -1.530E+00     2.805E-15     0.000E+00    -1.399E-13
X     3.531E-01     1.295E+00    -1.059E+00     9.549E-16     0.000E+00    -1.762E-13
X     3.531E-01     1.766E+00    -5.885E-01     1.987E-15     0.000E+00    -7.361E-14
X     3.531E-01     2.236E+00    -1.177E-01     2.017E-15     0.000E+00     1.334E-14
X     3.531E-01     2.707E+00     3.531E-01     2.638E-15     0.000E+00     2.820E-14
X     8.240E-01     3.531E-01    -1.530E+00     3.727E-15     0.000E+00     4.179E-14
X     8.240E-01     8.240E-01    -1.059E+00     2.372E-15     0.000E+00    -2.612E-14
X     8.240E-01     1.295E+00    -5.885E-01     3.037E-15     0.000E+00    -1.130E-14
X     8.240E-01     1.766E+00    -1.177E-01     5.735E-15     0.000E+00     2.657E-14
X     8.240E-01     2.236E+00     3.531E-01     4.226E-15     0.000E+00     7.281E-14
X     8.240E-01     2.707E+00     8.240E-01     5.221E-15     0.000E+00     3.280E-14
X     1.295E+00     3.531E-01    -1.059E+00     2.873E-15     0.000E+00     8.754E-14
X     1.295E+00     8.240E-01    -5.885E-01     3.867E-15     0.000E+00     9.078E-14
X     1.295E+00     1.295E+00    -1.177E-01     8.250E-15     0.000E+00     8.043E-15
X     1.295E+00     1.766E+00     3.531E-01     1.397E-15    -1.345E-14     2.261E-13
X     1.295E+00     2.236E+00     8.240E-01     8.596E-15     0.000E+00     4.443E-13
X     1.295E+00     2.707E+00     1.295E+00     5.471E-16     1.025E-14    -3.843E-14
X     1.766E+00     3.531E-01    -5.885E-01     1.132E-15     0.000E+00     4.625E-14
X     1.766E+00     8.240E-01    -1.177E-01     5.481E-15     0.000E+00    -3.701E-14
X     1.766E+00     1.295E+00     3.531E-01    -3.919E-15    -1.522E-14    -4.316E-14
X     1.766E+00     1.766E+00     8.240E-01     1.247E-14    -1.413E-14     3.125E-13
X     1.766E+00     2.236E+00     1.295E+00     1.348E-14     1.064E-14     4.164E-13
X     1.766E+00     2.707E+00     1.766E+00     6.912E-15     0.000E+00    -3.577E-14
X     2.236E+00     3.531E-01    -1.177E-01     2.086E-15     0.000E+00    -2.987E-14
X     2.236E+00     8.240E-01     3.531E-01     8.708E-15     0.000E+00    -1.090E-13
X     2.236E+00     1.295E+00     8.240E-01    -9.408E-15    -1.290E-14     3.280E-13
X     2.236E+00     1.766E+00     1.295E+00     8.025E-15     0.000E+00     6.767E-13
X     2.236E+00     2.236E+00     1.766E+00     7.073E-15     0.000E+00     1.551E-13
X     2.236E+00     2.707E+00     2.236E+00     2.551E-15     0.000E+00    -3.622E-14
X     2.707E+00     3.531E-01     3.531E-01     3.173E-15     0.000E+00    -4.988E-14
X     2.707E+00     8.240E-01     8.240E-01     6.066E-15     0.000E+00    -7.398E-14
X     2.707E+00     1.295E+00     1.295E+00     4.690E-15     0.000E+00     1.663E-13
X     2.707E+00     1.766E+00     1.766E+00     3.776E-15     0.000E+00     1.008E-13
X     2.707E+00     2.236E+00     2.236E+00     3.546E-15     0.000E+00    -4.953E-14
X     2.707E+00     2.707E+00     2.707E+00     7.803E-15     0.000E+00     4.778E-31
