10 

C   -0.55502  -0.05167   0.35409   0.013213617355594  -0.035526076213781   0.017644855953026
C    0.81500  -0.46585  -0.13783   0.101173026818692   0.025619533666190  -0.006010510662490
O    0.86860  -1.67958  -0.73136   0.157481082186912   0.099501152454906   0.015955313404470
N   -0.89697   1.28481  -0.17674  -0.013730506898844   0.060478002033249   0.073697546902756
H   -1.33580  -0.76012   0.00834   0.044347729080077   0.048585573284942   0.022292380987029
H   -0.54756  -0.10941   1.46450  -0.004696083446403   0.009474162036695  -0.075939460319127
O    1.87096   0.13365  -0.04595  -0.183595201311726  -0.133906146047301  -0.028370824403541
H    1.75863  -1.86736  -1.01311  -0.132090727849482   0.021931521149931   0.038657845606071
H   -1.77844   1.56501   0.19676   0.094313691484559  -0.028617534754765  -0.034154804006355
H   -0.19940   1.95052   0.08130  -0.076865423871908  -0.067873886046899  -0.023520741159942
