54

C -3.46000 -3.58000 -3.55000
C -2.67000 -2.67000 -2.67000
C -3.46000 -1.80000 -1.77000
C -2.67000 -0.89000 -0.89000
C -3.46000 -0.02000  0.01000
C -2.67000  0.89000  0.89000
C -1.68000 -3.58000 -1.77000
C -0.89000 -2.67000 -0.89000
C -1.68000 -1.80000  0.01000
C -0.89000 -0.89000  0.89000
C -1.68000 -0.02000  1.79000
C -0.89000  0.89000  2.67000
C  0.10000 -3.58000  0.01000
C  0.89000 -2.67000  0.89000
C  0.10000 -1.80000  1.79000
C  0.89000 -0.89000  2.67000
C  0.10000 -0.02000  3.57000
C  0.89000  0.89000  4.45000
C -1.68000 -1.80000 -3.55000
C -0.89000 -0.89000 -2.67000
C -1.68000 -0.02000 -1.77000
C -0.89000  0.89000 -0.89000
C -1.68000  1.76000  0.01000
C -0.89000  2.67000  0.89000
C  0.10000 -1.80000 -1.77000
C  0.89000 -0.89000 -0.89000
C  0.10000 -0.02000  0.01000
C  0.89000  0.89000  0.89000
C  0.10000  1.76000  1.79000
C  0.89000  2.67000  2.67000
C  1.88000 -1.80000  0.01000
C  2.67000 -0.89000  0.89000
C  1.88000 -0.02000  1.79000
C  2.67000  0.89000  2.67000
C  1.88000  1.76000  3.57000
C  2.67000  2.67000  4.45000
C  0.10000 -0.02000 -3.55000
C  0.89000  0.89000 -2.67000
C  0.10000  1.76000 -1.77000
C  0.89000  2.67000 -0.89000
C  0.10000  3.54000  0.01000
C  0.89000  4.45000  0.89000
C  1.88000 -0.02000 -1.77000
C  2.67000  0.89000 -0.89000
C  1.88000  1.76000  0.01000
C  2.67000  2.67000  0.89000
C  1.88000  3.54000  1.79000
C  2.67000  4.45000  2.67000
C  3.66000 -0.02000  0.01000
C  4.45000  0.89000  0.89000
C  3.66000  1.76000  1.79000
C  4.45000  2.67000  2.67000
C  3.66000  3.54000  3.57000
C  4.45000  4.45000  4.45000
