512 

Si    0.67887   0.67888   0.67887   0.000000287808262   0.000000287808263   0.000000281666300
Si    3.39437   0.67888   3.39437  -0.000000301263359   0.000008739305188  -0.000000300153460
Si    0.67887   3.39438   3.39437   0.000008739305349  -0.000000301263394  -0.000000300153554
Si    3.39437   3.39438   0.67887  -0.000000304035039  -0.000000304034994   0.000008743777955
Si    4.75212   2.03662   2.03662   0.000006174500917  -0.000004995986159  -0.000004988096635
Si    4.75212   4.75212   4.75212  -0.000001386600215  -0.000001386600177  -0.000001396098053
Si    2.03662   2.03662   4.75212  -0.000005003844497  -0.000005003844611   0.000006163763653
Si    2.03662   4.75212   2.03662  -0.000004995985879   0.000006174501004  -0.000004988096568
Si    0.67887   0.67888   6.10987  -0.000003885457139  -0.000003885457149   0.000006583521805
Si    3.39437   0.67888   8.82537  -0.000000014672045   0.000003014234018  -0.000002137413834
Si    0.67887   3.39438   8.82537   0.000003014234047  -0.000000014672092  -0.000002137413814
Si    3.39437   3.39438   6.10987   0.000000077412382   0.000000077412526   0.000004295589144
Si    4.75212   2.03662   7.46762   0.000001799745686   0.000008992283178  -0.000003068043193
Si    4.75212   4.75212  10.18313  -0.000002301510122  -0.000002301510110   0.000007467469454
Si    2.03662   2.03662  10.18313  -0.000001858939093  -0.000001858939131   0.000005185788238
Si    2.03662   4.75212   7.46762   0.000008992283465   0.000001799745789  -0.000003068043224
Si    0.67887   0.67888  11.54087   0.000001773573793   0.000001773573470   0.000004589255467
Si    3.39437   0.67888  14.25638   0.000001378994341   0.000004542293171   0.000000848716643
Si    0.67887   3.39438  14.25638   0.000004542293342   0.000001378994214   0.000000848716881
Si    3.39437   3.39438  11.54087   0.000004014460520   0.000004014460376  -0.000005766520580
Si    4.75212   2.03662  12.89862  -0.000003103307784  -0.000003493725707   0.000002217016898
Si    4.75212   4.75212  15.61412  -0.000000438577903  -0.000000438578092   0.000000624127501
Si    2.03662   2.03662  15.61412   0.000002688290458   0.000002688290457  -0.000006644933291
Si    2.03662   4.75212  12.89862  -0.000003493725547  -0.000003103307722   0.000002217016860
Si    0.67887   0.67888  16.97187  -0.000000480289726  -0.000000480290069   0.000001530405880
Si    3.39437   0.67888  19.68737  -0.000004818928358  -0.000001247321644  -0.000001210063813
Si    0.67887   3.39438  19.68737  -0.000001247321749  -0.000004818928316  -0.000001210063665
Si    3.39437   3.39438  16.97187   0.000000597311492   0.000000597311445  -0.000003536488551
Si    4.75212   2.03662  18.32963   0.000000696128286   0.000004149219499   0.000000658568771
Si    4.75212   4.75212  21.04512   0.000002607025348   0.000002607025270  -0.000003464472236
Si    2.03662   2.03662  21.04512  -0.000001560472464  -0.000001560472557  -0.000000008247924
Si    2.03662   4.75212  18.32963   0.000004149219650   0.000000696128088   0.000000658568824
Si    0.67887   6.10987   0.67887  -0.000003879274985   0.000006574812168  -0.000003883715307
Si    3.39437   6.10987   3.39437   0.000000069614948   0.000004299459473   0.000000070298311
Si    0.67887   8.82537   3.39437   0.000003010565152  -0.000002139964710  -0.000000005248740
Si    3.39437   8.82537   0.67887  -0.000000006594993  -0.000002134189238   0.000003014889539
Si    4.75212   7.46762   2.03662   0.000001801216773  -0.000003075033207   0.000008988044785
Si    4.75212  10.18313   4.75212  -0.000002299188328   0.000007474100786  -0.000002298794207
Si    2.03662   7.46762   4.75212   0.000008983357618  -0.000003080447037   0.000001799139881
Si    2.03662  10.18313   2.03662  -0.000001870145183   0.000005192123098  -0.000001868898522
Si    0.67887   6.10987   6.10987   0.000001069260102   0.000001180359208   0.000001176285073
Si    3.39437   6.10987   8.82537   0.000005750475023   0.000002243596278   0.000004212394543
Si    0.67887   8.82537   8.82537   0.000000526227708   0.000000591008979   0.000000596678563
Si    3.39437   8.82537   6.10987   0.000005744666040   0.000004214112504   0.000002246765315
Si    4.75212   7.46762   7.46762   0.000000162035874   0.000001757191271   0.000001753506316
Si    4.75212  10.18313  10.18313  -0.000002452195653  -0.000003028953185  -0.000003017679211
Si    2.03662   7.46762  10.18313   0.000002000153039   0.000004857496249  -0.000002432710131
Si    2.03662  10.18313   7.46762   0.000002006374415  -0.000002428406920   0.000004851916410
Si    0.67887   6.10987  11.54087   0.000004688431897  -0.000001695882317  -0.000002388499581
Si    3.39437   6.10987  14.25638  -0.000004054288646   0.000002169620321   0.000005257551505
Si    0.67887   8.82537  14.25638  -0.000001687814561  -0.000000894471674   0.000003040894770
Si    3.39437   8.82537  11.54087  -0.000001175238337  -0.000001146145196  -0.000007856362797
Si    4.75212   7.46762  12.89862   0.000001291427903   0.000006436214387   0.000003267970255
Si    4.75212  10.18313  15.61412  -0.000003341589913   0.000000876736767  -0.000003805673323
Si    2.03662   7.46762  15.61412  -0.000002804803786  -0.000000097438949  -0.000001228407072
Si    2.03662  10.18313  12.89862  -0.000002199332211  -0.000003101142647   0.000000562212877
Si    0.67887   6.10987  16.97187   0.000003741839583   0.000000294762301  -0.000000110577307
Si    3.39437   6.10987  19.68737   0.000000604138786  -0.000004495362059   0.000005005132823
Si    0.67887   8.82537  19.68737  -0.000002825876333   0.000003287519584   0.000000455097735
Si    3.39437   8.82537  16.97187   0.000000634347834  -0.000001562590621   0.000001075703924
Si    4.75212   7.46762  18.32963  -0.000000088563806  -0.000003257386954  -0.000001623808950
Si    4.75212  10.18313  21.04512   0.000005518893419   0.000005002127885  -0.000005117716694
Si    2.03662   7.46762  21.04512  -0.000006184439868  -0.000005164156370   0.000002242701385
Si    2.03662  10.18313  18.32963   0.000002237127307   0.000003226579506  -0.000000141090229
Si    0.67887  11.54087   0.67887   0.000001766741910   0.000004589141047   0.000001764329469
Si    3.39437  11.54087   3.39437   0.000004011768365  -0.000005765393169   0.000004015036318
Si    0.67887  14.25638   3.39437   0.000004540204429   0.000000848668139   0.000001378265938
Si    3.39437  14.25638   0.67887   0.000001379259450   0.000000847393944   0.000004539728036
Si    4.75212  12.89862   2.03662  -0.000003103513378   0.000002211657369  -0.000003492437361
Si    4.75212  15.61412   4.75212  -0.000000438172801   0.000000635131527  -0.000000429862638
Si    2.03662  12.89862   4.75212  -0.000003482956505   0.000002208045766  -0.000003097707675
Si    2.03662  15.61412   2.03662   0.000002693788388  -0.000006638789379   0.000002684260542
Si    0.67887  11.54087   6.10987   0.000004696314262  -0.000002386548380  -0.000001708058887
Si    3.39437  11.54087   8.82537  -0.000001177344413  -0.000007858398732  -0.000001145573579
Si    0.67887  14.25638   8.82537  -0.000001687189442   0.000003037767909  -0.000000897484237
Si    3.39437  14.25638   6.10987  -0.000004054162980   0.000005258236198   0.000002174633460
Si    4.75212  12.89862   7.46762   0.000001291086804   0.000003259539506   0.000006433742464
Si    4.75212  15.61412  10.18313  -0.000003331972674  -0.000003820414368   0.000000879584091
Si    2.03662  12.89862  10.18313  -0.000002212137225   0.000000577549897  -0.000003092289206
Si    2.03662  15.61412   7.46762  -0.000002803893567  -0.000001223541403  -0.000000101133639
Si    0.67887  11.54087  11.54087   0.000004552464143  -0.000003631303326  -0.000003632511221
Si    3.39437  11.54087  14.25638  -0.000004757282407   0.000006692424743  -0.000002435046619
Si    0.67887  14.25638  14.25638   0.000000519451046   0.000001641159394   0.000001644447547
Si    3.39437  14.25638  11.54087  -0.000004762692443  -0.000002431987483   0.000006693379537
Si    4.75212  12.89862  12.89862   0.000000018106047  -0.000001761130887  -0.000001764794323
Si    4.75212  15.61412  15.61412   0.000000292610450  -0.000001615084920  -0.000001616540583
Si    2.03662  12.89862  15.61412   0.000007187426634   0.000000515939501  -0.000000602577491
Si    2.03662  15.61412  12.89862   0.000007179691763  -0.000000609427089   0.000000516033620
Si    0.67887  11.54087  16.97187   0.000005125107060  -0.000004997686111  -0.000005524891260
Si    3.39437  11.54087  19.68737   0.000000133769442  -0.000003226442663  -0.000002242214146
Si    0.67887  14.25638  19.68737  -0.000002253177226   0.000005173683780   0.000006187624777
Si    3.39437  14.25638  16.97187   0.000001622618813   0.000003255841154   0.000000092998821
Si    4.75212  12.89862  18.32963  -0.000001073965197   0.000001568311871  -0.000000646409579
Si    4.75212  15.61412  21.04512   0.000000109971809  -0.000000300002307  -0.000003730983843
Si    2.03662  12.89862  21.04512  -0.000000453064067  -0.000003288480386   0.000002835755352
Si    2.03662  15.61412  18.32963  -0.000005010410780   0.000004495499381  -0.000000615379367
Si    0.67887  16.97187   0.67887  -0.000000465026856   0.000001535557967  -0.000000466705827
Si    3.39437  16.97187   3.39437   0.000000594193745  -0.000003535339982   0.000000600018462
Si    0.67887  19.68737   3.39437  -0.000001252996873  -0.000001213756386  -0.000004828715320
Si    3.39437  19.68737   0.67887  -0.000004824508104  -0.000001213737682  -0.000001249864316
Si    4.75212  18.32963   2.03662   0.000000710484465   0.000000649684400   0.000004144302405
Si    4.75212  21.04512   4.75212   0.000002615342414  -0.000003452270074   0.000002605070803
Si    2.03662  18.32963   4.75212   0.000004143343434   0.000000651453383   0.000000701832283
Si    2.03662  21.04512   2.03662  -0.000001574993166  -0.000000004057117  -0.000001562199459
Si    0.67887  16.97187   6.10987   0.000003735153051  -0.000000107938848   0.000000302274496
Si    3.39437  16.97187   8.82537   0.000000636155395   0.000001076968890  -0.000001558167142
Si    0.67887  19.68737   8.82537  -0.000002831996842   0.000000453331499   0.000003282222097
Si    3.39437  19.68737   6.10987   0.000000614798840   0.000005002543407  -0.000004499684117
Si    4.75212  18.32963   7.46762  -0.000000099235182  -0.000001630970582  -0.000003258291383
Si    4.75212  21.04512  10.18313   0.000005522460602  -0.000005124090393   0.000004994657450
Si    2.03662  18.32963  10.18313   0.000002236874143  -0.000000130315971   0.000003228353243
Si    2.03662  21.04512   7.46762  -0.000006180308110   0.000002239088651  -0.000005167260843
Si    0.67887  16.97187  11.54087   0.000005124090685  -0.000005522460449  -0.000004994657287
Si    3.39437  16.97187  14.25638   0.000001630970493   0.000000099235073   0.000003258291286
Si    0.67887  19.68737  14.25638  -0.000002239088479   0.000006180308136   0.000005167260945
Si    3.39437  19.68737  11.54087   0.000000130315844  -0.000002236874143  -0.000003228353332
Si    4.75212  18.32963  12.89862  -0.000001076968798  -0.000000636155621   0.000001558167125
Si    4.75212  21.04512  15.61412   0.000000107938884  -0.000003735153066  -0.000000302274436
Si    2.03662  18.32963  15.61412  -0.000005002543133  -0.000000614798813   0.000004499684001
Si    2.03662  21.04512  12.89862  -0.000000453331532   0.000002831996900  -0.000003282222022
Si    0.67887  16.97187  16.97187   0.000003452270082  -0.000002615342421  -0.000002605070666
Si    3.39437  16.97187  19.68737  -0.000000649684489  -0.000000710484425  -0.000004144302494
Si    0.67887  19.68737  19.68737   0.000000004057594   0.000001574993447   0.000001562199462
Si    3.39437  19.68737  16.97187  -0.000000651453338  -0.000004143343200  -0.000000701832420
Si    4.75212  18.32963  18.32963   0.000003535339890  -0.000000594193877  -0.000000600018611
Si    4.75212  21.04512  21.04512  -0.000001535557749   0.000000465026932   0.000000466705787
Si    2.03662  18.32963  21.04512   0.000001213737582   0.000004824507919   0.000001249864281
Si    2.03662  21.04512  18.32963   0.000001213756323   0.000001252996738   0.000004828715424
Si    6.10988   0.67888   0.67887   0.000006574812017  -0.000003879274994  -0.000003883715090
Si    8.82537   0.67888   3.39437  -0.000002139964616   0.000003010564869  -0.000000005248823
Si    6.10988   3.39438   3.39437   0.000004299459762   0.000000069614980   0.000000070298357
Si    8.82537   3.39438   0.67887  -0.000002134189010  -0.000000006595038   0.000003014889796
Si   10.18313   2.03662   2.03662   0.000005192123066  -0.000001870145408  -0.000001868898618
Si   10.18313   4.75212   4.75212   0.000007474101102  -0.000002299188737  -0.000002298794124
Si    7.46762   2.03662   4.75212  -0.000003080446926   0.000008983357588   0.000001799139719
Si    7.46762   4.75212   2.03662  -0.000003075033228   0.000001801216545   0.000008988044908
Si    6.10988   0.67888   6.10987   0.000001180359114   0.000001069260078   0.000001176285270
Si    8.82537   0.67888   8.82537   0.000000591008980   0.000000526227679   0.000000596678605
Si    6.10988   3.39438   8.82537   0.000002243596319   0.000005750475153   0.000004212394518
Si    8.82537   3.39438   6.10987   0.000004214112480   0.000005744665997   0.000002246765448
Si   10.18313   2.03662   7.46762  -0.000002428406571   0.000002006374337   0.000004851916105
Si   10.18313   4.75212  10.18313  -0.000003028953012  -0.000002452195817  -0.000003017679512
Si    7.46762   2.03662  10.18313   0.000004857496353   0.000002000152981  -0.000002432710269
Si    7.46762   4.75212   7.46762   0.000001757191433   0.000000162035808   0.000001753506278
Si    6.10988   0.67888  11.54087  -0.000001695882420   0.000004688431733  -0.000002388499141
Si    8.82537   0.67888  14.25638  -0.000000894471774  -0.000001687814896   0.000003040894461
Si    6.10988   3.39438  14.25638   0.000002169620008  -0.000004054288389   0.000005257551567
Si    8.82537   3.39438  11.54087  -0.000001146144986  -0.000001175238587  -0.000007856362749
Si   10.18313   2.03662  12.89862  -0.000003101142926  -0.000002199332259   0.000000562212563
Si   10.18313   4.75212  15.61412   0.000000876737083  -0.000003341589901  -0.000003805673309
Si    7.46762   2.03662  15.61412  -0.000000097438642  -0.000002804803767  -0.000001228407112
Si    7.46762   4.75212  12.89862   0.000006436214622   0.000001291428051   0.000003267970469
Si    6.10988   0.67888  16.97187   0.000000294761919   0.000003741839616  -0.000000110577046
Si    8.82537   0.67888  19.68737   0.000003287519605  -0.000002825875963   0.000000455097832
Si    6.10988   3.39438  19.68737  -0.000004495362159   0.000000604138681   0.000005005132670
Si    8.82537   3.39438  16.97187  -0.000001562590693   0.000000634347851   0.000001075704036
Si   10.18313   2.03662  18.32963   0.000003226579529   0.000002237127069  -0.000000141090532
Si   10.18313   4.75212  21.04512   0.000005002128086   0.000005518893119  -0.000005117716811
Si    7.46762   2.03662  21.04512  -0.000005164156472  -0.000006184439917   0.000002242701270
Si    7.46762   4.75212  18.32963  -0.000003257386898  -0.000000088563791  -0.000001623808743
Si    6.10988   6.10987   0.67887   0.000001169500505   0.000001169500637   0.000001074601908
Si    8.82537   6.10987   3.39437   0.000004219982640   0.000002241881631   0.000005740288212
Si    6.10988   8.82537   3.39437   0.000002241881386   0.000004219983104   0.000005740288313
Si    8.82537   8.82537   0.67887   0.000000602635856   0.000000602635829   0.000000532436547
Si   10.18313   7.46762   2.03662  -0.000002429878336   0.000004862003679   0.000001999104876
Si   10.18313  10.18313   4.75212  -0.000003026527660  -0.000003026527361  -0.000002459826962
Si    7.46762   7.46762   4.75212   0.000001746517511   0.000001746517398   0.000000164878739
Si    7.46762  10.18313   2.03662   0.000004862003747  -0.000002429878536   0.000001999104911
Si    6.10988   6.10987   6.10987   0.000002961697319   0.000002961697484   0.000002963100144
Si    8.82537   6.10987   8.82537  -0.000001790042191   0.000000807245869  -0.000001791698235
Si    6.10988   8.82537   8.82537   0.000000807245758  -0.000001790042310  -0.000001791698362
Si    8.82537   8.82537   6.10987  -0.000001788115104  -0.000001788115400   0.000000811735862
Si   10.18313   7.46762   7.46762  -0.000003344861580  -0.000000063453902  -0.000000061696652
Si   10.18313  10.18313  10.18313  -0.000003658645121  -0.000003658645390  -0.000003660468119
Si    7.46762   7.46762  10.18313  -0.000000058081462  -0.000000058081604  -0.000003348137096
Si    7.46762  10.18313   7.46762  -0.000000063453773  -0.000003344861601  -0.000000061696372
Si    6.10988   6.10987  11.54087   0.000004695748792   0.000004695748888   0.000000405194238
Si    8.82537   6.10987  14.25638   0.000000190265667   0.000000467355979   0.000003277447972
Si    6.10988   8.82537  14.25638   0.000000467355693   0.000000190265842   0.000003277448217
Si    8.82537   8.82537  11.54087   0.000003012125068   0.000003012124811   0.000000923285603
Si   10.18313   7.46762  12.89862  -0.000000336839468   0.000003662100762   0.000004568915461
Si   10.18313  10.18313  15.61412  -0.000000862946888  -0.000000862946836  -0.000000235340451
Si    7.46762   7.46762  15.61412   0.000000548482634   0.000000548482461   0.000003155440737
Si    7.46762  10.18313  12.89862   0.000003662101089  -0.000000336839449   0.000004568915628
Si    6.10988   6.10987  16.97187   0.000001635093139   0.000001635093231  -0.000000292048187
Si    8.82537   6.10987  19.68737  -0.000000532785234   0.000000615534582  -0.000007185289217
Si    6.10988   8.82537  19.68737   0.000000615534527  -0.000000532785347  -0.000007185289219
Si    8.82537   8.82537  16.97187   0.000001746509884   0.000001746510023  -0.000000010056926
Si   10.18313   7.46762  18.32963  -0.000006698031045   0.000002429960409   0.000004760986749
Si   10.18313  10.18313  21.04512   0.000003632630036   0.000003632629909  -0.000004560108147
Si    7.46762   7.46762  21.04512  -0.000001640695354  -0.000001640695265  -0.000000510765695
Si    7.46762  10.18313  18.32963   0.000002429960572  -0.000006698031504   0.000004760986922
Si    6.10988  11.54087   0.67887  -0.000001709872999  -0.000002389963417   0.000004698392979
Si    8.82537  11.54087   3.39437  -0.000001147720691  -0.000007860713672  -0.000001184239499
Si    6.10988  14.25638   3.39437   0.000002171924565   0.000005259438218  -0.000004056066350
Si    8.82537  14.25638   0.67887  -0.000000889714668   0.000003042379378  -0.000001688446375
Si   10.18313  12.89862   2.03662  -0.000003105553954   0.000000567543323  -0.000002198434672
Si   10.18313  15.61412   4.75212   0.000000863763558  -0.000003813739475  -0.000003340389654
Si    7.46762  12.89862   4.75212   0.000006448272176   0.000003272702301   0.000001295078287
Si    7.46762  15.61412   2.03662  -0.000000091294943  -0.000001233203655  -0.000002805200821
Si    6.10988  11.54087   6.10987   0.000004703846830   0.000000398667487   0.000004706228886
Si    8.82537  11.54087   8.82537   0.000003008944702   0.000000917714743   0.000003003323348
Si    6.10988  14.25638   8.82537   0.000000475864292   0.000003284340754   0.000000182770540
Si    8.82537  14.25638   6.10987   0.000000185704393   0.000003277796056   0.000000470886767
Si   10.18313  12.89862   7.46762  -0.000000332043309   0.000004567023028   0.000003665348110
Si   10.18313  15.61412  10.18313  -0.000000861972425  -0.000000231446473  -0.000000869801664
Si    7.46762  12.89862  10.18313   0.000003652696167   0.000004574895889  -0.000000335387430
Si    7.46762  15.61412   7.46762   0.000000547845631   0.000003162488305   0.000000548905143
Si    6.10988  11.54087  11.54087   0.000000231446187   0.000000861972570   0.000000869801717
Si    8.82537  11.54087  14.25638  -0.000004567023058   0.000000332043207  -0.000003665348221
Si    6.10988  14.25638  14.25638  -0.000003162488172  -0.000000547845403  -0.000000548905198
Si    8.82537  14.25638  11.54087  -0.000004574895767  -0.000003652696221   0.000000335387621
Si   10.18313  12.89862  12.89862  -0.000000917714652  -0.000003008944389  -0.000003003323583
Si   10.18313  15.61412  15.61412  -0.000000398667387  -0.000004703846848  -0.000004706228743
Si    7.46762  12.89862  15.61412  -0.000003277796178  -0.000000185704273  -0.000000470886516
Si    7.46762  15.61412  12.89862  -0.000003284340658  -0.000000475864178  -0.000000182770527
Si    6.10988  11.54087  16.97187   0.000003813739347  -0.000000863763104   0.000003340389468
Si    8.82537  11.54087  19.68737  -0.000000567543319   0.000003105553546   0.000002198434543
Si    6.10988  14.25638  19.68737   0.000001233203620   0.000000091294981   0.000002805200710
Si    8.82537  14.25638  16.97187  -0.000003272702382  -0.000006448272087  -0.000001295078308
Si   10.18313  12.89862  18.32963   0.000007860714006   0.000001147720959   0.000001184239429
Si   10.18313  15.61412  21.04512   0.000002389963673   0.000001709872793  -0.000004698392808
Si    7.46762  12.89862  21.04512  -0.000003042379492   0.000000889714838   0.000001688446528
Si    7.46762  15.61412  18.32963  -0.000005259438127  -0.000002171924606   0.000004056066285
Si    6.10988  16.97187   0.67887   0.000000300002254  -0.000000109971959   0.000003730984107
Si    8.82537  16.97187   3.39437  -0.000001568311932   0.000001073965084   0.000000646409603
Si    6.10988  19.68737   3.39437  -0.000004495499349   0.000005010410513   0.000000615379459
Si    8.82537  19.68737   0.67887   0.000003288480471   0.000000453063956  -0.000002835755365
Si   10.18313  18.32963   2.03662   0.000003226442717  -0.000000133769711   0.000002242213953
Si   10.18313  21.04512   4.75212   0.000004997686076  -0.000005125107051   0.000005524891398
Si    7.46762  18.32963   4.75212  -0.000003255841051  -0.000001622618534  -0.000000092998927
Si    7.46762  21.04512   2.03662  -0.000005173683775   0.000002253177314  -0.000006187624741
Si    6.10988  16.97187   6.10987   0.000001615084789  -0.000000292610592   0.000001616540509
Si    8.82537  16.97187   8.82537   0.000001761130989  -0.000000018105798   0.000001764794200
Si    6.10988  19.68737   8.82537   0.000000609427464  -0.000007179691662  -0.000000516033370
Si    8.82537  19.68737   6.10987  -0.000000515939459  -0.000007187426432   0.000000602577506
Si   10.18313  18.32963   7.46762  -0.000006692424925   0.000004757282165   0.000002435046641
Si   10.18313  21.04512  10.18313   0.000003631303531  -0.000004552464450   0.000003632510875
Si    7.46762  18.32963  10.18313   0.000002431987102   0.000004762692387  -0.000006693379448
Si    7.46762  21.04512   7.46762  -0.000001641159242  -0.000000519451063  -0.000001644447552
Si    6.10988  16.97187  11.54087   0.000003820414405   0.000003331972888  -0.000000879583927
Si    8.82537  16.97187  14.25638  -0.000003259539844  -0.000001291087163  -0.000006433742580
Si    6.10988  19.68737  14.25638   0.000001223541252   0.000002803893654   0.000000101133650
Si    8.82537  19.68737  11.54087  -0.000000577549802   0.000002212137594   0.000003092289047
Si   10.18313  18.32963  12.89862   0.000007858398953   0.000001177344068   0.000001145573411
Si   10.18313  21.04512  15.61412   0.000002386548187  -0.000004696314307   0.000001708059149
Si    7.46762  18.32963  15.61412  -0.000005258236138   0.000004054163156  -0.000002174633289
Si    7.46762  21.04512  12.89862  -0.000003037768032   0.000001687189592   0.000000897484383
Si    6.10988  16.97187  16.97187  -0.000000635131424   0.000000438172891   0.000000429862546
Si    8.82537  16.97187  19.68737  -0.000002211657190   0.000003103513274   0.000003492437272
Si    6.10988  19.68737  19.68737   0.000006638789305  -0.000002693788345  -0.000002684260457
Si    8.82537  19.68737  16.97187  -0.000002208045880   0.000003482956557   0.000003097707401
Si   10.18313  18.32963  18.32963   0.000005765393261  -0.000004011768385  -0.000004015036398
Si   10.18313  21.04512  21.04512  -0.000004589140730  -0.000001766741857  -0.000001764329417
Si    7.46762  18.32963  21.04512  -0.000000847393928  -0.000001379259292  -0.000004539727887
Si    7.46762  21.04512  18.32963  -0.000000848667982  -0.000004540204285  -0.000001378266137
Si   11.54087   0.67888   0.67887   0.000004589140815   0.000001766741917   0.000001764329388
Si   14.25638   0.67888   3.39437   0.000000848667925   0.000004540203937   0.000001378265921
Si   11.54087   3.39438   3.39437  -0.000005765393138   0.000004011768604   0.000004015036278
Si   14.25638   3.39438   0.67887   0.000000847394039   0.000001379259203   0.000004539728009
Si   15.61412   2.03662   2.03662  -0.000006638789484   0.000002693788338   0.000002684260499
Si   15.61412   4.75212   4.75212   0.000000635131503  -0.000000438172770  -0.000000429862686
Si   12.89862   2.03662   4.75212   0.000002208045823  -0.000003482956542  -0.000003097707449
Si   12.89862   4.75212   2.03662   0.000002211657357  -0.000003103513160  -0.000003492437183
Si   11.54087   0.67888   6.10987  -0.000002386548267   0.000004696314274  -0.000001708058877
Si   14.25638   0.67888   8.82537   0.000003037767641  -0.000001687189543  -0.000000897484413
Si   11.54087   3.39438   8.82537  -0.000007858398928  -0.000001177344279  -0.000001145573383
Si   14.25638   3.39438   6.10987   0.000005258236204  -0.000004054163045   0.000002174633271
Si   15.61412   2.03662   7.46762  -0.000001223541418  -0.000002803893601  -0.000000101133418
Si   15.61412   4.75212  10.18313  -0.000003820414548  -0.000003331972710   0.000000879584120
Si   12.89862   2.03662  10.18313   0.000000577549930  -0.000002212137597  -0.000003092289168
Si   12.89862   4.75212   7.46762   0.000003259539497   0.000001291087101   0.000006433742458
Si   11.54087   0.67888  11.54087  -0.000003631303352   0.000004552464404  -0.000003632511137
Si   14.25638   0.67888  14.25638   0.000001641159158   0.000000519451015   0.000001644447579
Si   11.54087   3.39438  14.25638   0.000006692425250  -0.000004757282183  -0.000002435046609
Si   14.25638   3.39438  11.54087  -0.000002431987173  -0.000004762692494   0.000006693379583
Si   15.61412   2.03662  12.89862  -0.000000609427280   0.000007179691763   0.000000516033440
Si   15.61412   4.75212  15.61412  -0.000001615084943   0.000000292610504  -0.000001616540529
Si   12.89862   2.03662  15.61412   0.000000515939569   0.000007187426563  -0.000000602577705
Si   12.89862   4.75212  12.89862  -0.000001761130880   0.000000018106161  -0.000001764794290
Si   11.54087   0.67888  16.97187  -0.000004997686153   0.000005125106959  -0.000005524891290
Si   14.25638   0.67888  19.68737   0.000005173683607  -0.000002253177043   0.000006187624564
Si   11.54087   3.39438  19.68737  -0.000003226442552   0.000000133769736  -0.000002242213976
Si   14.25638   3.39438  16.97187   0.000003255841233   0.000001622618801   0.000000092998964
Si   15.61412   2.03662  18.32963   0.000004495499104  -0.000005010410825  -0.000000615379376
Si   15.61412   4.75212  21.04512  -0.000000300002275   0.000000109971940  -0.000003730983884
Si   12.89862   2.03662  21.04512  -0.000003288480026  -0.000000453064096   0.000002835755331
Si   12.89862   4.75212  18.32963   0.000001568311877  -0.000001073965164  -0.000000646409779
Si   11.54087   6.10987   0.67887  -0.000002389963346  -0.000001709872763   0.000004698393160
Si   14.25638   6.10987   3.39437   0.000005259438269   0.000002171924556  -0.000004056066362
Si   11.54087   8.82537   3.39437  -0.000007860713466  -0.000001147720981  -0.000001184239347
Si   14.25638   8.82537   0.67887   0.000003042379423  -0.000000889714922  -0.000001688446413
Si   15.61412   7.46762   2.03662  -0.000001233203670  -0.000000091295137  -0.000002805200812
Si   15.61412  10.18313   4.75212  -0.000003813739301   0.000000863763317  -0.000003340389836
Si   12.89862   7.46762   4.75212   0.000003272702358   0.000006448272179   0.000001295077975
Si   12.89862  10.18313   2.03662   0.000000567543186  -0.000003105553630  -0.000002198434682
Si   11.54087   6.10987   6.10987   0.000000398667452   0.000004703846920   0.000004706229164
Si   14.25638   6.10987   8.82537   0.000003284340799   0.000000475864302   0.000000182770630
Si   11.54087   8.82537   8.82537   0.000000917714956   0.000003008944630   0.000003003323556
Si   14.25638   8.82537   6.10987   0.000003277796238   0.000000185704300   0.000000470886841
Si   15.61412   7.46762   7.46762   0.000003162488068   0.000000547845497   0.000000548905003
Si   15.61412  10.18313  10.18313  -0.000000231446269  -0.000000861972639  -0.000000869801867
Si   12.89862   7.46762  10.18313   0.000004574895827   0.000003652696059  -0.000000335387637
Si   12.89862  10.18313   7.46762   0.000004567023076  -0.000000332043592   0.000003665348126
Si   11.54087   6.10987  11.54087   0.000000861972679   0.000000231446532   0.000000869801808
Si   14.25638   6.10987  14.25638  -0.000000547845611  -0.000003162488159  -0.000000548905144
Si   11.54087   8.82537  14.25638   0.000000332043444  -0.000004567023155  -0.000003665348010
Si   14.25638   8.82537  11.54087  -0.000003652696233  -0.000004574895903   0.000000335387625
Si   15.61412   7.46762  12.89862  -0.000000475864246  -0.000003284340884  -0.000000182770718
Si   15.61412  10.18313  15.61412  -0.000004703846903  -0.000000398667455  -0.000004706229011
Si   12.89862   7.46762  15.61412  -0.000000185704030  -0.000003277796215  -0.000000470886954
Si   12.89862  10.18313  12.89862  -0.000003008944343  -0.000000917714492  -0.000003003323566
Si   11.54087   6.10987  16.97187  -0.000000863763360   0.000003813739351   0.000003340389890
Si   14.25638   6.10987  19.68737   0.000000091294905   0.000001233203805   0.000002805200775
Si   11.54087   8.82537  19.68737   0.000003105553685  -0.000000567543199   0.000002198434757
Si   14.25638   8.82537  16.97187  -0.000006448272159  -0.000003272702127  -0.000001295078086
Si   15.61412   7.46762  18.32963  -0.000002171924701  -0.000005259438351   0.000004056066263
Si   15.61412  10.18313  21.04512   0.000001709872911   0.000002389963613  -0.000004698393015
Si   12.89862   7.46762  21.04512   0.000000889714918  -0.000003042379516   0.000001688446351
Si   12.89862  10.18313  18.32963   0.000001147721007   0.000007860713616   0.000001184239439
Si   11.54087  11.54087   0.67887  -0.000003632629508  -0.000003632629798   0.000004560108009
Si   14.25638  11.54087   3.39437  -0.000002429960301   0.000006698031389  -0.000004760987068
Si   11.54087  14.25638   3.39437   0.000006698031544  -0.000002429960449  -0.000004760986829
Si   14.25638  14.25638   0.67887   0.000001640695417   0.000001640695247   0.000000510765691
Si   15.61412  12.89862   2.03662  -0.000000615534315   0.000000532785195   0.000007185289354
Si   15.61412  15.61412   4.75212  -0.000001635093140  -0.000001635093313   0.000000292047839
Si   12.89862  12.89862   4.75212  -0.000001746509919  -0.000001746509904   0.000000010056967
Si   12.89862  15.61412   2.03662   0.000000532785398  -0.000000615534250   0.000007185289319
Si   11.54087  11.54087   6.10987   0.000000862947254   0.000000862946907   0.000000235340683
Si   14.25638  11.54087   8.82537  -0.000003662101029   0.000000336839589  -0.000004568915664
Si   11.54087  14.25638   8.82537   0.000000336839501  -0.000003662100973  -0.000004568915517
Si   14.25638  14.25638   6.10987  -0.000000548482529  -0.000000548482561  -0.000003155440539
Si   15.61412  12.89862   7.46762  -0.000000467355848  -0.000000190265862  -0.000003277448095
Si   15.61412  15.61412  10.18313  -0.000004695748804  -0.000004695748908  -0.000000405194369
Si   12.89862  12.89862  10.18313  -0.000003012124671  -0.000003012124754  -0.000000923285509
Si   12.89862  15.61412   7.46762  -0.000000190265733  -0.000000467356097  -0.000003277448058
Si   11.54087  11.54087  11.54087   0.000003658645279   0.000003658645287   0.000003660468182
Si   14.25638  11.54087  14.25638   0.000000063453783   0.000003344861571   0.000000061696410
Si   11.54087  14.25638  14.25638   0.000003344861705   0.000000063453726   0.000000061696322
Si   14.25638  14.25638  11.54087   0.000000058081402   0.000000058081416   0.000003348137051
Si   15.61412  12.89862  12.89862  -0.000000807245836   0.000001790042236   0.000001791698270
Si   15.61412  15.61412  15.61412  -0.000002961697444  -0.000002961697424  -0.000002963100236
Si   12.89862  12.89862  15.61412   0.000001788115533   0.000001788115402  -0.000000811735931
Si   12.89862  15.61412  12.89862   0.000001790042527  -0.000000807245759   0.000001791698342
Si   11.54087  11.54087  16.97187   0.000003026527396   0.000003026527398   0.000002459827070
Si   14.25638  11.54087  19.68737  -0.000004862003657   0.000002429878513  -0.000001999105107
Si   11.54087  14.25638  19.68737   0.000002429878547  -0.000004862003715  -0.000001999105085
Si   14.25638  14.25638  16.97187  -0.000001746517524  -0.000001746517406  -0.000000164878661
Si   15.61412  12.89862  18.32963  -0.000002241881703  -0.000004219983101  -0.000005740288079
Si   15.61412  15.61412  21.04512  -0.000001169500562  -0.000001169500567  -0.000001074601841
Si   12.89862  12.89862  21.04512  -0.000000602635999  -0.000000602636041  -0.000000532436447
Si   12.89862  15.61412  18.32963  -0.000004219982789  -0.000002241881591  -0.000005740288101
Si   11.54087  16.97187   0.67887  -0.000005002127748  -0.000005518893269   0.000005117716566
Si   14.25638  16.97187   3.39437   0.000003257386976   0.000000088563826   0.000001623808754
Si   11.54087  19.68737   3.39437  -0.000003226579196  -0.000002237126927   0.000000141090520
Si   14.25638  19.68737   0.67887   0.000005164156344   0.000006184439985  -0.000002242701399
Si   15.61412  18.32963   2.03662   0.000004495362039  -0.000000604138938  -0.000005005132749
Si   15.61412  21.04512   4.75212  -0.000000294762168  -0.000003741839579   0.000000110577062
Si   12.89862  18.32963   4.75212   0.000001562590592  -0.000000634347933  -0.000001075703926
Si   12.89862  21.04512   2.03662  -0.000003287519338   0.000002825876300  -0.000000455097482
Si   11.54087  16.97187   6.10987  -0.000000876736784   0.000003341590049   0.000003805673083
Si   14.25638  16.97187   8.82537  -0.000006436214523  -0.000001291427954  -0.000003267970177
Si   11.54087  19.68737   8.82537   0.000003101142624   0.000002199332448  -0.000000562212621
Si   14.25638  19.68737   6.10987   0.000000097438877   0.000002804803776   0.000001228407090
Si   15.61412  18.32963   7.46762  -0.000002169620298   0.000004054288672  -0.000005257551705
Si   15.61412  21.04512  10.18313   0.000001695882503  -0.000004688431732   0.000002388499493
Si   12.89862  18.32963  10.18313   0.000001146145306   0.000001175238315   0.000007856362762
Si   12.89862  21.04512   7.46762   0.000000894472015   0.000001687814892  -0.000003040894467
Si   11.54087  16.97187  11.54087   0.000003028953295   0.000002452195826   0.000003017679358
Si   14.25638  16.97187  14.25638  -0.000001757191224  -0.000000162035944  -0.000001753506274
Si   11.54087  19.68737  14.25638   0.000002428407234  -0.000002006374346  -0.000004851916156
Si   14.25638  19.68737  11.54087  -0.000004857496263  -0.000002000153114   0.000002432709986
Si   15.61412  18.32963  12.89862  -0.000002243596252  -0.000005750475114  -0.000004212394547
Si   15.61412  21.04512  15.61412  -0.000001180359023  -0.000001069260025  -0.000001176285286
Si   12.89862  18.32963  15.61412  -0.000004214112502  -0.000005744666121  -0.000002246765334
Si   12.89862  21.04512  12.89862  -0.000000591008869  -0.000000526227413  -0.000000596678437
Si   11.54087  16.97187  16.97187  -0.000007474100688   0.000002299188502   0.000002298793952
Si   14.25638  16.97187  19.68737   0.000003075033109  -0.000001801216725  -0.000008988044773
Si   11.54087  19.68737  19.68737  -0.000005192122792   0.000001870145289   0.000001868898629
Si   14.25638  19.68737  16.97187   0.000003080446956  -0.000008983357636  -0.000001799139914
Si   15.61412  18.32963  18.32963  -0.000004299459564  -0.000000069614904  -0.000000070298283
Si   15.61412  21.04512  21.04512  -0.000006574811968   0.000003879275086   0.000003883715471
Si   12.89862  18.32963  21.04512   0.000002134189162   0.000000006594956  -0.000003014889702
Si   12.89862  21.04512  18.32963   0.000002139964790  -0.000003010564843   0.000000005248997
Si   16.97187   0.67888   0.67887   0.000001535557633  -0.000000465026994  -0.000000466705949
Si   19.68737   0.67888   3.39437  -0.000001213756301  -0.000001252997114  -0.000004828715517
Si   16.97187   3.39438   3.39437  -0.000003535339997   0.000000594193948   0.000000600018403
Si   19.68737   3.39438   0.67887  -0.000001213737551  -0.000004824508091  -0.000001249864297
Si   21.04512   2.03662   2.03662  -0.000000004057280  -0.000001574993193  -0.000001562199481
Si   21.04512   4.75212   4.75212  -0.000003452270045   0.000002615342507   0.000002605071057
Si   18.32963   2.03662   4.75212   0.000000651453408   0.000004143343226   0.000000701832744
Si   18.32963   4.75212   2.03662   0.000000649684624   0.000000710484540   0.000004144302593
Si   16.97187   0.67888   6.10987  -0.000000107938853   0.000003735153294   0.000000302274065
Si   19.68737   0.67888   8.82537   0.000000453331388  -0.000002831996994   0.000003282221892
Si   16.97187   3.39438   8.82537   0.000001076968742   0.000000636155450  -0.000001558167220
Si   19.68737   3.39438   6.10987   0.000005002543114   0.000000614798920  -0.000004499684329
Si   21.04512   2.03662   7.46762   0.000002239089035  -0.000006180308154  -0.000005167260861
Si   21.04512   4.75212  10.18313  -0.000005124090345   0.000005522460484   0.000004994657658
Si   18.32963   2.03662  10.18313  -0.000000130315901   0.000002236874063   0.000003228353434
Si   18.32963   4.75212   7.46762  -0.000001630970364  -0.000000099235114  -0.000003258291373
Si   16.97187   0.67888  11.54087  -0.000005522460727   0.000005124090582  -0.000004994657466
Si   19.68737   0.67888  14.25638   0.000006180308452  -0.000002239088708   0.000005167260814
Si   16.97187   3.39438  14.25638   0.000000099235032   0.000001630970464   0.000003258291297
Si   19.68737   3.39438  11.54087  -0.000002236873900   0.000000130315839  -0.000003228353284
Si   21.04512   2.03662  12.89862   0.000002831996567  -0.000000453331374  -0.000003282222035
Si   21.04512   4.75212  15.61412  -0.000003735152833   0.000000107938722  -0.000000302274247
Si   18.32963   2.03662  15.61412  -0.000000614798813  -0.000005002543225   0.000004499684306
Si   18.32963   4.75212  12.89862  -0.000000636155420  -0.000001076968762   0.000001558167115
Si   16.97187   0.67888  16.97187  -0.000002615342503   0.000003452270135  -0.000002605070925
Si   19.68737   0.67888  19.68737   0.000001574993507   0.000000004057383   0.000001562199252
Si   16.97187   3.39438  19.68737  -0.000000710484402  -0.000000649684510  -0.000004144302578
Si   19.68737   3.39438  16.97187  -0.000004143343092  -0.000000651453522  -0.000000701832501
Si   21.04512   2.03662  18.32963   0.000001252997000   0.000001213756237   0.000004828715402
Si   21.04512   4.75212  21.04512   0.000000465027125  -0.000001535557916   0.000000466705977
Si   18.32963   2.03662  21.04512   0.000004824508027   0.000001213737622   0.000001249864511
Si   18.32963   4.75212  18.32963  -0.000000594193748   0.000003535340116  -0.000000600018450
Si   16.97187   6.10987   0.67887  -0.000000109971948   0.000000300002507   0.000003730984046
Si   19.68737   6.10987   3.39437   0.000005010410454  -0.000004495499467   0.000000615379269
Si   16.97187   8.82537   3.39437   0.000001073965029  -0.000001568311778   0.000000646409780
Si   19.68737   8.82537   0.67887   0.000000453064184   0.000003288480364  -0.000002835755500
Si   21.04512   7.46762   2.03662   0.000002253177241  -0.000005173683968  -0.000006187624774
Si   21.04512  10.18313   4.75212  -0.000005125107159   0.000004997686082   0.000005524891516
Si   18.32963   7.46762   4.75212  -0.000001622618753  -0.000003255841053  -0.000000092998797
Si   18.32963  10.18313   2.03662  -0.000000133769832   0.000003226442700   0.000002242214109
Si   16.97187   6.10987   6.10987  -0.000000292610414   0.000001615085039   0.000001616540446
Si   19.68737   6.10987   8.82537  -0.000007179691574   0.000000609427227  -0.000000516033541
Si   16.97187   8.82537   8.82537  -0.000000018106263   0.000001761130910   0.000001764794377
Si   19.68737   8.82537   6.10987  -0.000007187426678  -0.000000515939488   0.000000602577448
Si   21.04512   7.46762   7.46762  -0.000000519450903  -0.000001641159192  -0.000001644447674
Si   21.04512  10.18313  10.18313  -0.000004552464046   0.000003631303386   0.000003632511182
Si   18.32963   7.46762  10.18313   0.000004762692554   0.000002431987370  -0.000006693379431
Si   18.32963  10.18313   7.46762   0.000004757282354  -0.000006692425094   0.000002435046402
Si   16.97187   6.10987  11.54087   0.000003331972632   0.000003820414385  -0.000000879583841
Si   19.68737   6.10987  14.25638   0.000002803893522   0.000001223541314   0.000000101133454
Si   16.97187   8.82537  14.25638  -0.000001291087056  -0.000003259539783  -0.000006433742383
Si   19.68737   8.82537  11.54087   0.000002212137680  -0.000000577550049   0.000003092289160
Si   21.04512   7.46762  12.89862   0.000001687189567  -0.000003037767892   0.000000897484192
Si   21.04512  10.18313  15.61412  -0.000004696314332   0.000002386548307   0.000001708059039
Si   18.32963   7.46762  15.61412   0.000004054163149  -0.000005258235946  -0.000002174633420
Si   18.32963  10.18313  12.89862   0.000001177344234   0.000007858399016   0.000001145573442
Si   16.97187   6.10987  16.97187   0.000000438172633  -0.000000635131602   0.000000429862608
Si   19.68737   6.10987  19.68737  -0.000002693788241   0.000006638789758  -0.000002684260619
Si   16.97187   8.82537  19.68737   0.000003103513557  -0.000002211657259   0.000003492437431
Si   19.68737   8.82537  16.97187   0.000003482956618  -0.000002208045616   0.000003097707476
Si   21.04512   7.46762  18.32963  -0.000004540204108  -0.000000848668153  -0.000001378265923
Si   21.04512  10.18313  21.04512  -0.000001766741719  -0.000004589141096  -0.000001764329741
Si   18.32963   7.46762  21.04512  -0.000001379259565  -0.000000847394056  -0.000004539727923
Si   18.32963  10.18313  18.32963  -0.000004011768455   0.000005765393097  -0.000004015036301
Si   16.97187  11.54087   0.67887  -0.000005518893359  -0.000005002127908   0.000005117717039
Si   19.68737  11.54087   3.39437  -0.000002237127070  -0.000003226579502   0.000000141090225
Si   16.97187  14.25638   3.39437   0.000000088563540   0.000003257387234   0.000001623808838
Si   19.68737  14.25638   0.67887   0.000006184440199   0.000005164156098  -0.000002242701371
Si   21.04512  12.89862   2.03662   0.000002825876022  -0.000003287519377  -0.000000455097785
Si   21.04512  15.61412   4.75212  -0.000003741839304  -0.000000294762133   0.000000110577080
Si   18.32963  12.89862   4.75212  -0.000000634347616   0.000001562590632  -0.000001075703957
Si   18.32963  15.61412   2.03662  -0.000000604138699   0.000004495362166  -0.000005005132560
Si   16.97187  11.54087   6.10987   0.000003341589655  -0.000000876736752   0.000003805673351
Si   19.68737  11.54087   8.82537   0.000002199332483   0.000003101142984  -0.000000562212522
Si   16.97187  14.25638   8.82537  -0.000001291428049  -0.000006436214632  -0.000003267970329
Si   19.68737  14.25638   6.10987   0.000002804803702   0.000000097438900   0.000001228407197
Si   21.04512  12.89862   7.46762   0.000001687814904   0.000000894471753  -0.000003040894787
Si   21.04512  15.61412  10.18313  -0.000004688431581   0.000001695882193   0.000002388499399
Si   18.32963  12.89862  10.18313   0.000001175238193   0.000001146145252   0.000007856362669
Si   18.32963  15.61412   7.46762   0.000004054288739  -0.000002169620264  -0.000005257551477
Si   16.97187  11.54087  11.54087   0.000002452195704   0.000003028953281   0.000003017679558
Si   19.68737  11.54087  14.25638  -0.000002006374252   0.000002428406947  -0.000004851916221
Si   16.97187  14.25638  14.25638  -0.000000162035684  -0.000001757191208  -0.000001753506229
Si   19.68737  14.25638  11.54087  -0.000002000152901  -0.000004857496322   0.000002432710227
Si   21.04512  12.89862  12.89862  -0.000000526227424  -0.000000591009091  -0.000000596678519
Si   21.04512  15.61412  15.61412  -0.000001069259703  -0.000001180359426  -0.000001176285225
Si   18.32963  12.89862  15.61412  -0.000005744666020  -0.000004214112556  -0.000002246765504
Si   18.32963  15.61412  12.89862  -0.000005750475128  -0.000002243596460  -0.000004212394418
Si   16.97187  11.54087  16.97187   0.000002299188408  -0.000007474100723   0.000002298794187
Si   19.68737  11.54087  19.68737   0.000001870145305  -0.000005192122814   0.000001868898704
Si   16.97187  14.25638  19.68737  -0.000001801216682   0.000003075033253  -0.000008988044806
Si   19.68737  14.25638  16.97187  -0.000008983357641   0.000003080446924  -0.000001799139771
Si   21.04512  12.89862  18.32963  -0.000003010564494   0.000002139964717   0.000000005248681
Si   21.04512  15.61412  21.04512   0.000003879275244  -0.000006574812155   0.000003883715164
Si   18.32963  12.89862  21.04512   0.000000006595087   0.000002134189079  -0.000003014889823
Si   18.32963  15.61412  18.32963  -0.000000069614742  -0.000004299459604  -0.000000070298321
Si   16.97187  16.97187   0.67887  -0.000002607025382  -0.000002607025320   0.000003464472103
Si   19.68737  16.97187   3.39437  -0.000004149219714  -0.000000696128206  -0.000000658568899
Si   16.97187  19.68737   3.39437  -0.000000696128473  -0.000004149219521  -0.000000658568665
Si   19.68737  19.68737   0.67887   0.000001560472842   0.000001560472583   0.000000008248004
Si   21.04512  18.32963   2.03662   0.000001247321758   0.000004818928110   0.000001210063605
Si   21.04512  21.04512   4.75212   0.000000480290113   0.000000480290136  -0.000001530405620
Si   18.32963  18.32963   4.75212  -0.000000597311407  -0.000000597311561   0.000003536488737
Si   18.32963  21.04512   2.03662   0.000004818928436   0.000001247321776   0.000001210063761
Si   16.97187  16.97187   6.10987   0.000000438577922   0.000000438577999  -0.000000624127857
Si   19.68737  16.97187   8.82537   0.000003493725688   0.000003103308079  -0.000002217016783
Si   16.97187  19.68737   8.82537   0.000003103308019   0.000003493725559  -0.000002217016778
Si   19.68737  19.68737   6.10987  -0.000002688290489  -0.000002688290328   0.000006644933337
Si   21.04512  18.32963   7.46762  -0.000004542292837  -0.000001378994238  -0.000000848716929
Si   21.04512  21.04512  10.18313  -0.000001773573251  -0.000001773573400  -0.000004589255599
Si   18.32963  18.32963  10.18313  -0.000004014460481  -0.000004014460400   0.000005766520596
Si   18.32963  21.04512   7.46762  -0.000001378994081  -0.000004542293312  -0.000000848716750
Si   16.97187  16.97187  11.54087   0.000002301510053   0.000002301510189  -0.000007467469371
Si   19.68737  16.97187  14.25638  -0.000008992283617  -0.000001799745739   0.000003068043338
Si   16.97187  19.68737  14.25638  -0.000001799745959  -0.000008992283208   0.000003068043443
Si   19.68737  19.68737  11.54087   0.000001858938945   0.000001858938931  -0.000005185788175
Si   21.04512  18.32963  12.89862  -0.000003014233843   0.000000014672031   0.000002137413615
Si   21.04512  21.04512  15.61412   0.000003885456872   0.000003885457185  -0.000006583521697
Si   18.32963  18.32963  15.61412  -0.000000077412411  -0.000000077412521  -0.000004295589073
Si   18.32963  21.04512  12.89862   0.000000014672096  -0.000003014234034   0.000002137413626
Si   16.97187  16.97187  16.97187   0.000001386600063   0.000001386600202   0.000001396097964
Si   19.68737  16.97187  19.68737   0.000004995986216  -0.000006174500871   0.000004988096664
Si   16.97187  19.68737  19.68737  -0.000006174501014   0.000004995986111   0.000004988096532
Si   19.68737  19.68737  16.97187   0.000005003844906   0.000005003844604  -0.000006163763725
Si   21.04512  18.32963  18.32963  -0.000008739305213   0.000000301263202   0.000000300153214
Si   21.04512  21.04512  21.04512  -0.000000287808081  -0.000000287808341  -0.000000281666244
Si   18.32963  18.32963  21.04512   0.000000304034967   0.000000304034816  -0.000008743777994
Si   18.32963  21.04512  18.32963   0.000000301263364  -0.000008739305237   0.000000300153483
