512 

Si    0.67887   0.67888   0.67887   0.000000287813308   0.000000287813384   0.000000281671141
Si    3.39437   0.67888   3.39437  -0.000000301268396   0.000008739324408  -0.000000300158221
Si    0.67887   3.39438   3.39437   0.000008739324524  -0.000000301268108  -0.000000300158417
Si    3.39437   3.39438   0.67887  -0.000000304039763  -0.000000304039655   0.000008743797289
Si    4.75212   2.03662   2.03662   0.000006174472190  -0.000004995966083  -0.000004988076547
Si    4.75212   4.75212   4.75212  -0.000001386634297  -0.000001386634285  -0.000001396132256
Si    2.03662   2.03662   4.75212  -0.000005003824931  -0.000005003824602   0.000006163735002
Si    2.03662   4.75212   2.03662  -0.000004995966376   0.000006174472356  -0.000004988076529
Si    0.67887   0.67888   6.10987  -0.000003885450300  -0.000003885450195   0.000006583501516
Si    3.39437   0.67888   8.82537  -0.000000014679452   0.000003014259838  -0.000002137387366
Si    0.67887   3.39438   8.82537   0.000003014259599  -0.000000014679395  -0.000002137387407
Si    3.39437   3.39438   6.10987   0.000000077409952   0.000000077409826   0.000004295552018
Si    4.75212   2.03662   7.46762   0.000001799718480   0.000008992304307  -0.000003068042025
Si    4.75212   4.75212  10.18313  -0.000002301551815  -0.000002301551920   0.000007467496781
Si    2.03662   2.03662  10.18313  -0.000001858904541  -0.000001858904586   0.000005185812437
Si    2.03662   4.75212   7.46762   0.000008992304094   0.000001799718787  -0.000003068042033
Si    0.67887   0.67888  11.54087   0.000001773594176   0.000001773594354   0.000004589254894
Si    3.39437   0.67888  14.25638   0.000001378977184   0.000004542325197   0.000000848717971
Si    0.67887   3.39438  14.25638   0.000004542324839   0.000001378977407   0.000000848717789
Si    3.39437   3.39438  11.54087   0.000004014463185   0.000004014463323  -0.000005766532438
Si    4.75212   2.03662  12.89862  -0.000003103358707  -0.000003493681920   0.000002216986817
Si    4.75212   4.75212  15.61412  -0.000000438620306  -0.000000438620592   0.000000624144581
Si    2.03662   2.03662  15.61412   0.000002688313787   0.000002688313871  -0.000006644906380
Si    2.03662   4.75212  12.89862  -0.000003493681872  -0.000003103358471   0.000002216986960
Si    0.67887   0.67888  16.97187  -0.000000480277988  -0.000000480277883   0.000001530422683
Si    3.39437   0.67888  19.68737  -0.000004818929195  -0.000001247307887  -0.000001210086919
Si    0.67887   3.39438  19.68737  -0.000001247307893  -0.000004818928625  -0.000001210087036
Si    3.39437   3.39438  16.97187   0.000000597301070   0.000000597301221  -0.000003536460886
Si    4.75212   2.03662  18.32963   0.000000696082238   0.000004149240308   0.000000658566004
Si    4.75212   4.75212  21.04512   0.000002606993777   0.000002606994045  -0.000003464478801
Si    2.03662   2.03662  21.04512  -0.000001560460531  -0.000001560460548  -0.000000008256848
Si    2.03662   4.75212  18.32963   0.000004149240005   0.000000696082277   0.000000658566055
Si    0.67887   6.10987   0.67887  -0.000003879268082   0.000006574791958  -0.000003883708368
Si    3.39437   6.10987   3.39437   0.000000069612427   0.000004299422023   0.000000070295883
Si    0.67887   8.82537   3.39437   0.000003010590507  -0.000002139938512  -0.000000005255978
Si    3.39437   8.82537   0.67887  -0.000000006602036  -0.000002134162695   0.000003014915695
Si    4.75212   7.46762   2.03662   0.000001801189301  -0.000003075032012   0.000008988065459
Si    4.75212  10.18313   4.75212  -0.000002299230181   0.000007474128372  -0.000002298835891
Si    2.03662   7.46762   4.75212   0.000008983378058  -0.000003080445590   0.000001799112865
Si    2.03662  10.18313   2.03662  -0.000001870111172   0.000005192147229  -0.000001868864352
Si    0.67887   6.10987   6.10987   0.000001069269973   0.000001180339271   0.000001176265290
Si    3.39437   6.10987   8.82537   0.000005750476661   0.000002243556862   0.000004212427001
Si    0.67887   8.82537   8.82537   0.000000526235956   0.000000591011568   0.000000596681382
Si    3.39437   8.82537   6.10987   0.000005744667683   0.000004214144855   0.000002246725887
Si    4.75212   7.46762   7.46762   0.000000162018791   0.000001757191521   0.000001753506512
Si    4.75212  10.18313  10.18313  -0.000002452224281  -0.000003028937213  -0.000003017663364
Si    2.03662   7.46762  10.18313   0.000002000184227   0.000004857484148  -0.000002432705813
Si    2.03662  10.18313   7.46762   0.000002006405460  -0.000002428402373   0.000004851903992
Si    0.67887   6.10987  11.54087   0.000004688456577  -0.000001695924208  -0.000002388513618
Si    3.39437   6.10987  14.25638  -0.000004054284564   0.000002169568443   0.000005257542896
Si    0.67887   8.82537  14.25638  -0.000001687805424  -0.000000894463142   0.000003040899264
Si    3.39437   8.82537  11.54087  -0.000001175222494  -0.000001146116972  -0.000007856382891
Si    4.75212   7.46762  12.89862   0.000001291413091   0.000006436206861   0.000003267942808
Si    4.75212  10.18313  15.61412  -0.000003341609744   0.000000876748911  -0.000003805647608
Si    2.03662   7.46762  15.61412  -0.000002804792115  -0.000000097446743  -0.000001228381034
Si    2.03662  10.18313  12.89862  -0.000002199298860  -0.000003101126545   0.000000562184336
Si    0.67887   6.10987  16.97187   0.000003741848793   0.000000294719300  -0.000000110547184
Si    3.39437   6.10987  19.68737   0.000000604125289  -0.000004495402695   0.000005005118224
Si    0.67887   8.82537  19.68737  -0.000002825875907   0.000003287536221   0.000000455089650
Si    3.39437   8.82537  16.97187   0.000000634343078  -0.000001562562316   0.000001075737879
Si    4.75212   7.46762  18.32963  -0.000000088592484  -0.000003257386690  -0.000001623803646
Si    4.75212  10.18313  21.04512   0.000005518858285   0.000005002139687  -0.000005117722721
Si    2.03662   7.46762  21.04512  -0.000006184441386  -0.000005164164621   0.000002242700431
Si    2.03662  10.18313  18.32963   0.000002237150140   0.000003226597982  -0.000000141079824
Si    0.67887  11.54087   0.67887   0.000001766762801   0.000004589140479   0.000001764350201
Si    3.39437  11.54087   3.39437   0.000004011771307  -0.000005765405384   0.000004015039172
Si    0.67887  14.25638   3.39437   0.000004540235828   0.000000848669518   0.000001378249091
Si    3.39437  14.25638   0.67887   0.000001379242194   0.000000847395409   0.000004539759911
Si    4.75212  12.89862   2.03662  -0.000003103563832   0.000002211627415  -0.000003492393289
Si    4.75212  15.61412   4.75212  -0.000000438215144   0.000000635148468  -0.000000429905109
Si    2.03662  12.89862   4.75212  -0.000003482912908   0.000002208015820  -0.000003097757887
Si    2.03662  15.61412   2.03662   0.000002693812057  -0.000006638762742   0.000002684284149
Si    0.67887  11.54087   6.10987   0.000004696339337  -0.000002386562604  -0.000001708100891
Si    3.39437  11.54087   8.82537  -0.000001177328473  -0.000007858419081  -0.000001145545141
Si    0.67887  14.25638   8.82537  -0.000001687179997   0.000003037772632  -0.000000897475705
Si    3.39437  14.25638   6.10987  -0.000004054158699   0.000005258227510   0.000002174581401
Si    4.75212  12.89862   7.46762   0.000001291072293   0.000003259512497   0.000006433735048
Si    4.75212  15.61412  10.18313  -0.000003331992491  -0.000003820388668   0.000000879595925
Si    2.03662  12.89862  10.18313  -0.000002212104123   0.000000577521704  -0.000003092273057
Si    2.03662  15.61412   7.46762  -0.000002803881956  -0.000001223515126  -0.000000101141096
Si    0.67887  11.54087  11.54087   0.000004552488549  -0.000003631310669  -0.000003632518453
Si    3.39437  11.54087  14.25638  -0.000004757279136   0.000006692414201  -0.000002435055986
Si    0.67887  14.25638  14.25638   0.000000519450630   0.000001641164435   0.000001644452456
Si    3.39437  14.25638  11.54087  -0.000004762689037  -0.000002431996586   0.000006693368790
Si    4.75212  12.89862  12.89862   0.000000018089070  -0.000001761157047  -0.000001764820626
Si    4.75212  15.61412  15.61412   0.000000292597079  -0.000001615059319  -0.000001616514854
Si    2.03662  12.89862  15.61412   0.000007187432779   0.000000515927296  -0.000000602554809
Si    2.03662  15.61412  12.89862   0.000007179697799  -0.000000609404581   0.000000516021485
Si    0.67887  11.54087  16.97187   0.000005125112966  -0.000004997697641  -0.000005524856378
Si    3.39437  11.54087  19.68737   0.000000133758995  -0.000003226461113  -0.000002242237200
Si    0.67887  14.25638  19.68737  -0.000002253176141   0.000005173691869   0.000006187625483
Si    3.39437  14.25638  16.97187   0.000001622613397   0.000003255840886   0.000000093027351
Si    4.75212  12.89862  18.32963  -0.000001073999213   0.000001568283548  -0.000000646404854
Si    4.75212  15.61412  21.04512   0.000000109942011  -0.000000299959609  -0.000003730993378
Si    2.03662  12.89862  21.04512  -0.000000453056138  -0.000003288497366   0.000002835755233
Si    2.03662  15.61412  18.32963  -0.000005010396529   0.000004495539977  -0.000000615366077
Si    0.67887  16.97187   0.67887  -0.000000465015233   0.000001535574818  -0.000000466694040
Si    3.39437  16.97187   3.39437   0.000000594183045  -0.000003535312286   0.000000600008186
Si    0.67887  19.68737   3.39437  -0.000001252983298  -0.000001213779767  -0.000004828715626
Si    3.39437  19.68737   0.67887  -0.000004824508793  -0.000001213760906  -0.000001249850529
Si    4.75212  18.32963   2.03662   0.000000710438549   0.000000649681721   0.000004144323074
Si    4.75212  21.04512   4.75212   0.000002615310778  -0.000003452276821   0.000002605039583
Si    2.03662  18.32963   4.75212   0.000004143363613   0.000000651450681   0.000000701786679
Si    2.03662  21.04512   2.03662  -0.000001574981152  -0.000000004065938  -0.000001562187075
Si    0.67887  16.97187   6.10987   0.000003735162408  -0.000000107908783   0.000000302231340
Si    3.39437  16.97187   8.82537   0.000000636150524   0.000001077002458  -0.000001558138861
Si    0.67887  19.68737   8.82537  -0.000002831996947   0.000000453323273   0.000003282238938
Si    3.39437  19.68737   6.10987   0.000000614785405   0.000005002528924  -0.000004499724735
Si    4.75212  18.32963   7.46762  -0.000000099263912  -0.000001630965114  -0.000003258290988
Si    4.75212  21.04512  10.18313   0.000005522425503  -0.000005124096467   0.000004994669298
Si    2.03662  18.32963  10.18313   0.000002236896743  -0.000000130305701   0.000003228371934
Si    2.03662  21.04512   7.46762  -0.000006180309147   0.000002239087653  -0.000005167269063
Si    0.67887  16.97187  11.54087   0.000005124096367  -0.000005522425422  -0.000004994669312
Si    3.39437  16.97187  14.25638   0.000001630965086   0.000000099263808   0.000003258290931
Si    0.67887  19.68737  14.25638  -0.000002239087790   0.000006180309366   0.000005167269074
Si    3.39437  19.68737  11.54087   0.000000130305490  -0.000002236897028  -0.000003228371836
Si    4.75212  18.32963  12.89862  -0.000001077002783  -0.000000636150774   0.000001558138683
Si    4.75212  21.04512  15.61412   0.000000107908655  -0.000003735162353  -0.000000302231518
Si    2.03662  18.32963  15.61412  -0.000005002529052  -0.000000614785769   0.000004499725062
Si    2.03662  21.04512  12.89862  -0.000000453323677   0.000002831996645  -0.000003282238895
Si    0.67887  16.97187  16.97187   0.000003452276776  -0.000002615310932  -0.000002605039582
Si    3.39437  16.97187  19.68737  -0.000000649682235  -0.000000710438559  -0.000004144322983
Si    0.67887  19.68737  19.68737   0.000000004065680   0.000001574980923   0.000001562186928
Si    3.39437  19.68737  16.97187  -0.000000651450873  -0.000004143363917  -0.000000701786721
Si    4.75212  18.32963  18.32963   0.000003535312226  -0.000000594183460  -0.000000600008111
Si    4.75212  21.04512  21.04512  -0.000001535574622   0.000000465014992   0.000000466694074
Si    2.03662  18.32963  21.04512   0.000001213760991   0.000004824508239   0.000001249850654
Si    2.03662  21.04512  18.32963   0.000001213779500   0.000001252983240   0.000004828715741
Si    6.10988   0.67888   0.67887   0.000006574791514  -0.000003879268131  -0.000003883708681
Si    8.82537   0.67888   3.39437  -0.000002139938456   0.000003010590754  -0.000000005255884
Si    6.10988   3.39438   3.39437   0.000004299421834   0.000000069612522   0.000000070296104
Si    8.82537   3.39438   0.67887  -0.000002134162935  -0.000000006602244   0.000003014915639
Si   10.18313   2.03662   2.03662   0.000005192146807  -0.000001870110824  -0.000001868864286
Si   10.18313   4.75212   4.75212   0.000007474128275  -0.000002299230169  -0.000002298835648
Si    7.46762   2.03662   4.75212  -0.000003080445555   0.000008983378142   0.000001799112804
Si    7.46762   4.75212   2.03662  -0.000003075031889   0.000001801189758   0.000008988065260
Si    6.10988   0.67888   6.10987   0.000001180339003   0.000001069269912   0.000001176265158
Si    8.82537   0.67888   8.82537   0.000000591011737   0.000000526236313   0.000000596681502
Si    6.10988   3.39438   8.82537   0.000002243556640   0.000005750476892   0.000004212427012
Si    8.82537   3.39438   6.10987   0.000004214144919   0.000005744667968   0.000002246725775
Si   10.18313   2.03662   7.46762  -0.000002428402775   0.000002006405431   0.000004851903954
Si   10.18313   4.75212  10.18313  -0.000003028937503  -0.000002452224544  -0.000003017663256
Si    7.46762   2.03662  10.18313   0.000004857483987   0.000002000184075  -0.000002432705933
Si    7.46762   4.75212   7.46762   0.000001757191591   0.000000162018753   0.000001753506603
Si    6.10988   0.67888  11.54087  -0.000001695924577   0.000004688456950  -0.000002388514187
Si    8.82537   0.67888  14.25638  -0.000000894462929  -0.000001687805375   0.000003040899403
Si    6.10988   3.39438  14.25638   0.000002169568112  -0.000004054283895   0.000005257543221
Si    8.82537   3.39438  11.54087  -0.000001146116753  -0.000001175222036  -0.000007856383181
Si   10.18313   2.03662  12.89862  -0.000003101126988  -0.000002199298833   0.000000562184460
Si   10.18313   4.75212  15.61412   0.000000876748889  -0.000003341609527  -0.000003805647798
Si    7.46762   2.03662  15.61412  -0.000000097446766  -0.000002804791969  -0.000001228380986
Si    7.46762   4.75212  12.89862   0.000006436206779   0.000001291413205   0.000003267942716
Si    6.10988   0.67888  16.97187   0.000000294719251   0.000003741848902  -0.000000110547398
Si    8.82537   0.67888  19.68737   0.000003287536392  -0.000002825876083   0.000000455089631
Si    6.10988   3.39438  19.68737  -0.000004495402757   0.000000604125471   0.000005005118303
Si    8.82537   3.39438  16.97187  -0.000001562562460   0.000000634342863   0.000001075737693
Si   10.18313   2.03662  18.32963   0.000003226597744   0.000002237150135  -0.000000141079951
Si   10.18313   4.75212  21.04512   0.000005002139485   0.000005518858352  -0.000005117722686
Si    7.46762   2.03662  21.04512  -0.000005164164615  -0.000006184440796   0.000002242700346
Si    7.46762   4.75212  18.32963  -0.000003257386938  -0.000000088592188  -0.000001623803691
Si    6.10988   6.10987   0.67887   0.000001169480519   0.000001169480558   0.000001074611956
Si    8.82537   6.10987   3.39437   0.000004220015079   0.000002241842185   0.000005740290332
Si    6.10988   8.82537   3.39437   0.000002241842134   0.000004220015381   0.000005740290109
Si    8.82537   8.82537   0.67887   0.000000602638668   0.000000602638663   0.000000532445432
Si   10.18313   7.46762   2.03662  -0.000002429874321   0.000004861991348   0.000001999135866
Si   10.18313  10.18313   4.75212  -0.000003026511747  -0.000003026511738  -0.000002459856001
Si    7.46762   7.46762   4.75212   0.000001746517770   0.000001746517718   0.000000164861376
Si    7.46762  10.18313   2.03662   0.000004861991302  -0.000002429874155   0.000001999136173
Si    6.10988   6.10987   6.10987   0.000002961673134   0.000002961673439   0.000002963076462
Si    8.82537   6.10987   8.82537  -0.000001790022833   0.000000807215931  -0.000001791679113
Si    6.10988   8.82537   8.82537   0.000000807215737  -0.000001790022850  -0.000001791678675
Si    8.82537   8.82537   6.10987  -0.000001788096048  -0.000001788095985   0.000000811706032
Si   10.18313   7.46762   7.46762  -0.000003344854194  -0.000000063454754  -0.000000061697448
Si   10.18313  10.18313  10.18313  -0.000003658622810  -0.000003658622721  -0.000003660445310
Si    7.46762   7.46762  10.18313  -0.000000058083109  -0.000000058082719  -0.000003348129595
Si    7.46762  10.18313   7.46762  -0.000000063454958  -0.000003344854102  -0.000000061697612
Si    6.10988   6.10987  11.54087   0.000004695710975   0.000004695710956   0.000000405185850
Si    8.82537   6.10987  14.25638   0.000000190275592   0.000000467343395   0.000003277445006
Si    6.10988   8.82537  14.25638   0.000000467343087   0.000000190275502   0.000003277445126
Si    8.82537   8.82537  11.54087   0.000003012153665   0.000003012153876   0.000000923271976
Si   10.18313   7.46762  12.89862  -0.000000336832736   0.000003662101175   0.000004568892582
Si   10.18313  10.18313  15.61412  -0.000000862930556  -0.000000862930207  -0.000000235304894
Si    7.46762   7.46762  15.61412   0.000000548484375   0.000000548484318   0.000003155447538
Si    7.46762  10.18313  12.89862   0.000003662101318  -0.000000336832641   0.000004568892515
Si    6.10988   6.10987  16.97187   0.000001635067501   0.000001635067611  -0.000000292034452
Si    8.82537   6.10987  19.68737  -0.000000532773367   0.000000615511950  -0.000007185295630
Si    6.10988   8.82537  19.68737   0.000000615511515  -0.000000532773174  -0.000007185295696
Si    8.82537   8.82537  16.97187   0.000001746536070   0.000001746536259  -0.000000010040221
Si   10.18313   7.46762  18.32963  -0.000006698020860   0.000002429969604   0.000004760983625
Si   10.18313  10.18313  21.04512   0.000003632636789   0.000003632637105  -0.000004560132397
Si    7.46762   7.46762  21.04512  -0.000001640700377  -0.000001640700396  -0.000000510765636
Si    7.46762  10.18313  18.32963   0.000002429969777  -0.000006698020797   0.000004760983620
Si    6.10988  11.54087   0.67887  -0.000001709914995  -0.000002389977987   0.000004698417877
Si    8.82537  11.54087   3.39437  -0.000001147692545  -0.000007860733957  -0.000001184223091
Si    6.10988  14.25638   3.39437   0.000002171872364   0.000005259429721  -0.000004056061660
Si    8.82537  14.25638   0.67887  -0.000000889706078   0.000003042384314  -0.000001688436959
Si   10.18313  12.89862   2.03662  -0.000003105537800   0.000000567515083  -0.000002198401046
Si   10.18313  15.61412   4.75212   0.000000863775338  -0.000003813713836  -0.000003340409405
Si    7.46762  12.89862   4.75212   0.000006448264345   0.000003272674623   0.000001295063376
Si    7.46762  15.61412   2.03662  -0.000000091302756  -0.000001233177539  -0.000002805189047
Si    6.10988  11.54087   6.10987   0.000004703808876   0.000000398658941   0.000004706191062
Si    8.82537  11.54087   8.82537   0.000003008973231   0.000000917701143   0.000003003352300
Si    6.10988  14.25638   8.82537   0.000000475851203   0.000003284337518   0.000000182780620
Si    8.82537  14.25638   6.10987   0.000000185714008   0.000003277792986   0.000000470874195
Si   10.18313  12.89862   7.46762  -0.000000332036731   0.000004566999936   0.000003665348331
Si   10.18313  15.61412  10.18313  -0.000000861955995  -0.000000231410663  -0.000000869784889
Si    7.46762  12.89862  10.18313   0.000003652696229   0.000004574872948  -0.000000335380718
Si    7.46762  15.61412   7.46762   0.000000547847338   0.000003162495085   0.000000548907066
Si    6.10988  11.54087  11.54087   0.000000231410459   0.000000861955783   0.000000869784822
Si    8.82537  11.54087  14.25638  -0.000004567000023   0.000000332036600  -0.000003665348269
Si    6.10988  14.25638  14.25638  -0.000003162495457  -0.000000547847417  -0.000000548906840
Si    8.82537  14.25638  11.54087  -0.000004574872991  -0.000003652696454   0.000000335380673
Si   10.18313  12.89862  12.89862  -0.000000917701193  -0.000003008973432  -0.000003003352264
Si   10.18313  15.61412  15.61412  -0.000000398659319  -0.000004703809000  -0.000004706190997
Si    7.46762  12.89862  15.61412  -0.000003277792999  -0.000000185714200  -0.000000470874229
Si    7.46762  15.61412  12.89862  -0.000003284337718  -0.000000475851432  -0.000000182780700
Si    6.10988  11.54087  16.97187   0.000003813713644  -0.000000863775341   0.000003340409407
Si    8.82537  11.54087  19.68737  -0.000000567514980   0.000003105537696   0.000002198400956
Si    6.10988  14.25638  19.68737   0.000001233177216   0.000000091302540   0.000002805189024
Si    8.82537  14.25638  16.97187  -0.000003272674918  -0.000006448264647  -0.000001295063676
Si   10.18313  12.89862  18.32963   0.000007860733804   0.000001147692433   0.000001184223333
Si   10.18313  15.61412  21.04512   0.000002389977630   0.000001709914634  -0.000004698418009
Si    7.46762  12.89862  21.04512  -0.000003042384350   0.000000889706132   0.000001688436838
Si    7.46762  15.61412  18.32963  -0.000005259429574  -0.000002171872572   0.000004056062057
Si    6.10988  16.97187   0.67887   0.000000299959425  -0.000000109942127   0.000003730993355
Si    8.82537  16.97187   3.39437  -0.000001568283666   0.000001073998992   0.000000646404815
Si    6.10988  19.68737   3.39437  -0.000004495539925   0.000005010396308   0.000000615366211
Si    8.82537  19.68737   0.67887   0.000003288497192   0.000000453056111  -0.000002835755337
Si   10.18313  18.32963   2.03662   0.000003226461058  -0.000000133759479   0.000002242236940
Si   10.18313  21.04512   4.75212   0.000004997697635  -0.000005125113041   0.000005524856571
Si    7.46762  18.32963   4.75212  -0.000003255840984  -0.000001622613435  -0.000000093027413
Si    7.46762  21.04512   2.03662  -0.000005173692025   0.000002253176128  -0.000006187625524
Si    6.10988  16.97187   6.10987   0.000001615059071  -0.000000292597192   0.000001616514887
Si    8.82537  16.97187   8.82537   0.000001761157146  -0.000000018089069   0.000001764820550
Si    6.10988  19.68737   8.82537   0.000000609404211  -0.000007179698021  -0.000000516021399
Si    8.82537  19.68737   6.10987  -0.000000515927510  -0.000007187432932   0.000000602554840
Si   10.18313  18.32963   7.46762  -0.000006692414503   0.000004757278889   0.000002435055859
Si   10.18313  21.04512  10.18313   0.000003631310108  -0.000004552488633   0.000003632518393
Si    7.46762  18.32963  10.18313   0.000002431996608   0.000004762688907  -0.000006693368720
Si    7.46762  21.04512   7.46762  -0.000001641164308  -0.000000519450822  -0.000001644452432
Si    6.10988  16.97187  11.54087   0.000003820388548   0.000003331992440  -0.000000879596047
Si    8.82537  16.97187  14.25638  -0.000003259512269  -0.000001291072145  -0.000006433734932
Si    6.10988  19.68737  14.25638   0.000001223515137   0.000002803881643   0.000000101141121
Si    8.82537  19.68737  11.54087  -0.000000577521797   0.000002212103971   0.000003092273115
Si   10.18313  18.32963  12.89862   0.000007858419079   0.000001177327893   0.000001145544921
Si   10.18313  21.04512  15.61412   0.000002386562338  -0.000004696339278   0.000001708100858
Si    7.46762  18.32963  15.61412  -0.000005258227724   0.000004054158415  -0.000002174581307
Si    7.46762  21.04512  12.89862  -0.000003037772584   0.000001687180054   0.000000897475711
Si    6.10988  16.97187  16.97187  -0.000000635148937   0.000000438215305   0.000000429904930
Si    8.82537  16.97187  19.68737  -0.000002211627414   0.000003103563670   0.000003492393238
Si    6.10988  19.68737  19.68737   0.000006638762655  -0.000002693812047  -0.000002684284232
Si    8.82537  19.68737  16.97187  -0.000002208015641   0.000003482912675   0.000003097757813
Si   10.18313  18.32963  18.32963   0.000005765404874  -0.000004011771161  -0.000004015039061
Si   10.18313  21.04512  21.04512  -0.000004589140766  -0.000001766762593  -0.000001764350134
Si    7.46762  18.32963  21.04512  -0.000000847395469  -0.000001379242328  -0.000004539759890
Si    7.46762  21.04512  18.32963  -0.000000848669512  -0.000004540236103  -0.000001378248896
Si   11.54087   0.67888   0.67887   0.000004589140395   0.000001766762651   0.000001764350185
Si   14.25638   0.67888   3.39437   0.000000848669027   0.000004540236058   0.000001378248852
Si   11.54087   3.39438   3.39437  -0.000005765405280   0.000004011771444   0.000004015039073
Si   14.25638   3.39438   0.67887   0.000000847395209   0.000001379242333   0.000004539759921
Si   15.61412   2.03662   2.03662  -0.000006638762867   0.000002693812218   0.000002684284268
Si   15.61412   4.75212   4.75212   0.000000635148614  -0.000000438215224  -0.000000429904947
Si   12.89862   2.03662   4.75212   0.000002208015562  -0.000003482912813  -0.000003097757809
Si   12.89862   4.75212   2.03662   0.000002211627031  -0.000003103563758  -0.000003492393398
Si   11.54087   0.67888   6.10987  -0.000002386562714   0.000004696339610  -0.000001708100772
Si   14.25638   0.67888   8.82537   0.000003037772310  -0.000001687179958  -0.000000897475760
Si   11.54087   3.39438   8.82537  -0.000007858419278  -0.000001177328096  -0.000001145545170
Si   14.25638   3.39438   6.10987   0.000005258227415  -0.000004054158521   0.000002174581256
Si   15.61412   2.03662   7.46762  -0.000001223515442  -0.000002803881761  -0.000000101141037
Si   15.61412   4.75212  10.18313  -0.000003820388837  -0.000003331992529   0.000000879595913
Si   12.89862   2.03662  10.18313   0.000000577521598  -0.000002212104142  -0.000003092273032
Si   12.89862   4.75212   7.46762   0.000003259511936   0.000001291072285   0.000006433734940
Si   11.54087   0.67888  11.54087  -0.000003631310494   0.000004552488669  -0.000003632518471
Si   14.25638   0.67888  14.25638   0.000001641164331   0.000000519450498   0.000001644452554
Si   11.54087   3.39438  14.25638   0.000006692413979  -0.000004757278601  -0.000002435055758
Si   14.25638   3.39438  11.54087  -0.000002431996724  -0.000004762688842   0.000006693368753
Si   15.61412   2.03662  12.89862  -0.000000609404627   0.000007179698203   0.000000516021573
Si   15.61412   4.75212  15.61412  -0.000001615059246   0.000000292596977  -0.000001616515015
Si   12.89862   2.03662  15.61412   0.000000515927227   0.000007187433027  -0.000000602554848
Si   12.89862   4.75212  12.89862  -0.000001761157216   0.000000018089194  -0.000001764820718
Si   11.54087   0.67888  16.97187  -0.000004997697962   0.000005125113063  -0.000005524856473
Si   14.25638   0.67888  19.68737   0.000005173691483  -0.000002253175957   0.000006187625486
Si   11.54087   3.39438  19.68737  -0.000003226461135   0.000000133759332  -0.000002242237148
Si   14.25638   3.39438  16.97187   0.000003255840725   0.000001622613499   0.000000093027456
Si   15.61412   2.03662  18.32963   0.000004495539990  -0.000005010396012  -0.000000615365943
Si   15.61412   4.75212  21.04512  -0.000000299959566   0.000000109942146  -0.000003730993388
Si   12.89862   2.03662  21.04512  -0.000003288497376  -0.000000453056073   0.000002835755237
Si   12.89862   4.75212  18.32963   0.000001568283304  -0.000001073998879  -0.000000646404903
Si   11.54087   6.10987   0.67887  -0.000002389977999  -0.000001709914574   0.000004698418064
Si   14.25638   6.10987   3.39437   0.000005259429462   0.000002171872704  -0.000004056061844
Si   11.54087   8.82537   3.39437  -0.000007860734183  -0.000001147692264  -0.000001184223094
Si   14.25638   8.82537   0.67887   0.000003042384222  -0.000000889706119  -0.000001688436863
Si   15.61412   7.46762   2.03662  -0.000001233177663  -0.000000091302683  -0.000002805189046
Si   15.61412  10.18313   4.75212  -0.000003813714063   0.000000863775355  -0.000003340409367
Si   12.89862   7.46762   4.75212   0.000003272674666   0.000006448264351   0.000001295063717
Si   12.89862  10.18313   2.03662   0.000000567514798  -0.000003105537651  -0.000002198401036
Si   11.54087   6.10987   6.10987   0.000000398658917   0.000004703809038   0.000004706190937
Si   14.25638   6.10987   8.82537   0.000003284337331   0.000000475851646   0.000000182780684
Si   11.54087   8.82537   8.82537   0.000000917700709   0.000003008973251   0.000003003352205
Si   14.25638   8.82537   6.10987   0.000003277793015   0.000000185714084   0.000000470874108
Si   15.61412   7.46762   7.46762   0.000003162495030   0.000000547847345   0.000000548906989
Si   15.61412  10.18313  10.18313  -0.000000231410530  -0.000000861955920  -0.000000869784932
Si   12.89862   7.46762  10.18313   0.000004574872961   0.000003652696328  -0.000000335380601
Si   12.89862  10.18313   7.46762   0.000004566999983  -0.000000332036425   0.000003665348469
Si   11.54087   6.10987  11.54087   0.000000861955694   0.000000231410751   0.000000869784955
Si   14.25638   6.10987  14.25638  -0.000000547847782  -0.000003162495074  -0.000000548906916
Si   11.54087   8.82537  14.25638   0.000000332036391  -0.000004567000256  -0.000003665348336
Si   14.25638   8.82537  11.54087  -0.000003652696863  -0.000004574872885   0.000000335380756
Si   15.61412   7.46762  12.89862  -0.000000475851638  -0.000003284337835  -0.000000182780590
Si   15.61412  10.18313  15.61412  -0.000004703809151  -0.000000398658936  -0.000004706190920
Si   12.89862   7.46762  15.61412  -0.000000185714362  -0.000003277793196  -0.000000470874131
Si   12.89862  10.18313  12.89862  -0.000003008973505  -0.000000917700969  -0.000003003352367
Si   11.54087   6.10987  16.97187  -0.000000863775321   0.000003813713906   0.000003340409206
Si   14.25638   6.10987  19.68737   0.000000091302476   0.000001233177342   0.000002805188874
Si   11.54087   8.82537  19.68737   0.000003105537344  -0.000000567515202   0.000002198401076
Si   14.25638   8.82537  16.97187  -0.000006448264737  -0.000003272674802  -0.000001295063367
Si   15.61412   7.46762  18.32963  -0.000002171872811  -0.000005259429498   0.000004056061784
Si   15.61412  10.18313  21.04512   0.000001709914676   0.000002389977874  -0.000004698418075
Si   12.89862   7.46762  21.04512   0.000000889705825  -0.000003042384382   0.000001688436962
Si   12.89862  10.18313  18.32963   0.000001147692514   0.000007860734034   0.000001184223111
Si   11.54087  11.54087   0.67887  -0.000003632637148  -0.000003632636989   0.000004560132298
Si   14.25638  11.54087   3.39437  -0.000002429969733   0.000006698020705  -0.000004760983489
Si   11.54087  14.25638   3.39437   0.000006698020366  -0.000002429969480  -0.000004760983651
Si   14.25638  14.25638   0.67887   0.000001640700292   0.000001640700399   0.000000510765580
Si   15.61412  12.89862   2.03662  -0.000000615512116   0.000000532773089   0.000007185295722
Si   15.61412  15.61412   4.75212  -0.000001635067459  -0.000001635067731   0.000000292034510
Si   12.89862  12.89862   4.75212  -0.000001746536615  -0.000001746536515   0.000000010040360
Si   12.89862  15.61412   2.03662   0.000000532773133  -0.000000615511860   0.000007185295851
Si   11.54087  11.54087   6.10987   0.000000862930392   0.000000862930467   0.000000235304930
Si   14.25638  11.54087   8.82537  -0.000003662101806   0.000000336832667  -0.000004568892455
Si   11.54087  14.25638   8.82537   0.000000336832684  -0.000003662101234  -0.000004568892582
Si   14.25638  14.25638   6.10987  -0.000000548484429  -0.000000548484261  -0.000003155447431
Si   15.61412  12.89862   7.46762  -0.000000467343371  -0.000000190275585  -0.000003277445100
Si   15.61412  15.61412  10.18313  -0.000004695711017  -0.000004695710769  -0.000000405185683
Si   12.89862  12.89862  10.18313  -0.000003012153894  -0.000003012153904  -0.000000923272078
Si   12.89862  15.61412   7.46762  -0.000000190275862  -0.000000467343369  -0.000003277445043
Si   11.54087  11.54087  11.54087   0.000003658622568   0.000003658622657   0.000003660445239
Si   14.25638  11.54087  14.25638   0.000000063454765   0.000003344853933   0.000000061697600
Si   11.54087  14.25638  14.25638   0.000003344854005   0.000000063455056   0.000000061697445
Si   14.25638  14.25638  11.54087   0.000000058082689   0.000000058082770   0.000003348129511
Si   15.61412  12.89862  12.89862  -0.000000807215990   0.000001790022821   0.000001791678821
Si   15.61412  15.61412  15.61412  -0.000002961673459  -0.000002961673441  -0.000002963076432
Si   12.89862  12.89862  15.61412   0.000001788095590   0.000001788095918  -0.000000811706056
Si   12.89862  15.61412  12.89862   0.000001790022538  -0.000000807215796   0.000001791678818
Si   11.54087  11.54087  16.97187   0.000003026511412   0.000003026511515   0.000002459855797
Si   14.25638  11.54087  19.68737  -0.000004861991721   0.000002429874147  -0.000001999136093
Si   11.54087  14.25638  19.68737   0.000002429873936  -0.000004861991665  -0.000001999136151
Si   14.25638  14.25638  16.97187  -0.000001746517848  -0.000001746517984  -0.000000164861365
Si   15.61412  12.89862  18.32963  -0.000002241842299  -0.000004220015065  -0.000005740290099
Si   15.61412  15.61412  21.04512  -0.000001169480650  -0.000001169480766  -0.000001074612063
Si   12.89862  12.89862  21.04512  -0.000000602638643  -0.000000602638692  -0.000000532445234
Si   12.89862  15.61412  18.32963  -0.000004220015289  -0.000002241841971  -0.000005740290116
Si   11.54087  16.97187   0.67887  -0.000005002139949  -0.000005518858268   0.000005117722922
Si   14.25638  16.97187   3.39437   0.000003257386249   0.000000088592593   0.000001623803577
Si   11.54087  19.68737   3.39437  -0.000003226598096  -0.000002237150121   0.000000141079945
Si   14.25638  19.68737   0.67887   0.000005164164116   0.000006184440699  -0.000002242700069
Si   15.61412  18.32963   2.03662   0.000004495402612  -0.000000604125578  -0.000005005118363
Si   15.61412  21.04512   4.75212  -0.000000294719460  -0.000003741848781   0.000000110547366
Si   12.89862  18.32963   4.75212   0.000001562562131  -0.000000634343319  -0.000001075737821
Si   12.89862  21.04512   2.03662  -0.000003287536461   0.000002825876151  -0.000000455089742
Si   11.54087  16.97187   6.10987  -0.000000876748921   0.000003341609579   0.000003805647786
Si   14.25638  16.97187   8.82537  -0.000006436207173  -0.000001291413178  -0.000003267942948
Si   11.54087  19.68737   8.82537   0.000003101126808   0.000002199298636  -0.000000562184454
Si   14.25638  19.68737   6.10987   0.000000097446510   0.000002804791892   0.000001228381096
Si   15.61412  18.32963   7.46762  -0.000002169568342   0.000004054284145  -0.000005257542930
Si   15.61412  21.04512  10.18313   0.000001695924217  -0.000004688456867   0.000002388513835
Si   12.89862  18.32963  10.18313   0.000001146116286   0.000001175222017   0.000007856383252
Si   12.89862  21.04512   7.46762   0.000000894463161   0.000001687805361  -0.000003040899126
Si   11.54087  16.97187  11.54087   0.000003028937365   0.000002452224734   0.000003017663474
Si   14.25638  16.97187  14.25638  -0.000001757191635  -0.000000162018922  -0.000001753506620
Si   11.54087  19.68737  14.25638   0.000002428402419  -0.000002006405567  -0.000004851904075
Si   14.25638  19.68737  11.54087  -0.000004857483943  -0.000002000183995   0.000002432705935
Si   15.61412  18.32963  12.89862  -0.000002243557141  -0.000005750477052  -0.000004212427020
Si   15.61412  21.04512  15.61412  -0.000001180339300  -0.000001069269981  -0.000001176265476
Si   12.89862  18.32963  15.61412  -0.000004214145186  -0.000005744667814  -0.000002246725834
Si   12.89862  21.04512  12.89862  -0.000000591012076  -0.000000526236221  -0.000000596681503
Si   11.54087  16.97187  16.97187  -0.000007474128391   0.000002299230181   0.000002298835700
Si   14.25638  16.97187  19.68737   0.000003075031634  -0.000001801189565  -0.000008988065459
Si   11.54087  19.68737  19.68737  -0.000005192147466   0.000001870110664   0.000001868864206
Si   14.25638  19.68737  16.97187   0.000003080445464  -0.000008983378388  -0.000001799112817
Si   15.61412  18.32963  18.32963  -0.000004299422119  -0.000000069612542  -0.000000070296010
Si   15.61412  21.04512  21.04512  -0.000006574791483   0.000003879268241   0.000003883708475
Si   12.89862  18.32963  21.04512   0.000002134162913   0.000000006602207  -0.000003014915579
Si   12.89862  21.04512  18.32963   0.000002139938400  -0.000003010590441   0.000000005255902
Si   16.97187   0.67888   0.67887   0.000001535574511  -0.000000465015140  -0.000000466694205
Si   19.68737   0.67888   3.39437  -0.000001213779565  -0.000001252983089  -0.000004828715548
Si   16.97187   3.39438   3.39437  -0.000003535312688   0.000000594183382   0.000000600008269
Si   19.68737   3.39438   0.67887  -0.000001213761064  -0.000004824508371  -0.000001249850615
Si   21.04512   2.03662   2.03662  -0.000000004066167  -0.000001574981107  -0.000001562186975
Si   21.04512   4.75212   4.75212  -0.000003452277215   0.000002615310993   0.000002605039506
Si   18.32963   2.03662   4.75212   0.000000651450868   0.000004143363802   0.000000701786586
Si   18.32963   4.75212   2.03662   0.000000649681861   0.000000710438757   0.000004144322973
Si   16.97187   0.67888   6.10987  -0.000000107909045   0.000003735162365   0.000000302231542
Si   19.68737   0.67888   8.82537   0.000000453323520  -0.000002831996578   0.000003282238811
Si   16.97187   3.39438   8.82537   0.000001077002320   0.000000636150643  -0.000001558138690
Si   19.68737   3.39438   6.10987   0.000005002528796   0.000000614785491  -0.000004499725012
Si   21.04512   2.03662   7.46762   0.000002239087400  -0.000006180309200  -0.000005167268850
Si   21.04512   4.75212  10.18313  -0.000005124096708   0.000005522425471   0.000004994669351
Si   18.32963   2.03662  10.18313  -0.000000130305651   0.000002236897013   0.000003228371800
Si   18.32963   4.75212   7.46762  -0.000001630965193  -0.000000099263691  -0.000003258290742
Si   16.97187   0.67888  11.54087  -0.000005522425832   0.000005124096357  -0.000004994669476
Si   19.68737   0.67888  14.25638   0.000006180309066  -0.000002239087561   0.000005167269079
Si   16.97187   3.39438  14.25638   0.000000099263470   0.000001630965315   0.000003258291118
Si   19.68737   3.39438  11.54087  -0.000002236897001   0.000000130305604  -0.000003228371924
Si   21.04512   2.03662  12.89862   0.000002831996510  -0.000000453323382  -0.000003282238885
Si   21.04512   4.75212  15.61412  -0.000003735162409   0.000000107908844  -0.000000302231535
Si   18.32963   2.03662  15.61412  -0.000000614785787  -0.000005002529116   0.000004499724715
Si   18.32963   4.75212  12.89862  -0.000000636150830  -0.000001077002634   0.000001558138714
Si   16.97187   0.67888  16.97187  -0.000002615311095   0.000003452276819  -0.000002605039447
Si   19.68737   0.67888  19.68737   0.000001574980906   0.000000004066112   0.000001562187012
Si   16.97187   3.39438  19.68737  -0.000000710438988  -0.000000649682057  -0.000004144323080
Si   19.68737   3.39438  16.97187  -0.000004143363967  -0.000000651450868  -0.000000701786621
Si   21.04512   2.03662  18.32963   0.000001252982938   0.000001213779442   0.000004828715612
Si   21.04512   4.75212  21.04512   0.000000465014911  -0.000001535574732   0.000000466694093
Si   18.32963   2.03662  21.04512   0.000004824508164   0.000001213760988   0.000001249850554
Si   18.32963   4.75212  18.32963  -0.000000594183482   0.000003535312260  -0.000000600008026
Si   16.97187   6.10987   0.67887  -0.000000109942319   0.000000299959535   0.000003730993234
Si   19.68737   6.10987   3.39437   0.000005010396226  -0.000004495539830   0.000000615366074
Si   16.97187   8.82537   3.39437   0.000001073998886  -0.000001568283633   0.000000646404935
Si   19.68737   8.82537   0.67887   0.000000453055946   0.000003288497215  -0.000002835755147
Si   21.04512   7.46762   2.03662   0.000002253175941  -0.000005173692076  -0.000006187625693
Si   21.04512  10.18313   4.75212  -0.000005125113364   0.000004997698005   0.000005524856439
Si   18.32963   7.46762   4.75212  -0.000001622613700  -0.000003255841005  -0.000000093027378
Si   18.32963  10.18313   2.03662  -0.000000133759269   0.000003226461198   0.000002242237138
Si   16.97187   6.10987   6.10987  -0.000000292597423   0.000001615059423   0.000001616514846
Si   19.68737   6.10987   8.82537  -0.000007179698215   0.000000609404493  -0.000000516021622
Si   16.97187   8.82537   8.82537  -0.000000018089251   0.000001761157207   0.000001764820632
Si   19.68737   8.82537   6.10987  -0.000007187432834  -0.000000515927467   0.000000602554800
Si   21.04512   7.46762   7.46762  -0.000000519451019  -0.000001641164158  -0.000001644452463
Si   21.04512  10.18313  10.18313  -0.000004552488933   0.000003631310711   0.000003632518524
Si   18.32963   7.46762  10.18313   0.000004762688809   0.000002431996594  -0.000006693368748
Si   18.32963  10.18313   7.46762   0.000004757278634  -0.000006692414223   0.000002435055963
Si   16.97187   6.10987  11.54087   0.000003331992320   0.000003820388705  -0.000000879595939
Si   19.68737   6.10987  14.25638   0.000002803881611   0.000001223515248   0.000000101140974
Si   16.97187   8.82537  14.25638  -0.000001291072260  -0.000003259512192  -0.000006433734815
Si   19.68737   8.82537  11.54087   0.000002212103937  -0.000000577521650   0.000003092272938
Si   21.04512   7.46762  12.89862   0.000001687179916  -0.000003037772774   0.000000897475495
Si   21.04512  10.18313  15.61412  -0.000004696339687   0.000002386562629   0.000001708100995
Si   18.32963   7.46762  15.61412   0.000004054158425  -0.000005258227455  -0.000002174581320
Si   18.32963  10.18313  12.89862   0.000001177327902   0.000007858419247   0.000001145545098
Si   16.97187   6.10987  16.97187   0.000000438214963  -0.000000635148668   0.000000429904974
Si   19.68737   6.10987  19.68737  -0.000002693812094   0.000006638762871  -0.000002684284323
Si   16.97187   8.82537  19.68737   0.000003103563435  -0.000002211627229   0.000003492393444
Si   19.68737   8.82537  16.97187   0.000003482912636  -0.000002208015712   0.000003097757873
Si   21.04512   7.46762  18.32963  -0.000004540236374  -0.000000848669264  -0.000001378249004
Si   21.04512  10.18313  21.04512  -0.000001766763181  -0.000004589140447  -0.000001764350269
Si   18.32963   7.46762  21.04512  -0.000001379242297  -0.000000847395378  -0.000004539759845
Si   18.32963  10.18313  18.32963  -0.000004011771292   0.000005765405052  -0.000004015039053
Si   16.97187  11.54087   0.67887  -0.000005518858657  -0.000005002139570   0.000005117722345
Si   19.68737  11.54087   3.39437  -0.000002237149898  -0.000003226598006   0.000000141080083
Si   16.97187  14.25638   3.39437   0.000000088592233   0.000003257386937   0.000001623803904
Si   19.68737  14.25638   0.67887   0.000006184440901   0.000005164164585  -0.000002242700345
Si   21.04512  12.89862   2.03662   0.000002825875727  -0.000003287536406  -0.000000455089630
Si   21.04512  15.61412   4.75212  -0.000003741848808  -0.000000294719239   0.000000110547189
Si   18.32963  12.89862   4.75212  -0.000000634343335   0.000001562562262  -0.000001075737763
Si   18.32963  15.61412   2.03662  -0.000000604125682   0.000004495402715  -0.000005005118444
Si   16.97187  11.54087   6.10987   0.000003341609521  -0.000000876748789   0.000003805647573
Si   19.68737  11.54087   8.82537   0.000002199298820   0.000003101126627  -0.000000562184461
Si   16.97187  14.25638   8.82537  -0.000001291413257  -0.000006436206982  -0.000003267942851
Si   19.68737  14.25638   6.10987   0.000002804791772   0.000000097446287   0.000001228380926
Si   21.04512  12.89862   7.46762   0.000001687805077   0.000000894463144  -0.000003040899255
Si   21.04512  15.61412  10.18313  -0.000004688457069   0.000001695924256   0.000002388513848
Si   18.32963  12.89862  10.18313   0.000001175221986   0.000001146116890   0.000007856383193
Si   18.32963  15.61412   7.46762   0.000004054283866  -0.000002169568035  -0.000005257542993
Si   16.97187  11.54087  11.54087   0.000002452224288   0.000003028937315   0.000003017663145
Si   19.68737  11.54087  14.25638  -0.000002006405495   0.000002428402651  -0.000004851903985
Si   16.97187  14.25638  14.25638  -0.000000162019133  -0.000001757191550  -0.000001753506434
Si   19.68737  14.25638  11.54087  -0.000002000184259  -0.000004857484171   0.000002432705859
Si   21.04512  12.89862  12.89862  -0.000000526236634  -0.000000591011722  -0.000000596681445
Si   21.04512  15.61412  15.61412  -0.000001069270087  -0.000001180339269  -0.000001176265225
Si   18.32963  12.89862  15.61412  -0.000005744667798  -0.000004214145110  -0.000002246725870
Si   18.32963  15.61412  12.89862  -0.000005750476910  -0.000002243556662  -0.000004212427202
Si   16.97187  11.54087  16.97187   0.000002299229890  -0.000007474128432   0.000002298835561
Si   19.68737  11.54087  19.68737   0.000001870110837  -0.000005192147136   0.000001868864352
Si   16.97187  14.25638  19.68737  -0.000001801189765   0.000003075031867  -0.000008988065468
Si   19.68737  14.25638  16.97187  -0.000008983378323   0.000003080445748  -0.000001799112916
Si   21.04512  12.89862  18.32963  -0.000003010590858   0.000002139938380   0.000000005255853
Si   21.04512  15.61412  21.04512   0.000003879267951  -0.000006574791762   0.000003883708551
Si   18.32963  12.89862  21.04512   0.000000006602047   0.000002134162752  -0.000003014915686
Si   18.32963  15.61412  18.32963  -0.000000069612492  -0.000004299422180  -0.000000070295913
Si   16.97187  16.97187   0.67887  -0.000002606993851  -0.000002606993903   0.000003464478966
Si   19.68737  16.97187   3.39437  -0.000004149240291  -0.000000696082274  -0.000000658566108
Si   16.97187  19.68737   3.39437  -0.000000696082543  -0.000004149240370  -0.000000658565971
Si   19.68737  19.68737   0.67887   0.000001560460301   0.000001560460498   0.000000008256748
Si   21.04512  18.32963   2.03662   0.000001247307851   0.000004818928562   0.000001210087067
Si   21.04512  21.04512   4.75212   0.000000480277796   0.000000480278134  -0.000001530422649
Si   18.32963  18.32963   4.75212  -0.000000597301127  -0.000000597301135   0.000003536461001
Si   18.32963  21.04512   2.03662   0.000004818928707   0.000001247307915   0.000001210086978
Si   16.97187  16.97187   6.10987   0.000000438620348   0.000000438620422  -0.000000624144561
Si   19.68737  16.97187   8.82537   0.000003493681647   0.000003103358559  -0.000002216986758
Si   16.97187  19.68737   8.82537   0.000003103358148   0.000003493681829  -0.000002216986827
Si   19.68737  19.68737   6.10987  -0.000002688314318  -0.000002688314115   0.000006644906508
Si   21.04512  18.32963   7.46762  -0.000004542325363  -0.000001378977298  -0.000000848717825
Si   21.04512  21.04512  10.18313  -0.000001773594515  -0.000001773594199  -0.000004589255007
Si   18.32963  18.32963  10.18313  -0.000004014463289  -0.000004014463327   0.000005766532359
Si   18.32963  21.04512   7.46762  -0.000001378977108  -0.000004542325264  -0.000000848717841
Si   16.97187  16.97187  11.54087   0.000002301551668   0.000002301551696  -0.000007467496885
Si   19.68737  16.97187  14.25638  -0.000008992304285  -0.000001799718590   0.000003068042273
Si   16.97187  19.68737  14.25638  -0.000001799718637  -0.000008992304006   0.000003068042051
Si   19.68737  19.68737  11.54087   0.000001858904556   0.000001858904551  -0.000005185812205
Si   21.04512  18.32963  12.89862  -0.000003014260020   0.000000014679079   0.000002137387122
Si   21.04512  21.04512  15.61412   0.000003885449966   0.000003885449978  -0.000006583501694
Si   18.32963  18.32963  15.61412  -0.000000077410033  -0.000000077410072  -0.000004295552012
Si   18.32963  21.04512  12.89862   0.000000014679044  -0.000003014259821   0.000002137387411
Si   16.97187  16.97187  16.97187   0.000001386633968   0.000001386634275   0.000001396132306
Si   19.68737  16.97187  19.68737   0.000004995966087  -0.000006174472231   0.000004988076277
Si   16.97187  19.68737  19.68737  -0.000006174472465   0.000004995966074   0.000004988076699
Si   19.68737  19.68737  16.97187   0.000005003824475   0.000005003824551  -0.000006163735049
Si   21.04512  18.32963  18.32963  -0.000008739324709   0.000000301268375   0.000000300158400
Si   21.04512  21.04512  21.04512  -0.000000287813546  -0.000000287813439  -0.000000281671224
Si   18.32963  18.32963  21.04512   0.000000304039358   0.000000304039726  -0.000008743797388
Si   18.32963  21.04512  18.32963   0.000000301268233  -0.000008739324592   0.000000300158231
