CRYSTAL
PRIMVEC
  16.293000   0.000000   0.000000
   0.000000  16.293000   0.000000
   0.000000   0.000000  16.293000
PRIMCOORD
 216 1
Si     7.289E-01     6.789E-01     6.789E-01     5.017E-15     0.000E+00     3.072E-31
Si     3.394E+00     6.789E-01     3.394E+00     3.154E-15     0.000E+00     1.931E-31
Si     6.789E-01     3.394E+00     3.394E+00     9.211E-16     0.000E+00     5.640E-32
Si     3.394E+00     3.394E+00     6.789E-01     2.079E-15     0.000E+00     1.273E-31
Si     4.752E+00     2.037E+00     2.037E+00     1.102E-15     0.000E+00     6.747E-32
Si     4.752E+00     4.752E+00     4.752E+00     8.426E-16     0.000E+00     5.159E-32
Si     2.037E+00     2.037E+00     4.752E+00     9.191E-16     0.000E+00     5.628E-32
Si     2.037E+00     4.752E+00     2.037E+00     1.972E-15     0.000E+00     1.207E-31
Si     6.789E-01     6.789E-01     6.110E+00     1.578E-15     0.000E+00     9.665E-32
Si     3.394E+00     6.789E-01     8.825E+00     2.225E-15     0.000E+00     1.362E-31
Si     6.789E-01     3.394E+00     8.825E+00     1.752E-15     0.000E+00     1.073E-31
Si     3.394E+00     3.394E+00     6.110E+00     1.049E-15     0.000E+00     6.422E-32
Si     4.752E+00     2.037E+00     7.468E+00     1.126E-15     0.000E+00     6.898E-32
Si     4.752E+00     4.752E+00     1.018E+01     3.687E-15     0.000E+00     2.257E-31
Si     2.037E+00     2.037E+00     1.018E+01     3.766E-15     0.000E+00     2.306E-31
Si     2.037E+00     4.752E+00     7.468E+00     1.468E-15     0.000E+00     8.991E-32
Si     6.789E-01     6.789E-01     1.154E+01     6.110E-16     0.000E+00     3.741E-32
Si     3.394E+00     6.789E-01     1.426E+01     1.314E-15     0.000E+00     8.045E-32
Si     6.789E-01     3.394E+00     1.426E+01     2.302E-15     0.000E+00     1.409E-31
Si     3.394E+00     3.394E+00     1.154E+01     1.273E-15     0.000E+00     7.793E-32
Si     4.752E+00     2.037E+00     1.290E+01     1.702E-15     0.000E+00     1.042E-31
Si     4.752E+00     4.752E+00     1.561E+01     1.311E-15     0.000E+00     8.025E-32
Si     2.037E+00     2.037E+00     1.561E+01     1.501E-15     0.000E+00     9.193E-32
Si     2.037E+00     4.752E+00     1.290E+01     2.063E-15     0.000E+00     1.263E-31
Si     6.789E-01     6.110E+00     6.789E-01     3.470E-15     0.000E+00     2.125E-31
Si     3.394E+00     6.110E+00     3.394E+00     1.514E-15     0.000E+00     9.268E-32
Si     6.789E-01     8.825E+00     3.394E+00     2.430E-15     0.000E+00     1.488E-31
Si     3.394E+00     8.825E+00     6.789E-01     2.846E-15     0.000E+00     1.742E-31
Si     4.752E+00     7.468E+00     2.037E+00     1.913E-15     0.000E+00     1.171E-31
Si     4.752E+00     1.018E+01     4.752E+00     8.633E-16     0.000E+00     5.286E-32
Si     2.037E+00     7.468E+00     4.752E+00     9.239E-16     0.000E+00     5.657E-32
Si     2.037E+00     1.018E+01     2.037E+00     2.238E-15     0.000E+00     1.370E-31
Si     6.789E-01     6.110E+00     6.110E+00     1.466E-15     0.000E+00     8.974E-32
Si     3.394E+00     6.110E+00     8.825E+00     3.894E-16     0.000E+00     2.384E-32
Si     6.789E-01     8.825E+00     8.825E+00     2.425E-15     0.000E+00     1.485E-31
Si     3.394E+00     8.825E+00     6.110E+00     1.407E-15     0.000E+00     8.617E-32
Si     4.752E+00     7.468E+00     7.468E+00     4.925E-16     0.000E+00     3.016E-32
Si     4.752E+00     1.018E+01     1.018E+01     2.604E-15     0.000E+00     1.594E-31
Si     2.037E+00     7.468E+00     1.018E+01     2.417E-15     0.000E+00     1.480E-31
Si     2.037E+00     1.018E+01     7.468E+00     3.653E-15     0.000E+00     2.237E-31
Si     6.789E-01     6.110E+00     1.154E+01     1.635E-15     0.000E+00     1.001E-31
Si     3.394E+00     6.110E+00     1.426E+01     1.191E-15     0.000E+00     7.291E-32
Si     6.789E-01     8.825E+00     1.426E+01     1.586E-15     0.000E+00     9.711E-32
Si     3.394E+00     8.825E+00     1.154E+01     1.377E-15     0.000E+00     8.434E-32
Si     4.752E+00     7.468E+00     1.290E+01     1.968E-15     0.000E+00     1.205E-31
Si     4.752E+00     1.018E+01     1.561E+01     1.893E-15     0.000E+00     1.159E-31
Si     2.037E+00     7.468E+00     1.561E+01     2.125E-15     0.000E+00     1.301E-31
Si     2.037E+00     1.018E+01     1.290E+01     2.512E-15     0.000E+00     1.538E-31
Si     6.789E-01     1.154E+01     6.789E-01     2.321E-15     0.000E+00     1.421E-31
Si     3.394E+00     1.154E+01     3.394E+00     1.727E-15     0.000E+00     1.058E-31
Si     6.789E-01     1.426E+01     3.394E+00     2.316E-15     0.000E+00     1.418E-31
Si     3.394E+00     1.426E+01     6.789E-01     1.452E-15     0.000E+00     8.890E-32
Si     4.752E+00     1.290E+01     2.037E+00     2.577E-15     0.000E+00     1.578E-31
Si     4.752E+00     1.561E+01     4.752E+00     2.009E-15     0.000E+00     1.230E-31
Si     2.037E+00     1.290E+01     4.752E+00     3.489E-15     0.000E+00     2.136E-31
Si     2.037E+00     1.561E+01     2.037E+00     2.158E-15     0.000E+00     1.321E-31
Si     6.789E-01     1.154E+01     6.110E+00     1.661E-15     0.000E+00     1.017E-31
Si     3.394E+00     1.154E+01     8.825E+00     3.169E-15     0.000E+00     1.940E-31
Si     6.789E-01     1.426E+01     8.825E+00     2.639E-15     0.000E+00     1.616E-31
Si     3.394E+00     1.426E+01     6.110E+00     2.794E-15     0.000E+00     1.711E-31
Si     4.752E+00     1.290E+01     7.468E+00     2.287E-15     0.000E+00     1.400E-31
Si     4.752E+00     1.561E+01     1.018E+01     1.669E-15     0.000E+00     1.022E-31
Si     2.037E+00     1.290E+01     1.018E+01     1.575E-15     0.000E+00     9.643E-32
Si     2.037E+00     1.561E+01     7.468E+00     9.758E-16     0.000E+00     5.975E-32
Si     6.789E-01     1.154E+01     1.154E+01     1.385E-15     0.000E+00     8.483E-32
Si     3.394E+00     1.154E+01     1.426E+01     2.000E-15     0.000E+00     1.225E-31
Si     6.789E-01     1.426E+01     1.426E+01     1.314E-15     0.000E+00     8.046E-32
Si     3.394E+00     1.426E+01     1.154E+01     2.474E-15     0.000E+00     1.515E-31
Si     4.752E+00     1.290E+01     1.290E+01     2.485E-15     0.000E+00     1.521E-31
Si     4.752E+00     1.561E+01     1.561E+01     2.910E-15     0.000E+00     1.782E-31
Si     2.037E+00     1.290E+01     1.561E+01     1.342E-15     0.000E+00     8.216E-32
Si     2.037E+00     1.561E+01     1.290E+01     4.964E-16     0.000E+00     3.040E-32
Si     6.110E+00     6.789E-01     6.789E-01     2.801E-15     0.000E+00     1.715E-31
Si     8.825E+00     6.789E-01     3.394E+00     1.213E-15     0.000E+00     7.427E-32
Si     6.110E+00     3.394E+00     3.394E+00     2.328E-15     0.000E+00     1.425E-31
Si     8.825E+00     3.394E+00     6.789E-01     2.584E-15     0.000E+00     1.582E-31
Si     1.018E+01     2.037E+00     2.037E+00     1.128E-15     0.000E+00     6.910E-32
Si     1.018E+01     4.752E+00     4.752E+00     1.531E-15     0.000E+00     9.374E-32
Si     7.468E+00     2.037E+00     4.752E+00     1.079E-15     0.000E+00     6.608E-32
Si     7.468E+00     4.752E+00     2.037E+00     1.568E-15     0.000E+00     9.604E-32
Si     6.110E+00     6.789E-01     6.110E+00     1.865E-15     0.000E+00     1.142E-31
Si     8.825E+00     6.789E-01     8.825E+00     2.927E-15     0.000E+00     1.792E-31
Si     6.110E+00     3.394E+00     8.825E+00     3.571E-15     0.000E+00     2.187E-31
Si     8.825E+00     3.394E+00     6.110E+00     1.011E-15     0.000E+00     6.189E-32
Si     1.018E+01     2.037E+00     7.468E+00     2.631E-15     0.000E+00     1.611E-31
Si     1.018E+01     4.752E+00     1.018E+01     1.468E-15     0.000E+00     8.991E-32
Si     7.468E+00     2.037E+00     1.018E+01     1.132E-15     0.000E+00     6.931E-32
Si     7.468E+00     4.752E+00     7.468E+00     1.379E-15     0.000E+00     8.443E-32
Si     6.110E+00     6.789E-01     1.154E+01     2.719E-15     0.000E+00     1.665E-31
Si     8.825E+00     6.789E-01     1.426E+01     2.085E-15     0.000E+00     1.277E-31
Si     6.110E+00     3.394E+00     1.426E+01     1.594E-15     0.000E+00     9.762E-32
Si     8.825E+00     3.394E+00     1.154E+01     1.216E-15     0.000E+00     7.445E-32
Si     1.018E+01     2.037E+00     1.290E+01     2.376E-15     0.000E+00     1.455E-31
Si     1.018E+01     4.752E+00     1.561E+01     3.075E-15     0.000E+00     1.883E-31
Si     7.468E+00     2.037E+00     1.561E+01     1.481E-15     0.000E+00     9.071E-32
Si     7.468E+00     4.752E+00     1.290E+01     1.053E-15     0.000E+00     6.445E-32
Si     6.110E+00     6.110E+00     6.789E-01     7.175E-16     0.000E+00     4.393E-32
Si     8.825E+00     6.110E+00     3.394E+00     3.691E-15     0.000E+00     2.260E-31
Si     6.110E+00     8.825E+00     3.394E+00     2.753E-15     0.000E+00     1.686E-31
Si     8.825E+00     8.825E+00     6.789E-01     2.150E-15     0.000E+00     1.317E-31
Si     1.018E+01     7.468E+00     2.037E+00     2.907E-15     0.000E+00     1.780E-31
Si     1.018E+01     1.018E+01     4.752E+00     1.805E-15     0.000E+00     1.105E-31
Si     7.468E+00     7.468E+00     4.752E+00     1.286E-15     0.000E+00     7.872E-32
Si     7.468E+00     1.018E+01     2.037E+00     1.650E-15     0.000E+00     1.011E-31
Si     6.110E+00     6.110E+00     6.110E+00     1.528E-15     0.000E+00     9.358E-32
Si     8.825E+00     6.110E+00     8.825E+00     1.660E-15     0.000E+00     1.017E-31
Si     6.110E+00     8.825E+00     8.825E+00     2.150E-15     0.000E+00     1.317E-31
Si     8.825E+00     8.825E+00     6.110E+00     2.990E-16     0.000E+00     1.831E-32
Si     1.018E+01     7.468E+00     7.468E+00     4.068E-15     0.000E+00     2.491E-31
Si     1.018E+01     1.018E+01     1.018E+01     1.442E-15     0.000E+00     8.831E-32
Si     7.468E+00     7.468E+00     1.018E+01     1.265E-15     0.000E+00     7.748E-32
Si     7.468E+00     1.018E+01     7.468E+00     9.717E-16     0.000E+00     5.950E-32
Si     6.110E+00     6.110E+00     1.154E+01     2.843E-15     0.000E+00     1.741E-31
Si     8.825E+00     6.110E+00     1.426E+01     1.147E-15     0.000E+00     7.026E-32
Si     6.110E+00     8.825E+00     1.426E+01     1.228E-15     0.000E+00     7.521E-32
Si     8.825E+00     8.825E+00     1.154E+01     2.944E-15     0.000E+00     1.803E-31
Si     1.018E+01     7.468E+00     1.290E+01     1.939E-15     0.000E+00     1.188E-31
Si     1.018E+01     1.018E+01     1.561E+01     1.483E-15     0.000E+00     9.084E-32
Si     7.468E+00     7.468E+00     1.561E+01     1.959E-15     0.000E+00     1.199E-31
Si     7.468E+00     1.018E+01     1.290E+01     1.341E-15     0.000E+00     8.210E-32
Si     6.110E+00     1.154E+01     6.789E-01     3.560E-15     0.000E+00     2.180E-31
Si     8.825E+00     1.154E+01     3.394E+00     1.952E-15     0.000E+00     1.195E-31
Si     6.110E+00     1.426E+01     3.394E+00     1.536E-15     0.000E+00     9.404E-32
Si     8.825E+00     1.426E+01     6.789E-01     7.237E-16     0.000E+00     4.431E-32
Si     1.018E+01     1.290E+01     2.037E+00     2.165E-15     0.000E+00     1.326E-31
Si     1.018E+01     1.561E+01     4.752E+00     7.418E-16     0.000E+00     4.542E-32
Si     7.468E+00     1.290E+01     4.752E+00     2.382E-15     0.000E+00     1.458E-31
Si     7.468E+00     1.561E+01     2.037E+00     3.716E-15     0.000E+00     2.275E-31
Si     6.110E+00     1.154E+01     6.110E+00     3.142E-15     0.000E+00     1.924E-31
Si     8.825E+00     1.154E+01     8.825E+00     1.706E-15     0.000E+00     1.045E-31
Si     6.110E+00     1.426E+01     8.825E+00     2.572E-15     0.000E+00     1.575E-31
Si     8.825E+00     1.426E+01     6.110E+00     1.637E-15     0.000E+00     1.003E-31
Si     1.018E+01     1.290E+01     7.468E+00     3.177E-15     0.000E+00     1.946E-31
Si     1.018E+01     1.561E+01     1.018E+01     2.136E-15     0.000E+00     1.308E-31
Si     7.468E+00     1.290E+01     1.018E+01     2.026E-15     0.000E+00     1.240E-31
Si     7.468E+00     1.561E+01     7.468E+00     2.910E-15     0.000E+00     1.782E-31
Si     6.110E+00     1.154E+01     1.154E+01     2.723E-15     0.000E+00     1.668E-31
Si     8.825E+00     1.154E+01     1.426E+01     1.520E-15     0.000E+00     9.306E-32
Si     6.110E+00     1.426E+01     1.426E+01     2.620E-15     0.000E+00     1.604E-31
Si     8.825E+00     1.426E+01     1.154E+01     1.625E-15     0.000E+00     9.949E-32
Si     1.018E+01     1.290E+01     1.290E+01     4.745E-16     0.000E+00     2.905E-32
Si     1.018E+01     1.561E+01     1.561E+01     1.209E-15     0.000E+00     7.402E-32
Si     7.468E+00     1.290E+01     1.561E+01     2.647E-15     0.000E+00     1.621E-31
Si     7.468E+00     1.561E+01     1.290E+01     1.961E-15     0.000E+00     1.201E-31
Si     1.154E+01     6.789E-01     6.789E-01     8.258E-16     0.000E+00     5.057E-32
Si     1.426E+01     6.789E-01     3.394E+00     1.653E-15     0.000E+00     1.012E-31
Si     1.154E+01     3.394E+00     3.394E+00     1.340E-15     0.000E+00     8.207E-32
Si     1.426E+01     3.394E+00     6.789E-01     1.692E-15     0.000E+00     1.036E-31
Si     1.561E+01     2.037E+00     2.037E+00     6.496E-16     0.000E+00     3.978E-32
Si     1.561E+01     4.752E+00     4.752E+00     7.898E-16     0.000E+00     4.836E-32
Si     1.290E+01     2.037E+00     4.752E+00     1.756E-15     0.000E+00     1.076E-31
Si     1.290E+01     4.752E+00     2.037E+00     1.613E-15     0.000E+00     9.876E-32
Si     1.154E+01     6.789E-01     6.110E+00     2.045E-15     0.000E+00     1.252E-31
Si     1.426E+01     6.789E-01     8.825E+00     7.274E-16     0.000E+00     4.454E-32
Si     1.154E+01     3.394E+00     8.825E+00     9.977E-16     0.000E+00     6.109E-32
Si     1.426E+01     3.394E+00     6.110E+00     1.834E-15     0.000E+00     1.123E-31
Si     1.561E+01     2.037E+00     7.468E+00     8.911E-16     0.000E+00     5.456E-32
Si     1.561E+01     4.752E+00     1.018E+01     3.504E-15     0.000E+00     2.145E-31
Si     1.290E+01     2.037E+00     1.018E+01     2.929E-15     0.000E+00     1.794E-31
Si     1.290E+01     4.752E+00     7.468E+00     6.080E-16     0.000E+00     3.723E-32
Si     1.154E+01     6.789E-01     1.154E+01     1.927E-15     0.000E+00     1.180E-31
Si     1.426E+01     6.789E-01     1.426E+01     1.811E-15     0.000E+00     1.109E-31
Si     1.154E+01     3.394E+00     1.426E+01     2.084E-15     0.000E+00     1.276E-31
Si     1.426E+01     3.394E+00     1.154E+01     3.475E-15     0.000E+00     2.128E-31
Si     1.561E+01     2.037E+00     1.290E+01     2.662E-15     0.000E+00     1.630E-31
Si     1.561E+01     4.752E+00     1.561E+01     1.955E-15     0.000E+00     1.197E-31
Si     1.290E+01     2.037E+00     1.561E+01     1.336E-15     0.000E+00     8.181E-32
Si     1.290E+01     4.752E+00     1.290E+01     7.761E-16     0.000E+00     4.752E-32
Si     1.154E+01     6.110E+00     6.789E-01     1.997E-15     0.000E+00     1.223E-31
Si     1.426E+01     6.110E+00     3.394E+00     1.281E-15     0.000E+00     7.846E-32
Si     1.154E+01     8.825E+00     3.394E+00     1.037E-15     0.000E+00     6.348E-32
Si     1.426E+01     8.825E+00     6.789E-01     2.212E-15     0.000E+00     1.355E-31
Si     1.561E+01     7.468E+00     2.037E+00     1.588E-16     0.000E+00     9.725E-33
Si     1.561E+01     1.018E+01     4.752E+00     6.511E-16     0.000E+00     3.987E-32
Si     1.290E+01     7.468E+00     4.752E+00     1.326E-15     0.000E+00     8.119E-32
Si     1.290E+01     1.018E+01     2.037E+00     1.753E-15     0.000E+00     1.073E-31
Si     1.154E+01     6.110E+00     6.110E+00     4.989E-15     0.000E+00     3.055E-31
Si     1.426E+01     6.110E+00     8.825E+00     2.457E-15     0.000E+00     1.504E-31
Si     1.154E+01     8.825E+00     8.825E+00     9.624E-16     0.000E+00     5.893E-32
Si     1.426E+01     8.825E+00     6.110E+00     1.951E-15     0.000E+00     1.195E-31
Si     1.561E+01     7.468E+00     7.468E+00     1.469E-15     0.000E+00     8.996E-32
Si     1.561E+01     1.018E+01     1.018E+01     3.016E-15     0.000E+00     1.847E-31
Si     1.290E+01     7.468E+00     1.018E+01     1.835E-15     0.000E+00     1.124E-31
Si     1.290E+01     1.018E+01     7.468E+00     9.672E-16     0.000E+00     5.922E-32
Si     1.154E+01     6.110E+00     1.154E+01     6.622E-16     0.000E+00     4.055E-32
Si     1.426E+01     6.110E+00     1.426E+01     9.706E-16     0.000E+00     5.943E-32
Si     1.154E+01     8.825E+00     1.426E+01     1.296E-15     0.000E+00     7.938E-32
Si     1.426E+01     8.825E+00     1.154E+01     1.046E-15     0.000E+00     6.404E-32
Si     1.561E+01     7.468E+00     1.290E+01     3.015E-15     0.000E+00     1.846E-31
Si     1.561E+01     1.018E+01     1.561E+01     2.843E-15     0.000E+00     1.741E-31
Si     1.290E+01     7.468E+00     1.561E+01     2.502E-15     0.000E+00     1.532E-31
Si     1.290E+01     1.018E+01     1.290E+01     1.723E-15     0.000E+00     1.055E-31
Si     1.154E+01     1.154E+01     6.789E-01     1.471E-15     0.000E+00     9.008E-32
Si     1.426E+01     1.154E+01     3.394E+00     2.397E-15     0.000E+00     1.468E-31
Si     1.154E+01     1.426E+01     3.394E+00     1.528E-15     0.000E+00     9.359E-32
Si     1.426E+01     1.426E+01     6.789E-01     1.196E-15     0.000E+00     7.326E-32
Si     1.561E+01     1.290E+01     2.037E+00     2.287E-15     0.000E+00     1.400E-31
Si     1.561E+01     1.561E+01     4.752E+00     1.345E-15     0.000E+00     8.238E-32
Si     1.290E+01     1.290E+01     4.752E+00     1.918E-15     0.000E+00     1.174E-31
Si     1.290E+01     1.561E+01     2.037E+00     7.308E-16     0.000E+00     4.475E-32
Si     1.154E+01     1.154E+01     6.110E+00     2.422E-15     0.000E+00     1.483E-31
Si     1.426E+01     1.154E+01     8.825E+00     1.368E-15     0.000E+00     8.378E-32
Si     1.154E+01     1.426E+01     8.825E+00     6.778E-16     0.000E+00     4.151E-32
Si     1.426E+01     1.426E+01     6.110E+00     2.384E-15     0.000E+00     1.460E-31
Si     1.561E+01     1.290E+01     7.468E+00     1.540E-15     0.000E+00     9.431E-32
Si     1.561E+01     1.561E+01     1.018E+01     6.962E-16     0.000E+00     4.263E-32
Si     1.290E+01     1.290E+01     1.018E+01     1.369E-15     0.000E+00     8.381E-32
Si     1.290E+01     1.561E+01     7.468E+00     2.436E-15     0.000E+00     1.492E-31
Si     1.154E+01     1.154E+01     1.154E+01     6.737E-16     0.000E+00     4.125E-32
Si     1.426E+01     1.154E+01     1.426E+01     1.745E-15     0.000E+00     1.068E-31
Si     1.154E+01     1.426E+01     1.426E+01     5.615E-16     0.000E+00     3.438E-32
Si     1.426E+01     1.426E+01     1.154E+01     1.631E-15     0.000E+00     9.984E-32
Si     1.561E+01     1.290E+01     1.290E+01     9.287E-16     0.000E+00     5.687E-32
Si     1.561E+01     1.561E+01     1.561E+01     3.569E-15     0.000E+00     2.185E-31
Si     1.290E+01     1.290E+01     1.561E+01     7.282E-16     0.000E+00     4.459E-32
Si     1.290E+01     1.561E+01     1.290E+01     1.416E-15     0.000E+00     8.671E-32
