216 

Si    0.72888   0.67888   0.67888   0.013554452282346   0.000001990648759   0.000001990768047
Si    3.39437   0.67888   3.39437  -0.000199990070312   0.000120264754274  -0.000193514415224
Si    0.67888   3.39437   3.39437   0.000422774779956  -0.000114170466018  -0.000114504532145
Si    3.39437   3.39437   0.67888  -0.000200042610996  -0.000193659289386   0.000120664624442
Si    4.75213   2.03662   2.03662   0.000010573417939   0.000025269048948   0.000025400469437
Si    4.75213   4.75213   4.75213   0.000016293683318   0.000007131083489   0.000007121689963
Si    2.03662   2.03662   4.75213   0.000033542264218  -0.000036257059123   0.000033866721848
Si    2.03662   4.75213   2.03662   0.000033457050650   0.000033946111266  -0.000036346237655
Si    0.67888   0.67888   6.10987  -0.000019085111743   0.000002861018432   0.000000653027262
Si    3.39437   0.67888   8.82538  -0.000020012149947   0.000008154452112   0.000008156471102
Si    0.67888   3.39437   8.82538  -0.000003688257368  -0.000008033161571   0.000011483760608
Si    3.39437   3.39437   6.10987  -0.000019401070565   0.000022372306561  -0.000003060495393
Si    4.75213   2.03662   7.46762   0.000001034444629  -0.000009021103765  -0.000000596539350
Si    4.75213   4.75213  10.18313   0.000002565743603  -0.000017228309867  -0.000003758680563
Si    2.03662   2.03662  10.18313   0.000015281529555   0.000001235474674   0.000002273366349
Si    2.03662   4.75213   7.46762   0.000012656308076  -0.000007457299570   0.000008757447518
Si    0.67888   0.67888  11.54087  -0.000013795351688   0.000008181440246  -0.000007934168473
Si    3.39437   0.67888  14.25638  -0.000194039319561  -0.000108274609182   0.000183818811155
Si    0.67888   3.39437  14.25638   0.000422019471017   0.000108390726399  -0.000112502182147
Si    3.39437   3.39437  11.54087  -0.000024786484219   0.000017866102772   0.000003898445116
Si    4.75213   2.03662  12.89863  -0.000016027710216   0.000051354633958   0.000024940547251
Si    4.75213   4.75213  15.61412  -0.000009865941599  -0.000013068168000  -0.000061114633315
Si    2.03662   2.03662  15.61412  -0.003371499477269  -0.002473717096998   0.002466598706282
Si    2.03662   4.75213  12.89863  -0.000177685184191   0.000054526654087  -0.000048805080866
Si    0.67888   6.10987   0.67888  -0.000018924364629   0.000000662471035   0.000002868394006
Si    3.39437   6.10987   3.39437  -0.000019465272799  -0.000003059857583   0.000022347605621
Si    0.67888   8.82538   3.39437  -0.000003744046969   0.000011457019660  -0.000008032066335
Si    3.39437   8.82538   0.67888  -0.000019972899298   0.000008152960679   0.000008157702632
Si    4.75213   7.46762   2.03662   0.000001048573914  -0.000000599626877  -0.000009040476112
Si    4.75213  10.18313   4.75213   0.000002690058171  -0.000003774796172  -0.000017207937029
Si    2.03662   7.46762   4.75213   0.000012644286069   0.000008752729871  -0.000007407522822
Si    2.03662  10.18313   2.03662   0.000015290870329   0.000002252527185   0.000001448274253
Si    0.67888   6.10987   6.10987   0.000108631659068  -0.000020937802742  -0.000020956317296
Si    3.39437   6.10987   8.82538  -0.000007164049298   0.000014916620699   0.000006023776636
Si    0.67888   8.82538   8.82538   0.000118913912340   0.000008999702262   0.000008981288444
Si    3.39437   8.82538   6.10987  -0.000007156042547   0.000006014456252   0.000014921537607
Si    4.75213   7.46762   7.46762   0.000009618943262  -0.000012782484003  -0.000012791405832
Si    4.75213  10.18313  10.18313   0.000008580628027   0.000004629412173   0.000004634851471
Si    2.03662   7.46762  10.18313  -0.000063035324166  -0.000005493964382  -0.000001644697582
Si    2.03662  10.18313   7.46762  -0.000063035430335  -0.000001624168915  -0.000005480097116
Si    0.67888   6.10987  11.54087   0.000106103016027   0.000019950383860  -0.000023732752967
Si    3.39437   6.10987  14.25638  -0.000023729865597  -0.000012047543862  -0.000025910639985
Si    0.67888   8.82538  14.25638  -0.000009029082943  -0.000000436034874   0.000000750356377
Si    3.39437   8.82538  11.54087  -0.000013287578736   0.000005852089405  -0.000024778479785
Si    4.75213   7.46762  12.89863   0.000008801779297  -0.000006105447133   0.000029071003126
Si    4.75213  10.18313  15.61412   0.000001066963684  -0.000001387702903   0.000007033756066
Si    2.03662   7.46762  15.61412   0.000014411970483  -0.000005137380719  -0.000004327567846
Si    2.03662  10.18313  12.89863   0.000011764072950  -0.000011636371691   0.000017410563439
Si    0.67888  11.54087   0.67888  -0.000013664201581  -0.000007934913657   0.000008173151324
Si    3.39437  11.54087   3.39437  -0.000024777006009   0.000003897533481   0.000017747389628
Si    0.67888  14.25638   3.39437   0.000422041057907  -0.000112160512858   0.000108725138481
Si    3.39437  14.25638   0.67888  -0.000194100262918   0.000183941120304  -0.000108679213818
Si    4.75213  12.89863   2.03662  -0.000016001896543   0.000024932948367   0.000051242600640
Si    4.75213  15.61412   4.75213  -0.000009910693586  -0.000061250066595  -0.000013080623275
Si    2.03662  12.89863   4.75213  -0.000177685290164  -0.000048767289107   0.000054554166763
Si    2.03662  15.61412   2.03662  -0.003371497003247   0.002466482621830  -0.002473841165544
Si    0.67888  11.54087   6.10987   0.000106084640721  -0.000023696572920   0.000019978343202
Si    3.39437  11.54087   8.82538  -0.000013277767710  -0.000024797035185   0.000005837784185
Si    0.67888  14.25638   8.82538  -0.000008955673091   0.000000759717427  -0.000000445834879
Si    3.39437  14.25638   6.10987  -0.000023736119783  -0.000026028941339  -0.000012051825093
Si    4.75213  12.89863   7.46762   0.000008695752627   0.000029096009129  -0.000006098139271
Si    4.75213  15.61412  10.18313   0.000001017783021   0.000007032565075  -0.000001409257323
Si    2.03662  12.89863  10.18313   0.000011776137489   0.000017458026047  -0.000011636682097
Si    2.03662  15.61412   7.46762   0.000014402296974  -0.000004119874152  -0.000005153861354
Si    0.67888  11.54087  11.54087   0.000110515022118   0.000011941473337   0.000011978384199
Si    3.39437  11.54087  14.25638  -0.000019437259530   0.000001068642459  -0.000024352265935
Si    0.67888  14.25638  14.25638   0.000420831247915   0.000105077428370   0.000105428384230
Si    3.39437  14.25638  11.54087  -0.000019409660161  -0.000024356278789   0.000001050647983
Si    4.75213  12.89863  12.89863   0.000016294739492   0.000009175079620   0.000009191009346
Si    4.75213  15.61412  15.61412   0.000011539827902  -0.000033386600597  -0.000033521761149
Si    2.03662  12.89863  15.61412   0.000034355801548  -0.000023932330700   0.000033472291014
Si    2.03662  15.61412  12.89863   0.000034438924692   0.000033378780597  -0.000023849174908
Si    6.10987   0.67888   0.67888  -0.000005158909642   0.000002872321821   0.000002868708471
Si    8.82538   0.67888   3.39437   0.000005832449578   0.000004819362419  -0.000008021890076
Si    6.10987   3.39437   3.39437   0.000002262172189  -0.000015119012195  -0.000015112985015
Si    8.82538   3.39437   0.67888   0.000005857005958  -0.000008017941646   0.000004833597717
Si   10.18313   2.03662   2.03662   0.000000019648362   0.000002239740872   0.000002253422589
Si   10.18313   4.75213   4.75213  -0.000001024336266   0.000000059051866   0.000000045054285
Si    7.46762   2.03662   4.75213   0.000000523129580   0.000012655379732   0.000004996520918
Si    7.46762   4.75213   2.03662   0.000000534065214   0.000004986266868   0.000012657650174
Si    6.10987   0.67888   6.10987  -0.000000627714188   0.000028679784460  -0.000012289391428
Si    8.82538   0.67888   8.82538   0.000010652298249   0.000009002687483   0.000008981075293
Si    6.10987   3.39437   8.82538   0.000000207282631   0.000012736762806   0.000001214374453
Si    8.82538   3.39437   6.10987   0.000004795225771  -0.000006103994137   0.000000743369520
Si   10.18313   2.03662   7.46762  -0.000004936065997  -0.000001186386020  -0.000007873290527
Si   10.18313   4.75213  10.18313   0.000002552747800   0.000011796072729  -0.000005326756276
Si    7.46762   2.03662  10.18313  -0.000012411776542   0.000002251229091  -0.000000343552342
Si    7.46762   4.75213   7.46762  -0.000005574665040   0.000003643779643  -0.000013450907790
Si    6.10987   0.67888  11.54087  -0.000001506832563  -0.000018674777191   0.000009407686138
Si    8.82538   0.67888  14.25638   0.000000544979527   0.000006201721225   0.000000738998585
Si    6.10987   3.39437  14.25638   0.000001632277687  -0.000011263990765   0.000004141739826
Si    8.82538   3.39437  11.54087   0.000011108704103  -0.000005886190013  -0.000007353104343
Si   10.18313   2.03662  12.89863   0.000003291907976  -0.000011538444767   0.000009485394165
Si   10.18313   4.75213  15.61412   0.000004164493542   0.000000518037280   0.000008664707523
Si    7.46762   2.03662  15.61412  -0.000002636467247  -0.000003256161156  -0.000000492622824
Si    7.46762   4.75213  12.89863  -0.000009076932002   0.000011936150509   0.000006035539704
Si    6.10987   6.10987   0.67888  -0.000000744657065  -0.000012300331766   0.000028679584804
Si    8.82538   6.10987   3.39437   0.000004813867374   0.000000745564930  -0.000006109983970
Si    6.10987   8.82538   3.39437   0.000000198131074   0.000001217974384   0.000012732362348
Si    8.82538   8.82538   0.67888   0.000010607143151   0.000008999501191   0.000008984187067
Si   10.18313   7.46762   2.03662  -0.000004929796867  -0.000007884343409  -0.000001191244021
Si   10.18313  10.18313   4.75213   0.000002559544266  -0.000005328819317   0.000011808038840
Si    7.46762   7.46762   4.75213  -0.000005567309182  -0.000013448582514   0.000003642276749
Si    7.46762  10.18313   2.03662  -0.000012402152864  -0.000000360760220   0.000002257544822
Si    6.10987   6.10987   6.10987  -0.000002075831152   0.000003403404925   0.000003406632518
Si    8.82538   6.10987   8.82538   0.000001051435069   0.000000856615776   0.000002880531528
Si    6.10987   8.82538   8.82538  -0.000000936064575   0.000002884052890   0.000002879606518
Si    8.82538   8.82538   6.10987   0.000001031577825   0.000002857638903   0.000000851409519
Si   10.18313   7.46762   7.46762  -0.000000947554861  -0.000002693040795  -0.000002704398496
Si   10.18313  10.18313  10.18313  -0.000000067756447  -0.000000191027271  -0.000000175304107
Si    7.46762   7.46762  10.18313  -0.000002917298821  -0.000003045156559  -0.000000712027309
Si    7.46762  10.18313   7.46762  -0.000002935154337  -0.000000701094112  -0.000003042566374
Si    6.10987   6.10987  11.54087  -0.000001922749595   0.000003523288628  -0.000010631182097
Si    8.82538   6.10987  14.25638   0.000009221799142  -0.000001636343221  -0.000003106313757
Si    6.10987   8.82538  14.25638   0.000001078455173   0.000008783166289  -0.000015613723071
Si    8.82538   8.82538  11.54087   0.000006318696406   0.000008163112434  -0.000008134279830
Si   10.18313   7.46762  12.89863   0.000003438806628   0.000002444574871  -0.000001805988386
Si   10.18313  10.18313  15.61412  -0.000004929574518   0.000000768923977  -0.000005935619666
Si    7.46762   7.46762  15.61412  -0.000014290320261  -0.000008640420783  -0.000011242386817
Si    7.46762  10.18313  12.89863  -0.000000297714202   0.000006173309937   0.000007396493309
Si    6.10987  11.54087   0.67888  -0.000001623574988   0.000009414333721  -0.000018673076964
Si    8.82538  11.54087   3.39437   0.000011107962877  -0.000007364135355  -0.000005874777118
Si    6.10987  14.25638   3.39437   0.000001632460398   0.000004148869590  -0.000011263509110
Si    8.82538  14.25638   0.67888   0.000000587368734   0.000000743634292   0.000006204508796
Si   10.18313  12.89863   2.03662   0.000003285755827   0.000009483025275  -0.000011547264714
Si   10.18313  15.61412   4.75213   0.000004170839566   0.000008651432174   0.000000517963376
Si    7.46762  12.89863   4.75213  -0.000009077020859   0.000006062169289   0.000011925925515
Si    7.46762  15.61412   2.03662  -0.000002618427105  -0.000000492907132  -0.000003264742590
Si    6.10987  11.54087   6.10987  -0.000001922645031  -0.000010638709233   0.000003509119660
Si    8.82538  11.54087   8.82538   0.000006320630079  -0.000008130911811   0.000008157171614
Si    6.10987  14.25638   8.82538   0.000001087582964  -0.000015622451356   0.000008789108615
Si    8.82538  14.25638   6.10987   0.000009222519388  -0.000003113300698  -0.000001628941637
Si   10.18313  12.89863   7.46762   0.000003432010682  -0.000001796359080   0.000002446984097
Si   10.18313  15.61412  10.18313  -0.000004935704804  -0.000005933562780   0.000000751138125
Si    7.46762  12.89863  10.18313  -0.000000287074220   0.000007378019391   0.000006167034460
Si    7.46762  15.61412   7.46762  -0.000014299989464  -0.000011254366854  -0.000008639211602
Si    6.10987  11.54087  11.54087  -0.000001196341678  -0.000006287882503  -0.000006286660162
Si    8.82538  11.54087  14.25638   0.000004794327176  -0.000004491332314   0.000002352858410
Si    6.10987  14.25638  14.25638   0.000001391246146   0.000012228477308   0.000012226880630
Si    8.82538  14.25638  11.54087   0.000004811506750   0.000002355209331  -0.000004497521080
Si   10.18313  12.89863  12.89863  -0.000001021508076   0.000005714737708   0.000005719893942
Si   10.18313  15.61412  15.61412  -0.000000859143852  -0.000005123822679  -0.000005132935489
Si    7.46762  12.89863  15.61412  -0.000004752698452   0.000006034287500  -0.000019940652908
Si    7.46762  15.61412  12.89863  -0.000004745866716  -0.000019929860624   0.000006040970435
Si   11.54087   0.67888   0.67888  -0.000013899588074   0.000008144060850   0.000008147520879
Si   14.25638   0.67888   3.39437  -0.000183757489678   0.000108388827569   0.000174871160406
Si   11.54087   3.39437   3.39437  -0.000007172418430  -0.000003904783115  -0.000003914442708
Si   14.25638   3.39437   0.67888  -0.000183804103828   0.000174969724665   0.000108790106422
Si   15.61412   2.03662   2.03662  -0.003224256435600   0.002172625295526   0.002172765729228
Si   15.61412   4.75213   4.75213  -0.000181686135225  -0.000042204523243  -0.000042263609424
Si   12.89863   2.03662   4.75213  -0.000013466911299  -0.000051769071467   0.000022759900454
Si   12.89863   4.75213   2.03662  -0.000013429005782   0.000022746566905  -0.000051651256304
Si   11.54087   0.67888   6.10987  -0.000002778623218   0.000023141151623   0.000010923646033
Si   14.25638   0.67888   8.82538  -0.000011239972351   0.000002885477717   0.000002879380540
Si   11.54087   3.39437   8.82538  -0.000008044350807  -0.000024953625860   0.000007405290781
Si   14.25638   3.39437   6.10987  -0.000016564434954  -0.000032762749436   0.000012368052801
Si   15.61412   2.03662   7.46762   0.000012501750676  -0.000002320262599  -0.000000523268130
Si   15.61412   4.75213  10.18313   0.000008549609715   0.000013130472996   0.000012535108745
Si   12.89863   2.03662  10.18313   0.000005492632432   0.000010582020831   0.000002198500799
Si   12.89863   4.75213   7.46762   0.000008743360314   0.000029202033147  -0.000011881512105
Si   11.54087   0.67888  11.54087  -0.000008909465769  -0.000011269598336  -0.000020775716912
Si   14.25638   0.67888  14.25638  -0.000182933013727  -0.000098281713337  -0.000177788397391
Si   11.54087   3.39437  14.25638  -0.000001405131640   0.000009310833942  -0.000011301024672
Si   14.25638   3.39437  11.54087  -0.000015776669864  -0.000029183035989  -0.000007307928458
Si   15.61412   2.03662  12.89863   0.000028279191499   0.000039291150197   0.000027480889470
Si   15.61412   4.75213  15.61412   0.000022872473415  -0.000016587769520  -0.000046631017581
Si   12.89863   2.03662  15.61412   0.000007077443039  -0.000025095656678   0.000023270901053
Si   12.89863   4.75213  12.89863   0.000016292986432   0.000009337097489   0.000006967696300
Si   11.54087   6.10987   0.67888  -0.000002904430058   0.000010930414047   0.000023148074057
Si   14.25638   6.10987   3.39437  -0.000016554163237   0.000012362323474  -0.000032667241188
Si   11.54087   8.82538   3.39437  -0.000008054234833   0.000007423172367  -0.000024929177721
Si   14.25638   8.82538   0.67888  -0.000011204156480   0.000002883824088   0.000002881078397
Si   15.61412   7.46762   2.03662   0.000012544591044  -0.000000532257722  -0.000002546493716
Si   15.61412  10.18313   4.75213   0.000008518226219   0.000012539398229   0.000013096207157
Si   12.89863   7.46762   4.75213   0.000008846831239  -0.000011912109362   0.000029178752611
Si   12.89863  10.18313   2.03662   0.000005522831696   0.000002180927506   0.000010591400335
Si   11.54087   6.10987   6.10987  -0.000009112355278  -0.000003444984290  -0.000003430330242
Si   14.25638   6.10987   8.82538  -0.000004090618641  -0.000015753569724   0.000010297190834
Si   11.54087   8.82538   8.82538  -0.000009906084501   0.000008153520222   0.000008157020498
Si   14.25638   8.82538   6.10987  -0.000004098645701   0.000010294916528  -0.000015754782861
Si   15.61412   7.46762   7.46762  -0.000071653776368  -0.000010789330429  -0.000010792600227
Si   15.61412  10.18313  10.18313  -0.000069762759317   0.000001786385470   0.000001808026654
Si   12.89863   7.46762  10.18313   0.000004184932637   0.000001695941582  -0.000003694817462
Si   12.89863  10.18313   7.46762   0.000004202832707  -0.000003684180922   0.000001688002716
Si   11.54087   6.10987  11.54087  -0.000004807714583  -0.000002648296669   0.000000649965402
Si   14.25638   6.10987  14.25638  -0.000016700948691   0.000004431573229   0.000026304258005
Si   11.54087   8.82538  14.25638  -0.000001920867753   0.000004442976880   0.000015071944527
Si   14.25638   8.82538  11.54087  -0.000004978433042  -0.000000294060604   0.000012872802570
Si   15.61412   7.46762  12.89863   0.000003248548214  -0.000019813267736  -0.000002058476353
Si   15.61412  10.18313  15.61412   0.000012527910722  -0.000003216718690  -0.000001213307355
Si   12.89863   7.46762  15.61412   0.000006558662786  -0.000010332513225  -0.000018749893621
Si   12.89863  10.18313  12.89863   0.000002739188961   0.000002036317798  -0.000017315595392
Si   11.54087  11.54087   0.67888  -0.000009017180515  -0.000020806020978  -0.000011281461347
Si   14.25638  11.54087   3.39437  -0.000015819735415  -0.000007317146395  -0.000029177893992
Si   11.54087  14.25638   3.39437  -0.000001423095832  -0.000011295745677   0.000009297518413
Si   14.25638  14.25638   0.67888  -0.000182972041189  -0.000177892242956  -0.000098680704098
Si   15.61412  12.89863   2.03662   0.000028150664743   0.000027556136737   0.000039376848940
Si   15.61412  15.61412   4.75213   0.000023018208844  -0.000046542663078  -0.000016495897791
Si   12.89863  12.89863   4.75213   0.000016292584059   0.000006968860497   0.000009345571201
Si   12.89863  15.61412   2.03662   0.000007060260186   0.000023162729074  -0.000025222843354
Si   11.54087  11.54087   6.10987  -0.000004789792410   0.000000660605049  -0.000002656182059
Si   14.25638  11.54087   8.82538  -0.000004970304233   0.000012867158598  -0.000000293996144
Si   11.54087  14.25638   8.82538  -0.000001928910189   0.000015072976315   0.000004455884618
Si   14.25638  14.25638   6.10987  -0.000016659751187   0.000026304188827   0.000004427056257
Si   15.61412  12.89863   7.46762   0.000003262133656  -0.000002109482465  -0.000019817514580
Si   15.61412  15.61412  10.18313   0.000012522279994  -0.000001431027693  -0.000003234070589
Si   12.89863  12.89863  10.18313   0.000002618426784  -0.000017333306036   0.000002029381078
Si   12.89863  15.61412   7.46762   0.000006527985305  -0.000018737084858  -0.000010353697668
Si   11.54087  11.54087  11.54087  -0.000010149161942  -0.000004709647294  -0.000004727837529
Si   14.25638  11.54087  14.25638  -0.000016561720994  -0.000019475806375   0.000025546604574
Si   11.54087  14.25638  14.25638  -0.000006141278382  -0.000004256688215  -0.000004250376207
Si   14.25638  14.25638  11.54087  -0.000016569769812   0.000025650550980  -0.000019488564663
Si   15.61412  12.89863  12.89863  -0.000181690415781   0.000060224262311   0.000060247033892
Si   15.61412  15.61412  15.61412  -0.003226191361558  -0.002181521594210  -0.002181649265109
Si   12.89863  12.89863  15.61412  -0.000007268632298  -0.000010866035320   0.000041758415899
Si   12.89863  15.61412  12.89863  -0.000007324460099   0.000041852289149  -0.000010884053775
