216 

Si    0.67888   0.67888   0.67888   0.000008999707105   0.000008999707072   0.000008981271801
Si    3.39437   0.67888   3.39437  -0.000008999706858   0.000008999707003  -0.000008981271623
Si    0.67888   3.39437   3.39437   0.000008999707061  -0.000008999707030  -0.000008981271689
Si    3.39437   3.39437   0.67888  -0.000008999706837  -0.000008999706944   0.000008981271602
Si    4.75213   2.03662   2.03662   0.000007115123295   0.000000000000021  -0.000000000000012
Si    4.75213   4.75213   4.75213   0.000008153982491   0.000008153982236   0.000008157473682
Si    2.03662   2.03662   4.75213   0.000000000000130   0.000000000000042   0.000007121902049
Si    2.03662   4.75213   2.03662   0.000000000000141   0.000007115123214   0.000000000000017
Si    0.67888   0.67888   6.10987   0.000002866728802   0.000002866728812   0.000000874880883
Si    3.39437   0.67888   8.82538  -0.000008153982272   0.000008153982425   0.000008157473770
Si    0.67888   3.39437   8.82538   0.000008153982429  -0.000008153982469   0.000008157473809
Si    3.39437   3.39437   6.10987  -0.000002866728686  -0.000002866728913   0.000000874880854
Si    4.75213   2.03662   7.46762   0.000002884640447   0.000000879957573  -0.000002880198886
Si    4.75213   4.75213  10.18313   0.000002866728756   0.000002866728592  -0.000000874880633
Si    2.03662   2.03662  10.18313   0.000000000000050  -0.000000000000005  -0.000000000000049
Si    2.03662   4.75213   7.46762   0.000000879957722   0.000002884640252  -0.000002880198842
Si    0.67888   0.67888  11.54087   0.000008153982459   0.000008153982460  -0.000008157473948
Si    3.39437   0.67888  14.25638  -0.000002866728523   0.000002866728912  -0.000000874880903
Si    0.67888   3.39437  14.25638   0.000002866728987  -0.000002866728744  -0.000000874880846
Si    3.39437   3.39437  11.54087  -0.000008153982257  -0.000008153982406  -0.000008157473762
Si    4.75213   2.03662  12.89863   0.000002884640473  -0.000000879957614   0.000002880198939
Si    4.75213   4.75213  15.61412   0.000008999707114   0.000008999707031  -0.000008981271745
Si    2.03662   2.03662  15.61412   0.000000000000237   0.000000000000073  -0.000007121901994
Si    2.03662   4.75213  12.89863  -0.000000879957503   0.000002884640289   0.000002880198850
Si    0.67888   6.10987   0.67888   0.000002884640465   0.000000879957754   0.000002880198959
Si    3.39437   6.10987   3.39437  -0.000002884640298   0.000000879957673  -0.000002880199081
Si    0.67888   8.82538   3.39437   0.000008153982271   0.000008153982448  -0.000008157473807
Si    3.39437   8.82538   0.67888  -0.000008153982337   0.000008153982315   0.000008157473707
Si    4.75213   7.46762   2.03662   0.000002866728807  -0.000002866728861   0.000000874880639
Si    4.75213  10.18313   4.75213   0.000002884640370  -0.000000879957588   0.000002880198796
Si    2.03662   7.46762   4.75213   0.000000879957649  -0.000002884640323   0.000002880198849
Si    2.03662  10.18313   2.03662  -0.000000000000120  -0.000000000000065  -0.000000000000011
Si    0.67888   6.10987   6.10987   0.000007115123128   0.000000000000019  -0.000000000000004
Si    3.39437   6.10987   8.82538  -0.000002884640392  -0.000000879957885   0.000002880199004
Si    0.67888   8.82538   8.82538   0.000008999706836   0.000008999707074   0.000008981271715
Si    3.39437   8.82538   6.10987  -0.000002866728865   0.000002866728783  -0.000000874880925
Si    4.75213   7.46762   7.46762   0.000008153982354  -0.000008153982480  -0.000008157473757
Si    4.75213  10.18313  10.18313   0.000007115123079   0.000000000000044   0.000000000000068
Si    2.03662   7.46762  10.18313  -0.000000000000072  -0.000007115123246   0.000000000000062
Si    2.03662  10.18313   7.46762  -0.000000000000172  -0.000000000000013  -0.000007121902018
Si    0.67888   6.10987  11.54087   0.000002884640448  -0.000000879957656  -0.000002880199001
Si    3.39437   6.10987  14.25638  -0.000007115123003  -0.000000000000055  -0.000000000000003
Si    0.67888   8.82538  14.25638   0.000002866728796   0.000002866728810   0.000000874880790
Si    3.39437   8.82538  11.54087  -0.000008999707101   0.000008999706887  -0.000008981271552
Si    4.75213   7.46762  12.89863   0.000008999707010  -0.000008999707205   0.000008981271880
Si    4.75213  10.18313  15.61412   0.000002884640411   0.000000879957578  -0.000002880198891
Si    2.03662   7.46762  15.61412  -0.000000879957583  -0.000002884640306  -0.000002880198808
Si    2.03662  10.18313  12.89863  -0.000000000000045  -0.000000000000061   0.000007121902012
Si    0.67888  11.54087   0.67888   0.000008153982295  -0.000008153982562   0.000008157473852
Si    3.39437  11.54087   3.39437  -0.000008153982355  -0.000008153982389  -0.000008157473774
Si    0.67888  14.25638   3.39437   0.000002884640344  -0.000000879957750  -0.000002880198869
Si    3.39437  14.25638   0.67888  -0.000002884640160  -0.000000879957720   0.000002880199004
Si    4.75213  12.89863   2.03662   0.000002866728928   0.000002866728839  -0.000000874880764
Si    4.75213  15.61412   4.75213   0.000008999707189  -0.000008999706957   0.000008981271760
Si    2.03662  12.89863   4.75213  -0.000000879957709   0.000002884640303   0.000002880198846
Si    2.03662  15.61412   2.03662   0.000000000000166  -0.000007115123114   0.000000000000017
Si    0.67888  11.54087   6.10987   0.000002866728632  -0.000002866728831  -0.000000874880774
Si    3.39437  11.54087   8.82538  -0.000008999707105  -0.000008999706867   0.000008981271659
Si    0.67888  14.25638   8.82538   0.000002884640317   0.000000879957712   0.000002880198953
Si    3.39437  14.25638   6.10987  -0.000007115123016   0.000000000000099   0.000000000000028
Si    4.75213  12.89863   7.46762   0.000008999707090   0.000008999707275  -0.000008981271772
Si    4.75213  15.61412  10.18313   0.000002866728878  -0.000002866728638   0.000000874880719
Si    2.03662  12.89863  10.18313  -0.000000000000062   0.000007115123227  -0.000000000000050
Si    2.03662  15.61412   7.46762  -0.000000879957633  -0.000002884640217  -0.000002880198820
Si    0.67888  11.54087  11.54087   0.000008999706883  -0.000008999707098  -0.000008981271779
Si    3.39437  11.54087  14.25638  -0.000002866728713  -0.000002866728857   0.000000874880910
Si    0.67888  14.25638  14.25638   0.000007115123196  -0.000000000000050  -0.000000000000052
Si    3.39437  14.25638  11.54087  -0.000002884640229   0.000000879957879  -0.000002880198991
Si    4.75213  12.89863  12.89863   0.000008153982535   0.000008153982456   0.000008157473746
Si    4.75213  15.61412  15.61412   0.000008153982625  -0.000008153982257  -0.000008157473719
Si    2.03662  12.89863  15.61412   0.000000879957778   0.000002884640265  -0.000002880198894
Si    2.03662  15.61412  12.89863   0.000000879957852  -0.000002884640275   0.000002880198782
Si    6.10987   0.67888   0.67888   0.000000879957787   0.000002884640371   0.000002880198880
Si    8.82538   0.67888   3.39437   0.000008153982395   0.000008153982174  -0.000008157473595
Si    6.10987   3.39437   3.39437   0.000000879957708  -0.000002884640415  -0.000002880198969
Si    8.82538   3.39437   0.67888   0.000008153982285  -0.000008153982300   0.000008157473635
Si   10.18313   2.03662   2.03662  -0.000000000000021  -0.000000000000109   0.000000000000063
Si   10.18313   4.75213   4.75213  -0.000000879957635   0.000002884640312   0.000002880198911
Si    7.46762   2.03662   4.75213  -0.000002884640286   0.000000879957586   0.000002880199020
Si    7.46762   4.75213   2.03662  -0.000002866728766   0.000002866728798   0.000000874880723
Si    6.10987   0.67888   6.10987   0.000000000000154   0.000007115123085  -0.000000000000020
Si    8.82538   0.67888   8.82538   0.000008999707059   0.000008999706864   0.000008981271609
Si    6.10987   3.39437   8.82538  -0.000000879957654  -0.000002884640506   0.000002880198919
Si    8.82538   3.39437   6.10987   0.000002866728798  -0.000002866728914  -0.000000874880723
Si   10.18313   2.03662   7.46762   0.000000000000043  -0.000000000000245  -0.000007121902011
Si   10.18313   4.75213  10.18313   0.000000000000038   0.000007115123028   0.000000000000049
Si    7.46762   2.03662  10.18313  -0.000007115123159  -0.000000000000106   0.000000000000028
Si    7.46762   4.75213   7.46762  -0.000008153982261   0.000008153982198  -0.000008157473825
Si    6.10987   0.67888  11.54087  -0.000000879957571   0.000002884640380  -0.000002880198930
Si    8.82538   0.67888  14.25638   0.000002866728695   0.000002866728702   0.000000874880698
Si    6.10987   3.39437  14.25638   0.000000000000075  -0.000007115123151   0.000000000000034
Si    8.82538   3.39437  11.54087   0.000008999706963  -0.000008999707129  -0.000008981271630
Si   10.18313   2.03662  12.89863  -0.000000000000108  -0.000000000000001   0.000007121901945
Si   10.18313   4.75213  15.61412   0.000000879957566   0.000002884640470  -0.000002880198990
Si    7.46762   2.03662  15.61412  -0.000002884640378  -0.000000879957713  -0.000002880198995
Si    7.46762   4.75213  12.89863  -0.000008999707050   0.000008999706890   0.000008981271782
Si    6.10987   6.10987   0.67888   0.000000000000072  -0.000000000000098   0.000007121901873
Si    8.82538   6.10987   3.39437   0.000002884640390  -0.000000879957640  -0.000002880198958
Si    6.10987   8.82538   3.39437  -0.000000879957581   0.000002884640309  -0.000002880199009
Si    8.82538   8.82538   0.67888   0.000008999707120   0.000008999707025   0.000008981271692
Si   10.18313   7.46762   2.03662   0.000000000000106  -0.000007115123105  -0.000000000000115
Si   10.18313  10.18313   4.75213   0.000000000000214   0.000000000000211   0.000007121901891
Si    7.46762   7.46762   4.75213  -0.000008153982193  -0.000008153982479   0.000008157473622
Si    7.46762  10.18313   2.03662  -0.000007115123015   0.000000000000050  -0.000000000000076
Si    6.10987   6.10987   6.10987   0.000000000000105  -0.000000000000178  -0.000000000000082
Si    8.82538   6.10987   8.82538   0.000002884640448   0.000000879957425   0.000002880198900
Si    6.10987   8.82538   8.82538   0.000000879957669   0.000002884640296   0.000002880198927
Si    8.82538   8.82538   6.10987   0.000002866728992   0.000002866728835   0.000000874880572
Si   10.18313   7.46762   7.46762  -0.000000879957464  -0.000002884640375  -0.000002880199086
Si   10.18313  10.18313  10.18313   0.000000000000318   0.000000000000173   0.000000000000006
Si    7.46762   7.46762  10.18313  -0.000002866728729  -0.000002866728989  -0.000000874880715
Si    7.46762  10.18313   7.46762  -0.000002884640169  -0.000000879957545  -0.000002880199136
Si    6.10987   6.10987  11.54087   0.000000000000029  -0.000000000000163  -0.000007121901771
Si    8.82538   6.10987  14.25638   0.000007115123150  -0.000000000000061   0.000000000000104
Si    6.10987   8.82538  14.25638   0.000000000000074   0.000007115123022   0.000000000000108
Si    8.82538   8.82538  11.54087   0.000008153982480   0.000008153982272  -0.000008157473481
Si   10.18313   7.46762  12.89863   0.000000879957734  -0.000002884640428   0.000002880199120
Si   10.18313  10.18313  15.61412   0.000000000000107  -0.000000000000009  -0.000007121901894
Si    7.46762   7.46762  15.61412  -0.000008999706963  -0.000008999707086  -0.000008981271658
Si    7.46762  10.18313  12.89863  -0.000002884640234   0.000000879957751   0.000002880199162
Si    6.10987  11.54087   0.67888  -0.000000879957518  -0.000002884640262   0.000002880198909
Si    8.82538  11.54087   3.39437   0.000008999707230  -0.000008999706836  -0.000008981271699
Si    6.10987  14.25638   3.39437   0.000000000000227   0.000000000000132  -0.000007121901942
Si    8.82538  14.25638   0.67888   0.000002884640429   0.000000879957620   0.000002880198922
Si   10.18313  12.89863   2.03662   0.000000000000084   0.000007115123168   0.000000000000154
Si   10.18313  15.61412   4.75213   0.000000879957680  -0.000002884640538   0.000002880199085
Si    7.46762  12.89863   4.75213  -0.000008999706773   0.000008999707165   0.000008981271630
Si    7.46762  15.61412   2.03662  -0.000002866728629  -0.000002866728854  -0.000000874880756
Si    6.10987  11.54087   6.10987   0.000000000000195  -0.000007115122936  -0.000000000000072
Si    8.82538  11.54087   8.82538   0.000008153982600  -0.000008153982027   0.000008157473547
Si    6.10987  14.25638   8.82538   0.000000000000185   0.000000000000188   0.000007121901919
Si    8.82538  14.25638   6.10987   0.000007115123373   0.000000000000108  -0.000000000000052
Si   10.18313  12.89863   7.46762   0.000000879957835   0.000002884640613  -0.000002880199083
Si   10.18313  15.61412  10.18313   0.000000000000038  -0.000007115123145  -0.000000000000158
Si    7.46762  12.89863  10.18313  -0.000002866728601   0.000002866729125   0.000000874880804
Si    7.46762  15.61412   7.46762  -0.000008999706844  -0.000008999706923  -0.000008981271702
Si    6.10987  11.54087  11.54087   0.000000879957753  -0.000002884640190  -0.000002880198779
Si    8.82538  11.54087  14.25638   0.000002866728871  -0.000002866728643  -0.000000874880594
Si    6.10987  14.25638  14.25638   0.000000000000222   0.000000000000110   0.000000000000041
Si    8.82538  14.25638  11.54087   0.000002884640441  -0.000000879957489  -0.000002880198920
Si   10.18313  12.89863  12.89863  -0.000000879957618   0.000002884640483   0.000002880199012
Si   10.18313  15.61412  15.61412  -0.000000879957772  -0.000002884640466  -0.000002880198898
Si    7.46762  12.89863  15.61412  -0.000008153982144   0.000008153982489  -0.000008157473729
Si    7.46762  15.61412  12.89863  -0.000008153982229  -0.000008153982346   0.000008157473797
Si   11.54087   0.67888   0.67888  -0.000008153982439   0.000008153982265   0.000008157473827
Si   14.25638   0.67888   3.39437  -0.000000879957728   0.000002884640275  -0.000002880198769
Si   11.54087   3.39437   3.39437  -0.000008153982343  -0.000008153982425  -0.000008157473669
Si   14.25638   3.39437   0.67888  -0.000000879957639  -0.000002884640296   0.000002880198993
Si   15.61412   2.03662   2.03662  -0.000007115123081   0.000000000000041   0.000000000000088
Si   15.61412   4.75213   4.75213  -0.000008999706966   0.000008999706989   0.000008981271678
Si   12.89863   2.03662   4.75213   0.000002884640328  -0.000000879957749   0.000002880199030
Si   12.89863   4.75213   2.03662   0.000002866728794   0.000002866728865  -0.000000874880700
Si   11.54087   0.67888   6.10987  -0.000002866728805   0.000002866728618  -0.000000874880740
Si   14.25638   0.67888   8.82538   0.000000879957704   0.000002884640379   0.000002880198950
Si   11.54087   3.39437   8.82538  -0.000008999706917  -0.000008999707138   0.000008981271630
Si   14.25638   3.39437   6.10987   0.000000000000021  -0.000007115123242   0.000000000000129
Si   15.61412   2.03662   7.46762  -0.000002884640331  -0.000000879957769  -0.000002880198811
Si   15.61412   4.75213  10.18313  -0.000002866728672   0.000002866728687   0.000000874880767
Si   12.89863   2.03662  10.18313   0.000007115123241  -0.000000000000103  -0.000000000000146
Si   12.89863   4.75213   7.46762   0.000008999707065   0.000008999706916  -0.000008981271679
Si   11.54087   0.67888  11.54087  -0.000008999707026   0.000008999706875  -0.000008981271793
Si   14.25638   0.67888  14.25638  -0.000000000000024   0.000007115123156  -0.000000000000131
Si   11.54087   3.39437  14.25638  -0.000002866728886  -0.000002866728770   0.000000874880771
Si   14.25638   3.39437  11.54087   0.000000879957808  -0.000002884640474  -0.000002880199131
Si   15.61412   2.03662  12.89863  -0.000002884640249   0.000000879957743   0.000002880198704
Si   15.61412   4.75213  15.61412  -0.000008153982223   0.000008153982474  -0.000008157473699
Si   12.89863   2.03662  15.61412   0.000002884640317   0.000000879957627  -0.000002880198921
Si   12.89863   4.75213  12.89863   0.000008153982319   0.000008153982378   0.000008157473659
Si   11.54087   6.10987   0.67888  -0.000002884640375  -0.000000879957565   0.000002880198959
Si   14.25638   6.10987   3.39437   0.000000000000028   0.000000000000207  -0.000007121901998
Si   11.54087   8.82538   3.39437  -0.000008999706827   0.000008999707142  -0.000008981271663
Si   14.25638   8.82538   0.67888   0.000000879957711   0.000002884640523   0.000002880199066
Si   15.61412   7.46762   2.03662  -0.000002866728760  -0.000002866728579  -0.000000874880787
Si   15.61412  10.18313   4.75213  -0.000002884640478   0.000000879957725   0.000002880198864
Si   12.89863   7.46762   4.75213   0.000008999707063  -0.000008999706853   0.000008981271613
Si   12.89863  10.18313   2.03662   0.000007115123267   0.000000000000059   0.000000000000072
Si   11.54087   6.10987   6.10987  -0.000007115123132   0.000000000000022  -0.000000000000038
Si   14.25638   6.10987   8.82538   0.000000000000082  -0.000000000000023   0.000007121901992
Si   11.54087   8.82538   8.82538  -0.000008153982072   0.000008153982489   0.000008157473682
Si   14.25638   8.82538   6.10987   0.000000000000018   0.000007115123340  -0.000000000000134
Si   15.61412   7.46762   7.46762  -0.000008999706997  -0.000008999706870  -0.000008981271623
Si   15.61412  10.18313  10.18313  -0.000007115123182   0.000000000000019  -0.000000000000020
Si   12.89863   7.46762  10.18313   0.000002866728967  -0.000002866728715   0.000000874880690
Si   12.89863  10.18313   7.46762   0.000002884640510   0.000000879957775  -0.000002880199024
Si   11.54087   6.10987  11.54087  -0.000002884640285   0.000000879957647  -0.000002880198863
Si   14.25638   6.10987  14.25638   0.000000000000052   0.000000000000134  -0.000000000000003
Si   11.54087   8.82538  14.25638  -0.000002866728705   0.000002866728820  -0.000000874880662
Si   14.25638   8.82538  11.54087  -0.000000879957570   0.000002884640439  -0.000002880198965
Si   15.61412   7.46762  12.89863  -0.000008153982279  -0.000008153982275   0.000008157473739
Si   15.61412  10.18313  15.61412  -0.000002884640400  -0.000000879957770  -0.000002880198787
Si   12.89863   7.46762  15.61412   0.000008153982353  -0.000008153982186  -0.000008157473632
Si   12.89863  10.18313  12.89863   0.000002884640494  -0.000000879957583   0.000002880198984
Si   11.54087  11.54087   0.67888  -0.000008999706930  -0.000008999706972   0.000008981271728
Si   14.25638  11.54087   3.39437   0.000000879957632  -0.000002884640520  -0.000002880198951
Si   11.54087  14.25638   3.39437  -0.000002884640401   0.000000879957583  -0.000002880198810
Si   14.25638  14.25638   0.67888  -0.000000000000119  -0.000000000000221   0.000007121902129
Si   15.61412  12.89863   2.03662  -0.000002866728865   0.000002866728566   0.000000874880906
Si   15.61412  15.61412   4.75213  -0.000008153982410  -0.000008153982406   0.000008157473838
Si   12.89863  12.89863   4.75213   0.000008153982253   0.000008153982282   0.000008157473768
Si   12.89863  15.61412   2.03662   0.000002866728676  -0.000002866728925   0.000000874880880
Si   11.54087  11.54087   6.10987  -0.000002866728612  -0.000002866728614   0.000000874880671
Si   14.25638  11.54087   8.82538  -0.000000879957653  -0.000002884640311   0.000002880198827
Si   11.54087  14.25638   8.82538  -0.000002884640319  -0.000000879957648   0.000002880198790
Si   14.25638  14.25638   6.10987  -0.000000000000136  -0.000000000000067   0.000000000000053
Si   15.61412  12.89863   7.46762  -0.000008153982486   0.000008153982335  -0.000008157473732
Si   15.61412  15.61412  10.18313  -0.000002866728764  -0.000002866728724  -0.000000874880956
Si   12.89863  12.89863  10.18313   0.000002866728832   0.000002866728828  -0.000000874880835
Si   12.89863  15.61412   7.46762   0.000008153982248  -0.000008153982418  -0.000008157473713
Si   11.54087  11.54087  11.54087  -0.000008153982179  -0.000008153982299  -0.000008157473786
Si   14.25638  11.54087  14.25638  -0.000000000000040  -0.000007115123317   0.000000000000072
Si   11.54087  14.25638  14.25638  -0.000007115123347  -0.000000000000081  -0.000000000000003
Si   14.25638  14.25638  11.54087  -0.000000000000057   0.000000000000006  -0.000007121902191
Si   15.61412  12.89863  12.89863  -0.000008999707052   0.000008999706843   0.000008981271522
Si   15.61412  15.61412  15.61412  -0.000008999706967  -0.000008999706995  -0.000008981271611
Si   12.89863  12.89863  15.61412   0.000008999706898   0.000008999706859  -0.000008981271537
Si   12.89863  15.61412  12.89863   0.000008999706907  -0.000008999707047   0.000008981271522
