300 

Si    0.00000  -0.00000  -0.00000   0.000009455478746  -0.000008764366356  -0.000008763945445
Si    1.35775   1.35775   1.35775  -0.000000103123900   0.000010145481973   0.000010129491588
Si    2.71550   2.71550   0.00000   0.000009455478630  -0.000008764366613  -0.000008763945299
Si    4.07325   4.07325   1.35775  -0.000000103123967   0.000010145481954   0.000010129491715
Si    5.43100   5.43100   0.00000   0.000009455478664  -0.000008764366344  -0.000008763945191
Si    6.78875   6.78875   1.35775  -0.000000103123954   0.000010145482265   0.000010129491781
Si    8.14650   8.14650   0.00000   0.000009455478768  -0.000008764365994  -0.000008763945246
Si    9.50425   9.50425   1.35775  -0.000000103123885   0.000010145482452   0.000010129491681
Si   10.86200  10.86200   0.00000   0.000009455478813  -0.000008764365983  -0.000008763945432
Si   12.21975  12.21975   1.35775  -0.000000103123840   0.000010145482294   0.000010129491553
Si    2.71550   0.00000   2.71550   0.000009455478446  -0.000008764366082  -0.000008763944801
Si    4.07325   1.35775   4.07325  -0.000000103124194   0.000010145482288   0.000010129492133
Si    5.43100   2.71550   2.71550   0.000009455478423  -0.000008764366291  -0.000008763944702
Si    6.78875   4.07325   4.07325  -0.000000103124229   0.000010145482272   0.000010129492203
Si    8.14650   5.43100   2.71550   0.000009455478413  -0.000008764366068  -0.000008763944691
Si    9.50425   6.78875   4.07325  -0.000000103124286   0.000010145482579   0.000010129492214
Si   10.86200   8.14650   2.71550   0.000009455478402  -0.000008764365738  -0.000008763944767
Si   12.21975   9.50425   4.07325  -0.000000103124256   0.000010145482830   0.000010129492168
Si   13.57750  10.86200   2.71550   0.000009455478442  -0.000008764365692  -0.000008763944826
Si   14.93525  12.21975   4.07325  -0.000000103124217   0.000010145482675   0.000010129492098
Si    5.43100  -0.00000   5.43100   0.000009455478180  -0.000008764365710  -0.000008763944600
Si    6.78875   1.35775   6.78875  -0.000000103124350   0.000010145482526   0.000010129491894
Si    8.14650   2.71550   5.43100   0.000009455478171  -0.000008764366021  -0.000008763944516
Si    9.50425   4.07325   6.78875  -0.000000103124437   0.000010145482446   0.000010129491975
Si   10.86200   5.43100   5.43100   0.000009455478036  -0.000008764365820  -0.000008763944498
Si   12.21975   6.78875   6.78875  -0.000000103124602   0.000010145482812   0.000010129492020
Si   13.57750   8.14650   5.43100   0.000009455477994  -0.000008764365379  -0.000008763944569
Si   14.93525   9.50425   6.78875  -0.000000103124586   0.000010145483138   0.000010129491947
Si   16.29300  10.86200   5.43100   0.000009455478083  -0.000008764365308  -0.000008763944643
Si   17.65075  12.21975   6.78875  -0.000000103124443   0.000010145482966   0.000010129491847
Si    8.14650   0.00000   8.14650   0.000009455478350  -0.000008764365775  -0.000008763945083
Si    9.50425   1.35775   9.50425  -0.000000103124127   0.000010145482314   0.000010129491145
Si   10.86200   2.71550   8.14650   0.000009455478183  -0.000008764366125  -0.000008763945000
Si   12.21975   4.07325   9.50425  -0.000000103124342   0.000010145482243   0.000010129491290
Si   13.57750   5.43100   8.14650   0.000009455478004  -0.000008764365915  -0.000008763944945
Si   14.93525   6.78875   9.50425  -0.000000103124473   0.000010145482612   0.000010129491392
Si   16.29300   8.14650   8.14650   0.000009455478033  -0.000008764365431  -0.000008763944993
Si   17.65075   9.50425   9.50425  -0.000000103124342   0.000010145482929   0.000010129491316
Si   19.00850  10.86200   8.14650   0.000009455478250  -0.000008764365342  -0.000008763945066
Si   20.36625  12.21975   9.50425  -0.000000103124127   0.000010145482756   0.000010129491177
Si   10.86200   0.00000  10.86200   0.000009455478677  -0.000008764366194  -0.000008763945643
Si   12.21975   1.35775  12.21975  -0.000000103123859   0.000010145481953   0.000010129490964
Si   13.57750   2.71550  10.86200   0.000009455478464  -0.000008764366511  -0.000008763945528
Si   14.93525   4.07325  12.21975  -0.000000103124032   0.000010145481934   0.000010129491151
Si   16.29300   5.43100  10.86200   0.000009455478390  -0.000008764366241  -0.000008763945385
Si   17.65075   6.78875  12.21975  -0.000000103124046   0.000010145482275   0.000010129491298
Si   19.00850   8.14650  10.86200   0.000009455478557  -0.000008764365814  -0.000008763945409
Si   20.36625   9.50425  12.21975  -0.000000103123895   0.000010145482510   0.000010129491203
Si   21.72400  10.86200  10.86200   0.000009455478739  -0.000008764365767  -0.000008763945551
Si   23.08175  12.21975  12.21975  -0.000000103123770   0.000010145482329   0.000010129490984
Si    0.00000   2.71550   2.71550   0.000005214161633   0.000007339556384   0.000007327681770
Si    1.35775   4.07325   4.07325   0.000005728747171   0.000003543604665   0.000003553536679
Si    2.71550   5.43100   2.71550   0.000005214161582   0.000007339556611   0.000007327681784
Si    4.07325   6.78875   4.07325   0.000005728747156   0.000003543605079   0.000003553536657
Si    5.43100   8.14650   2.71550   0.000005214161511   0.000007339556944   0.000007327681891
Si    6.78875   9.50425   4.07325   0.000005728747072   0.000003543605242   0.000003553536798
Si    8.14650  10.86200   2.71550   0.000005214161482   0.000007339556922   0.000007327681956
Si    9.50425  12.21975   4.07325   0.000005728747075   0.000003543604991   0.000003553536894
Si   10.86200  13.57750   2.71550   0.000005214161596   0.000007339556604   0.000007327681866
Si   12.21975  14.93525   4.07325   0.000005728747150   0.000003543604644   0.000003553536804
Si    2.71550   2.71550   5.43100   0.000005214161226   0.000007339556751   0.000007327682147
Si    4.07325   4.07325   6.78875   0.000005728746734   0.000003543605077   0.000003553536445
Si    5.43100   5.43100   5.43100   0.000005214161271   0.000007339556950   0.000007327682130
Si    6.78875   6.78875   6.78875   0.000005728746764   0.000003543605508   0.000003553536472
Si    8.14650   8.14650   5.43100   0.000005214161177   0.000007339557323   0.000007327682233
Si    9.50425   9.50425   6.78875   0.000005728746654   0.000003543605752   0.000003553536648
Si   10.86200  10.86200   5.43100   0.000005214161093   0.000007339557358   0.000007327682336
Si   12.21975  12.21975   6.78875   0.000005728746559   0.000003543605524   0.000003553536728
Si   13.57750  13.57750   5.43100   0.000005214161140   0.000007339556994   0.000007327682275
Si   14.93525  14.93525   6.78875   0.000005728746590   0.000003543605101   0.000003553536612
Si    5.43100   2.71550   8.14650   0.000005214160888   0.000007339557123   0.000007327681289
Si    6.78875   4.07325   9.50425   0.000005728746520   0.000003543605400   0.000003553535246
Si    8.14650   5.43100   8.14650   0.000005214160919   0.000007339557319   0.000007327681314
Si    9.50425   6.78875   9.50425   0.000005728746485   0.000003543605801   0.000003553535330
Si   10.86200   8.14650   8.14650   0.000005214160729   0.000007339557756   0.000007327681464
Si   12.21975   9.50425   9.50425   0.000005728746245   0.000003543606105   0.000003553535482
Si   13.57750  10.86200   8.14650   0.000005214160594   0.000007339557842   0.000007327681528
Si   14.93525  12.21975   9.50425   0.000005728746134   0.000003543605863   0.000003553535484
Si   16.29300  13.57750   8.14650   0.000005214160695   0.000007339557455   0.000007327681406
Si   17.65075  14.93525   9.50425   0.000005728746290   0.000003543605402   0.000003553535316
Si    8.14650   2.71550  10.86200   0.000005214161061   0.000007339557002   0.000007327680330
Si    9.50425   4.07325  12.21975   0.000005728746832   0.000003543605142   0.000003553534722
Si   10.86200   5.43100  10.86200   0.000005214160964   0.000007339557243   0.000007327680436
Si   12.21975   6.78875  12.21975   0.000005728746656   0.000003543605579   0.000003553534844
Si   13.57750   8.14650  10.86200   0.000005214160739   0.000007339557671   0.000007327680602
Si   14.93525   9.50425  12.21975   0.000005728746445   0.000003543605787   0.000003553534987
Si   16.29300  10.86200  10.86200   0.000005214160676   0.000007339557700   0.000007327680625
Si   17.65075  12.21975  12.21975   0.000005728746469   0.000003543605512   0.000003553534959
Si   19.00850  13.57750  10.86200   0.000005214160916   0.000007339557301   0.000007327680471
Si   20.36625  14.93525  12.21975   0.000005728746670   0.000003543605116   0.000003553534785
Si   10.86200   2.71550  13.57750   0.000005214161513   0.000007339556549   0.000007327680673
Si   12.21975   4.07325  14.93525   0.000005728747245   0.000003543604700   0.000003553535656
Si   13.57750   5.43100  13.57750   0.000005214161409   0.000007339556779   0.000007327680765
Si   14.93525   6.78875  14.93525   0.000005728747121   0.000003543605098   0.000003553535728
Si   16.29300   8.14650  13.57750   0.000005214161277   0.000007339557139   0.000007327680928
Si   17.65075   9.50425  14.93525   0.000005728747010   0.000003543605256   0.000003553535877
Si   19.00850  10.86200  13.57750   0.000005214161298   0.000007339557119   0.000007327680951
Si   20.36625  12.21975  14.93525   0.000005728747028   0.000003543604979   0.000003553535867
Si   21.72400  13.57750  13.57750   0.000005214161451   0.000007339556768   0.000007327680783
Si   23.08175  14.93525  14.93525   0.000005728747194   0.000003543604628   0.000003553535715
Si    0.00000   5.43100   5.43100   0.000012729719523  -0.000004486791344  -0.000004474702124
Si    1.35775   6.78875   6.78875  -0.000003128588214   0.000006967389860   0.000006972811486
Si    2.71550   8.14650   5.43100   0.000012729719570  -0.000004486790888  -0.000004474702249
Si    4.07325   9.50425   6.78875  -0.000003128588113   0.000006967390271   0.000006972811444
Si    5.43100  10.86200   5.43100   0.000012729719474  -0.000004486790839  -0.000004474702082
Si    6.78875  12.21975   6.78875  -0.000003128588202   0.000006967390082   0.000006972811666
Si    8.14650  13.57750   5.43100   0.000012729719368  -0.000004486791279  -0.000004474701821
Si    9.50425  14.93525   6.78875  -0.000003128588318   0.000006967389552   0.000006972811877
Si   10.86200  16.29300   5.43100   0.000012729719410  -0.000004486791563  -0.000004474701866
Si   12.21975  17.65075   6.78875  -0.000003128588340   0.000006967389414   0.000006972811796
Si    2.71550   5.43100   8.14650   0.000012729718881  -0.000004486790780  -0.000004474702770
Si    4.07325   6.78875   9.50425  -0.000003128588858   0.000006967390517   0.000006972810157
Si    5.43100   8.14650   8.14650   0.000012729719050  -0.000004486790274  -0.000004474702868
Si    6.78875   9.50425   9.50425  -0.000003128588692   0.000006967390975   0.000006972810126
Si    8.14650  10.86200   8.14650   0.000012729718979  -0.000004486790195  -0.000004474702673
Si    9.50425  12.21975   9.50425  -0.000003128588842   0.000006967390786   0.000006972810319
Si   10.86200  13.57750   8.14650   0.000012729718761  -0.000004486790636  -0.000004474702450
Si   12.21975  14.93525   9.50425  -0.000003128589114   0.000006967390222   0.000006972810440
Si   13.57750  16.29300   8.14650   0.000012729718683  -0.000004486791014  -0.000004474702518
Si   14.93525  17.65075   9.50425  -0.000003128589130   0.000006967390047   0.000006972810357
Si    5.43100   5.43100  10.86200   0.000012729718477  -0.000004486790303  -0.000004474704345
Si    6.78875   6.78875  12.21975  -0.000003128589058   0.000006967390872   0.000006972808800
Si    8.14650   8.14650  10.86200   0.000012729718671  -0.000004486789787  -0.000004474704382
Si    9.50425   9.50425  12.21975  -0.000003128589018   0.000006967391293   0.000006972808773
Si   10.86200  10.86200  10.86200   0.000012729718461  -0.000004486789711  -0.000004474704251
Si   12.21975  12.21975  12.21975  -0.000003128589306   0.000006967391072   0.000006972808869
Si   13.57750  13.57750  10.86200   0.000012729718154  -0.000004486790162  -0.000004474704108
Si   14.93525  14.93525  12.21975  -0.000003128589536   0.000006967390534   0.000006972808985
Si   16.29300  16.29300  10.86200   0.000012729718180  -0.000004486790529  -0.000004474704158
Si   17.65075  17.65075  12.21975  -0.000003128589393   0.000006967390416   0.000006972808941
Si    8.14650   5.43100  13.57750   0.000012729718860  -0.000004486790534  -0.000004474704643
Si    9.50425   6.78875  14.93525  -0.000003128588574   0.000006967390451   0.000006972809308
Si   10.86200   8.14650  13.57750   0.000012729718895  -0.000004486790077  -0.000004474704685
Si   12.21975   9.50425  14.93525  -0.000003128588627   0.000006967390769   0.000006972809239
Si   13.57750  10.86200  13.57750   0.000012729718653  -0.000004486790053  -0.000004474704565
Si   14.93525  12.21975  14.93525  -0.000003128588869   0.000006967390546   0.000006972809425
Si   16.29300  13.57750  13.57750   0.000012729718440  -0.000004486790511  -0.000004474704414
Si   17.65075  14.93525  14.93525  -0.000003128588999   0.000006967390045   0.000006972809559
Si   19.00850  16.29300  13.57750   0.000012729718587  -0.000004486790787  -0.000004474704460
Si   20.36625  17.65075  14.93525  -0.000003128588811   0.000006967389996   0.000006972809506
Si   10.86200   5.43100  16.29300   0.000012729719509  -0.000004486791199  -0.000004474703273
Si   12.21975   6.78875  17.65075  -0.000003128588039   0.000006967389788   0.000006972810953
Si   13.57750   8.14650  16.29300   0.000012729719495  -0.000004486790761  -0.000004474703347
Si   14.93525   9.50425  17.65075  -0.000003128588051   0.000006967390153   0.000006972810900
Si   16.29300  10.86200  16.29300   0.000012729719313  -0.000004486790774  -0.000004474703203
Si   17.65075  12.21975  17.65075  -0.000003128588201   0.000006967389911   0.000006972811121
Si   19.00850  13.57750  16.29300   0.000012729719204  -0.000004486791208  -0.000004474703006
Si   20.36625  14.93525  17.65075  -0.000003128588263   0.000006967389416   0.000006972811276
Si   21.72400  16.29300  16.29300   0.000012729719328  -0.000004486791461  -0.000004474703042
Si   23.08175  17.65075  17.65075  -0.000003128588163   0.000006967389350   0.000006972811205
Si    0.00000   8.14650   8.14650   0.000009455478673  -0.000008764366049  -0.000008763943527
Si    1.35775   9.50425   9.50425  -0.000000103124150   0.000010145482771   0.000010129492693
Si    2.71550  10.86200   8.14650   0.000009455478812  -0.000008764365708  -0.000008763943674
Si    4.07325  12.21975   9.50425  -0.000000103123996   0.000010145482817   0.000010129492634
Si    5.43100  13.57750   8.14650   0.000009455478750  -0.000008764366121  -0.000008763943509
Si    6.78875  14.93525   9.50425  -0.000000103124027   0.000010145482284   0.000010129492773
Si    8.14650  16.29300   8.14650   0.000009455478639  -0.000008764366675  -0.000008763943270
Si    9.50425  17.65075   9.50425  -0.000000103124194   0.000010145481898   0.000010129492932
Si   10.86200  19.00850   8.14650   0.000009455478574  -0.000008764366623  -0.000008763943317
Si   12.21975  20.36625   9.50425  -0.000000103124255   0.000010145482237   0.000010129492914
Si    2.71550   8.14650  10.86200   0.000009455477992  -0.000008764365372  -0.000008763945205
Si    4.07325   9.50425  12.21975  -0.000000103124819   0.000010145483497   0.000010129490927
Si    5.43100  10.86200  10.86200   0.000009455478208  -0.000008764365050  -0.000008763945350
Si    6.78875  12.21975  12.21975  -0.000000103124641   0.000010145483524   0.000010129490820
Si    8.14650  13.57750  10.86200   0.000009455478170  -0.000008764365437  -0.000008763945255
Si    9.50425  14.93525  12.21975  -0.000000103124759   0.000010145482987   0.000010129490880
Si   10.86200  16.29300  10.86200   0.000009455477909  -0.000008764366011  -0.000008763945069
Si   12.21975  17.65075  12.21975  -0.000000103125022   0.000010145482637   0.000010129491058
Si   13.57750  19.00850  10.86200   0.000009455477766  -0.000008764365956  -0.000008763945050
Si   14.93525  20.36625  12.21975  -0.000000103125062   0.000010145482988   0.000010129491078
Si    5.43100   8.14650  13.57750   0.000009455477636  -0.000008764364874  -0.000008763946354
Si    6.78875   9.50425  14.93525  -0.000000103125005   0.000010145483766   0.000010129490543
Si    8.14650  10.86200  13.57750   0.000009455477839  -0.000008764364652  -0.000008763946507
Si    9.50425  12.21975  14.93525  -0.000000103124915   0.000010145483744   0.000010129490401
Si   10.86200  13.57750  13.57750   0.000009455477657  -0.000008764365042  -0.000008763946465
Si   12.21975  14.93525  14.93525  -0.000000103125138   0.000010145483263   0.000010129490528
Si   13.57750  16.29300  13.57750   0.000009455477328  -0.000008764365540  -0.000008763946277
Si   14.93525  17.65075  14.93525  -0.000000103125367   0.000010145482980   0.000010129490722
Si   16.29300  19.00850  13.57750   0.000009455477327  -0.000008764365439  -0.000008763946202
Si   17.65075  20.36625  14.93525  -0.000000103125286   0.000010145483324   0.000010129490746
Si    8.14650   8.14650  16.29300   0.000009455478045  -0.000008764365254  -0.000008763945451
Si    9.50425   9.50425  17.65075  -0.000000103124492   0.000010145483239   0.000010129492018
Si   10.86200  10.86200  16.29300   0.000009455478121  -0.000008764365066  -0.000008763945594
Si   12.21975  12.21975  17.65075  -0.000000103124446   0.000010145483207   0.000010129491982
Si   13.57750  13.57750  16.29300   0.000009455477938  -0.000008764365453  -0.000008763945476
Si   14.93525  14.93525  17.65075  -0.000000103124642   0.000010145482729   0.000010129492139
Si   16.29300  16.29300  16.29300   0.000009455477703  -0.000008764365902  -0.000008763945243
Si   17.65075  17.65075  17.65075  -0.000000103124794   0.000010145482471   0.000010129492323
Si   19.00850  19.00850  16.29300   0.000009455477801  -0.000008764365773  -0.000008763945242
Si   20.36625  20.36625  17.65075  -0.000000103124685   0.000010145482812   0.000010129492257
Si   10.86200   8.14650  19.00850   0.000009455478724  -0.000008764365989  -0.000008763943708
Si   12.21975   9.50425  20.36625  -0.000000103123891   0.000010145482598   0.000010129493414
Si   13.57750  10.86200  19.00850   0.000009455478752  -0.000008764365727  -0.000008763943825
Si   14.93525  12.21975  20.36625  -0.000000103123878   0.000010145482621   0.000010129493360
Si   16.29300  13.57750  19.00850   0.000009455478632  -0.000008764366113  -0.000008763943655
Si   17.65075  14.93525  20.36625  -0.000000103123994   0.000010145482113   0.000010129493548
Si   19.00850  16.29300  19.00850   0.000009455478503  -0.000008764366608  -0.000008763943426
Si   20.36625  17.65075  20.36625  -0.000000103124088   0.000010145481794   0.000010129493709
Si   21.72400  19.00850  19.00850   0.000009455478587  -0.000008764366506  -0.000008763943470
Si   23.08175  20.36625  20.36625  -0.000000103124038   0.000010145482081   0.000010129493621
Si    0.00000  10.86200  10.86200   0.000005214160994   0.000007339557717   0.000007327682289
Si    1.35775  12.21975  12.21975   0.000005728746480   0.000003543605982   0.000003553536120
Si    2.71550  13.57750  10.86200   0.000005214161031   0.000007339557586   0.000007327682223
Si    4.07325  14.93525  12.21975   0.000005728746531   0.000003543605537   0.000003553536071
Si    5.43100  16.29300  10.86200   0.000005214161053   0.000007339556986   0.000007327682261
Si    6.78875  17.65075  12.21975   0.000005728746581   0.000003543605048   0.000003553536096
Si    8.14650  19.00850  10.86200   0.000005214161043   0.000007339556770   0.000007327682352
Si    9.50425  20.36625  12.21975   0.000005728746566   0.000003543605188   0.000003553536184
Si   10.86200  21.72400  10.86200   0.000005214160998   0.000007339557198   0.000007327682356
Si   12.21975  23.08175  12.21975   0.000005728746511   0.000003543605763   0.000003553536209
Si    2.71550  10.86200  13.57750   0.000005214160369   0.000007339558306   0.000007327680878
Si    4.07325  12.21975  14.93525   0.000005728745862   0.000003543606579   0.000003553535317
Si    5.43100  13.57750  13.57750   0.000005214160472   0.000007339558143   0.000007327680777
Si    6.78875  14.93525  14.93525   0.000005728745961   0.000003543606169   0.000003553535262
Si    8.14650  16.29300  13.57750   0.000005214160477   0.000007339557617   0.000007327680784
Si    9.50425  17.65075  14.93525   0.000005728745949   0.000003543605790   0.000003553535308
Si   10.86200  19.00850  13.57750   0.000005214160346   0.000007339557461   0.000007327680892
Si   12.21975  20.36625  14.93525   0.000005728745818   0.000003543605932   0.000003553535386
Si   13.57750  21.72400  13.57750   0.000005214160268   0.000007339557879   0.000007327680950
Si   14.93525  23.08175  14.93525   0.000005728745781   0.000003543606434   0.000003553535412
Si    5.43100  10.86200  16.29300   0.000005214159970   0.000007339558713   0.000007327680994
Si    6.78875  12.21975  17.65075   0.000005728745635   0.000003543606840   0.000003553536041
Si    8.14650  13.57750  16.29300   0.000005214160084   0.000007339558549   0.000007327680925
Si    9.50425  14.93525  17.65075   0.000005728745693   0.000003543606459   0.000003553536069
Si   10.86200  16.29300  16.29300   0.000005214160004   0.000007339558065   0.000007327680965
Si   12.21975  17.65075  17.65075   0.000005728745565   0.000003543606078   0.000003553536136
Si   13.57750  19.00850  16.29300   0.000005214159844   0.000007339557933   0.000007327681073
Si   14.93525  20.36625  17.65075   0.000005728745472   0.000003543606238   0.000003553536171
Si   16.29300  21.72400  16.29300   0.000005214159828   0.000007339558337   0.000007327681075
Si   17.65075  23.08175  17.65075   0.000005728745535   0.000003543606713   0.000003553536123
Si    8.14650  10.86200  19.00850   0.000005214160363   0.000007339558362   0.000007327682419
Si    9.50425  12.21975  20.36625   0.000005728746195   0.000003543606391   0.000003553537366
Si   10.86200  13.57750  19.00850   0.000005214160383   0.000007339558229   0.000007327682424
Si   12.21975  14.93525  20.36625   0.000005728746150   0.000003543606012   0.000003553537433
Si   13.57750  16.29300  19.00850   0.000005214160272   0.000007339557728   0.000007327682524
Si   14.93525  17.65075  20.36625   0.000005728745983   0.000003543605551   0.000003553537449
Si   16.29300  19.00850  19.00850   0.000005214160166   0.000007339557568   0.000007327682556
Si   17.65075  20.36625  20.36625   0.000005728745981   0.000003543605697   0.000003553537408
Si   19.00850  21.72400  19.00850   0.000005214160238   0.000007339557981   0.000007327682489
Si   20.36625  23.08175  20.36625   0.000005728746091   0.000003543606183   0.000003553537352
Si   10.86200  10.86200  21.72400   0.000005214161017   0.000007339557735   0.000007327683290
Si   12.21975  12.21975  23.08175   0.000005728746710   0.000003543605841   0.000003553537434
Si   13.57750  13.57750  21.72400   0.000005214160988   0.000007339557623   0.000007327683293
Si   14.93525  14.93525  23.08175   0.000005728746646   0.000003543605410   0.000003553537439
Si   16.29300  16.29300  21.72400   0.000005214160926   0.000007339557031   0.000007327683339
Si   17.65075  17.65075  23.08175   0.000005728746621   0.000003543604925   0.000003553537466
Si   19.00850  19.00850  21.72400   0.000005214160932   0.000007339556821   0.000007327683379
Si   20.36625  20.36625  23.08175   0.000005728746702   0.000003543605038   0.000003553537486
Si   21.72400  21.72400  21.72400   0.000005214161007   0.000007339557250   0.000007327683354
Si   23.08175  23.08175  23.08175   0.000005728746738   0.000003543605603   0.000003553537473
Si    0.00000  13.57750  13.57750   0.000012729719008  -0.000004486790427  -0.000004474703579
Si    1.35775  14.93525  14.93525  -0.000003128588567   0.000006967390254   0.000006972809729
Si    2.71550  16.29300  13.57750   0.000012729718926  -0.000004486790902  -0.000004474703544
Si    4.07325  17.65075  14.93525  -0.000003128588624   0.000006967389776   0.000006972809814
Si    5.43100  19.00850  13.57750   0.000012729719004  -0.000004486791158  -0.000004474703501
Si    6.78875  20.36625  14.93525  -0.000003128588500   0.000006967389788   0.000006972809867
Si    8.14650  21.72400  13.57750   0.000012729719129  -0.000004486790872  -0.000004474703487
Si    9.50425  23.08175  14.93525  -0.000003128588434   0.000006967390231   0.000006972809826
Si   10.86200  24.43950  13.57750   0.000012729719136  -0.000004486790409  -0.000004474703537
Si   12.21975  25.79725  14.93525  -0.000003128588467   0.000006967390514   0.000006972809725
Si    2.71550  13.57750  16.29300   0.000012729718535  -0.000004486790021  -0.000004474703713
Si    4.07325  14.93525  17.65075  -0.000003128589026   0.000006967390711   0.000006972810123
Si    5.43100  16.29300  16.29300   0.000012729718526  -0.000004486790438  -0.000004474703689
Si    6.78875  17.65075  17.65075  -0.000003128589012   0.000006967390303   0.000006972810214
Si    8.14650  19.00850  16.29300   0.000012729718595  -0.000004486790639  -0.000004474703651
Si    9.50425  20.36625  17.65075  -0.000003128588993   0.000006967390313   0.000006972810213
Si   10.86200  21.72400  16.29300   0.000012729718605  -0.000004486790367  -0.000004474703687
Si   12.21975  23.08175  17.65075  -0.000003128589011   0.000006967390697   0.000006972810123
Si   13.57750  24.43950  16.29300   0.000012729718569  -0.000004486789995  -0.000004474703746
Si   14.93525  25.79725  17.65075  -0.000003128588982   0.000006967390960   0.000006972810063
Si    5.43100  13.57750  19.00850   0.000012729718217  -0.000004486789637  -0.000004474702987
Si    6.78875  14.93525  20.36625  -0.000003128589172   0.000006967390995   0.000006972810854
Si    8.14650  16.29300  19.00850   0.000012729718243  -0.000004486790056  -0.000004474702901
Si    9.50425  17.65075  20.36625  -0.000003128589214   0.000006967390542   0.000006972810977
Si   10.86200  19.00850  19.00850   0.000012729718206  -0.000004486790277  -0.000004474702873
Si   12.21975  20.36625  20.36625  -0.000003128589339   0.000006967390480   0.000006972810923
Si   13.57750  21.72400  19.00850   0.000012729718163  -0.000004486790032  -0.000004474702969
Si   14.93525  23.08175  20.36625  -0.000003128589320   0.000006967390933   0.000006972810781
Si   16.29300  24.43950  19.00850   0.000012729718204  -0.000004486789611  -0.000004474703045
Si   17.65075  25.79725  20.36625  -0.000003128589212   0.000006967391235   0.000006972810735
Si    8.14650  13.57750  21.72400   0.000012729718540  -0.000004486789808  -0.000004474702277
Si    9.50425  14.93525  23.08175  -0.000003128588776   0.000006967390679   0.000006972810985
Si   10.86200  16.29300  21.72400   0.000012729718474  -0.000004486790274  -0.000004474702173
Si   12.21975  17.65075  23.08175  -0.000003128588965   0.000006967390139   0.000006972811055
Si   13.57750  19.00850  21.72400   0.000012729718339  -0.000004486790550  -0.000004474702206
Si   14.93525  20.36625  23.08175  -0.000003128589085   0.000006967390093   0.000006972811018
Si   16.29300  21.72400  21.72400   0.000012729718368  -0.000004486790269  -0.000004474702331
Si   17.65075  23.08175  23.08175  -0.000003128588923   0.000006967390576   0.000006972810928
Si   19.00850  24.43950  21.72400   0.000012729718471  -0.000004486789820  -0.000004474702393
Si   20.36625  25.79725  23.08175  -0.000003128588752   0.000006967390927   0.000006972810891
Si   10.86200  13.57750  24.43950   0.000012729719065  -0.000004486790296  -0.000004474702663
Si   12.21975  14.93525  25.79725  -0.000003128588427   0.000006967390208   0.000006972810249
Si   13.57750  16.29300  24.43950   0.000012729718849  -0.000004486790811  -0.000004474702609
Si   14.93525  17.65075  25.79725  -0.000003128588587   0.000006967389681   0.000006972810301
Si   16.29300  19.00850  24.43950   0.000012729718829  -0.000004486791138  -0.000004474702593
Si   17.65075  20.36625  25.79725  -0.000003128588540   0.000006967389640   0.000006972810367
Si   19.00850  21.72400  24.43950   0.000012729718976  -0.000004486790833  -0.000004474702642
Si   20.36625  23.08175  25.79725  -0.000003128588349   0.000006967390123   0.000006972810340
Si   21.72400  24.43950  24.43950   0.000012729719117  -0.000004486790346  -0.000004474702669
Si   23.08175  25.79725  25.79725  -0.000003128588272   0.000006967390470   0.000006972810250
