216 

Si    0.67888   0.67888   0.67888   0.000008999706902   0.000008999706939   0.000008981271662
Si    3.39437   0.67888   3.39437  -0.000008999707026   0.000008999707005  -0.000008981271677
Si    0.67888   3.39437   3.39437   0.000008999706902  -0.000008999706971  -0.000008981271594
Si    3.39437   3.39437   0.67888  -0.000008999707020  -0.000008999707046   0.000008981271720
Si    4.75213   2.03662   2.03662   0.000007115123088  -0.000000000000028   0.000000000000026
Si    4.75213   4.75213   4.75213   0.000008153982293   0.000008153982388   0.000008157473786
Si    2.03662   2.03662   4.75213  -0.000000000000088   0.000000000000071   0.000007121901924
Si    2.03662   4.75213   2.03662  -0.000000000000082   0.000007115123072   0.000000000000114
Si    0.67888   0.67888   6.10987   0.000002866728725   0.000002866728887   0.000000874880765
Si    3.39437   0.67888   8.82538  -0.000008153982390   0.000008153982403   0.000008157473726
Si    0.67888   3.39437   8.82538   0.000008153982245  -0.000008153982308   0.000008157473652
Si    3.39437   3.39437   6.10987  -0.000002866728881  -0.000002866728773   0.000000874880770
Si    4.75213   2.03662   7.46762   0.000002884640395   0.000000879957727  -0.000002880198985
Si    4.75213   4.75213  10.18313   0.000002866728787   0.000002866728791  -0.000000874880873
Si    2.03662   2.03662  10.18313  -0.000000000000059   0.000000000000006  -0.000000000000022
Si    2.03662   4.75213   7.46762   0.000000879957580   0.000002884640452  -0.000002880199049
Si    0.67888   0.67888  11.54087   0.000008153982269   0.000008153982333  -0.000008157473715
Si    3.39437   0.67888  14.25638  -0.000002866728878   0.000002866728741  -0.000000874880771
Si    0.67888   3.39437  14.25638   0.000002866728728  -0.000002866728906  -0.000000874880785
Si    3.39437   3.39437  11.54087  -0.000008153982396  -0.000008153982419  -0.000008157473793
Si    4.75213   2.03662  12.89863   0.000002884640397  -0.000000879957731   0.000002880198964
Si    4.75213   4.75213  15.61412   0.000008999706949   0.000008999706933  -0.000008981271603
Si    2.03662   2.03662  15.61412  -0.000000000000074  -0.000000000000085  -0.000007121901886
Si    2.03662   4.75213  12.89863  -0.000000879957759   0.000002884640368   0.000002880198938
Si    0.67888   6.10987   0.67888   0.000002884640315   0.000000879957657   0.000002880199066
Si    3.39437   6.10987   3.39437  -0.000002884640463   0.000000879957660  -0.000002880198867
Si    0.67888   8.82538   3.39437   0.000008153982250   0.000008153982312  -0.000008157473637
Si    3.39437   8.82538   0.67888  -0.000008153982362   0.000008153982402   0.000008157473814
Si    4.75213   7.46762   2.03662   0.000002866728813  -0.000002866728810   0.000000874880865
Si    4.75213  10.18313   4.75213   0.000002884640408  -0.000000879957719   0.000002880198966
Si    2.03662   7.46762   4.75213   0.000000879957593  -0.000002884640461   0.000002880199042
Si    2.03662  10.18313   2.03662  -0.000000000000041   0.000000000000014   0.000000000000060
Si    0.67888   6.10987   6.10987   0.000007115122972  -0.000000000000010   0.000000000000003
Si    3.39437   6.10987   8.82538  -0.000002884640490  -0.000000879957702   0.000002880198878
Si    0.67888   8.82538   8.82538   0.000008999706893   0.000008999706925   0.000008981271570
Si    3.39437   8.82538   6.10987  -0.000002866728879   0.000002866728751  -0.000000874880794
Si    4.75213   7.46762   7.46762   0.000008153982299  -0.000008153982395  -0.000008157473814
Si    4.75213  10.18313  10.18313   0.000007115123073   0.000000000000005  -0.000000000000051
Si    2.03662   7.46762  10.18313  -0.000000000000087  -0.000007115123119  -0.000000000000125
Si    2.03662  10.18313   7.46762  -0.000000000000086  -0.000000000000072  -0.000007121901964
Si    0.67888   6.10987  11.54087   0.000002884640305  -0.000000879957711  -0.000002880199060
Si    3.39437   6.10987  14.25638  -0.000007115123171  -0.000000000000020  -0.000000000000003
Si    0.67888   8.82538  14.25638   0.000002866728735   0.000002866728860   0.000000874880792
Si    3.39437   8.82538  11.54087  -0.000008999707045   0.000008999707002  -0.000008981271725
Si    4.75213   7.46762  12.89863   0.000008999706950  -0.000008999706980   0.000008981271641
Si    4.75213  10.18313  15.61412   0.000002884640413   0.000000879957743  -0.000002880198917
Si    2.03662   7.46762  15.61412  -0.000000879957737  -0.000002884640417  -0.000002880198928
Si    2.03662  10.18313  12.89863  -0.000000000000075   0.000000000000077   0.000007121901912
Si    0.67888  11.54087   0.67888   0.000008153982256  -0.000008153982291   0.000008157473738
Si    3.39437  11.54087   3.39437  -0.000008153982381  -0.000008153982374  -0.000008157473740
Si    0.67888  14.25638   3.39437   0.000002884640309  -0.000000879957661  -0.000002880199003
Si    3.39437  14.25638   0.67888  -0.000002884640461  -0.000000879957661   0.000002880198957
Si    4.75213  12.89863   2.03662   0.000002866728822   0.000002866728842  -0.000000874880795
Si    4.75213  15.61412   4.75213   0.000008999706947  -0.000008999706962   0.000008981271623
Si    2.03662  12.89863   4.75213  -0.000000879957747   0.000002884640399   0.000002880198957
Si    2.03662  15.61412   2.03662  -0.000000000000065  -0.000007115123098  -0.000000000000041
Si    0.67888  11.54087   6.10987   0.000002866728720  -0.000002866728875  -0.000000874880800
Si    3.39437  11.54087   8.82538  -0.000008999707043  -0.000008999707000   0.000008981271631
Si    0.67888  14.25638   8.82538   0.000002884640310   0.000000879957699   0.000002880198978
Si    3.39437  14.25638   6.10987  -0.000007115123173   0.000000000000001  -0.000000000000034
Si    4.75213  12.89863   7.46762   0.000008999706961   0.000008999706985  -0.000008981271686
Si    4.75213  15.61412  10.18313   0.000002866728795  -0.000002866728788   0.000000874880799
Si    2.03662  12.89863  10.18313  -0.000000000000078   0.000007115123119   0.000000000000032
Si    2.03662  15.61412   7.46762  -0.000000879957744  -0.000002884640384  -0.000002880198984
Si    0.67888  11.54087  11.54087   0.000008999706902  -0.000008999706931  -0.000008981271652
Si    3.39437  11.54087  14.25638  -0.000002866728871  -0.000002866728730   0.000000874880799
Si    0.67888  14.25638  14.25638   0.000007115122998   0.000000000000029   0.000000000000016
Si    3.39437  14.25638  11.54087  -0.000002884640465   0.000000879957701  -0.000002880198920
Si    4.75213  12.89863  12.89863   0.000008153982309   0.000008153982427   0.000008157473780
Si    4.75213  15.61412  15.61412   0.000008153982327  -0.000008153982374  -0.000008157473726
Si    2.03662  12.89863  15.61412   0.000000879957616   0.000002884640493  -0.000002880198986
Si    2.03662  15.61412  12.89863   0.000000879957599  -0.000002884640435   0.000002880199023
Si    6.10987   0.67888   0.67888   0.000000879957698   0.000002884640374   0.000002880199004
Si    8.82538   0.67888   3.39437   0.000008153982330   0.000008153982385  -0.000008157473766
Si    6.10987   3.39437   3.39437   0.000000879957697  -0.000002884640431  -0.000002880198946
Si    8.82538   3.39437   0.67888   0.000008153982325  -0.000008153982428   0.000008157473813
Si   10.18313   2.03662   2.03662  -0.000000000000092  -0.000000000000018   0.000000000000032
Si   10.18313   4.75213   4.75213  -0.000000879957660   0.000002884640432   0.000002880199014
Si    7.46762   2.03662   4.75213  -0.000002884640418   0.000000879957712   0.000002880198962
Si    7.46762   4.75213   2.03662  -0.000002866728818   0.000002866728792   0.000000874880864
Si    6.10987   0.67888   6.10987  -0.000000000000001   0.000007115123154  -0.000000000000016
Si    8.82538   0.67888   8.82538   0.000008999706969   0.000008999707048   0.000008981271690
Si    6.10987   3.39437   8.82538  -0.000000879957674  -0.000002884640418   0.000002880198930
Si    8.82538   3.39437   6.10987   0.000002866728823  -0.000002866728803  -0.000000874880771
Si   10.18313   2.03662   7.46762  -0.000000000000023   0.000000000000071  -0.000007121901898
Si   10.18313   4.75213  10.18313  -0.000000000000011   0.000007115123042  -0.000000000000108
Si    7.46762   2.03662  10.18313  -0.000007115123083  -0.000000000000003  -0.000000000000026
Si    7.46762   4.75213   7.46762  -0.000008153982334   0.000008153982343  -0.000008157473759
Si    6.10987   0.67888  11.54087  -0.000000879957682   0.000002884640415  -0.000002880198982
Si    8.82538   0.67888  14.25638   0.000002866728796   0.000002866728793   0.000000874880778
Si    6.10987   3.39437  14.25638  -0.000000000000008  -0.000007115123196   0.000000000000005
Si    8.82538   3.39437  11.54087   0.000008999706973  -0.000008999707075  -0.000008981271746
Si   10.18313   2.03662  12.89863  -0.000000000000029  -0.000000000000073   0.000007121901868
Si   10.18313   4.75213  15.61412   0.000000879957658   0.000002884640368  -0.000002880198910
Si    7.46762   2.03662  15.61412  -0.000002884640422  -0.000000879957731  -0.000002880198918
Si    7.46762   4.75213  12.89863  -0.000008999707007   0.000008999706906   0.000008981271616
Si    6.10987   6.10987   0.67888   0.000000000000003  -0.000000000000004   0.000007121902013
Si    8.82538   6.10987   3.39437   0.000002884640423  -0.000000879957667  -0.000002880198919
Si    6.10987   8.82538   3.39437  -0.000000879957669   0.000002884640412  -0.000002880198939
Si    8.82538   8.82538   0.67888   0.000008999706958   0.000008999707067   0.000008981271781
Si   10.18313   7.46762   2.03662  -0.000000000000019  -0.000007115123064   0.000000000000105
Si   10.18313  10.18313   4.75213  -0.000000000000041  -0.000000000000064   0.000007121901885
Si    7.46762   7.46762   4.75213  -0.000008153982338  -0.000008153982340   0.000008157473740
Si    7.46762  10.18313   2.03662  -0.000007115123078   0.000000000000022   0.000000000000046
Si    6.10987   6.10987   6.10987  -0.000000000000036  -0.000000000000020  -0.000000000000010
Si    8.82538   6.10987   8.82538   0.000002884640425   0.000000879957623   0.000002880198896
Si    6.10987   8.82538   8.82538   0.000000879957678   0.000002884640389   0.000002880198908
Si    8.82538   8.82538   6.10987   0.000002866728833   0.000002866728802   0.000000874880719
Si   10.18313   7.46762   7.46762  -0.000000879957643  -0.000002884640450  -0.000002880199048
Si   10.18313  10.18313  10.18313  -0.000000000000058   0.000000000000009  -0.000000000000054
Si    7.46762   7.46762  10.18313  -0.000002866728824  -0.000002866728828  -0.000000874880883
Si    7.46762  10.18313   7.46762  -0.000002884640414  -0.000000879957727  -0.000002880199018
Si    6.10987   6.10987  11.54087  -0.000000000000020  -0.000000000000036  -0.000007121901998
Si    8.82538   6.10987  14.25638   0.000007115123099  -0.000000000000024   0.000000000000022
Si    6.10987   8.82538  14.25638  -0.000000000000008   0.000007115123164   0.000000000000047
Si    8.82538   8.82538  11.54087   0.000008153982334   0.000008153982389  -0.000008157473801
Si   10.18313   7.46762  12.89863   0.000000879957667  -0.000002884640397   0.000002880198953
Si   10.18313  10.18313  15.61412  -0.000000000000051   0.000000000000078  -0.000007121901812
Si    7.46762   7.46762  15.61412  -0.000008999707000  -0.000008999706941  -0.000008981271555
Si    7.46762  10.18313  12.89863  -0.000002884640416   0.000000879957741   0.000002880198981
Si    6.10987  11.54087   0.67888  -0.000000879957653  -0.000002884640377   0.000002880199024
Si    8.82538  11.54087   3.39437   0.000008999706957  -0.000008999707042  -0.000008981271707
Si    6.10987  14.25638   3.39437   0.000000000000003   0.000000000000005  -0.000007121901960
Si    8.82538  14.25638   0.67888   0.000002884640400   0.000000879957660   0.000002880198994
Si   10.18313  12.89863   2.03662  -0.000000000000025   0.000007115123089  -0.000000000000027
Si   10.18313  15.61412   4.75213   0.000000879957654  -0.000002884640378   0.000002880198932
Si    7.46762  12.89863   4.75213  -0.000008999706999   0.000008999706947   0.000008981271593
Si    7.46762  15.61412   2.03662  -0.000002866728814  -0.000002866728813  -0.000000874880801
Si    6.10987  11.54087   6.10987  -0.000000000000015  -0.000007115123153  -0.000000000000055
Si    8.82538  11.54087   8.82538   0.000008153982340  -0.000008153982391   0.000008157473710
Si    6.10987  14.25638   8.82538  -0.000000000000005   0.000000000000029   0.000007121901934
Si    8.82538  14.25638   6.10987   0.000007115123104   0.000000000000003  -0.000000000000032
Si   10.18313  12.89863   7.46762   0.000000879957667   0.000002884640393  -0.000002880199013
Si   10.18313  15.61412  10.18313  -0.000000000000019  -0.000007115123027   0.000000000000023
Si    7.46762  12.89863  10.18313  -0.000002866728818   0.000002866728843   0.000000874880799
Si    7.46762  15.61412   7.46762  -0.000008999707009  -0.000008999706921  -0.000008981271654
Si    6.10987  11.54087  11.54087   0.000000879957689  -0.000002884640389  -0.000002880198983
Si    8.82538  11.54087  14.25638   0.000002866728800  -0.000002866728771  -0.000000874880719
Si    6.10987  14.25638  14.25638  -0.000000000000039   0.000000000000024   0.000000000000045
Si    8.82538  14.25638  11.54087   0.000002884640410  -0.000000879957619  -0.000002880198955
Si   10.18313  12.89863  12.89863  -0.000000879957672   0.000002884640484   0.000002880199012
Si   10.18313  15.61412  15.61412  -0.000000879957685  -0.000002884640420  -0.000002880198952
Si    7.46762  12.89863  15.61412  -0.000008153982337   0.000008153982382  -0.000008157473670
Si    7.46762  15.61412  12.89863  -0.000008153982345  -0.000008153982333   0.000008157473733
Si   11.54087   0.67888   0.67888  -0.000008153982405   0.000008153982293   0.000008157473728
Si   14.25638   0.67888   3.39437  -0.000000879957737   0.000002884640423  -0.000002880198964
Si   11.54087   3.39437   3.39437  -0.000008153982375  -0.000008153982326  -0.000008157473644
Si   14.25638   3.39437   0.67888  -0.000000879957750  -0.000002884640450   0.000002880199024
Si   15.61412   2.03662   2.03662  -0.000007115123169  -0.000000000000003   0.000000000000042
Si   15.61412   4.75213   4.75213  -0.000008999707102   0.000008999707048   0.000008981271758
Si   12.89863   2.03662   4.75213   0.000002884640318  -0.000000879957606   0.000002880199029
Si   12.89863   4.75213   2.03662   0.000002866728742   0.000002866728847  -0.000000874880651
Si   11.54087   0.67888   6.10987  -0.000002866728853   0.000002866728892  -0.000000874880780
Si   14.25638   0.67888   8.82538   0.000000879957575   0.000002884640451   0.000002880198973
Si   11.54087   3.39437   8.82538  -0.000008999707052  -0.000008999706969   0.000008981271601
Si   14.25638   3.39437   6.10987  -0.000000000000085  -0.000007115122995   0.000000000000011
Si   15.61412   2.03662   7.46762  -0.000002884640513  -0.000000879957594  -0.000002880199015
Si   15.61412   4.75213  10.18313  -0.000002866728925   0.000002866728815   0.000000874880656
Si   12.89863   2.03662  10.18313   0.000007115123034   0.000000000000018  -0.000000000000039
Si   12.89863   4.75213   7.46762   0.000008999706946   0.000008999707024  -0.000008981271737
Si   11.54087   0.67888  11.54087  -0.000008999707071   0.000008999706971  -0.000008981271668
Si   14.25638   0.67888  14.25638  -0.000000000000082   0.000007115123008  -0.000000000000005
Si   11.54087   3.39437  14.25638  -0.000002866728857  -0.000002866728918   0.000000874880779
Si   14.25638   3.39437  11.54087   0.000000879957581  -0.000002884640450  -0.000002880199039
Si   15.61412   2.03662  12.89863  -0.000002884640499   0.000000879957613   0.000002880198978
Si   15.61412   4.75213  15.61412  -0.000008153982431   0.000008153982325  -0.000008157473697
Si   12.89863   2.03662  15.61412   0.000002884640345   0.000000879957581  -0.000002880198974
Si   12.89863   4.75213  12.89863   0.000008153982303   0.000008153982309   0.000008157473666
Si   11.54087   6.10987   0.67888  -0.000002884640468  -0.000000879957672   0.000002880199086
Si   14.25638   6.10987   3.39437  -0.000000000000104   0.000000000000006  -0.000007121901774
Si   11.54087   8.82538   3.39437  -0.000008999707070   0.000008999706977  -0.000008981271595
Si   14.25638   8.82538   0.67888   0.000000879957567   0.000002884640427   0.000002880199061
Si   15.61412   7.46762   2.03662  -0.000002866728923  -0.000002866728840  -0.000000874880657
Si   15.61412  10.18313   4.75213  -0.000002884640509   0.000000879957619   0.000002880199004
Si   12.89863   7.46762   4.75213   0.000008999706940  -0.000008999707051   0.000008981271743
Si   12.89863  10.18313   2.03662   0.000007115123019   0.000000000000019   0.000000000000058
Si   11.54087   6.10987   6.10987  -0.000007115123102  -0.000000000000007  -0.000000000000015
Si   14.25638   6.10987   8.82538  -0.000000000000091  -0.000000000000036   0.000007121901769
Si   11.54087   8.82538   8.82538  -0.000008153982390   0.000008153982293   0.000008157473616
Si   14.25638   8.82538   6.10987  -0.000000000000099   0.000007115122990  -0.000000000000038
Si   15.61412   7.46762   7.46762  -0.000008999707087  -0.000008999707069  -0.000008981271762
Si   15.61412  10.18313  10.18313  -0.000007115123163  -0.000000000000000  -0.000000000000044
Si   12.89863   7.46762  10.18313   0.000002866728755  -0.000002866728893   0.000000874880647
Si   12.89863  10.18313   7.46762   0.000002884640345   0.000000879957591  -0.000002880199066
Si   11.54087   6.10987  11.54087  -0.000002884640446   0.000000879957615  -0.000002880199094
Si   14.25638   6.10987  14.25638  -0.000000000000068  -0.000000000000032   0.000000000000004
Si   11.54087   8.82538  14.25638  -0.000002866728868   0.000002866728882  -0.000000874880748
Si   14.25638   8.82538  11.54087  -0.000000879957739   0.000002884640407  -0.000002880199036
Si   15.61412   7.46762  12.89863  -0.000008153982430  -0.000008153982375   0.000008157473699
Si   15.61412  10.18313  15.61412  -0.000002884640509  -0.000000879957584  -0.000002880198942
Si   12.89863   7.46762  15.61412   0.000008153982291  -0.000008153982339  -0.000008157473649
Si   12.89863  10.18313  12.89863   0.000002884640341  -0.000000879957592   0.000002880199023
Si   11.54087  11.54087   0.67888  -0.000008999707076  -0.000008999706947   0.000008981271699
Si   14.25638  11.54087   3.39437   0.000000879957563  -0.000002884640429  -0.000002880198965
Si   11.54087  14.25638   3.39437  -0.000002884640463   0.000000879957657  -0.000002880199017
Si   14.25638  14.25638   0.67888  -0.000000000000098   0.000000000000010   0.000007121901872
Si   15.61412  12.89863   2.03662  -0.000002866728915   0.000002866728865   0.000000874880763
Si   15.61412  15.61412   4.75213  -0.000008153982442  -0.000008153982345   0.000008157473706
Si   12.89863  12.89863   4.75213   0.000008153982303   0.000008153982343   0.000008157473701
Si   12.89863  15.61412   2.03662   0.000002866728732  -0.000002866728858   0.000000874880744
Si   11.54087  11.54087   6.10987  -0.000002866728859  -0.000002866728885   0.000000874880728
Si   14.25638  11.54087   8.82538  -0.000000879957734  -0.000002884640413   0.000002880198932
Si   11.54087  14.25638   8.82538  -0.000002884640445  -0.000000879957637   0.000002880198996
Si   14.25638  14.25638   6.10987  -0.000000000000076  -0.000000000000006  -0.000000000000022
Si   15.61412  12.89863   7.46762  -0.000008153982456   0.000008153982359  -0.000008157473765
Si   15.61412  15.61412  10.18313  -0.000002866728911  -0.000002866728815  -0.000000874880737
Si   12.89863  12.89863  10.18313   0.000002866728747   0.000002866728888  -0.000000874880758
Si   12.89863  15.61412   7.46762   0.000008153982287  -0.000008153982308  -0.000008157473744
Si   11.54087  11.54087  11.54087  -0.000008153982391  -0.000008153982308  -0.000008157473714
Si   14.25638  11.54087  14.25638  -0.000000000000088  -0.000007115122985   0.000000000000027
Si   11.54087  14.25638  14.25638  -0.000007115123121   0.000000000000027   0.000000000000030
Si   14.25638  14.25638  11.54087  -0.000000000000078   0.000000000000045  -0.000007121901836
Si   15.61412  12.89863  12.89863  -0.000008999707087   0.000008999707075   0.000008981271713
Si   15.61412  15.61412  15.61412  -0.000008999707082  -0.000008999707030  -0.000008981271683
Si   12.89863  12.89863  15.61412   0.000008999706918   0.000008999707066  -0.000008981271655
Si   12.89863  15.61412  12.89863   0.000008999706926  -0.000008999707013   0.000008981271710
