64 

Si    0.67888   0.67888   0.67888  -0.000002127836079  -0.000002127839011  -0.000002127843595
Si    3.39437   0.67888   3.39437   0.000000334057391  -0.000000501549730   0.000000334040301
Si    0.67888   3.39437   3.39437  -0.000000501547425   0.000000334055075   0.000000334040503
Si    3.39437   3.39437   0.67888   0.000000334063189   0.000000334060493  -0.000000501519894
Si    4.75212   2.03662   2.03662   0.000000501551969  -0.000000334055471  -0.000000334040463
Si    4.75212   4.75212   4.75212   0.000002127841563   0.000002127838254   0.000002127843611
Si    2.03663   2.03662   4.75212  -0.000000334057883  -0.000000334060302   0.000000501519982
Si    2.03663   4.75212   2.03662  -0.000000334053259   0.000000501549964  -0.000000334040182
Si    0.67888   0.67888   6.10987  -0.000002127836061  -0.000002127838787  -0.000002127843670
Si    3.39437   0.67888   8.82537   0.000000334058184  -0.000000501550219   0.000000334040380
Si    0.67888   3.39437   8.82537  -0.000000501547101   0.000000334055809   0.000000334040095
Si    3.39437   3.39437   6.10987   0.000000334062775   0.000000334059989  -0.000000501519795
Si    4.75212   2.03662   7.46762   0.000000501551567  -0.000000334055269  -0.000000334040291
Si    4.75212   4.75212  10.18313   0.000002127840812   0.000002127838714   0.000002127843894
Si    2.03663   2.03662  10.18313  -0.000000334057854  -0.000000334060389   0.000000501519565
Si    2.03663   4.75212   7.46762  -0.000000334053197   0.000000501549710  -0.000000334040107
Si    0.67888   6.10987   0.67888  -0.000002127836144  -0.000002127838960  -0.000002127843808
Si    3.39437   6.10987   3.39437   0.000000334058217  -0.000000501549665   0.000000334040006
Si    0.67888   8.82537   3.39437  -0.000000501547353   0.000000334055549   0.000000334040427
Si    3.39437   8.82537   0.67888   0.000000334063162   0.000000334060574  -0.000000501519972
Si    4.75212   7.46762   2.03662   0.000000501552002  -0.000000334055566  -0.000000334040403
Si    4.75212  10.18313   4.75212   0.000002127841096   0.000002127838747   0.000002127843634
Si    2.03663   7.46762   4.75212  -0.000000334058322  -0.000000334060529   0.000000501519738
Si    2.03663  10.18313   2.03662  -0.000000334052891   0.000000501549950  -0.000000334040475
Si    0.67888   6.10987   6.10987  -0.000002127836134  -0.000002127839076  -0.000002127843959
Si    3.39437   6.10987   8.82537   0.000000334057868  -0.000000501549847   0.000000334040208
Si    0.67888   8.82537   8.82537  -0.000000501547696   0.000000334056352   0.000000334040300
Si    3.39437   8.82537   6.10987   0.000000334062680   0.000000334060394  -0.000000501519253
Si    4.75212   7.46762   7.46762   0.000000501552042  -0.000000334055172  -0.000000334040075
Si    4.75212  10.18313  10.18313   0.000002127840967   0.000002127839026   0.000002127843796
Si    2.03663   7.46762  10.18313  -0.000000334057467  -0.000000334060532   0.000000501520031
Si    2.03663  10.18313   7.46762  -0.000000334052990   0.000000501550068  -0.000000334040561
Si    6.10987   0.67888   0.67888  -0.000002127836175  -0.000002127839094  -0.000002127843946
Si    8.82537   0.67888   3.39437   0.000000334057887  -0.000000501549884   0.000000334040201
Si    6.10987   3.39437   3.39437  -0.000000501547678   0.000000334056366   0.000000334040314
Si    8.82537   3.39437   0.67888   0.000000334062668   0.000000334060398  -0.000000501519242
Si   10.18313   2.03662   2.03662   0.000000501552062  -0.000000334055151  -0.000000334040059
Si   10.18313   4.75212   4.75212   0.000002127840914   0.000002127839016   0.000002127843806
Si    7.46762   2.03662   4.75212  -0.000000334057505  -0.000000334060533   0.000000501520031
Si    7.46762   4.75212   2.03662  -0.000000334053038   0.000000501550036  -0.000000334040564
Si    6.10987   0.67888   6.10987  -0.000002127836164  -0.000002127838928  -0.000002127843800
Si    8.82537   0.67888   8.82537   0.000000334058230  -0.000000501549677   0.000000334039999
Si    6.10987   3.39437   8.82537  -0.000000501547340   0.000000334055564   0.000000334040439
Si    8.82537   3.39437   6.10987   0.000000334063185   0.000000334060579  -0.000000501520002
Si   10.18313   2.03662   7.46762   0.000000501552001  -0.000000334055553  -0.000000334040414
Si   10.18313   4.75212  10.18313   0.000002127841078   0.000002127838771   0.000002127843640
Si    7.46762   2.03662  10.18313  -0.000000334058301  -0.000000334060506   0.000000501519741
Si    7.46762   4.75212   7.46762  -0.000000334052930   0.000000501549953  -0.000000334040471
Si    6.10987   6.10987   0.67888  -0.000002127836098  -0.000002127838790  -0.000002127843658
Si    8.82537   6.10987   3.39437   0.000000334058182  -0.000000501550230   0.000000334040367
Si    6.10987   8.82537   3.39437  -0.000000501547101   0.000000334055788   0.000000334040093
Si    8.82537   8.82537   0.67888   0.000000334062774   0.000000334059962  -0.000000501519803
Si   10.18313   7.46762   2.03662   0.000000501551583  -0.000000334055270  -0.000000334040271
Si   10.18313  10.18313   4.75212   0.000002127840763   0.000002127838718   0.000002127843905
Si    7.46762   7.46762   4.75212  -0.000000334057879  -0.000000334060366   0.000000501519597
Si    7.46762  10.18313   2.03662  -0.000000334053202   0.000000501549731  -0.000000334040080
Si    6.10987   6.10987   6.10987  -0.000002127836101  -0.000002127838999  -0.000002127843616
Si    8.82537   6.10987   8.82537   0.000000334057388  -0.000000501549706   0.000000334040308
Si    6.10987   8.82537   8.82537  -0.000000501547406   0.000000334055073   0.000000334040511
Si    8.82537   8.82537   6.10987   0.000000334063179   0.000000334060507  -0.000000501519914
Si   10.18313   7.46762   7.46762   0.000000501551983  -0.000000334055475  -0.000000334040455
Si   10.18313  10.18313  10.18313   0.000002127841529   0.000002127838263   0.000002127843636
Si    7.46762   7.46762  10.18313  -0.000000334057848  -0.000000334060285   0.000000501519971
Si    7.46762  10.18313   7.46762  -0.000000334053265   0.000000501549965  -0.000000334040186
