250 

Si    0.00000   0.00000   0.00000   0.000000000003543  -0.000000000000033   0.000000000000292
Si    1.35775   1.35775   1.35775   0.000000000003927  -0.000000000000053  -0.000000000000340
Si    2.71550   2.71550   0.00000   0.000000000003873  -0.000000000000199  -0.000000000000089
Si    4.07325   4.07325   1.35775   0.000000000004036  -0.000000000000006  -0.000000000000345
Si    5.43100   5.43100   0.00000   0.000000000003888  -0.000000000000004   0.000000000000238
Si    6.78875   6.78875   1.35775   0.000000000004064  -0.000000000000179  -0.000000000000253
Si    8.14650   8.14650   0.00000   0.000000000003678  -0.000000000000118   0.000000000000412
Si    9.50425   9.50425   1.35775   0.000000000004090   0.000000000000350   0.000000000000118
Si   10.86200  10.86200   0.00000   0.000000000003848   0.000000000000042   0.000000000000011
Si   12.21975  12.21975   1.35775   0.000000000004078   0.000000000000267  -0.000000000000159
Si    2.71550   0.00000   2.71550   0.000000000004245  -0.000000000000066  -0.000000000000067
Si    4.07325   1.35775   4.07325   0.000000000003737  -0.000000000000053   0.000000000000136
Si    5.43100   2.71550   2.71550   0.000000000004169   0.000000000000101  -0.000000000000024
Si    6.78875   4.07325   4.07325   0.000000000004010  -0.000000000000119  -0.000000000000038
Si    8.14650   5.43100   2.71550   0.000000000003822   0.000000000000015  -0.000000000000190
Si    9.50425   6.78875   4.07325   0.000000000004262  -0.000000000000001   0.000000000000292
Si   10.86200   8.14650   2.71550   0.000000000003646  -0.000000000000085  -0.000000000000104
Si   12.21975   9.50425   4.07325   0.000000000003905   0.000000000000075   0.000000000000019
Si   13.57750  10.86200   2.71550   0.000000000003680   0.000000000000291   0.000000000000014
Si   14.93525  12.21975   4.07325   0.000000000004100  -0.000000000000206   0.000000000000035
Si    5.43100   0.00000   5.43100   0.000000000003917  -0.000000000000035   0.000000000000003
Si    6.78875   1.35775   6.78875   0.000000000004006   0.000000000000173   0.000000000000110
Si    8.14650   2.71550   5.43100   0.000000000004085   0.000000000000275   0.000000000000114
Si    9.50425   4.07325   6.78875   0.000000000003776  -0.000000000000068   0.000000000000047
Si   10.86200   5.43100   5.43100   0.000000000003824   0.000000000000126  -0.000000000000239
Si   12.21975   6.78875   6.78875   0.000000000003797   0.000000000000116   0.000000000000098
Si   13.57750   8.14650   5.43100   0.000000000003832  -0.000000000000261   0.000000000000046
Si   14.93525   9.50425   6.78875   0.000000000004046   0.000000000000216  -0.000000000000218
Si   16.29300  10.86200   5.43100   0.000000000003995   0.000000000000283   0.000000000000167
Si   17.65075  12.21975   6.78875   0.000000000003849  -0.000000000000174   0.000000000000025
Si    8.14650   0.00000   8.14650   0.000000000003835   0.000000000000143   0.000000000000154
Si    9.50425   1.35775   9.50425   0.000000000003737   0.000000000000025  -0.000000000000075
Si   10.86200   2.71550   8.14650   0.000000000003938   0.000000000000088  -0.000000000000262
Si   12.21975   4.07325   9.50425   0.000000000003978   0.000000000000012  -0.000000000000019
Si   13.57750   5.43100   8.14650   0.000000000003857   0.000000000000150   0.000000000000219
Si   14.93525   6.78875   9.50425   0.000000000004123  -0.000000000000043  -0.000000000000120
Si   16.29300   8.14650   8.14650   0.000000000004299  -0.000000000000001   0.000000000000275
Si   17.65075   9.50425   9.50425   0.000000000003725  -0.000000000000129  -0.000000000000092
Si   19.00850  10.86200   8.14650   0.000000000003825   0.000000000000069   0.000000000000058
Si   20.36625  12.21975   9.50425   0.000000000003967  -0.000000000000174  -0.000000000000172
Si   10.86200   0.00000  10.86200   0.000000000004129   0.000000000000058   0.000000000000223
Si   12.21975   1.35775  12.21975   0.000000000003818   0.000000000000109   0.000000000000141
Si   13.57750   2.71550  10.86200   0.000000000003927   0.000000000000067   0.000000000000049
Si   14.93525   4.07325  12.21975   0.000000000003964  -0.000000000000075   0.000000000000033
Si   16.29300   5.43100  10.86200   0.000000000004088  -0.000000000000001  -0.000000000000133
Si   17.65075   6.78875  12.21975   0.000000000004025   0.000000000000007  -0.000000000000126
Si   19.00850   8.14650  10.86200   0.000000000003636  -0.000000000000077  -0.000000000000111
Si   20.36625   9.50425  12.21975   0.000000000004171   0.000000000000309   0.000000000000016
Si   21.72400  10.86200  10.86200   0.000000000004108  -0.000000000000002   0.000000000000008
Si   23.08175  12.21975  12.21975   0.000000000003976  -0.000000000000371   0.000000000000205
Si    0.00000   2.71550   2.71550   0.000000000003930   0.000000000000053  -0.000000000000150
Si    1.35775   4.07325   4.07325   0.000000000004060   0.000000000000059   0.000000000000048
Si    2.71550   5.43100   2.71550   0.000000000004255   0.000000000000002   0.000000000000092
Si    4.07325   6.78875   4.07325   0.000000000003851  -0.000000000000300   0.000000000000001
Si    5.43100   8.14650   2.71550   0.000000000004283   0.000000000000075  -0.000000000000208
Si    6.78875   9.50425   4.07325   0.000000000004210   0.000000000000050   0.000000000000124
Si    8.14650  10.86200   2.71550   0.000000000003781  -0.000000000000276  -0.000000000000075
Si    9.50425  12.21975   4.07325   0.000000000004262   0.000000000000054   0.000000000000153
Si   10.86200  13.57750   2.71550   0.000000000004074  -0.000000000000178  -0.000000000000013
Si   12.21975  14.93525   4.07325   0.000000000003760   0.000000000000039  -0.000000000000044
Si    2.71550   2.71550   5.43100   0.000000000004047   0.000000000000167  -0.000000000000106
Si    4.07325   4.07325   6.78875   0.000000000004094  -0.000000000000280   0.000000000000094
Si    5.43100   5.43100   5.43100   0.000000000003977   0.000000000000447   0.000000000000273
Si    6.78875   6.78875   6.78875   0.000000000003874  -0.000000000000214  -0.000000000000147
Si    8.14650   8.14650   5.43100   0.000000000004047   0.000000000000227   0.000000000000021
Si    9.50425   9.50425   6.78875   0.000000000003897   0.000000000000008  -0.000000000000205
Si   10.86200  10.86200   5.43100   0.000000000003817  -0.000000000000004  -0.000000000000019
Si   12.21975  12.21975   6.78875   0.000000000003773   0.000000000000213   0.000000000000217
Si   13.57750  13.57750   5.43100   0.000000000003827  -0.000000000000038   0.000000000000265
Si   14.93525  14.93525   6.78875   0.000000000003980   0.000000000000198   0.000000000000022
Si    5.43100   2.71550   8.14650   0.000000000004178  -0.000000000000034  -0.000000000000329
Si    6.78875   4.07325   9.50425   0.000000000003934   0.000000000000167   0.000000000000141
Si    8.14650   5.43100   8.14650   0.000000000003832   0.000000000000137  -0.000000000000355
Si    9.50425   6.78875   9.50425   0.000000000004007   0.000000000000076   0.000000000000081
Si   10.86200   8.14650   8.14650   0.000000000003949  -0.000000000000123  -0.000000000000213
Si   12.21975   9.50425   9.50425   0.000000000003982   0.000000000000064  -0.000000000000061
Si   13.57750  10.86200   8.14650   0.000000000004135   0.000000000000125   0.000000000000113
Si   14.93525  12.21975   9.50425   0.000000000003809   0.000000000000001   0.000000000000275
Si   16.29300  13.57750   8.14650   0.000000000004115   0.000000000000009  -0.000000000000015
Si   17.65075  14.93525   9.50425   0.000000000003656   0.000000000000101   0.000000000000231
Si    8.14650   2.71550  10.86200   0.000000000004156   0.000000000000011  -0.000000000000127
Si    9.50425   4.07325  12.21975   0.000000000003933  -0.000000000000242   0.000000000000176
Si   10.86200   5.43100  10.86200   0.000000000004052   0.000000000000035  -0.000000000000086
Si   12.21975   6.78875  12.21975   0.000000000003896   0.000000000000077   0.000000000000139
Si   13.57750   8.14650  10.86200   0.000000000004040   0.000000000000170  -0.000000000000014
Si   14.93525   9.50425  12.21975   0.000000000004101   0.000000000000289  -0.000000000000032
Si   16.29300  10.86200  10.86200   0.000000000004071  -0.000000000000090   0.000000000000216
Si   17.65075  12.21975  12.21975   0.000000000004061  -0.000000000000001   0.000000000000014
Si   19.00850  13.57750  10.86200   0.000000000003899   0.000000000000041  -0.000000000000119
Si   20.36625  14.93525  12.21975   0.000000000003695   0.000000000000215   0.000000000000109
Si   10.86200   2.71550  13.57750   0.000000000004005  -0.000000000000081  -0.000000000000298
Si   12.21975   4.07325  14.93525   0.000000000003793   0.000000000000112   0.000000000000023
Si   13.57750   5.43100  13.57750   0.000000000004319   0.000000000000046   0.000000000000221
Si   14.93525   6.78875  14.93525   0.000000000003731   0.000000000000030   0.000000000000015
Si   16.29300   8.14650  13.57750   0.000000000004421   0.000000000000122  -0.000000000000014
Si   17.65075   9.50425  14.93525   0.000000000003928  -0.000000000000246  -0.000000000000304
Si   19.00850  10.86200  13.57750   0.000000000003870  -0.000000000000100   0.000000000000200
Si   20.36625  12.21975  14.93525   0.000000000003932  -0.000000000000225  -0.000000000000075
Si   21.72400  13.57750  13.57750   0.000000000003931   0.000000000000037   0.000000000000090
Si   23.08175  14.93525  14.93525   0.000000000004358  -0.000000000000004  -0.000000000000050
Si    0.00000   5.43100   5.43100   0.000000000003760  -0.000000000000174   0.000000000000150
Si    1.35775   6.78875   6.78875   0.000000000003719   0.000000000000050   0.000000000000148
Si    2.71550   8.14650   5.43100   0.000000000004444   0.000000000000167   0.000000000000107
Si    4.07325   9.50425   6.78875   0.000000000003832  -0.000000000000093   0.000000000000202
Si    5.43100  10.86200   5.43100   0.000000000004037   0.000000000000098   0.000000000000038
Si    6.78875  12.21975   6.78875   0.000000000003830  -0.000000000000059  -0.000000000000195
Si    8.14650  13.57750   5.43100   0.000000000004093  -0.000000000000080   0.000000000000055
Si    9.50425  14.93525   6.78875   0.000000000003975   0.000000000000205  -0.000000000000430
Si   10.86200  16.29300   5.43100   0.000000000003851  -0.000000000000142   0.000000000000060
Si   12.21975  17.65075   6.78875   0.000000000004072   0.000000000000011   0.000000000000029
Si    2.71550   5.43100   8.14650   0.000000000004436  -0.000000000000204   0.000000000000094
Si    4.07325   6.78875   9.50425   0.000000000003814   0.000000000000092   0.000000000000146
Si    5.43100   8.14650   8.14650   0.000000000004067  -0.000000000000074  -0.000000000000262
Si    6.78875   9.50425   9.50425   0.000000000004050  -0.000000000000131  -0.000000000000045
Si    8.14650  10.86200   8.14650   0.000000000004268   0.000000000000135  -0.000000000000035
Si    9.50425  12.21975   9.50425   0.000000000003876  -0.000000000000018   0.000000000000107
Si   10.86200  13.57750   8.14650   0.000000000004425  -0.000000000000230  -0.000000000000138
Si   12.21975  14.93525   9.50425   0.000000000004242  -0.000000000000396   0.000000000000166
Si   13.57750  16.29300   8.14650   0.000000000004058   0.000000000000079   0.000000000000135
Si   14.93525  17.65075   9.50425   0.000000000003894  -0.000000000000322   0.000000000000049
Si    5.43100   5.43100  10.86200   0.000000000003894   0.000000000000200  -0.000000000000018
Si    6.78875   6.78875  12.21975   0.000000000003851   0.000000000000002  -0.000000000000048
Si    8.14650   8.14650  10.86200   0.000000000004179  -0.000000000000135  -0.000000000000285
Si    9.50425   9.50425  12.21975   0.000000000003849  -0.000000000000013  -0.000000000000037
Si   10.86200  10.86200  10.86200   0.000000000003938  -0.000000000000075   0.000000000000060
Si   12.21975  12.21975  12.21975   0.000000000003756   0.000000000000105  -0.000000000000091
Si   13.57750  13.57750  10.86200   0.000000000004082   0.000000000000034  -0.000000000000357
Si   14.93525  14.93525  12.21975   0.000000000004038   0.000000000000155   0.000000000000028
Si   16.29300  16.29300  10.86200   0.000000000004011  -0.000000000000042  -0.000000000000143
Si   17.65075  17.65075  12.21975   0.000000000003791  -0.000000000000115   0.000000000000000
Si    8.14650   5.43100  13.57750   0.000000000004161  -0.000000000000061   0.000000000000163
Si    9.50425   6.78875  14.93525   0.000000000003715  -0.000000000000152   0.000000000000228
Si   10.86200   8.14650  13.57750   0.000000000004123   0.000000000000066  -0.000000000000187
Si   12.21975   9.50425  14.93525   0.000000000003883   0.000000000000006   0.000000000000058
Si   13.57750  10.86200  13.57750   0.000000000004103  -0.000000000000033  -0.000000000000148
Si   14.93525  12.21975  14.93525   0.000000000003711   0.000000000000056  -0.000000000000141
Si   16.29300  13.57750  13.57750   0.000000000004396  -0.000000000000030  -0.000000000000206
Si   17.65075  14.93525  14.93525   0.000000000003804   0.000000000000168   0.000000000000023
Si   19.00850  16.29300  13.57750   0.000000000003933  -0.000000000000185   0.000000000000057
Si   20.36625  17.65075  14.93525   0.000000000004113  -0.000000000000151   0.000000000000231
Si   10.86200   5.43100  16.29300   0.000000000004055  -0.000000000000117   0.000000000000043
Si   12.21975   6.78875  17.65075   0.000000000003567  -0.000000000000124  -0.000000000000087
Si   13.57750   8.14650  16.29300   0.000000000004083  -0.000000000000022  -0.000000000000050
Si   14.93525   9.50425  17.65075   0.000000000003778   0.000000000000300   0.000000000000029
Si   16.29300  10.86200  16.29300   0.000000000004310   0.000000000000141   0.000000000000305
Si   17.65075  12.21975  17.65075   0.000000000003758  -0.000000000000053   0.000000000000161
Si   19.00850  13.57750  16.29300   0.000000000003882   0.000000000000107  -0.000000000000098
Si   20.36625  14.93525  17.65075   0.000000000004078   0.000000000000135  -0.000000000000137
Si   21.72400  16.29300  16.29300   0.000000000003820   0.000000000000165   0.000000000000135
Si   23.08175  17.65075  17.65075   0.000000000003896  -0.000000000000056  -0.000000000000035
Si    0.00000   8.14650   8.14650   0.000000000004023   0.000000000000441  -0.000000000000239
Si    1.35775   9.50425   9.50425   0.000000000004136  -0.000000000000083  -0.000000000000002
Si    2.71550  10.86200   8.14650   0.000000000003943  -0.000000000000365  -0.000000000000333
Si    4.07325  12.21975   9.50425   0.000000000003893   0.000000000000173  -0.000000000000074
Si    5.43100  13.57750   8.14650   0.000000000004022  -0.000000000000189   0.000000000000047
Si    6.78875  14.93525   9.50425   0.000000000004023   0.000000000000129   0.000000000000032
Si    8.14650  16.29300   8.14650   0.000000000003740  -0.000000000000068   0.000000000000110
Si    9.50425  17.65075   9.50425   0.000000000004209   0.000000000000041  -0.000000000000114
Si   10.86200  19.00850   8.14650   0.000000000004020  -0.000000000000034  -0.000000000000114
Si   12.21975  20.36625   9.50425   0.000000000003892  -0.000000000000238  -0.000000000000181
Si    2.71550   8.14650  10.86200   0.000000000004311  -0.000000000000021  -0.000000000000193
Si    4.07325   9.50425  12.21975   0.000000000003842  -0.000000000000228   0.000000000000163
Si    5.43100  10.86200  10.86200   0.000000000003850   0.000000000000158   0.000000000000035
Si    6.78875  12.21975  12.21975   0.000000000004115   0.000000000000216   0.000000000000134
Si    8.14650  13.57750  10.86200   0.000000000003942  -0.000000000000303  -0.000000000000353
Si    9.50425  14.93525  12.21975   0.000000000004298  -0.000000000000002  -0.000000000000099
Si   10.86200  16.29300  10.86200   0.000000000003969   0.000000000000146   0.000000000000292
Si   12.21975  17.65075  12.21975   0.000000000004007  -0.000000000000417  -0.000000000000015
Si   13.57750  19.00850  10.86200   0.000000000004107  -0.000000000000001   0.000000000000071
Si   14.93525  20.36625  12.21975   0.000000000004011  -0.000000000000196   0.000000000000101
Si    5.43100   8.14650  13.57750   0.000000000003761   0.000000000000129  -0.000000000000246
Si    6.78875   9.50425  14.93525   0.000000000004163  -0.000000000000225   0.000000000000215
Si    8.14650  10.86200  13.57750   0.000000000004139  -0.000000000000172  -0.000000000000026
Si    9.50425  12.21975  14.93525   0.000000000004260   0.000000000000088   0.000000000000011
Si   10.86200  13.57750  13.57750   0.000000000004246  -0.000000000000066   0.000000000000317
Si   12.21975  14.93525  14.93525   0.000000000003706  -0.000000000000248  -0.000000000000053
Si   13.57750  16.29300  13.57750   0.000000000004291   0.000000000000125  -0.000000000000051
Si   14.93525  17.65075  14.93525   0.000000000003705  -0.000000000000162  -0.000000000000065
Si   16.29300  19.00850  13.57750   0.000000000004103  -0.000000000000029  -0.000000000000362
Si   17.65075  20.36625  14.93525   0.000000000003881   0.000000000000196   0.000000000000040
Si    8.14650   8.14650  16.29300   0.000000000003964   0.000000000000307  -0.000000000000327
Si    9.50425   9.50425  17.65075   0.000000000004121  -0.000000000000094   0.000000000000225
Si   10.86200  10.86200  16.29300   0.000000000003945  -0.000000000000088   0.000000000000136
Si   12.21975  12.21975  17.65075   0.000000000003693   0.000000000000083  -0.000000000000087
Si   13.57750  13.57750  16.29300   0.000000000003612  -0.000000000000075  -0.000000000000175
Si   14.93525  14.93525  17.65075   0.000000000004258   0.000000000000211   0.000000000000003
Si   16.29300  16.29300  16.29300   0.000000000004049  -0.000000000000240   0.000000000000046
Si   17.65075  17.65075  17.65075   0.000000000004047   0.000000000000168  -0.000000000000067
Si   19.00850  19.00850  16.29300   0.000000000003973  -0.000000000000044   0.000000000000138
Si   20.36625  20.36625  17.65075   0.000000000003888  -0.000000000000056   0.000000000000063
Si   10.86200   8.14650  19.00850   0.000000000003722   0.000000000000121  -0.000000000000212
Si   12.21975   9.50425  20.36625   0.000000000003712   0.000000000000018   0.000000000000225
Si   13.57750  10.86200  19.00850   0.000000000004326  -0.000000000000249   0.000000000000010
Si   14.93525  12.21975  20.36625   0.000000000003911   0.000000000000090   0.000000000000135
Si   16.29300  13.57750  19.00850   0.000000000004088  -0.000000000000182  -0.000000000000303
Si   17.65075  14.93525  20.36625   0.000000000003980   0.000000000000110   0.000000000000051
Si   19.00850  16.29300  19.00850   0.000000000003957  -0.000000000000164   0.000000000000103
Si   20.36625  17.65075  20.36625   0.000000000003969   0.000000000000099  -0.000000000000004
Si   21.72400  19.00850  19.00850   0.000000000004051   0.000000000000019  -0.000000000000056
Si   23.08175  20.36625  20.36625   0.000000000004314  -0.000000000000012  -0.000000000000138
Si    0.00000  10.86200  10.86200   0.000000000003880   0.000000000000048  -0.000000000000148
Si    1.35775  12.21975  12.21975   0.000000000004200  -0.000000000000172  -0.000000000000036
Si    2.71550  13.57750  10.86200   0.000000000003942   0.000000000000009   0.000000000000087
Si    4.07325  14.93525  12.21975   0.000000000003911  -0.000000000000037   0.000000000000131
Si    5.43100  16.29300  10.86200   0.000000000004125  -0.000000000000233  -0.000000000000040
Si    6.78875  17.65075  12.21975   0.000000000003796   0.000000000000395   0.000000000000061
Si    8.14650  19.00850  10.86200   0.000000000003798  -0.000000000000158   0.000000000000011
Si    9.50425  20.36625  12.21975   0.000000000004141  -0.000000000000114  -0.000000000000113
Si   10.86200  21.72400  10.86200   0.000000000003719   0.000000000000350   0.000000000000153
Si   12.21975  23.08175  12.21975   0.000000000004123  -0.000000000000146   0.000000000000077
Si    2.71550  10.86200  13.57750   0.000000000003964   0.000000000000325  -0.000000000000115
Si    4.07325  12.21975  14.93525   0.000000000004025  -0.000000000000070   0.000000000000056
Si    5.43100  13.57750  13.57750   0.000000000003811   0.000000000000041  -0.000000000000164
Si    6.78875  14.93525  14.93525   0.000000000003897  -0.000000000000226   0.000000000000177
Si    8.14650  16.29300  13.57750   0.000000000003978   0.000000000000108   0.000000000000046
Si    9.50425  17.65075  14.93525   0.000000000003911   0.000000000000141  -0.000000000000046
Si   10.86200  19.00850  13.57750   0.000000000003840   0.000000000000097  -0.000000000000031
Si   12.21975  20.36625  14.93525   0.000000000004337  -0.000000000000095   0.000000000000170
Si   13.57750  21.72400  13.57750   0.000000000003638   0.000000000000135   0.000000000000071
Si   14.93525  23.08175  14.93525   0.000000000003912  -0.000000000000188  -0.000000000000096
Si    5.43100  10.86200  16.29300   0.000000000003928   0.000000000000075  -0.000000000000172
Si    6.78875  12.21975  17.65075   0.000000000003981  -0.000000000000171  -0.000000000000056
Si    8.14650  13.57750  16.29300   0.000000000004007   0.000000000000420  -0.000000000000232
Si    9.50425  14.93525  17.65075   0.000000000004032  -0.000000000000109   0.000000000000095
Si   10.86200  16.29300  16.29300   0.000000000003974  -0.000000000000340  -0.000000000000008
Si   12.21975  17.65075  17.65075   0.000000000003974   0.000000000000056  -0.000000000000001
Si   13.57750  19.00850  16.29300   0.000000000003753   0.000000000000015  -0.000000000000229
Si   14.93525  20.36625  17.65075   0.000000000004310   0.000000000000098   0.000000000000061
Si   16.29300  21.72400  16.29300   0.000000000004060  -0.000000000000054   0.000000000000218
Si   17.65075  23.08175  17.65075   0.000000000003770  -0.000000000000288  -0.000000000000044
Si    8.14650  10.86200  19.00850   0.000000000004206  -0.000000000000133   0.000000000000077
Si    9.50425  12.21975  20.36625   0.000000000004061  -0.000000000000299  -0.000000000000231
Si   10.86200  13.57750  19.00850   0.000000000004058   0.000000000000204   0.000000000000059
Si   12.21975  14.93525  20.36625   0.000000000004007  -0.000000000000230   0.000000000000084
Si   13.57750  16.29300  19.00850   0.000000000003984  -0.000000000000213  -0.000000000000037
Si   14.93525  17.65075  20.36625   0.000000000003997  -0.000000000000098  -0.000000000000184
Si   16.29300  19.00850  19.00850   0.000000000004181   0.000000000000252  -0.000000000000055
Si   17.65075  20.36625  20.36625   0.000000000004061  -0.000000000000114  -0.000000000000249
Si   19.00850  21.72400  19.00850   0.000000000003975  -0.000000000000086   0.000000000000196
Si   20.36625  23.08175  20.36625   0.000000000004043  -0.000000000000133  -0.000000000000102
Si   10.86200  10.86200  21.72400   0.000000000004168  -0.000000000000123  -0.000000000000154
Si   12.21975  12.21975  23.08175   0.000000000004096   0.000000000000152  -0.000000000000383
Si   13.57750  13.57750  21.72400   0.000000000003808   0.000000000000073   0.000000000000221
Si   14.93525  14.93525  23.08175   0.000000000003871  -0.000000000000279  -0.000000000000149
Si   16.29300  16.29300  21.72400   0.000000000003978  -0.000000000000069   0.000000000000120
Si   17.65075  17.65075  23.08175   0.000000000003879   0.000000000000264  -0.000000000000012
Si   19.00850  19.00850  21.72400   0.000000000003916  -0.000000000000023   0.000000000000108
Si   20.36625  20.36625  23.08175   0.000000000003910  -0.000000000000057   0.000000000000044
Si   21.72400  21.72400  21.72400   0.000000000003690   0.000000000000255   0.000000000000038
Si   23.08175  23.08175  23.08175   0.000000000003839  -0.000000000000113   0.000000000000178
