216 

Si    0.67888   0.67888   0.67888   0.000008974336662   0.000008974336693   0.000008955832698
Si    3.39437   0.67888   3.39437  -0.000008974336599   0.000008974336523  -0.000008955833036
Si    0.67888   3.39437   3.39437   0.000008974336560  -0.000008974336901  -0.000008955832706
Si    3.39437   3.39437   0.67888  -0.000008974336436  -0.000008974336717   0.000008955832745
Si    4.75213   2.03662   2.03662   0.000007118414799   0.000000000000030   0.000000000000192
Si    4.75213   4.75213   4.75213   0.000008157318894   0.000008157318977   0.000008161418592
Si    2.03662   2.03662   4.75213  -0.000000000000882  -0.000000000000043   0.000007124879114
Si    2.03662   4.75213   2.03662  -0.000000000000626   0.000007118414875  -0.000000000000042
Si    0.67888   0.67888   6.10987   0.000002872607043   0.000002872606866   0.000000869889351
Si    3.39437   0.67888   8.82538  -0.000008157318683   0.000008157319058   0.000008161418330
Si    0.67888   3.39437   8.82538   0.000008157319183  -0.000008157318940   0.000008161418291
Si    3.39437   3.39437   6.10987  -0.000002872606485  -0.000002872606484   0.000000869889411
Si    4.75213   2.03662   7.46762   0.000002889835183   0.000000875492249  -0.000002885567213
Si    4.75213   4.75213  10.18313   0.000002872607024   0.000002872606581  -0.000000869889776
Si    2.03662   2.03662  10.18313  -0.000000000000957   0.000000000000007   0.000000000000120
Si    2.03662   4.75213   7.46762   0.000000875491510   0.000002889834875  -0.000002885567149
Si    0.67888   0.67888  11.54087   0.000008157319190   0.000008157318946  -0.000008161418473
Si    3.39437   0.67888  14.25638  -0.000002872606425   0.000002872606747  -0.000000869889328
Si    0.67888   3.39437  14.25638   0.000002872607013  -0.000002872606711  -0.000000869889579
Si    3.39437   3.39437  11.54087  -0.000008157318691  -0.000008157318782  -0.000008161418448
Si    4.75213   2.03662  12.89863   0.000002889835249  -0.000000875492280   0.000002885567093
Si    4.75213   4.75213  15.61412   0.000008974336827   0.000008974337057  -0.000008955832856
Si    2.03662   2.03662  15.61412  -0.000000000000914  -0.000000000000051  -0.000007124878914
Si    2.03662   4.75213  12.89863  -0.000000875492974   0.000002889835143   0.000002885567244
Si    0.67888   6.10987   0.67888   0.000002889835059   0.000000875492228   0.000002885567114
Si    3.39437   6.10987   3.39437  -0.000002889834712   0.000000875492117  -0.000002885567049
Si    0.67888   8.82538   3.39437   0.000008157319152   0.000008157318752  -0.000008161418264
Si    3.39437   8.82538   0.67888  -0.000008157318787   0.000008157318996   0.000008161418398
Si    4.75213   7.46762   2.03662   0.000002872606964  -0.000002872606547   0.000000869889407
Si    4.75213  10.18313   4.75213   0.000002889835253  -0.000000875492209   0.000002885567338
Si    2.03662   7.46762   4.75213   0.000000875491329  -0.000002889834940   0.000002885567247
Si    2.03662  10.18313   2.03662  -0.000000000000930   0.000000000000124  -0.000000000000156
Si    0.67888   6.10987   6.10987   0.000007118414967   0.000000000000223  -0.000000000000070
Si    3.39437   6.10987   8.82538  -0.000002889834697  -0.000000875492191   0.000002885567390
Si    0.67888   8.82538   8.82538   0.000008974336973   0.000008974336491   0.000008955832651
Si    3.39437   8.82538   6.10987  -0.000002872606549   0.000002872606454  -0.000000869889528
Si    4.75213   7.46762   7.46762   0.000008157319265  -0.000008157318754  -0.000008161418233
Si    4.75213  10.18313  10.18313   0.000007118414531  -0.000000000000129  -0.000000000000168
Si    2.03662   7.46762  10.18313  -0.000000000000862  -0.000007118414492  -0.000000000000040
Si    2.03662  10.18313   7.46762  -0.000000000000985   0.000000000000241  -0.000007124878847
Si    0.67888   6.10987  11.54087   0.000002889835448  -0.000000875492206  -0.000002885567097
Si    3.39437   6.10987  14.25638  -0.000007118414501  -0.000000000000126  -0.000000000000141
Si    0.67888   8.82538  14.25638   0.000002872606925   0.000002872606980   0.000000869889517
Si    3.39437   8.82538  11.54087  -0.000008974336291   0.000008974336672  -0.000008955832610
Si    4.75213   7.46762  12.89863   0.000008974336865  -0.000008974336571   0.000008955832777
Si    4.75213  10.18313  15.61412   0.000002889835178   0.000000875492424  -0.000002885567279
Si    2.03662   7.46762  15.61412  -0.000000875492877  -0.000002889834913  -0.000002885567203
Si    2.03662  10.18313  12.89863  -0.000000000000779  -0.000000000000222   0.000007124878771
Si    0.67888  11.54087   0.67888   0.000008157319256  -0.000008157319000   0.000008161418357
Si    3.39437  11.54087   3.39437  -0.000008157318894  -0.000008157318967  -0.000008161418285
Si    0.67888  14.25638   3.39437   0.000002889835366  -0.000000875492278  -0.000002885567351
Si    3.39437  14.25638   0.67888  -0.000002889834739  -0.000000875492341   0.000002885567214
Si    4.75213  12.89863   2.03662   0.000002872607055   0.000002872606687  -0.000000869889571
Si    4.75213  15.61412   4.75213   0.000008974336847  -0.000008974336736   0.000008955832775
Si    2.03662  12.89863   4.75213  -0.000000875493136   0.000002889834815   0.000002885567027
Si    2.03662  15.61412   2.03662  -0.000000000000865  -0.000007118414740   0.000000000000445
Si    0.67888  11.54087   6.10987   0.000002872607203  -0.000002872606878  -0.000000869889378
Si    3.39437  11.54087   8.82538  -0.000008974336262  -0.000008974336692   0.000008955832911
Si    0.67888  14.25638   8.82538   0.000002889835282   0.000000875492200   0.000002885567346
Si    3.39437  14.25638   6.10987  -0.000007118414486   0.000000000000017  -0.000000000000004
Si    4.75213  12.89863   7.46762   0.000008974336959   0.000008974336502  -0.000008955832712
Si    4.75213  15.61412  10.18313   0.000002872606998  -0.000002872606781   0.000000869889739
Si    2.03662  12.89863  10.18313  -0.000000000000947   0.000007118414472  -0.000000000000083
Si    2.03662  15.61412   7.46762  -0.000000875493147  -0.000002889834952  -0.000002885567351
Si    0.67888  11.54087  11.54087   0.000008974336810  -0.000008974336700  -0.000008955832715
Si    3.39437  11.54087  14.25638  -0.000002872606717  -0.000002872607080   0.000000869889558
Si    0.67888  14.25638  14.25638   0.000007118414828  -0.000000000000181  -0.000000000000034
Si    3.39437  14.25638  11.54087  -0.000002889834656   0.000000875492226  -0.000002885567453
Si    4.75213  12.89863  12.89863   0.000008157319230   0.000008157319014   0.000008161418431
Si    4.75213  15.61412  15.61412   0.000008157319128  -0.000008157319016  -0.000008161418562
Si    2.03662  12.89863  15.61412   0.000000875491291   0.000002889835013  -0.000002885567346
Si    2.03662  15.61412  12.89863   0.000000875491246  -0.000002889834964   0.000002885567365
Si    6.10987   0.67888   0.67888   0.000000875491448   0.000002889834874   0.000002885567192
Si    8.82538   0.67888   3.39437   0.000008157319136   0.000008157318930  -0.000008161418352
Si    6.10987   3.39437   3.39437   0.000000875491525  -0.000002889834841  -0.000002885567319
Si    8.82538   3.39437   0.67888   0.000008157319104  -0.000008157318958   0.000008161418291
Si   10.18313   2.03662   2.03662  -0.000000000000645  -0.000000000000034   0.000000000000020
Si   10.18313   4.75213   4.75213  -0.000000875493168   0.000002889834961   0.000002885567285
Si    7.46762   2.03662   4.75213  -0.000002889834671   0.000000875492178   0.000002885567345
Si    7.46762   4.75213   2.03662  -0.000002872606370   0.000002872606811   0.000000869889696
Si    6.10987   0.67888   6.10987  -0.000000000000602   0.000007118414757   0.000000000000134
Si    8.82538   0.67888   8.82538   0.000008974336917   0.000008974336682   0.000008955832770
Si    6.10987   3.39437   8.82538  -0.000000875493003  -0.000002889834800   0.000002885567316
Si    8.82538   3.39437   6.10987   0.000002872607154  -0.000002872606745  -0.000000869889449
Si   10.18313   2.03662   7.46762  -0.000000000000809   0.000000000000251  -0.000007124878808
Si   10.18313   4.75213  10.18313  -0.000000000001019   0.000007118414556  -0.000000000000066
Si    7.46762   2.03662  10.18313  -0.000007118414350   0.000000000000000   0.000000000000004
Si    7.46762   4.75213   7.46762  -0.000008157318679   0.000008157318795  -0.000008161418209
Si    6.10987   0.67888  11.54087  -0.000000875493042   0.000002889835070  -0.000002885567430
Si    8.82538   0.67888  14.25638   0.000002872607256   0.000002872606737   0.000000869889549
Si    6.10987   3.39437  14.25638  -0.000000000000753  -0.000007118414713   0.000000000000083
Si    8.82538   3.39437  11.54087   0.000008974337281  -0.000008974336775  -0.000008955832843
Si   10.18313   2.03662  12.89863  -0.000000000001051   0.000000000000028   0.000007124878860
Si   10.18313   4.75213  15.61412   0.000000875491461   0.000002889834654  -0.000002885567354
Si    7.46762   2.03662  15.61412  -0.000002889834451  -0.000000875492252  -0.000002885567426
Si    7.46762   4.75213  12.89863  -0.000008974336718   0.000008974336703   0.000008955832486
Si    6.10987   6.10987   0.67888  -0.000000000000745  -0.000000000000031   0.000007124878696
Si    8.82538   6.10987   3.39437   0.000002889835341  -0.000000875492338  -0.000002885567285
Si    6.10987   8.82538   3.39437  -0.000000875493205   0.000002889834862  -0.000002885567254
Si    8.82538   8.82538   0.67888   0.000008974336977   0.000008974336834   0.000008955832634
Si   10.18313   7.46762   2.03662  -0.000000000000938  -0.000007118414799   0.000000000000361
Si   10.18313  10.18313   4.75213  -0.000000000001141  -0.000000000000208   0.000007124878701
Si    7.46762   7.46762   4.75213  -0.000008157318716  -0.000008157318875   0.000008161418464
Si    7.46762  10.18313   2.03662  -0.000007118414427   0.000000000000089  -0.000000000000103
Si    6.10987   6.10987   6.10987  -0.000000000000863   0.000000000000072  -0.000000000000128
Si    8.82538   6.10987   8.82538   0.000002889835342   0.000000875492074   0.000002885567377
Si    6.10987   8.82538   8.82538   0.000000875491166   0.000002889834824   0.000002885567324
Si    8.82538   8.82538   6.10987   0.000002872607032   0.000002872606784   0.000000869889325
Si   10.18313   7.46762   7.46762  -0.000000875493146  -0.000002889835164  -0.000002885567384
Si   10.18313  10.18313  10.18313  -0.000000000000881   0.000000000000118   0.000000000000146
Si    7.46762   7.46762  10.18313  -0.000002872606576  -0.000002872606819  -0.000000869889502
Si    7.46762  10.18313   7.46762  -0.000002889834626  -0.000000875492313  -0.000002885567101
Si    6.10987   6.10987  11.54087  -0.000000000000772   0.000000000000176  -0.000007124878766
Si    8.82538   6.10987  14.25638   0.000007118414915   0.000000000000071   0.000000000000048
Si    6.10987   8.82538  14.25638  -0.000000000000895   0.000007118414493  -0.000000000000154
Si    8.82538   8.82538  11.54087   0.000008157318864   0.000008157318845  -0.000008161418339
Si   10.18313   7.46762  12.89863   0.000000875491444  -0.000002889834992   0.000002885567288
Si   10.18313  10.18313  15.61412  -0.000000000000941   0.000000000000111  -0.000007124878869
Si    7.46762   7.46762  15.61412  -0.000008974336653  -0.000008974336723  -0.000008955832796
Si    7.46762  10.18313  12.89863  -0.000002889834502   0.000000875492330   0.000002885567284
Si    6.10987  11.54087   0.67888  -0.000000875493121  -0.000002889835084   0.000002885567286
Si    8.82538  11.54087   3.39437   0.000008974337180  -0.000008974336828  -0.000008955832633
Si    6.10987  14.25638   3.39437  -0.000000000000922  -0.000000000000021  -0.000007124878820
Si    8.82538  14.25638   0.67888   0.000002889835588   0.000000875492166   0.000002885567103
Si   10.18313  12.89863   2.03662  -0.000000000000769   0.000007118414656  -0.000000000000429
Si   10.18313  15.61412   4.75213   0.000000875491781  -0.000002889834858   0.000002885567188
Si    7.46762  12.89863   4.75213  -0.000008974336361   0.000008974336705   0.000008955832693
Si    7.46762  15.61412   2.03662  -0.000002872606364  -0.000002872606568  -0.000000869889463
Si    6.10987  11.54087   6.10987  -0.000000000001217  -0.000007118414638   0.000000000000009
Si    8.82538  11.54087   8.82538   0.000008157318737  -0.000008157319090   0.000008161418472
Si    6.10987  14.25638   8.82538  -0.000000000000842   0.000000000000101   0.000007124878728
Si    8.82538  14.25638   6.10987   0.000007118414887   0.000000000000180   0.000000000000032
Si   10.18313  12.89863   7.46762   0.000000875491605   0.000002889835270  -0.000002885567258
Si   10.18313  15.61412  10.18313  -0.000000000000888  -0.000007118414338   0.000000000000040
Si    7.46762  12.89863  10.18313  -0.000002872606248   0.000002872606723   0.000000869889301
Si    7.46762  15.61412   7.46762  -0.000008974336414  -0.000008974336678  -0.000008955832532
Si    6.10987  11.54087  11.54087   0.000000875491337  -0.000002889835048  -0.000002885567191
Si    8.82538  11.54087  14.25638   0.000002872607018  -0.000002872606811  -0.000000869889492
Si    6.10987  14.25638  14.25638  -0.000000000000895  -0.000000000000202   0.000000000000126
Si    8.82538  14.25638  11.54087   0.000002889835107  -0.000000875492133  -0.000002885567083
Si   10.18313  12.89863  12.89863  -0.000000875492809   0.000002889835014   0.000002885567401
Si   10.18313  15.61412  15.61412  -0.000000875493142  -0.000002889834864  -0.000002885567206
Si    7.46762  12.89863  15.61412  -0.000008157318756   0.000008157318948  -0.000008161418276
Si    7.46762  15.61412  12.89863  -0.000008157318406  -0.000008157318796   0.000008161418209
Si   11.54087   0.67888   0.67888  -0.000008157318557   0.000008157318659   0.000008161418388
Si   14.25638   0.67888   3.39437  -0.000000875493229   0.000002889834819  -0.000002885567183
Si   11.54087   3.39437   3.39437  -0.000008157318621  -0.000008157318932  -0.000008161418335
Si   14.25638   3.39437   0.67888  -0.000000875493277  -0.000002889835005   0.000002885567326
Si   15.61412   2.03662   2.03662  -0.000007118414259   0.000000000000056  -0.000000000000093
Si   15.61412   4.75213   4.75213  -0.000008974336369   0.000008974336773   0.000008955832713
Si   12.89863   2.03662   4.75213   0.000002889834890  -0.000000875492452   0.000002885567162
Si   12.89863   4.75213   2.03662   0.000002872606721   0.000002872606412  -0.000000869889531
Si   11.54087   0.67888   6.10987  -0.000002872606618   0.000002872606825  -0.000000869889601
Si   14.25638   0.67888   8.82538   0.000000875491243   0.000002889834926   0.000002885567385
Si   11.54087   3.39437   8.82538  -0.000008974336813  -0.000008974336894   0.000008955832998
Si   14.25638   3.39437   6.10987  -0.000000000000795  -0.000007118414690   0.000000000000029
Si   15.61412   2.03662   7.46762  -0.000002889834719  -0.000000875492234  -0.000002885567253
Si   15.61412   4.75213  10.18313  -0.000002872606529   0.000002872606879   0.000000869889270
Si   12.89863   2.03662  10.18313   0.000007118414880   0.000000000000074  -0.000000000000266
Si   12.89863   4.75213   7.46762   0.000008974336940   0.000008974336942  -0.000008955832922
Si   11.54087   0.67888  11.54087  -0.000008974336696   0.000008974336544  -0.000008955832716
Si   14.25638   0.67888  14.25638  -0.000000000001105   0.000007118414248  -0.000000000000025
Si   11.54087   3.39437  14.25638  -0.000002872606472  -0.000002872606884   0.000000869889412
Si   14.25638   3.39437  11.54087   0.000000875491063  -0.000002889835025  -0.000002885567264
Si   15.61412   2.03662  12.89863  -0.000002889834616   0.000000875492201   0.000002885567359
Si   15.61412   4.75213  15.61412  -0.000008157318641   0.000008157318850  -0.000008161418142
Si   12.89863   2.03662  15.61412   0.000002889835012   0.000000875492357  -0.000002885567140
Si   12.89863   4.75213  12.89863   0.000008157319051   0.000008157318891   0.000008161418414
Si   11.54087   6.10987   0.67888  -0.000002889834522  -0.000000875492060   0.000002885567340
Si   14.25638   6.10987   3.39437  -0.000000000000916   0.000000000000018  -0.000007124878721
Si   11.54087   8.82538   3.39437  -0.000008974336509   0.000008974336849  -0.000008955832934
Si   14.25638   8.82538   0.67888   0.000000875491403   0.000002889835109   0.000002885567079
Si   15.61412   7.46762   2.03662  -0.000002872606252  -0.000002872606573  -0.000000869889310
Si   15.61412  10.18313   4.75213  -0.000002889834648   0.000000875492240   0.000002885567103
Si   12.89863   7.46762   4.75213   0.000008974337060  -0.000008974336830   0.000008955832798
Si   12.89863  10.18313   2.03662   0.000007118414978  -0.000000000000104   0.000000000000112
Si   11.54087   6.10987   6.10987  -0.000007118414550  -0.000000000000186   0.000000000000117
Si   14.25638   6.10987   8.82538  -0.000000000000812  -0.000000000000230   0.000007124878677
Si   11.54087   8.82538   8.82538  -0.000008157318635   0.000008157318915   0.000008161418174
Si   14.25638   8.82538   6.10987  -0.000000000000811   0.000007118414590   0.000000000000055
Si   15.61412   7.46762   7.46762  -0.000008974336359  -0.000008974336649  -0.000008955832677
Si   15.61412  10.18313  10.18313  -0.000007118414226   0.000000000000057   0.000000000000139
Si   12.89863   7.46762  10.18313   0.000002872606867  -0.000002872606838   0.000000869889756
Si   12.89863  10.18313   7.46762   0.000002889835169   0.000000875492258  -0.000002885567247
Si   11.54087   6.10987  11.54087  -0.000002889834833   0.000000875492018  -0.000002885567502
Si   14.25638   6.10987  14.25638  -0.000000000000941   0.000000000000092   0.000000000000081
Si   11.54087   8.82538  14.25638  -0.000002872606575   0.000002872606736  -0.000000869889334
Si   14.25638   8.82538  11.54087  -0.000000875492826   0.000002889835047  -0.000002885567472
Si   15.61412   7.46762  12.89863  -0.000008157318482  -0.000008157318883   0.000008161418223
Si   15.61412  10.18313  15.61412  -0.000002889834677  -0.000000875492311  -0.000002885567268
Si   12.89863   7.46762  15.61412   0.000008157319030  -0.000008157318958  -0.000008161418436
Si   12.89863  10.18313  12.89863   0.000002889834912  -0.000000875492079   0.000002885567476
Si   11.54087  11.54087   0.67888  -0.000008974336596  -0.000008974336220   0.000008955832720
Si   14.25638  11.54087   3.39437   0.000000875491326  -0.000002889834819  -0.000002885567314
Si   11.54087  14.25638   3.39437  -0.000002889834781   0.000000875492241  -0.000002885567227
Si   14.25638  14.25638   0.67888  -0.000000000000835   0.000000000000028   0.000007124878732
Si   15.61412  12.89863   2.03662  -0.000002872606603   0.000002872606791   0.000000869889435
Si   15.61412  15.61412   4.75213  -0.000008157318941  -0.000008157318815   0.000008161418302
Si   12.89863  12.89863   4.75213   0.000008157319188   0.000008157319104   0.000008161418267
Si   12.89863  15.61412   2.03662   0.000002872606933  -0.000002872606555   0.000000869889338
Si   11.54087  11.54087   6.10987  -0.000002872606511  -0.000002872606826   0.000000869889404
Si   14.25638  11.54087   8.82538  -0.000000875493042  -0.000002889835046   0.000002885567359
Si   11.54087  14.25638   8.82538  -0.000002889834763  -0.000000875492188   0.000002885567231
Si   14.25638  14.25638   6.10987  -0.000000000000854  -0.000000000000028  -0.000000000000094
Si   15.61412  12.89863   7.46762  -0.000008157318674   0.000008157318911  -0.000008161418361
Si   15.61412  15.61412  10.18313  -0.000002872606521  -0.000002872606730  -0.000000869889482
Si   12.89863  12.89863  10.18313   0.000002872606819   0.000002872606725  -0.000000869889408
Si   12.89863  15.61412   7.46762   0.000008157319083  -0.000008157318745  -0.000008161418401
Si   11.54087  11.54087  11.54087  -0.000008157318625  -0.000008157318786  -0.000008161418330
Si   14.25638  11.54087  14.25638  -0.000000000000686  -0.000007118414443   0.000000000000068
Si   11.54087  14.25638  14.25638  -0.000007118414540  -0.000000000000023  -0.000000000000045
Si   14.25638  14.25638  11.54087  -0.000000000000743   0.000000000000002  -0.000007124878745
Si   15.61412  12.89863  12.89863  -0.000008974336454   0.000008974336738   0.000008955832871
Si   15.61412  15.61412  15.61412  -0.000008974336648  -0.000008974336744  -0.000008955832692
Si   12.89863  12.89863  15.61412   0.000008974336914   0.000008974336686  -0.000008955832691
Si   12.89863  15.61412  12.89863   0.000008974336916  -0.000008974336663   0.000008955833048
