512

  Si    0.67887500000000   0.67887500000000   0.67887500000000
  Si    3.39437500000000   0.67887500000000   3.39437500000000
  Si    0.67887500000000   3.39437500000000   3.39437500000000
  Si    3.39437500000000   3.39437500000000   0.67887500000000
  Si    4.75212500000000   2.03662500000000   2.03662500000000
  Si    4.75212500000000   4.75212500000000   4.75212500000000
  Si    2.03662500000000   2.03662500000000   4.75212500000000
  Si    2.03662500000000   4.75212500000000   2.03662500000000
  Si    0.67887500000000   0.67887500000000   6.10987500000000
  Si    3.39437500000000   0.67887500000000   8.82537500000000
  Si    0.67887500000000   3.39437500000000   8.82537500000000
  Si    3.39437500000000   3.39437500000000   6.10987500000000
  Si    4.75212500000000   2.03662500000000   7.46762500000000
  Si    4.75212500000000   4.75212500000000  10.18312500000000
  Si    2.03662500000000   2.03662500000000  10.18312500000000
  Si    2.03662500000000   4.75212500000000   7.46762500000000
  Si    0.67887500000000   0.67887500000000  11.54087500000000
  Si    3.39437500000000   0.67887500000000  14.25637500000000
  Si    0.67887500000000   3.39437500000000  14.25637500000000
  Si    3.39437500000000   3.39437500000000  11.54087500000000
  Si    4.75212500000000   2.03662500000000  12.89862500000000
  Si    4.75212500000000   4.75212500000000  15.61412500000000
  Si    2.03662500000000   2.03662500000000  15.61412500000000
  Si    2.03662500000000   4.75212500000000  12.89862500000000
  Si    0.67887500000000   0.67887500000000  16.97187500000000
  Si    3.39437500000000   0.67887500000000  19.68737500000000
  Si    0.67887500000000   3.39437500000000  19.68737500000000
  Si    3.39437500000000   3.39437500000000  16.97187500000000
  Si    4.75212500000000   2.03662500000000  18.32962500000000
  Si    4.75212500000000   4.75212500000000  21.04512500000000
  Si    2.03662500000000   2.03662500000000  21.04512500000000
  Si    2.03662500000000   4.75212500000000  18.32962500000000
  Si    0.67887500000000   6.10987500000000   0.67887500000000
  Si    3.39437500000000   6.10987500000000   3.39437500000000
  Si    0.67887500000000   8.82537500000000   3.39437500000000
  Si    3.39437500000000   8.82537500000000   0.67887500000000
  Si    4.75212500000000   7.46762500000000   2.03662500000000
  Si    4.75212500000000  10.18312500000000   4.75212500000000
  Si    2.03662500000000   7.46762500000000   4.75212500000000
  Si    2.03662500000000  10.18312500000000   2.03662500000000
  Si    0.67887500000000   6.10987500000000   6.10987500000000
  Si    3.39437500000000   6.10987500000000   8.82537500000000
  Si    0.67887500000000   8.82537500000000   8.82537500000000
  Si    3.39437500000000   8.82537500000000   6.10987500000000
  Si    4.75212500000000   7.46762500000000   7.46762500000000
  Si    4.75212500000000  10.18312500000000  10.18312500000000
  Si    2.03662500000000   7.46762500000000  10.18312500000000
  Si    2.03662500000000  10.18312500000000   7.46762500000000
  Si    0.67887500000000   6.10987500000000  11.54087500000000
  Si    3.39437500000000   6.10987500000000  14.25637500000000
  Si    0.67887500000000   8.82537500000000  14.25637500000000
  Si    3.39437500000000   8.82537500000000  11.54087500000000
  Si    4.75212500000000   7.46762500000000  12.89862500000000
  Si    4.75212500000000  10.18312500000000  15.61412500000000
  Si    2.03662500000000   7.46762500000000  15.61412500000000
  Si    2.03662500000000  10.18312500000000  12.89862500000000
  Si    0.67887500000000   6.10987500000000  16.97187500000000
  Si    3.39437500000000   6.10987500000000  19.68737500000000
  Si    0.67887500000000   8.82537500000000  19.68737500000000
  Si    3.39437500000000   8.82537500000000  16.97187500000000
  Si    4.75212500000000   7.46762500000000  18.32962500000000
  Si    4.75212500000000  10.18312500000000  21.04512500000000
  Si    2.03662500000000   7.46762500000000  21.04512500000000
  Si    2.03662500000000  10.18312500000000  18.32962500000000
  Si    0.67887500000000  11.54087500000000   0.67887500000000
  Si    3.39437500000000  11.54087500000000   3.39437500000000
  Si    0.67887500000000  14.25637500000000   3.39437500000000
  Si    3.39437500000000  14.25637500000000   0.67887500000000
  Si    4.75212500000000  12.89862500000000   2.03662500000000
  Si    4.75212500000000  15.61412500000000   4.75212500000000
  Si    2.03662500000000  12.89862500000000   4.75212500000000
  Si    2.03662500000000  15.61412500000000   2.03662500000000
  Si    0.67887500000000  11.54087500000000   6.10987500000000
  Si    3.39437500000000  11.54087500000000   8.82537500000000
  Si    0.67887500000000  14.25637500000000   8.82537500000000
  Si    3.39437500000000  14.25637500000000   6.10987500000000
  Si    4.75212500000000  12.89862500000000   7.46762500000000
  Si    4.75212500000000  15.61412500000000  10.18312500000000
  Si    2.03662500000000  12.89862500000000  10.18312500000000
  Si    2.03662500000000  15.61412500000000   7.46762500000000
  Si    0.67887500000000  11.54087500000000  11.54087500000000
  Si    3.39437500000000  11.54087500000000  14.25637500000000
  Si    0.67887500000000  14.25637500000000  14.25637500000000
  Si    3.39437500000000  14.25637500000000  11.54087500000000
  Si    4.75212500000000  12.89862500000000  12.89862500000000
  Si    4.75212500000000  15.61412500000000  15.61412500000000
  Si    2.03662500000000  12.89862500000000  15.61412500000000
  Si    2.03662500000000  15.61412500000000  12.89862500000000
  Si    0.67887500000000  11.54087500000000  16.97187500000000
  Si    3.39437500000000  11.54087500000000  19.68737500000000
  Si    0.67887500000000  14.25637500000000  19.68737500000000
  Si    3.39437500000000  14.25637500000000  16.97187500000000
  Si    4.75212500000000  12.89862500000000  18.32962500000000
  Si    4.75212500000000  15.61412500000000  21.04512500000000
  Si    2.03662500000000  12.89862500000000  21.04512500000000
  Si    2.03662500000000  15.61412500000000  18.32962500000000
  Si    0.67887500000000  16.97187500000000   0.67887500000000
  Si    3.39437500000000  16.97187500000000   3.39437500000000
  Si    0.67887500000000  19.68737500000000   3.39437500000000
  Si    3.39437500000000  19.68737500000000   0.67887500000000
  Si    4.75212500000000  18.32962500000000   2.03662500000000
  Si    4.75212500000000  21.04512500000000   4.75212500000000
  Si    2.03662500000000  18.32962500000000   4.75212500000000
  Si    2.03662500000000  21.04512500000000   2.03662500000000
  Si    0.67887500000000  16.97187500000000   6.10987500000000
  Si    3.39437500000000  16.97187500000000   8.82537500000000
  Si    0.67887500000000  19.68737500000000   8.82537500000000
  Si    3.39437500000000  19.68737500000000   6.10987500000000
  Si    4.75212500000000  18.32962500000000   7.46762500000000
  Si    4.75212500000000  21.04512500000000  10.18312500000000
  Si    2.03662500000000  18.32962500000000  10.18312500000000
  Si    2.03662500000000  21.04512500000000   7.46762500000000
  Si    0.67887500000000  16.97187500000000  11.54087500000000
  Si    3.39437500000000  16.97187500000000  14.25637500000000
  Si    0.67887500000000  19.68737500000000  14.25637500000000
  Si    3.39437500000000  19.68737500000000  11.54087500000000
  Si    4.75212500000000  18.32962500000000  12.89862500000000
  Si    4.75212500000000  21.04512500000000  15.61412500000000
  Si    2.03662500000000  18.32962500000000  15.61412500000000
  Si    2.03662500000000  21.04512500000000  12.89862500000000
  Si    0.67887500000000  16.97187500000000  16.97187500000000
  Si    3.39437500000000  16.97187500000000  19.68737500000000
  Si    0.67887500000000  19.68737500000000  19.68737500000000
  Si    3.39437500000000  19.68737500000000  16.97187500000000
  Si    4.75212500000000  18.32962500000000  18.32962500000000
  Si    4.75212500000000  21.04512500000000  21.04512500000000
  Si    2.03662500000000  18.32962500000000  21.04512500000000
  Si    2.03662500000000  21.04512500000000  18.32962500000000
  Si    6.10987500000000   0.67887500000000   0.67887500000000
  Si    8.82537500000000   0.67887500000000   3.39437500000000
  Si    6.10987500000000   3.39437500000000   3.39437500000000
  Si    8.82537500000000   3.39437500000000   0.67887500000000
  Si   10.18312500000000   2.03662500000000   2.03662500000000
  Si   10.18312500000000   4.75212500000000   4.75212500000000
  Si    7.46762500000000   2.03662500000000   4.75212500000000
  Si    7.46762500000000   4.75212500000000   2.03662500000000
  Si    6.10987500000000   0.67887500000000   6.10987500000000
  Si    8.82537500000000   0.67887500000000   8.82537500000000
  Si    6.10987500000000   3.39437500000000   8.82537500000000
  Si    8.82537500000000   3.39437500000000   6.10987500000000
  Si   10.18312500000000   2.03662500000000   7.46762500000000
  Si   10.18312500000000   4.75212500000000  10.18312500000000
  Si    7.46762500000000   2.03662500000000  10.18312500000000
  Si    7.46762500000000   4.75212500000000   7.46762500000000
  Si    6.10987500000000   0.67887500000000  11.54087500000000
  Si    8.82537500000000   0.67887500000000  14.25637500000000
  Si    6.10987500000000   3.39437500000000  14.25637500000000
  Si    8.82537500000000   3.39437500000000  11.54087500000000
  Si   10.18312500000000   2.03662500000000  12.89862500000000
  Si   10.18312500000000   4.75212500000000  15.61412500000000
  Si    7.46762500000000   2.03662500000000  15.61412500000000
  Si    7.46762500000000   4.75212500000000  12.89862500000000
  Si    6.10987500000000   0.67887500000000  16.97187500000000
  Si    8.82537500000000   0.67887500000000  19.68737500000000
  Si    6.10987500000000   3.39437500000000  19.68737500000000
  Si    8.82537500000000   3.39437500000000  16.97187500000000
  Si   10.18312500000000   2.03662500000000  18.32962500000000
  Si   10.18312500000000   4.75212500000000  21.04512500000000
  Si    7.46762500000000   2.03662500000000  21.04512500000000
  Si    7.46762500000000   4.75212500000000  18.32962500000000
  Si    6.10987500000000   6.10987500000000   0.67887500000000
  Si    8.82537500000000   6.10987500000000   3.39437500000000
  Si    6.10987500000000   8.82537500000000   3.39437500000000
  Si    8.82537500000000   8.82537500000000   0.67887500000000
  Si   10.18312500000000   7.46762500000000   2.03662500000000
  Si   10.18312500000000  10.18312500000000   4.75212500000000
  Si    7.46762500000000   7.46762500000000   4.75212500000000
  Si    7.46762500000000  10.18312500000000   2.03662500000000
  Si    6.10987500000000   6.10987500000000   6.10987500000000
  Si    8.82537500000000   6.10987500000000   8.82537500000000
  Si    6.10987500000000   8.82537500000000   8.82537500000000
  Si    8.82537500000000   8.82537500000000   6.10987500000000
  Si   10.18312500000000   7.46762500000000   7.46762500000000
  Si   10.18312500000000  10.18312500000000  10.18312500000000
  Si    7.46762500000000   7.46762500000000  10.18312500000000
  Si    7.46762500000000  10.18312500000000   7.46762500000000
  Si    6.10987500000000   6.10987500000000  11.54087500000000
  Si    8.82537500000000   6.10987500000000  14.25637500000000
  Si    6.10987500000000   8.82537500000000  14.25637500000000
  Si    8.82537500000000   8.82537500000000  11.54087500000000
  Si   10.18312500000000   7.46762500000000  12.89862500000000
  Si   10.18312500000000  10.18312500000000  15.61412500000000
  Si    7.46762500000000   7.46762500000000  15.61412500000000
  Si    7.46762500000000  10.18312500000000  12.89862500000000
  Si    6.10987500000000   6.10987500000000  16.97187500000000
  Si    8.82537500000000   6.10987500000000  19.68737500000000
  Si    6.10987500000000   8.82537500000000  19.68737500000000
  Si    8.82537500000000   8.82537500000000  16.97187500000000
  Si   10.18312500000000   7.46762500000000  18.32962500000000
  Si   10.18312500000000  10.18312500000000  21.04512500000000
  Si    7.46762500000000   7.46762500000000  21.04512500000000
  Si    7.46762500000000  10.18312500000000  18.32962500000000
  Si    6.10987500000000  11.54087500000000   0.67887500000000
  Si    8.82537500000000  11.54087500000000   3.39437500000000
  Si    6.10987500000000  14.25637500000000   3.39437500000000
  Si    8.82537500000000  14.25637500000000   0.67887500000000
  Si   10.18312500000000  12.89862500000000   2.03662500000000
  Si   10.18312500000000  15.61412500000000   4.75212500000000
  Si    7.46762500000000  12.89862500000000   4.75212500000000
  Si    7.46762500000000  15.61412500000000   2.03662500000000
  Si    6.10987500000000  11.54087500000000   6.10987500000000
  Si    8.82537500000000  11.54087500000000   8.82537500000000
  Si    6.10987500000000  14.25637500000000   8.82537500000000
  Si    8.82537500000000  14.25637500000000   6.10987500000000
  Si   10.18312500000000  12.89862500000000   7.46762500000000
  Si   10.18312500000000  15.61412500000000  10.18312500000000
  Si    7.46762500000000  12.89862500000000  10.18312500000000
  Si    7.46762500000000  15.61412500000000   7.46762500000000
  Si    6.10987500000000  11.54087500000000  11.54087500000000
  Si    8.82537500000000  11.54087500000000  14.25637500000000
  Si    6.10987500000000  14.25637500000000  14.25637500000000
  Si    8.82537500000000  14.25637500000000  11.54087500000000
  Si   10.18312500000000  12.89862500000000  12.89862500000000
  Si   10.18312500000000  15.61412500000000  15.61412500000000
  Si    7.46762500000000  12.89862500000000  15.61412500000000
  Si    7.46762500000000  15.61412500000000  12.89862500000000
  Si    6.10987500000000  11.54087500000000  16.97187500000000
  Si    8.82537500000000  11.54087500000000  19.68737500000000
  Si    6.10987500000000  14.25637500000000  19.68737500000000
  Si    8.82537500000000  14.25637500000000  16.97187500000000
  Si   10.18312500000000  12.89862500000000  18.32962500000000
  Si   10.18312500000000  15.61412500000000  21.04512500000000
  Si    7.46762500000000  12.89862500000000  21.04512500000000
  Si    7.46762500000000  15.61412500000000  18.32962500000000
  Si    6.10987500000000  16.97187500000000   0.67887500000000
  Si    8.82537500000000  16.97187500000000   3.39437500000000
  Si    6.10987500000000  19.68737500000000   3.39437500000000
  Si    8.82537500000000  19.68737500000000   0.67887500000000
  Si   10.18312500000000  18.32962500000000   2.03662500000000
  Si   10.18312500000000  21.04512500000000   4.75212500000000
  Si    7.46762500000000  18.32962500000000   4.75212500000000
  Si    7.46762500000000  21.04512500000000   2.03662500000000
  Si    6.10987500000000  16.97187500000000   6.10987500000000
  Si    8.82537500000000  16.97187500000000   8.82537500000000
  Si    6.10987500000000  19.68737500000000   8.82537500000000
  Si    8.82537500000000  19.68737500000000   6.10987500000000
  Si   10.18312500000000  18.32962500000000   7.46762500000000
  Si   10.18312500000000  21.04512500000000  10.18312500000000
  Si    7.46762500000000  18.32962500000000  10.18312500000000
  Si    7.46762500000000  21.04512500000000   7.46762500000000
  Si    6.10987500000000  16.97187500000000  11.54087500000000
  Si    8.82537500000000  16.97187500000000  14.25637500000000
  Si    6.10987500000000  19.68737500000000  14.25637500000000
  Si    8.82537500000000  19.68737500000000  11.54087500000000
  Si   10.18312500000000  18.32962500000000  12.89862500000000
  Si   10.18312500000000  21.04512500000000  15.61412500000000
  Si    7.46762500000000  18.32962500000000  15.61412500000000
  Si    7.46762500000000  21.04512500000000  12.89862500000000
  Si    6.10987500000000  16.97187500000000  16.97187500000000
  Si    8.82537500000000  16.97187500000000  19.68737500000000
  Si    6.10987500000000  19.68737500000000  19.68737500000000
  Si    8.82537500000000  19.68737500000000  16.97187500000000
  Si   10.18312500000000  18.32962500000000  18.32962500000000
  Si   10.18312500000000  21.04512500000000  21.04512500000000
  Si    7.46762500000000  18.32962500000000  21.04512500000000
  Si    7.46762500000000  21.04512500000000  18.32962500000000
  Si   11.54087500000000   0.67887500000000   0.67887500000000
  Si   14.25637500000000   0.67887500000000   3.39437500000000
  Si   11.54087500000000   3.39437500000000   3.39437500000000
  Si   14.25637500000000   3.39437500000000   0.67887500000000
  Si   15.61412500000000   2.03662500000000   2.03662500000000
  Si   15.61412500000000   4.75212500000000   4.75212500000000
  Si   12.89862500000000   2.03662500000000   4.75212500000000
  Si   12.89862500000000   4.75212500000000   2.03662500000000
  Si   11.54087500000000   0.67887500000000   6.10987500000000
  Si   14.25637500000000   0.67887500000000   8.82537500000000
  Si   11.54087500000000   3.39437500000000   8.82537500000000
  Si   14.25637500000000   3.39437500000000   6.10987500000000
  Si   15.61412500000000   2.03662500000000   7.46762500000000
  Si   15.61412500000000   4.75212500000000  10.18312500000000
  Si   12.89862500000000   2.03662500000000  10.18312500000000
  Si   12.89862500000000   4.75212500000000   7.46762500000000
  Si   11.54087500000000   0.67887500000000  11.54087500000000
  Si   14.25637500000000   0.67887500000000  14.25637500000000
  Si   11.54087500000000   3.39437500000000  14.25637500000000
  Si   14.25637500000000   3.39437500000000  11.54087500000000
  Si   15.61412500000000   2.03662500000000  12.89862500000000
  Si   15.61412500000000   4.75212500000000  15.61412500000000
  Si   12.89862500000000   2.03662500000000  15.61412500000000
  Si   12.89862500000000   4.75212500000000  12.89862500000000
  Si   11.54087500000000   0.67887500000000  16.97187500000000
  Si   14.25637500000000   0.67887500000000  19.68737500000000
  Si   11.54087500000000   3.39437500000000  19.68737500000000
  Si   14.25637500000000   3.39437500000000  16.97187500000000
  Si   15.61412500000000   2.03662500000000  18.32962500000000
  Si   15.61412500000000   4.75212500000000  21.04512500000000
  Si   12.89862500000000   2.03662500000000  21.04512500000000
  Si   12.89862500000000   4.75212500000000  18.32962500000000
  Si   11.54087500000000   6.10987500000000   0.67887500000000
  Si   14.25637500000000   6.10987500000000   3.39437500000000
  Si   11.54087500000000   8.82537500000000   3.39437500000000
  Si   14.25637500000000   8.82537500000000   0.67887500000000
  Si   15.61412500000000   7.46762500000000   2.03662500000000
  Si   15.61412500000000  10.18312500000000   4.75212500000000
  Si   12.89862500000000   7.46762500000000   4.75212500000000
  Si   12.89862500000000  10.18312500000000   2.03662500000000
  Si   11.54087500000000   6.10987500000000   6.10987500000000
  Si   14.25637500000000   6.10987500000000   8.82537500000000
  Si   11.54087500000000   8.82537500000000   8.82537500000000
  Si   14.25637500000000   8.82537500000000   6.10987500000000
  Si   15.61412500000000   7.46762500000000   7.46762500000000
  Si   15.61412500000000  10.18312500000000  10.18312500000000
  Si   12.89862500000000   7.46762500000000  10.18312500000000
  Si   12.89862500000000  10.18312500000000   7.46762500000000
  Si   11.54087500000000   6.10987500000000  11.54087500000000
  Si   14.25637500000000   6.10987500000000  14.25637500000000
  Si   11.54087500000000   8.82537500000000  14.25637500000000
  Si   14.25637500000000   8.82537500000000  11.54087500000000
  Si   15.61412500000000   7.46762500000000  12.89862500000000
  Si   15.61412500000000  10.18312500000000  15.61412500000000
  Si   12.89862500000000   7.46762500000000  15.61412500000000
  Si   12.89862500000000  10.18312500000000  12.89862500000000
  Si   11.54087500000000   6.10987500000000  16.97187500000000
  Si   14.25637500000000   6.10987500000000  19.68737500000000
  Si   11.54087500000000   8.82537500000000  19.68737500000000
  Si   14.25637500000000   8.82537500000000  16.97187500000000
  Si   15.61412500000000   7.46762500000000  18.32962500000000
  Si   15.61412500000000  10.18312500000000  21.04512500000000
  Si   12.89862500000000   7.46762500000000  21.04512500000000
  Si   12.89862500000000  10.18312500000000  18.32962500000000
  Si   11.54087500000000  11.54087500000000   0.67887500000000
  Si   14.25637500000000  11.54087500000000   3.39437500000000
  Si   11.54087500000000  14.25637500000000   3.39437500000000
  Si   14.25637500000000  14.25637500000000   0.67887500000000
  Si   15.61412500000000  12.89862500000000   2.03662500000000
  Si   15.61412500000000  15.61412500000000   4.75212500000000
  Si   12.89862500000000  12.89862500000000   4.75212500000000
  Si   12.89862500000000  15.61412500000000   2.03662500000000
  Si   11.54087500000000  11.54087500000000   6.10987500000000
  Si   14.25637500000000  11.54087500000000   8.82537500000000
  Si   11.54087500000000  14.25637500000000   8.82537500000000
  Si   14.25637500000000  14.25637500000000   6.10987500000000
  Si   15.61412500000000  12.89862500000000   7.46762500000000
  Si   15.61412500000000  15.61412500000000  10.18312500000000
  Si   12.89862500000000  12.89862500000000  10.18312500000000
  Si   12.89862500000000  15.61412500000000   7.46762500000000
  Si   11.54087500000000  11.54087500000000  11.54087500000000
  Si   14.25637500000000  11.54087500000000  14.25637500000000
  Si   11.54087500000000  14.25637500000000  14.25637500000000
  Si   14.25637500000000  14.25637500000000  11.54087500000000
  Si   15.61412500000000  12.89862500000000  12.89862500000000
  Si   15.61412500000000  15.61412500000000  15.61412500000000
  Si   12.89862500000000  12.89862500000000  15.61412500000000
  Si   12.89862500000000  15.61412500000000  12.89862500000000
  Si   11.54087500000000  11.54087500000000  16.97187500000000
  Si   14.25637500000000  11.54087500000000  19.68737500000000
  Si   11.54087500000000  14.25637500000000  19.68737500000000
  Si   14.25637500000000  14.25637500000000  16.97187500000000
  Si   15.61412500000000  12.89862500000000  18.32962500000000
  Si   15.61412500000000  15.61412500000000  21.04512500000000
  Si   12.89862500000000  12.89862500000000  21.04512500000000
  Si   12.89862500000000  15.61412500000000  18.32962500000000
  Si   11.54087500000000  16.97187500000000   0.67887500000000
  Si   14.25637500000000  16.97187500000000   3.39437500000000
  Si   11.54087500000000  19.68737500000000   3.39437500000000
  Si   14.25637500000000  19.68737500000000   0.67887500000000
  Si   15.61412500000000  18.32962500000000   2.03662500000000
  Si   15.61412500000000  21.04512500000000   4.75212500000000
  Si   12.89862500000000  18.32962500000000   4.75212500000000
  Si   12.89862500000000  21.04512500000000   2.03662500000000
  Si   11.54087500000000  16.97187500000000   6.10987500000000
  Si   14.25637500000000  16.97187500000000   8.82537500000000
  Si   11.54087500000000  19.68737500000000   8.82537500000000
  Si   14.25637500000000  19.68737500000000   6.10987500000000
  Si   15.61412500000000  18.32962500000000   7.46762500000000
  Si   15.61412500000000  21.04512500000000  10.18312500000000
  Si   12.89862500000000  18.32962500000000  10.18312500000000
  Si   12.89862500000000  21.04512500000000   7.46762500000000
  Si   11.54087500000000  16.97187500000000  11.54087500000000
  Si   14.25637500000000  16.97187500000000  14.25637500000000
  Si   11.54087500000000  19.68737500000000  14.25637500000000
  Si   14.25637500000000  19.68737500000000  11.54087500000000
  Si   15.61412500000000  18.32962500000000  12.89862500000000
  Si   15.61412500000000  21.04512500000000  15.61412500000000
  Si   12.89862500000000  18.32962500000000  15.61412500000000
  Si   12.89862500000000  21.04512500000000  12.89862500000000
  Si   11.54087500000000  16.97187500000000  16.97187500000000
  Si   14.25637500000000  16.97187500000000  19.68737500000000
  Si   11.54087500000000  19.68737500000000  19.68737500000000
  Si   14.25637500000000  19.68737500000000  16.97187500000000
  Si   15.61412500000000  18.32962500000000  18.32962500000000
  Si   15.61412500000000  21.04512500000000  21.04512500000000
  Si   12.89862500000000  18.32962500000000  21.04512500000000
  Si   12.89862500000000  21.04512500000000  18.32962500000000
  Si   16.97187500000000   0.67887500000000   0.67887500000000
  Si   19.68737500000000   0.67887500000000   3.39437500000000
  Si   16.97187500000000   3.39437500000000   3.39437500000000
  Si   19.68737500000000   3.39437500000000   0.67887500000000
  Si   21.04512500000000   2.03662500000000   2.03662500000000
  Si   21.04512500000000   4.75212500000000   4.75212500000000
  Si   18.32962500000000   2.03662500000000   4.75212500000000
  Si   18.32962500000000   4.75212500000000   2.03662500000000
  Si   16.97187500000000   0.67887500000000   6.10987500000000
  Si   19.68737500000000   0.67887500000000   8.82537500000000
  Si   16.97187500000000   3.39437500000000   8.82537500000000
  Si   19.68737500000000   3.39437500000000   6.10987500000000
  Si   21.04512500000000   2.03662500000000   7.46762500000000
  Si   21.04512500000000   4.75212500000000  10.18312500000000
  Si   18.32962500000000   2.03662500000000  10.18312500000000
  Si   18.32962500000000   4.75212500000000   7.46762500000000
  Si   16.97187500000000   0.67887500000000  11.54087500000000
  Si   19.68737500000000   0.67887500000000  14.25637500000000
  Si   16.97187500000000   3.39437500000000  14.25637500000000
  Si   19.68737500000000   3.39437500000000  11.54087500000000
  Si   21.04512500000000   2.03662500000000  12.89862500000000
  Si   21.04512500000000   4.75212500000000  15.61412500000000
  Si   18.32962500000000   2.03662500000000  15.61412500000000
  Si   18.32962500000000   4.75212500000000  12.89862500000000
  Si   16.97187500000000   0.67887500000000  16.97187500000000
  Si   19.68737500000000   0.67887500000000  19.68737500000000
  Si   16.97187500000000   3.39437500000000  19.68737500000000
  Si   19.68737500000000   3.39437500000000  16.97187500000000
  Si   21.04512500000000   2.03662500000000  18.32962500000000
  Si   21.04512500000000   4.75212500000000  21.04512500000000
  Si   18.32962500000000   2.03662500000000  21.04512500000000
  Si   18.32962500000000   4.75212500000000  18.32962500000000
  Si   16.97187500000000   6.10987500000000   0.67887500000000
  Si   19.68737500000000   6.10987500000000   3.39437500000000
  Si   16.97187500000000   8.82537500000000   3.39437500000000
  Si   19.68737500000000   8.82537500000000   0.67887500000000
  Si   21.04512500000000   7.46762500000000   2.03662500000000
  Si   21.04512500000000  10.18312500000000   4.75212500000000
  Si   18.32962500000000   7.46762500000000   4.75212500000000
  Si   18.32962500000000  10.18312500000000   2.03662500000000
  Si   16.97187500000000   6.10987500000000   6.10987500000000
  Si   19.68737500000000   6.10987500000000   8.82537500000000
  Si   16.97187500000000   8.82537500000000   8.82537500000000
  Si   19.68737500000000   8.82537500000000   6.10987500000000
  Si   21.04512500000000   7.46762500000000   7.46762500000000
  Si   21.04512500000000  10.18312500000000  10.18312500000000
  Si   18.32962500000000   7.46762500000000  10.18312500000000
  Si   18.32962500000000  10.18312500000000   7.46762500000000
  Si   16.97187500000000   6.10987500000000  11.54087500000000
  Si   19.68737500000000   6.10987500000000  14.25637500000000
  Si   16.97187500000000   8.82537500000000  14.25637500000000
  Si   19.68737500000000   8.82537500000000  11.54087500000000
  Si   21.04512500000000   7.46762500000000  12.89862500000000
  Si   21.04512500000000  10.18312500000000  15.61412500000000
  Si   18.32962500000000   7.46762500000000  15.61412500000000
  Si   18.32962500000000  10.18312500000000  12.89862500000000
  Si   16.97187500000000   6.10987500000000  16.97187500000000
  Si   19.68737500000000   6.10987500000000  19.68737500000000
  Si   16.97187500000000   8.82537500000000  19.68737500000000
  Si   19.68737500000000   8.82537500000000  16.97187500000000
  Si   21.04512500000000   7.46762500000000  18.32962500000000
  Si   21.04512500000000  10.18312500000000  21.04512500000000
  Si   18.32962500000000   7.46762500000000  21.04512500000000
  Si   18.32962500000000  10.18312500000000  18.32962500000000
  Si   16.97187500000000  11.54087500000000   0.67887500000000
  Si   19.68737500000000  11.54087500000000   3.39437500000000
  Si   16.97187500000000  14.25637500000000   3.39437500000000
  Si   19.68737500000000  14.25637500000000   0.67887500000000
  Si   21.04512500000000  12.89862500000000   2.03662500000000
  Si   21.04512500000000  15.61412500000000   4.75212500000000
  Si   18.32962500000000  12.89862500000000   4.75212500000000
  Si   18.32962500000000  15.61412500000000   2.03662500000000
  Si   16.97187500000000  11.54087500000000   6.10987500000000
  Si   19.68737500000000  11.54087500000000   8.82537500000000
  Si   16.97187500000000  14.25637500000000   8.82537500000000
  Si   19.68737500000000  14.25637500000000   6.10987500000000
  Si   21.04512500000000  12.89862500000000   7.46762500000000
  Si   21.04512500000000  15.61412500000000  10.18312500000000
  Si   18.32962500000000  12.89862500000000  10.18312500000000
  Si   18.32962500000000  15.61412500000000   7.46762500000000
  Si   16.97187500000000  11.54087500000000  11.54087500000000
  Si   19.68737500000000  11.54087500000000  14.25637500000000
  Si   16.97187500000000  14.25637500000000  14.25637500000000
  Si   19.68737500000000  14.25637500000000  11.54087500000000
  Si   21.04512500000000  12.89862500000000  12.89862500000000
  Si   21.04512500000000  15.61412500000000  15.61412500000000
  Si   18.32962500000000  12.89862500000000  15.61412500000000
  Si   18.32962500000000  15.61412500000000  12.89862500000000
  Si   16.97187500000000  11.54087500000000  16.97187500000000
  Si   19.68737500000000  11.54087500000000  19.68737500000000
  Si   16.97187500000000  14.25637500000000  19.68737500000000
  Si   19.68737500000000  14.25637500000000  16.97187500000000
  Si   21.04512500000000  12.89862500000000  18.32962500000000
  Si   21.04512500000000  15.61412500000000  21.04512500000000
  Si   18.32962500000000  12.89862500000000  21.04512500000000
  Si   18.32962500000000  15.61412500000000  18.32962500000000
  Si   16.97187500000000  16.97187500000000   0.67887500000000
  Si   19.68737500000000  16.97187500000000   3.39437500000000
  Si   16.97187500000000  19.68737500000000   3.39437500000000
  Si   19.68737500000000  19.68737500000000   0.67887500000000
  Si   21.04512500000000  18.32962500000000   2.03662500000000
  Si   21.04512500000000  21.04512500000000   4.75212500000000
  Si   18.32962500000000  18.32962500000000   4.75212500000000
  Si   18.32962500000000  21.04512500000000   2.03662500000000
  Si   16.97187500000000  16.97187500000000   6.10987500000000
  Si   19.68737500000000  16.97187500000000   8.82537500000000
  Si   16.97187500000000  19.68737500000000   8.82537500000000
  Si   19.68737500000000  19.68737500000000   6.10987500000000
  Si   21.04512500000000  18.32962500000000   7.46762500000000
  Si   21.04512500000000  21.04512500000000  10.18312500000000
  Si   18.32962500000000  18.32962500000000  10.18312500000000
  Si   18.32962500000000  21.04512500000000   7.46762500000000
  Si   16.97187500000000  16.97187500000000  11.54087500000000
  Si   19.68737500000000  16.97187500000000  14.25637500000000
  Si   16.97187500000000  19.68737500000000  14.25637500000000
  Si   19.68737500000000  19.68737500000000  11.54087500000000
  Si   21.04512500000000  18.32962500000000  12.89862500000000
  Si   21.04512500000000  21.04512500000000  15.61412500000000
  Si   18.32962500000000  18.32962500000000  15.61412500000000
  Si   18.32962500000000  21.04512500000000  12.89862500000000
  Si   16.97187500000000  16.97187500000000  16.97187500000000
  Si   19.68737500000000  16.97187500000000  19.68737500000000
  Si   16.97187500000000  19.68737500000000  19.68737500000000
  Si   19.68737500000000  19.68737500000000  16.97187500000000
  Si   21.04512500000000  18.32962500000000  18.32962500000000
  Si   21.04512500000000  21.04512500000000  21.04512500000000
  Si   18.32962500000000  18.32962500000000  21.04512500000000
  Si   18.32962500000000  21.04512500000000  18.32962500000000
