384 

Si    0.67887   0.67887   0.67888   0.000003780064591   0.000003780065074  -0.000004943501558
Si    3.39438   0.67887   3.39437  -0.000002077211579  -0.000005614851665   0.000007892037437
Si    0.67887   3.39437   3.39437  -0.000005614851525  -0.000002077211138   0.000007892037706
Si    3.39438   3.39437   0.67888   0.000002232242665   0.000002232242511  -0.000005445776127
Si    4.75212   2.03662   2.03662  -0.000000011718582   0.000000377834438  -0.000000871235774
Si    4.75212   4.75212   4.75213  -0.000002021729081  -0.000002021729272  -0.000003168547236
Si    2.03662   2.03662   4.75213  -0.000002167633377  -0.000002167633366  -0.000003637244174
Si    2.03662   4.75212   2.03662   0.000000377834379  -0.000000011718676  -0.000000871235583
Si    0.67887   0.67887   6.10987  -0.000004899091294  -0.000004899091274   0.000000333512329
Si    3.39438   0.67887   8.82537  -0.000002759450435  -0.000005114971063  -0.000009135325167
Si    0.67887   3.39437   8.82537  -0.000005114971112  -0.000002759450439  -0.000009135324959
Si    3.39438   3.39437   6.10987  -0.000004153420315  -0.000004153420504   0.000000193837984
Si    4.75212   2.03662   7.46762   0.000001267465884  -0.000000900118500   0.000001363967210
Si    4.75212   4.75212  10.18313  -0.000000895794153  -0.000000895794357   0.000001254905094
Si    2.03662   2.03662  10.18313   0.000000066589498   0.000000066589537   0.000000225524199
Si    2.03662   4.75212   7.46762  -0.000000900118756   0.000001267465763   0.000001363967376
Si    0.67887   0.67887  11.54087   0.000003757566631   0.000003757566528   0.000005236437678
Si    3.39438   0.67887  14.25638  -0.000000392859634   0.000007079114255  -0.000000029575673
Si    0.67887   3.39437  14.25638   0.000007079114217  -0.000000392859871  -0.000000029575646
Si    3.39438   3.39437  11.54087   0.000002718407357   0.000002718406983   0.000005988255729
Si    4.75212   2.03662  12.89862   0.000000209474890  -0.000000118202694  -0.000000884199580
Si    4.75212   4.75212  15.61413  -0.000001375912212  -0.000001375912447   0.000004813687887
Si    2.03662   2.03662  15.61413   0.000000043499639   0.000000043499532   0.000002438949975
Si    2.03662   4.75212  12.89862  -0.000000118202848   0.000000209474853  -0.000000884199731
Si    0.67887   6.10987   0.67888   0.000003189404089   0.000001619897346   0.000002412907560
Si    3.39438   6.10987   3.39437   0.000005635915358  -0.000005763794460   0.000003492545642
Si    0.67887   8.82537   3.39437   0.000002211770365   0.000001327122719  -0.000002615804801
Si    3.39438   8.82537   0.67888  -0.000001990646574  -0.000003965352070  -0.000004818326324
Si    4.75212   7.46762   2.03662   0.000002006653663   0.000002568633282   0.000000595870547
Si    4.75212  10.18313   4.75213  -0.000002105335490  -0.000001001261258  -0.000003115685659
Si    2.03662   7.46762   4.75213   0.000003415233428  -0.000000697099589  -0.000006810161484
Si    2.03662  10.18313   2.03662   0.000002104389917   0.000001262485898  -0.000000436827679
Si    0.67887   6.10987   6.10987  -0.000001361122844  -0.000001036634976  -0.000000510909611
Si    3.39438   6.10987   8.82537   0.000007203949249  -0.000005288577692  -0.000002219660188
Si    0.67887   8.82537   8.82537  -0.000000023395019   0.000001437699577   0.000002426070063
Si    3.39438   8.82537   6.10987   0.000000596919421   0.000004613282874  -0.000000323210888
Si    4.75212   7.46762   7.46762   0.000001037058442   0.000001966204679  -0.000002559828941
Si    4.75212  10.18313  10.18313   0.000001848746652   0.000002671575202   0.000000921001413
Si    2.03662   7.46762  10.18313  -0.000002055320788   0.000006387152085  -0.000000250076945
Si    2.03662  10.18313   7.46762  -0.000001910754788   0.000002696168803   0.000001633541295
Si    0.67887   6.10987  11.54087   0.000000087489522   0.000003407792290  -0.000000425858624
Si    3.39438   6.10987  14.25638  -0.000002940643842   0.000002000983723   0.000001111014456
Si    0.67887   8.82537  14.25638   0.000000138405429   0.000001469601354   0.000001037333331
Si    3.39438   8.82537  11.54087   0.000000147880562  -0.000003444691733   0.000003858874657
Si    4.75212   7.46762  12.89862   0.000001130830620  -0.000000432241429   0.000001687386883
Si    4.75212  10.18313  15.61413  -0.000002349534968  -0.000000184928869   0.000002208961378
Si    2.03662   7.46762  15.61413   0.000001687990631  -0.000001468088737   0.000006324340044
Si    2.03662  10.18313  12.89862  -0.000000043267629   0.000003473785238   0.000000471390127
Si    0.67887  11.54087   0.67888  -0.000006918700629   0.000006111799271  -0.000003361591279
Si    3.39438  11.54087   3.39437   0.000005332522241  -0.000002288867735  -0.000003078771063
Si    0.67887  14.25638   3.39437  -0.000002155314003   0.000000711773459   0.000005543873792
Si    3.39438  14.25638   0.67888  -0.000000329801752   0.000000518248016  -0.000002631809448
Si    4.75212  12.89862   2.03662  -0.000000234479972   0.000001157503747   0.000000300933013
Si    4.75212  15.61413   4.75213  -0.000001424313358   0.000000812552636  -0.000003373874932
Si    2.03662  12.89862   4.75213  -0.000005668990001  -0.000000563672865   0.000000868954176
Si    2.03662  15.61413   2.03662   0.000001510086000  -0.000003982459375  -0.000000588947187
Si    0.67887  11.54087   6.10987   0.000001991155826  -0.000003518313735   0.000000137620599
Si    3.39438  11.54087   8.82537   0.000005881970756  -0.000001779451883   0.000002226053649
Si    0.67887  14.25638   8.82537  -0.000003222278771   0.000001260908861  -0.000005794524081
Si    3.39438  14.25638   6.10987   0.000007352165232   0.000005928815191  -0.000000202209827
Si    4.75212  12.89862   7.46762  -0.000006277586931  -0.000002011778332  -0.000002876134487
Si    4.75212  15.61413  10.18313   0.000007656274309  -0.000001764562975   0.000000133428357
Si    2.03662  12.89862  10.18313  -0.000004023870750   0.000005474468695   0.000000748494899
Si    2.03662  15.61413   7.46762  -0.000002784641600  -0.000002365496406  -0.000000309606732
Si    0.67887  11.54087  11.54087  -0.000006353217601   0.000002712950059   0.000004752536771
Si    3.39438  11.54087  14.25638   0.000003808875378  -0.000003175548181  -0.000001515812721
Si    0.67887  14.25638  14.25638   0.000003956098141  -0.000004248385907   0.000000324351616
Si    3.39438  14.25638  11.54087  -0.000000235893154   0.000000430274544   0.000003145010465
Si    4.75212  12.89862  12.89862  -0.000004182747684  -0.000000590868170   0.000000849709559
Si    4.75212  15.61413  15.61413   0.000000379329625  -0.000001195545226   0.000005218662252
Si    2.03662  12.89862  15.61413  -0.000007774831469   0.000000262247965  -0.000000071782733
Si    2.03662  15.61413  12.89862  -0.000002713098208  -0.000002727681955  -0.000000527296148
Si    0.67887  16.97188   0.67888  -0.000000758139020   0.000002485919630  -0.000004554408555
Si    3.39438  16.97188   3.39437   0.000002559779504   0.000002276645053   0.000002444271681
Si    0.67887  19.68738   3.39437   0.000003154910331   0.000002868585396   0.000001081745785
Si    3.39438  19.68738   0.67888  -0.000007102082419  -0.000005992154827  -0.000001180780457
Si    4.75212  18.32963   2.03662  -0.000000875076100  -0.000000749866327  -0.000000968187392
Si    4.75212  21.04512   4.75213  -0.000001915300351   0.000000426758869  -0.000003552678873
Si    2.03662  18.32963   4.75213   0.000004586538842   0.000007183878077  -0.000003018337344
Si    2.03662  21.04512   2.03662   0.000002171590741   0.000000878621233   0.000000233972371
Si    0.67887  16.97188   6.10987  -0.000003480034100  -0.000010277136352   0.000000544851249
Si    3.39438  16.97188   8.82537   0.000002905131648   0.000002559981128  -0.000002081417314
Si    0.67887  19.68738   8.82537   0.000004851960453   0.000001223161617  -0.000001542190442
Si    3.39438  19.68738   6.10987   0.000002046454026  -0.000001075763100  -0.000000627916034
Si    4.75212  18.32963   7.46762  -0.000002559980999  -0.000002905131385   0.000002081417256
Si    4.75212  21.04512  10.18313   0.000010277136286   0.000003480034057  -0.000000544851450
Si    2.03662  18.32963  10.18313   0.000001075762856  -0.000002046453859   0.000000627915951
Si    2.03662  21.04512   7.46762  -0.000001223161682  -0.000004851960405   0.000001542190568
Si    0.67887  16.97188  11.54087  -0.000000426758822   0.000001915300372   0.000003552678529
Si    3.39438  16.97188  14.25638   0.000000749866539   0.000000875076217   0.000000968187423
Si    0.67887  19.68738  14.25638  -0.000000878620853  -0.000002171591141  -0.000000233972207
Si    3.39438  19.68738  11.54087  -0.000007183877714  -0.000004586538833   0.000003018337208
Si    4.75212  18.32963  12.89862  -0.000002276644886  -0.000002559779705  -0.000002444271538
Si    4.75212  21.04512  15.61413  -0.000002485919449   0.000000758139167   0.000004554408627
Si    2.03662  18.32963  15.61413   0.000005992154741   0.000007102082675   0.000001180780388
Si    2.03662  21.04512  12.89862  -0.000002868585602  -0.000003154909773  -0.000001081745677
Si    6.10987   0.67887   0.67888   0.000001619897275   0.000003189404147   0.000002412907581
Si    8.82537   0.67887   3.39437   0.000001327122741   0.000002211770422  -0.000002615805047
Si    6.10987   3.39437   3.39437  -0.000005763794572   0.000005635915330   0.000003492545371
Si    8.82537   3.39437   0.67888  -0.000003965352142  -0.000001990646977  -0.000004818326450
Si   10.18313   2.03662   2.03662   0.000001262485868   0.000002104390123  -0.000000436827614
Si   10.18313   4.75212   4.75213  -0.000001001261009  -0.000002105335909  -0.000003115685644
Si    7.46762   2.03662   4.75213  -0.000000697099540   0.000003415233437  -0.000006810161182
Si    7.46762   4.75212   2.03662   0.000002568633226   0.000002006653363   0.000000595870751
Si    6.10987   0.67887   6.10987  -0.000001036634886  -0.000001361122947  -0.000000510909480
Si    8.82537   0.67887   8.82537   0.000001437699546  -0.000000023395012   0.000002426070209
Si    6.10987   3.39437   8.82537  -0.000005288577791   0.000007203949525  -0.000002219660369
Si    8.82537   3.39437   6.10987   0.000004613282902   0.000000596919128  -0.000000323210701
Si   10.18313   2.03662   7.46762   0.000002696168777  -0.000001910754833   0.000001633540988
Si   10.18313   4.75212  10.18313   0.000002671575689   0.000001848746370   0.000000921001445
Si    7.46762   2.03662  10.18313   0.000006387152365  -0.000002055321003  -0.000000250076748
Si    7.46762   4.75212   7.46762   0.000001966204624   0.000001037058249  -0.000002559828814
Si    6.10987   0.67887  11.54087   0.000003407792514   0.000000087489489  -0.000000425858727
Si    8.82537   0.67887  14.25638   0.000001469601440   0.000000138405548   0.000001037333350
Si    6.10987   3.39437  14.25638   0.000002000983567  -0.000002940643841   0.000001111014033
Si    8.82537   3.39437  11.54087  -0.000003444691882   0.000000147880243   0.000003858874556
Si   10.18313   2.03662  12.89862   0.000003473785200  -0.000000043267465   0.000000471390118
Si   10.18313   4.75212  15.61413  -0.000000184928922  -0.000002349535171   0.000002208961341
Si    7.46762   2.03662  15.61413  -0.000001468088428   0.000001687990615   0.000006324340091
Si    7.46762   4.75212  12.89862  -0.000000432241171   0.000001130830551   0.000001687387150
Si    6.10987   6.10987   0.67888   0.000003857332105   0.000003857332421  -0.000000005646572
Si    8.82537   6.10987   3.39437   0.000008578549828   0.000001191602463  -0.000000040098399
Si    6.10987   8.82537   3.39437   0.000001191602270   0.000008578549848  -0.000000040098365
Si    8.82537   8.82537   0.67888   0.000004665227940   0.000004665228166  -0.000003516746838
Si   10.18313   7.46762   2.03662  -0.000007110935960  -0.000002472992594  -0.000000440849709
Si   10.18313  10.18313   4.75213  -0.000001483776871  -0.000001483777004   0.000001029741816
Si    7.46762   7.46762   4.75213  -0.000003672485008  -0.000003672484907   0.000006753045066
Si    7.46762  10.18313   2.03662  -0.000002472992502  -0.000007110936222  -0.000000440849814
Si    6.10987   6.10987   6.10987  -0.000004832555421  -0.000004832555331   0.000001363473233
Si    8.82537   6.10987   8.82537   0.000007651120928  -0.000000066022862   0.000000790629690
Si    6.10987   8.82537   8.82537  -0.000000066022815   0.000007651121277   0.000000790629841
Si    8.82537   8.82537   6.10987   0.000001977220640   0.000001977220869   0.000000890528736
Si   10.18313   7.46762   7.46762   0.000001813945536   0.000006325869800   0.000005756495398
Si   10.18313  10.18313  10.18313  -0.000001979724929  -0.000001979724973  -0.000001682455883
Si    7.46762   7.46762  10.18313  -0.000005643856305  -0.000005643856298   0.000000362123081
Si    7.46762  10.18313   7.46762   0.000006325869901   0.000001813945224   0.000005756495387
Si    6.10987   6.10987  11.54087   0.000002339459562   0.000002339459437  -0.000002180281690
Si    8.82537   6.10987  14.25638  -0.000005182260449   0.000001549549303  -0.000000901650300
Si    6.10987   8.82537  14.25638   0.000001549549130  -0.000005182260118  -0.000000901650528
Si    8.82537   8.82537  11.54087   0.000004016865336   0.000004016865416   0.000003474616576
Si   10.18313   7.46762  12.89862   0.000000633466218   0.000007341141846  -0.000004960604621
Si   10.18313  10.18313  15.61413  -0.000000711042677  -0.000000711042688  -0.000001295512112
Si    7.46762   7.46762  15.61413  -0.000003715434124  -0.000003715434454  -0.000006872354827
Si    7.46762  10.18313  12.89862   0.000007341141724   0.000000633466257  -0.000004960604693
Si    6.10987  11.54087   0.67888  -0.000005767123200   0.000005756889451  -0.000003143641380
Si    8.82537  11.54087   3.39437   0.000001981284908   0.000001509807279   0.000000920688604
Si    6.10987  14.25638   3.39437  -0.000002675703641  -0.000001432471561   0.000005881378522
Si    8.82537  14.25638   0.67888  -0.000000871348546  -0.000001692803692  -0.000002179482389
Si   10.18313  12.89862   2.03662   0.000000763520128  -0.000002178945333  -0.000000870462906
Si   10.18313  15.61413   4.75213  -0.000008468154909   0.000003922955854  -0.000003034595596
Si    7.46762  12.89862   4.75213   0.000001605812258   0.000000756049059  -0.000001765096523
Si    7.46762  15.61413   2.03662  -0.000005439871343  -0.000001761497739  -0.000000042051328
Si    6.10987  11.54087   6.10987   0.000002271656180  -0.000003800001286  -0.000001303076343
Si    8.82537  11.54087   8.82537   0.000001406856685   0.000002892288113  -0.000001136568978
Si    6.10987  14.25638   8.82537  -0.000002345296989  -0.000002605859016  -0.000006273411169
Si    8.82537  14.25638   6.10987   0.000001041841365   0.000002757448562  -0.000000665193364
Si   10.18313  12.89862   7.46762  -0.000002892288116  -0.000001406856509   0.000001136568746
Si   10.18313  15.61413  10.18313   0.000003800001635  -0.000002271656413   0.000001303076206
Si    7.46762  12.89862  10.18313  -0.000002757448652  -0.000001041841481   0.000000665193710
Si    7.46762  15.61413   7.46762   0.000002605859423   0.000002345297106   0.000006273411246
Si    6.10987  11.54087  11.54087  -0.000003922955792   0.000008468155111   0.000003034595351
Si    8.82537  11.54087  14.25638   0.000002178945074  -0.000000763519772   0.000000870462890
Si    6.10987  14.25638  14.25638   0.000001761498102   0.000005439871529   0.000000042051249
Si    8.82537  14.25638  11.54087  -0.000000756049143  -0.000001605812454   0.000001765096575
Si   10.18313  12.89862  12.89862  -0.000001509806699  -0.000001981284915  -0.000000920688766
Si   10.18313  15.61413  15.61413  -0.000005756889291   0.000005767123201   0.000003143641176
Si    7.46762  12.89862  15.61413   0.000001692803659   0.000000871348470   0.000002179482418
Si    7.46762  15.61413  12.89862   0.000001432471445   0.000002675704150  -0.000005881378396
Si    6.10987  16.97188   0.67888   0.000001195545359  -0.000000379329374  -0.000005218662184
Si    8.82537  16.97188   3.39437   0.000000590868029   0.000004182747738  -0.000000849709511
Si    6.10987  19.68738   3.39437   0.000002727681961   0.000002713098255   0.000000527295997
Si    8.82537  19.68738   0.67888  -0.000000262247987   0.000007774831624   0.000000071782616
Si   10.18313  18.32963   2.03662   0.000003175548152  -0.000003808875245   0.000001515812700
Si   10.18313  21.04512   4.75213  -0.000002712949853   0.000006353217474  -0.000004752536593
Si    7.46762  18.32963   4.75213  -0.000000430274454   0.000000235893290  -0.000003145010300
Si    7.46762  21.04512   2.03662   0.000004248385965  -0.000003956098246  -0.000000324351555
Si    6.10987  16.97188   6.10987   0.000001764563060  -0.000007656274105  -0.000000133428471
Si    8.82537  16.97188   8.82537   0.000002011778061   0.000006277587145   0.000002876134586
Si    6.10987  19.68738   8.82537   0.000002365496444   0.000002784641683   0.000000309607058
Si    8.82537  19.68738   6.10987  -0.000005474468865   0.000004023871115  -0.000000748495035
Si   10.18313  18.32963   7.46762   0.000001779451972  -0.000005881970919  -0.000002226053672
Si   10.18313  21.04512  10.18313   0.000003518313951  -0.000001991155867  -0.000000137620714
Si    7.46762  18.32963  10.18313  -0.000005928815123  -0.000007352165387   0.000000202209491
Si    7.46762  21.04512   7.46762  -0.000001260908583   0.000003222278673   0.000005794523859
Si    6.10987  16.97188  11.54087  -0.000000812552428   0.000001424313388   0.000003373875142
Si    8.82537  16.97188  14.25638  -0.000001157503882   0.000000234480141  -0.000000300933186
Si    6.10987  19.68738  14.25638   0.000003982459308  -0.000001510085852   0.000000588947351
Si    8.82537  19.68738  11.54087   0.000000563672782   0.000005668990105  -0.000000868954156
Si   10.18313  18.32963  12.89862   0.000002288867832  -0.000005332521978   0.000003078771204
Si   10.18313  21.04512  15.61413  -0.000006111799068   0.000006918700735   0.000003361591435
Si    7.46762  18.32963  15.61413  -0.000000518247968   0.000000329801618   0.000002631809567
Si    7.46762  21.04512  12.89862  -0.000000711773150   0.000002155314119  -0.000005543873767
Si   11.54087   0.67887   0.67888   0.000006111799190  -0.000006918700476  -0.000003361591233
Si   14.25638   0.67887   3.39437   0.000000711773245  -0.000002155314079   0.000005543873995
Si   11.54087   3.39437   3.39437  -0.000002288867555   0.000005332522350  -0.000003078771197
Si   14.25638   3.39437   0.67888   0.000000518248283  -0.000000329802050  -0.000002631809447
Si   15.61413   2.03662   2.03662  -0.000003982459173   0.000001510086046  -0.000000588947644
Si   15.61413   4.75212   4.75213   0.000000812552782  -0.000001424313503  -0.000003373874921
Si   12.89862   2.03662   4.75213  -0.000000563672857  -0.000005668990000   0.000000868954140
Si   12.89862   4.75212   2.03662   0.000001157503732  -0.000000234480127   0.000000300933442
Si   11.54087   0.67887   6.10987  -0.000003518313723   0.000001991155832   0.000000137620578
Si   14.25638   0.67887   8.82537   0.000001260908565  -0.000003222278736  -0.000005794524062
Si   11.54087   3.39437   8.82537  -0.000001779451902   0.000005881971023   0.000002226053632
Si   14.25638   3.39437   6.10987   0.000005928815342   0.000007352165053  -0.000000202209780
Si   15.61413   2.03662   7.46762  -0.000002365496146  -0.000002784641448  -0.000000309607041
Si   15.61413   4.75212  10.18313  -0.000001764562851   0.000007656274187   0.000000133428365
Si   12.89862   2.03662  10.18313   0.000005474468958  -0.000004023870986   0.000000748494927
Si   12.89862   4.75212   7.46762  -0.000002011778498  -0.000006277587182  -0.000002876134228
Si   11.54087   0.67887  11.54087   0.000002712949908  -0.000006353217540   0.000004752536701
Si   14.25638   0.67887  14.25638  -0.000004248385968   0.000003956097953   0.000000324351717
Si   11.54087   3.39437  14.25638  -0.000003175547972   0.000003808875422  -0.000001515812855
Si   14.25638   3.39437  11.54087   0.000000430274644  -0.000000235893277   0.000003145010482
Si   15.61413   2.03662  12.89862  -0.000002727681758  -0.000002713098163  -0.000000527296275
Si   15.61413   4.75212  15.61413  -0.000001195545119   0.000000379329493   0.000005218662311
Si   12.89862   2.03662  15.61413   0.000000262248166  -0.000007774831726  -0.000000071782716
Si   12.89862   4.75212  12.89862  -0.000000590868196  -0.000004182747900   0.000000849709662
Si   11.54087   6.10987   0.67888   0.000005756889434  -0.000005767122972  -0.000003143641598
Si   14.25638   6.10987   3.39437  -0.000001432471521  -0.000002675703796   0.000005881378363
Si   11.54087   8.82537   3.39437   0.000001509807299   0.000001981284842   0.000000920688724
Si   14.25638   8.82537   0.67888  -0.000001692803469  -0.000000871348625  -0.000002179482735
Si   15.61413   7.46762   2.03662  -0.000001761497763  -0.000005439871439  -0.000000042051243
Si   15.61413  10.18313   4.75213   0.000003922955940  -0.000008468155145  -0.000003034595224
Si   12.89862   7.46762   4.75213   0.000000756049014   0.000001605812604  -0.000001765096282
Si   12.89862  10.18313   2.03662  -0.000002178945310   0.000000763520113  -0.000000870462726
Si   11.54087   6.10987   6.10987  -0.000003800001187   0.000002271656266  -0.000001303076564
Si   14.25638   6.10987   8.82537  -0.000002605859129  -0.000002345297081  -0.000006273411262
Si   11.54087   8.82537   8.82537   0.000002892288287   0.000001406856665  -0.000001136568988
Si   14.25638   8.82537   6.10987   0.000002757448796   0.000001041841184  -0.000000665193862
Si   15.61413   7.46762   7.46762   0.000002345297227   0.000002605859400   0.000006273411192
Si   15.61413  10.18313  10.18313  -0.000002271656312   0.000003800001173   0.000001303076356
Si   12.89862   7.46762  10.18313  -0.000001041841430  -0.000002757448630   0.000000665193773
Si   12.89862  10.18313   7.46762  -0.000001406856750  -0.000002892288199   0.000001136569138
Si   11.54087   6.10987  11.54087   0.000008468155211  -0.000003922955883   0.000003034594926
Si   14.25638   6.10987  14.25638   0.000005439871585   0.000001761498006   0.000000042051280
Si   11.54087   8.82537  14.25638  -0.000000763519774   0.000002178944898   0.000000870462933
Si   14.25638   8.82537  11.54087  -0.000001605812289  -0.000000756049015   0.000001765096143
Si   15.61413   7.46762  12.89862   0.000002675703911   0.000001432471188  -0.000005881378247
Si   15.61413  10.18313  15.61413   0.000005767123172  -0.000005756889244   0.000003143641552
Si   12.89862   7.46762  15.61413   0.000000871348397   0.000001692803719   0.000002179482701
Si   12.89862  10.18313  12.89862  -0.000001981285076  -0.000001509806741  -0.000000920688611
Si   11.54087  11.54087   0.67888   0.000000711042842   0.000000711043011   0.000001295512335
Si   14.25638  11.54087   3.39437  -0.000007341141711  -0.000000633466230   0.000004960604620
Si   11.54087  14.25638   3.39437  -0.000000633466242  -0.000007341141562   0.000004960604824
Si   14.25638  14.25638   0.67888   0.000003715434479   0.000003715434392   0.000006872354754
Si   15.61413  12.89862   2.03662  -0.000001549549006   0.000005182260297   0.000000901650216
Si   15.61413  15.61413   4.75213  -0.000002339459426  -0.000002339459596   0.000002180281571
Si   12.89862  12.89862   4.75213  -0.000004016865677  -0.000004016865597  -0.000003474616672
Si   12.89862  15.61413   2.03662   0.000005182260267  -0.000001549549118   0.000000901650479
Si   11.54087  11.54087   6.10987   0.000001979725095   0.000001979725108   0.000001682455953
Si   14.25638  11.54087   8.82537  -0.000006325869762  -0.000001813945470  -0.000005756495652
Si   11.54087  14.25638   8.82537  -0.000001813945494  -0.000006325869752  -0.000005756495436
Si   14.25638  14.25638   6.10987   0.000005643856648   0.000005643856424  -0.000000362122986
Si   15.61413  12.89862   7.46762   0.000000066023070  -0.000007651120986  -0.000000790629744
Si   15.61413  15.61413  10.18313   0.000004832555424   0.000004832555236  -0.000001363473400
Si   12.89862  12.89862  10.18313  -0.000001977220852  -0.000001977220782  -0.000000890528453
Si   12.89862  15.61413   7.46762  -0.000007651121235   0.000000066022925  -0.000000790629564
Si   11.54087  11.54087  11.54087   0.000001483777248   0.000001483777177  -0.000001029741789
Si   14.25638  11.54087  14.25638   0.000002472992835   0.000007110935915   0.000000440849787
Si   11.54087  14.25638  14.25638   0.000007110935882   0.000002472992576   0.000000440849821
Si   14.25638  14.25638  11.54087   0.000003672485434   0.000003672485045  -0.000006753045311
Si   15.61413  12.89862  12.89862  -0.000001191602056  -0.000008578549802   0.000000040098310
Si   15.61413  15.61413  15.61413  -0.000003857332145  -0.000003857332364   0.000000005646427
Si   12.89862  12.89862  15.61413  -0.000004665228087  -0.000004665228142   0.000003516746934
Si   12.89862  15.61413  12.89862  -0.000008578549955  -0.000001191602145   0.000000040098115
Si   11.54087  16.97188   0.67888   0.000000184929234   0.000002349535221  -0.000002208961341
Si   14.25638  16.97188   3.39437   0.000000432241137  -0.000001130830418  -0.000001687386639
Si   11.54087  19.68738   3.39437  -0.000003473784985   0.000000043267382  -0.000000471389884
Si   14.25638  19.68738   0.67888   0.000001468088960  -0.000001687990799  -0.000006324340213
Si   15.61413  18.32963   2.03662  -0.000002000983314   0.000002940643979  -0.000001111014205
Si   15.61413  21.04512   4.75213  -0.000003407792000  -0.000000087489579   0.000000425858624
Si   12.89862  18.32963   4.75213   0.000003444691919  -0.000000147880165  -0.000003858875011
Si   12.89862  21.04512   2.03662  -0.000001469601718  -0.000000138405253  -0.000001037333345
Si   11.54087  16.97188   6.10987  -0.000002671575129  -0.000001848746499  -0.000000921001405
Si   14.25638  16.97188   8.82537  -0.000001966204539  -0.000001037058201   0.000002559829301
Si   11.54087  19.68738   8.82537  -0.000002696168931   0.000001910755162  -0.000001633540591
Si   14.25638  19.68738   6.10987  -0.000006387152056   0.000002055320820   0.000000250076662
Si   15.61413  18.32963   7.46762   0.000005288577862  -0.000007203949100   0.000002219660383
Si   15.61413  21.04512  10.18313   0.000001036635151   0.000001361122875   0.000000510909675
Si   12.89862  18.32963  10.18313  -0.000004613283276  -0.000000596919401   0.000000323209977
Si   12.89862  21.04512   7.46762  -0.000001437699474   0.000000023394968  -0.000002426069949
Si   11.54087  16.97188  11.54087   0.000001001261202   0.000002105335768   0.000003115685764
Si   14.25638  16.97188  14.25638  -0.000002568633120  -0.000002006653259  -0.000000595870306
Si   11.54087  19.68738  14.25638  -0.000001262485756  -0.000002104390285   0.000000436827716
Si   14.25638  19.68738  11.54087   0.000000697099840  -0.000003415233244   0.000006810160749
Si   15.61413  18.32963  12.89862   0.000005763794601  -0.000005635915570  -0.000003492545358
Si   15.61413  21.04512  15.61413  -0.000001619897098  -0.000003189403735  -0.000002412907544
Si   12.89862  18.32963  15.61413   0.000003965351940   0.000001990646839   0.000004818326187
Si   12.89862  21.04512  12.89862  -0.000001327122958  -0.000002211770128   0.000002615805094
Si   16.97188   0.67887   0.67888   0.000002485919434  -0.000000758138964  -0.000004554408326
Si   19.68738   0.67887   3.39437   0.000002868585469   0.000003154909988   0.000001081745764
Si   16.97188   3.39437   3.39437   0.000002276645210   0.000002559779438   0.000002444271834
Si   19.68738   3.39437   0.67888  -0.000005992154627  -0.000007102083992  -0.000001180779652
Si   21.04512   2.03662   2.03662   0.000000878620426   0.000002171590654   0.000000233972164
Si   21.04512   4.75212   4.75213   0.000000426759092  -0.000001915300395  -0.000003552679204
Si   18.32963   2.03662   4.75213   0.000007183877704   0.000004586538931  -0.000003018337615
Si   18.32963   4.75212   2.03662  -0.000000749866241  -0.000000875076070  -0.000000968187525
Si   16.97188   0.67887   6.10987  -0.000010277136420  -0.000003480034193   0.000000544851470
Si   19.68738   0.67887   8.82537   0.000001223161590   0.000004851960310  -0.000001542190430
Si   16.97188   3.39437   8.82537   0.000002559981271   0.000002905131667  -0.000002081417229
Si   19.68738   3.39437   6.10987  -0.000001075762938   0.000002046453778  -0.000000627915550
Si   21.04512   2.03662   7.46762  -0.000004851960338  -0.000001223161416   0.000001542190170
Si   21.04512   4.75212  10.18313   0.000003480034542   0.000010277136204  -0.000000544851596
Si   18.32963   2.03662  10.18313  -0.000002046453895   0.000001075762822   0.000000627915919
Si   18.32963   4.75212   7.46762  -0.000002905131326  -0.000002559981111   0.000002081417303
Si   16.97188   0.67887  11.54087   0.000001915300448  -0.000000426758914   0.000003552678926
Si   19.68738   0.67887  14.25638  -0.000002171590966  -0.000000878620837  -0.000000233972255
Si   16.97188   3.39437  14.25638   0.000000875076325   0.000000749866393   0.000000968187374
Si   19.68738   3.39437  11.54087  -0.000004586538966  -0.000007183877865   0.000003018337631
Si   21.04512   2.03662  12.89862  -0.000003154909727  -0.000002868585449  -0.000001081745820
Si   21.04512   4.75212  15.61413   0.000000758139162  -0.000002485919471   0.000004554408229
Si   18.32963   2.03662  15.61413   0.000007102082601   0.000005992154930   0.000001180780050
Si   18.32963   4.75212  12.89862  -0.000002559779479  -0.000002276644671  -0.000002444271661
Si   16.97188   6.10987   0.67888  -0.000000379329245   0.000001195545246  -0.000005218662177
Si   19.68738   6.10987   3.39437   0.000002713098053   0.000002727681841   0.000000527296231
Si   16.97188   8.82537   3.39437   0.000004182747900   0.000000590868201  -0.000000849709705
Si   19.68738   8.82537   0.67888   0.000007774831716  -0.000000262248033   0.000000071782609
Si   21.04512   7.46762   2.03662  -0.000003956097981   0.000004248386003  -0.000000324351620
Si   21.04512  10.18313   4.75213   0.000006353217616  -0.000002712949951  -0.000004752536567
Si   18.32963   7.46762   4.75213   0.000000235893405  -0.000000430274591  -0.000003145010301
Si   18.32963  10.18313   2.03662  -0.000003808875380   0.000003175547814   0.000001515812761
Si   16.97188   6.10987   6.10987  -0.000007656274098   0.000001764563072  -0.000000133428454
Si   19.68738   6.10987   8.82537   0.000002784641230   0.000002365496339   0.000000309607047
Si   16.97188   8.82537   8.82537   0.000006277587222   0.000002011778560   0.000002876134654
Si   19.68738   8.82537   6.10987   0.000004023870882  -0.000005474468615  -0.000000748495056
Si   21.04512   7.46762   7.46762   0.000003222278856  -0.000001260908716   0.000005794524083
Si   21.04512  10.18313  10.18313  -0.000001991156826   0.000003518313964  -0.000000137620818
Si   18.32963   7.46762  10.18313  -0.000007352165050  -0.000005928815453   0.000000202209476
Si   18.32963  10.18313   7.46762  -0.000005881970800   0.000001779451744  -0.000002226053924
Si   16.97188   6.10987  11.54087   0.000001424313672  -0.000000812552775   0.000003373875105
Si   19.68738   6.10987  14.25638  -0.000001510086141   0.000003982459370   0.000000588947498
Si   16.97188   8.82537  14.25638   0.000000234480094  -0.000001157503570  -0.000000300933371
Si   19.68738   8.82537  11.54087   0.000005668989887   0.000000563672962  -0.000000868954226
Si   21.04512   7.46762  12.89862   0.000002155314126  -0.000000711773017  -0.000005543873819
Si   21.04512  10.18313  15.61413   0.000006918700746  -0.000006111799134   0.000003361591454
Si   18.32963   7.46762  15.61413   0.000000329802099  -0.000000518248433   0.000002631809588
Si   18.32963  10.18313  12.89862  -0.000005332522116   0.000002288867773   0.000003078771252
Si   16.97188  11.54087   0.67888   0.000002349535170   0.000000184929305  -0.000002208961326
Si   19.68738  11.54087   3.39437   0.000000043267565  -0.000003473784750  -0.000000471389180
Si   16.97188  14.25638   3.39437  -0.000001130830532   0.000000432241122  -0.000001687386901
Si   19.68738  14.25638   0.67888  -0.000001687990753   0.000001468088610  -0.000006324340278
Si   21.04512  12.89862   2.03662  -0.000000138405195  -0.000001469601520  -0.000001037333314
Si   21.04512  15.61413   4.75213  -0.000000087489293  -0.000003407792386   0.000000425858599
Si   18.32963  12.89862   4.75213  -0.000000147880074   0.000003444691808  -0.000003858874698
Si   18.32963  15.61413   2.03662   0.000002940643936  -0.000002000983629  -0.000001111013992
Si   16.97188  11.54087   6.10987  -0.000001848746411  -0.000002671575250  -0.000000921001227
Si   19.68738  11.54087   8.82537   0.000001910755042  -0.000002696169084  -0.000001633540474
Si   16.97188  14.25638   8.82537  -0.000001037058272  -0.000001966204236   0.000002559829118
Si   19.68738  14.25638   6.10987   0.000002055320836  -0.000006387152341   0.000000250076830
Si   21.04512  12.89862   7.46762   0.000000023394974  -0.000001437699509  -0.000002426070260
Si   21.04512  15.61413  10.18313   0.000001361123405   0.000001036634875   0.000000510909750
Si   18.32963  12.89862  10.18313  -0.000000596919128  -0.000004613283484   0.000000323210181
Si   18.32963  15.61413   7.46762  -0.000007203949144   0.000005288577708   0.000002219660497
Si   16.97188  11.54087  11.54087   0.000002105335956   0.000001001261157   0.000003115685648
Si   19.68738  11.54087  14.25638  -0.000002104390250  -0.000001262485633   0.000000436827730
Si   16.97188  14.25638  14.25638  -0.000002006653445  -0.000002568633138  -0.000000595870731
Si   19.68738  14.25638  11.54087  -0.000003415233435   0.000000697099517   0.000006810160681
Si   21.04512  12.89862  12.89862  -0.000002211770139  -0.000001327122797   0.000002615805040
Si   21.04512  15.61413  15.61413  -0.000003189403868  -0.000001619897316  -0.000002412907595
Si   18.32963  12.89862  15.61413   0.000001990647175   0.000003965351910   0.000004818326226
Si   18.32963  15.61413  12.89862  -0.000005635915344   0.000005763794527  -0.000003492545130
Si   16.97188  16.97188   0.67888   0.000001375912231   0.000001375912526  -0.000004813687932
Si   19.68738  16.97188   3.39437   0.000000118202705  -0.000000209474469   0.000000884199522
Si   16.97188  19.68738   3.39437  -0.000000209474649   0.000000118202727   0.000000884199486
Si   19.68738  19.68738   0.67888  -0.000000043499751  -0.000000043499515  -0.000002438949982
Si   21.04512  18.32963   2.03662  -0.000007079114307   0.000000392859867   0.000000029575769
Si   21.04512  21.04512   4.75213  -0.000003757566374  -0.000003757566490  -0.000005236437602
Si   18.32963  18.32963   4.75213  -0.000002718406938  -0.000002718406855  -0.000005988255971
Si   18.32963  21.04512   2.03662   0.000000392859926  -0.000007079114540   0.000000029575646
Si   16.97188  16.97188   6.10987   0.000000895794161   0.000000895794281  -0.000001254905221
Si   19.68738  16.97188   8.82537   0.000000900118457  -0.000001267465705  -0.000001363967303
Si   16.97188  19.68738   8.82537  -0.000001267465643   0.000000900118768  -0.000001363967131
Si   19.68738  19.68738   6.10987  -0.000000066589682  -0.000000066589444  -0.000000225523934
Si   21.04512  18.32963   7.46762   0.000005114971093   0.000002759450454   0.000009135324951
Si   21.04512  21.04512  10.18313   0.000004899091498   0.000004899091396  -0.000000333512297
Si   18.32963  18.32963  10.18313   0.000004153420637   0.000004153420668  -0.000000193837934
Si   18.32963  21.04512   7.46762   0.000002759450588   0.000005114970850   0.000009135324903
Si   16.97188  16.97188  11.54087   0.000002021729250   0.000002021729101   0.000003168547079
Si   19.68738  16.97188  14.25638  -0.000000377834535   0.000000011718856   0.000000871235686
Si   16.97188  19.68738  14.25638   0.000000011718667  -0.000000377834248   0.000000871235519
Si   19.68738  19.68738  11.54087   0.000002167633052   0.000002167633103   0.000003637244035
Si   21.04512  18.32963  12.89862   0.000005614851602   0.000002077211773  -0.000007892037394
Si   21.04512  21.04512  15.61413  -0.000003780064519  -0.000003780064504   0.000004943501882
Si   18.32963  18.32963  15.61413  -0.000002232242297  -0.000002232242637   0.000005445776068
Si   18.32963  21.04512  12.89862   0.000002077211631   0.000005614851615  -0.000007892037426
