216 

Si    0.67888   0.67888   0.67888   0.000008999706919   0.000008999706931   0.000008981271644
Si    3.39437   0.67888   3.39437  -0.000008999707023   0.000008999706996  -0.000008981271656
Si    0.67888   3.39437   3.39437   0.000008999706915  -0.000008999706977  -0.000008981271585
Si    3.39437   3.39437   0.67888  -0.000008999707007  -0.000008999707033   0.000008981271691
Si    4.75213   2.03662   2.03662   0.000007115123096  -0.000000000000020   0.000000000000030
Si    4.75213   4.75213   4.75213   0.000008153982291   0.000008153982407   0.000008157473809
Si    2.03662   2.03662   4.75213  -0.000000000000063   0.000000000000077   0.000007121901958
Si    2.03662   4.75213   2.03662  -0.000000000000071   0.000007115123086   0.000000000000110
Si    0.67888   0.67888   6.10987   0.000002866728739   0.000002866728891   0.000000874880798
Si    3.39437   0.67888   8.82538  -0.000008153982382   0.000008153982410   0.000008157473754
Si    0.67888   3.39437   8.82538   0.000008153982281  -0.000008153982312   0.000008157473678
Si    3.39437   3.39437   6.10987  -0.000002866728853  -0.000002866728756   0.000000874880814
Si    4.75213   2.03662   7.46762   0.000002884640400   0.000000879957736  -0.000002880198946
Si    4.75213   4.75213  10.18313   0.000002866728794   0.000002866728804  -0.000000874880867
Si    2.03662   2.03662  10.18313  -0.000000000000035   0.000000000000013  -0.000000000000017
Si    2.03662   4.75213   7.46762   0.000000879957617   0.000002884640456  -0.000002880199006
Si    0.67888   0.67888  11.54087   0.000008153982290   0.000008153982322  -0.000008157473731
Si    3.39437   0.67888  14.25638  -0.000002866728864   0.000002866728756  -0.000000874880807
Si    0.67888   3.39437  14.25638   0.000002866728762  -0.000002866728900  -0.000000874880820
Si    3.39437   3.39437  11.54087  -0.000008153982382  -0.000008153982412  -0.000008157473818
Si    4.75213   2.03662  12.89863   0.000002884640394  -0.000000879957724   0.000002880198926
Si    4.75213   4.75213  15.61412   0.000008999706964   0.000008999706948  -0.000008981271636
Si    2.03662   2.03662  15.61412  -0.000000000000063  -0.000000000000086  -0.000007121901920
Si    2.03662   4.75213  12.89863  -0.000000879957715   0.000002884640370   0.000002880198900
Si    0.67888   6.10987   0.67888   0.000002884640344   0.000000879957676   0.000002880199047
Si    3.39437   6.10987   3.39437  -0.000002884640439   0.000000879957676  -0.000002880198849
Si    0.67888   8.82538   3.39437   0.000008153982257   0.000008153982334  -0.000008157473645
Si    3.39437   8.82538   0.67888  -0.000008153982356   0.000008153982412   0.000008157473785
Si    4.75213   7.46762   2.03662   0.000002866728817  -0.000002866728813   0.000000874880867
Si    4.75213  10.18313   4.75213   0.000002884640415  -0.000000879957731   0.000002880199008
Si    2.03662   7.46762   4.75213   0.000000879957629  -0.000002884640448   0.000002880199073
Si    2.03662  10.18313   2.03662  -0.000000000000033   0.000000000000008   0.000000000000066
Si    0.67888   6.10987   6.10987   0.000007115123015   0.000000000000005   0.000000000000037
Si    3.39437   6.10987   8.82538  -0.000002884640460  -0.000000879957687   0.000002880198894
Si    0.67888   8.82538   8.82538   0.000008999706917   0.000008999706948   0.000008981271589
Si    3.39437   8.82538   6.10987  -0.000002866728863   0.000002866728759  -0.000000874880764
Si    4.75213   7.46762   7.46762   0.000008153982312  -0.000008153982405  -0.000008157473761
Si    4.75213  10.18313  10.18313   0.000007115123075  -0.000000000000004  -0.000000000000051
Si    2.03662   7.46762  10.18313  -0.000000000000049  -0.000007115123119  -0.000000000000129
Si    2.03662  10.18313   7.46762  -0.000000000000054  -0.000000000000080  -0.000007121901929
Si    0.67888   6.10987  11.54087   0.000002884640337  -0.000000879957698  -0.000002880199081
Si    3.39437   6.10987  14.25638  -0.000007115123138  -0.000000000000010  -0.000000000000038
Si    0.67888   8.82538  14.25638   0.000002866728756   0.000002866728887   0.000000874880754
Si    3.39437   8.82538  11.54087  -0.000008999707005   0.000008999707000  -0.000008981271737
Si    4.75213   7.46762  12.89863   0.000008999706964  -0.000008999706981   0.000008981271598
Si    4.75213  10.18313  15.61412   0.000002884640423   0.000000879957736  -0.000002880198951
Si    2.03662   7.46762  15.61412  -0.000000879957708  -0.000002884640396  -0.000002880198944
Si    2.03662  10.18313  12.89863  -0.000000000000056   0.000000000000077   0.000007121901879
Si    0.67888  11.54087   0.67888   0.000008153982258  -0.000008153982303   0.000008157473723
Si    3.39437  11.54087   3.39437  -0.000008153982370  -0.000008153982393  -0.000008157473735
Si    0.67888  14.25638   3.39437   0.000002884640318  -0.000000879957664  -0.000002880199008
Si    3.39437  14.25638   0.67888  -0.000002884640458  -0.000000879957683   0.000002880198926
Si    4.75213  12.89863   2.03662   0.000002866728824   0.000002866728822  -0.000000874880800
Si    4.75213  15.61412   4.75213   0.000008999706947  -0.000008999706960   0.000008981271665
Si    2.03662  12.89863   4.75213  -0.000000879957726   0.000002884640382   0.000002880198977
Si    2.03662  15.61412   2.03662  -0.000000000000060  -0.000007115123117  -0.000000000000043
Si    0.67888  11.54087   6.10987   0.000002866728730  -0.000002866728886  -0.000000874880765
Si    3.39437  11.54087   8.82538  -0.000008999707020  -0.000008999707017   0.000008981271662
Si    0.67888  14.25638   8.82538   0.000002884640329   0.000000879957684   0.000002880199012
Si    3.39437  14.25638   6.10987  -0.000007115123157   0.000000000000003   0.000000000000011
Si    4.75213  12.89863   7.46762   0.000008999706954   0.000008999706960  -0.000008981271645
Si    4.75213  15.61412  10.18313   0.000002866728798  -0.000002866728796   0.000000874880806
Si    2.03662  12.89863  10.18313  -0.000000000000070   0.000007115123109   0.000000000000043
Si    2.03662  15.61412   7.46762  -0.000000879957732  -0.000002884640378  -0.000002880198948
Si    0.67888  11.54087  11.54087   0.000008999706921  -0.000008999706942  -0.000008981271672
Si    3.39437  11.54087  14.25638  -0.000002866728854  -0.000002866728756   0.000000874880764
Si    0.67888  14.25638  14.25638   0.000007115123013   0.000000000000024  -0.000000000000014
Si    3.39437  14.25638  11.54087  -0.000002884640448   0.000000879957692  -0.000002880198937
Si    4.75213  12.89863  12.89863   0.000008153982313   0.000008153982413   0.000008157473744
Si    4.75213  15.61412  15.61412   0.000008153982322  -0.000008153982377  -0.000008157473754
Si    2.03662  12.89863  15.61412   0.000000879957627   0.000002884640474  -0.000002880199007
Si    2.03662  15.61412  12.89863   0.000000879957624  -0.000002884640446   0.000002880198974
Si    6.10987   0.67888   0.67888   0.000000879957682   0.000002884640377   0.000002880198968
Si    8.82538   0.67888   3.39437   0.000008153982335   0.000008153982379  -0.000008157473752
Si    6.10987   3.39437   3.39437   0.000000879957686  -0.000002884640410  -0.000002880198920
Si    8.82538   3.39437   0.67888   0.000008153982311  -0.000008153982419   0.000008157473787
Si   10.18313   2.03662   2.03662  -0.000000000000099  -0.000000000000018   0.000000000000035
Si   10.18313   4.75213   4.75213  -0.000000879957695   0.000002884640457   0.000002880199038
Si    7.46762   2.03662   4.75213  -0.000002884640443   0.000000879957719   0.000002880198993
Si    7.46762   4.75213   2.03662  -0.000002866728843   0.000002866728825   0.000000874880866
Si    6.10987   0.67888   6.10987  -0.000000000000021   0.000007115123168   0.000000000000019
Si    8.82538   0.67888   8.82538   0.000008999706949   0.000008999707049   0.000008981271704
Si    6.10987   3.39437   8.82538  -0.000000879957700  -0.000002884640400   0.000002880198949
Si    8.82538   3.39437   6.10987   0.000002866728791  -0.000002866728790  -0.000000874880740
Si   10.18313   2.03662   7.46762  -0.000000000000040   0.000000000000058  -0.000007121901883
Si   10.18313   4.75213  10.18313  -0.000000000000042   0.000007115123053  -0.000000000000103
Si    7.46762   2.03662  10.18313  -0.000007115123123   0.000000000000013  -0.000000000000014
Si    7.46762   4.75213   7.46762  -0.000008153982361   0.000008153982363  -0.000008157473722
Si    6.10987   0.67888  11.54087  -0.000000879957685   0.000002884640420  -0.000002880199000
Si    8.82538   0.67888  14.25638   0.000002866728783   0.000002866728777   0.000000874880748
Si    6.10987   3.39437  14.25638  -0.000000000000006  -0.000007115123168  -0.000000000000038
Si    8.82538   3.39437  11.54087   0.000008999706926  -0.000008999707072  -0.000008981271762
Si   10.18313   2.03662  12.89863  -0.000000000000046  -0.000000000000075   0.000007121901852
Si   10.18313   4.75213  15.61412   0.000000879957631   0.000002884640385  -0.000002880198941
Si    7.46762   2.03662  15.61412  -0.000002884640453  -0.000000879957724  -0.000002880198961
Si    7.46762   4.75213  12.89863  -0.000008999707028   0.000008999706932   0.000008981271577
Si    6.10987   6.10987   0.67888  -0.000000000000000   0.000000000000016   0.000007121901988
Si    8.82538   6.10987   3.39437   0.000002884640396  -0.000000879957645  -0.000002880198899
Si    6.10987   8.82538   3.39437  -0.000000879957672   0.000002884640411  -0.000002880198917
Si    8.82538   8.82538   0.67888   0.000008999706941   0.000008999707077   0.000008981271764
Si   10.18313   7.46762   2.03662  -0.000000000000034  -0.000007115123046   0.000000000000100
Si   10.18313  10.18313   4.75213  -0.000000000000043  -0.000000000000058   0.000007121901900
Si    7.46762   7.46762   4.75213  -0.000008153982360  -0.000008153982340   0.000008157473775
Si    7.46762  10.18313   2.03662  -0.000007115123091   0.000000000000007   0.000000000000032
Si    6.10987   6.10987   6.10987  -0.000000000000031   0.000000000000007   0.000000000000019
Si    8.82538   6.10987   8.82538   0.000002884640376   0.000000879957657   0.000002880198910
Si    6.10987   8.82538   8.82538   0.000000879957671   0.000002884640386   0.000002880198931
Si    8.82538   8.82538   6.10987   0.000002866728800   0.000002866728798   0.000000874880758
Si   10.18313   7.46762   7.46762  -0.000000879957681  -0.000002884640433  -0.000002880199023
Si   10.18313  10.18313  10.18313  -0.000000000000070   0.000000000000007  -0.000000000000049
Si    7.46762   7.46762  10.18313  -0.000002866728851  -0.000002866728827  -0.000000874880873
Si    7.46762  10.18313   7.46762  -0.000002884640421  -0.000000879957742  -0.000002880198991
Si    6.10987   6.10987  11.54087  -0.000000000000032  -0.000000000000020  -0.000007121902013
Si    8.82538   6.10987  14.25638   0.000007115123074  -0.000000000000001  -0.000000000000013
Si    6.10987   8.82538  14.25638  -0.000000000000012   0.000007115123166  -0.000000000000005
Si    8.82538   8.82538  11.54087   0.000008153982317   0.000008153982403  -0.000008157473807
Si   10.18313   7.46762  12.89863   0.000000879957633  -0.000002884640377   0.000002880198929
Si   10.18313  10.18313  15.61412  -0.000000000000053   0.000000000000084  -0.000007121901849
Si    7.46762   7.46762  15.61412  -0.000008999707016  -0.000008999706931  -0.000008981271590
Si    7.46762  10.18313  12.89863  -0.000002884640441   0.000000879957729   0.000002880198965
Si    6.10987  11.54087   0.67888  -0.000000879957653  -0.000002884640385   0.000002880198994
Si    8.82538  11.54087   3.39437   0.000008999706961  -0.000008999707055  -0.000008981271694
Si    6.10987  14.25638   3.39437   0.000000000000011  -0.000000000000014  -0.000007121901954
Si    8.82538  14.25638   0.67888   0.000002884640401   0.000000879957638   0.000002880198960
Si   10.18313  12.89863   2.03662  -0.000000000000034   0.000007115123066  -0.000000000000026
Si   10.18313  15.61412   4.75213   0.000000879957645  -0.000002884640389   0.000002880198970
Si    7.46762  12.89863   4.75213  -0.000008999707002   0.000008999706930   0.000008981271628
Si    7.46762  15.61412   2.03662  -0.000002866728820  -0.000002866728841  -0.000000874880802
Si    6.10987  11.54087   6.10987  -0.000000000000004  -0.000007115123171  -0.000000000000023
Si    8.82538  11.54087   8.82538   0.000008153982315  -0.000008153982408   0.000008157473738
Si    6.10987  14.25638   8.82538  -0.000000000000023   0.000000000000027   0.000007121901961
Si    8.82538  14.25638   6.10987   0.000007115123089  -0.000000000000022  -0.000000000000012
Si   10.18313  12.89863   7.46762   0.000000879957651   0.000002884640382  -0.000002880198984
Si   10.18313  15.61412  10.18313  -0.000000000000031  -0.000007115123055   0.000000000000042
Si    7.46762  12.89863  10.18313  -0.000002866728839   0.000002866728832   0.000000874880814
Si    7.46762  15.61412   7.46762  -0.000008999707021  -0.000008999706945  -0.000008981271616
Si    6.10987  11.54087  11.54087   0.000000879957691  -0.000002884640400  -0.000002880198999
Si    8.82538  11.54087  14.25638   0.000002866728798  -0.000002866728776  -0.000000874880749
Si    6.10987  14.25638  14.25638  -0.000000000000031   0.000000000000004  -0.000000000000008
Si    8.82538  14.25638  11.54087   0.000002884640400  -0.000000879957648  -0.000002880198968
Si   10.18313  12.89863  12.89863  -0.000000879957690   0.000002884640469   0.000002880198994
Si   10.18313  15.61412  15.61412  -0.000000879957687  -0.000002884640448  -0.000002880198991
Si    7.46762  12.89863  15.61412  -0.000008153982337   0.000008153982368  -0.000008157473709
Si    7.46762  15.61412  12.89863  -0.000008153982354  -0.000008153982351   0.000008157473724
Si   11.54087   0.67888   0.67888  -0.000008153982405   0.000008153982281   0.000008157473709
Si   14.25638   0.67888   3.39437  -0.000000879957746   0.000002884640400  -0.000002880198971
Si   11.54087   3.39437   3.39437  -0.000008153982400  -0.000008153982320  -0.000008157473642
Si   14.25638   3.39437   0.67888  -0.000000879957740  -0.000002884640461   0.000002880199018
Si   15.61412   2.03662   2.03662  -0.000007115123169  -0.000000000000004   0.000000000000035
Si   15.61412   4.75213   4.75213  -0.000008999707075   0.000008999707048   0.000008981271775
Si   12.89863   2.03662   4.75213   0.000002884640325  -0.000000879957612   0.000002880199046
Si   12.89863   4.75213   2.03662   0.000002866728724   0.000002866728859  -0.000000874880651
Si   11.54087   0.67888   6.10987  -0.000002866728868   0.000002866728894  -0.000000874880756
Si   14.25638   0.67888   8.82538   0.000000879957590   0.000002884640447   0.000002880198996
Si   11.54087   3.39437   8.82538  -0.000008999707065  -0.000008999706968   0.000008981271624
Si   14.25638   3.39437   6.10987  -0.000000000000071  -0.000007115123009   0.000000000000039
Si   15.61412   2.03662   7.46762  -0.000002884640483  -0.000000879957604  -0.000002880198976
Si   15.61412   4.75213  10.18313  -0.000002866728902   0.000002866728823   0.000000874880661
Si   12.89863   2.03662  10.18313   0.000007115123039   0.000000000000001  -0.000000000000030
Si   12.89863   4.75213   7.46762   0.000008999706937   0.000008999707041  -0.000008981271709
Si   11.54087   0.67888  11.54087  -0.000008999707077   0.000008999706964  -0.000008981271676
Si   14.25638   0.67888  14.25638  -0.000000000000071   0.000007115122997  -0.000000000000030
Si   11.54087   3.39437  14.25638  -0.000002866728877  -0.000002866728916   0.000000874880734
Si   14.25638   3.39437  11.54087   0.000000879957595  -0.000002884640461  -0.000002880199052
Si   15.61412   2.03662  12.89863  -0.000002884640478   0.000000879957596   0.000002880198942
Si   15.61412   4.75213  15.61412  -0.000008153982429   0.000008153982332  -0.000008157473719
Si   12.89863   2.03662  15.61412   0.000002884640337   0.000000879957577  -0.000002880199000
Si   12.89863   4.75213  12.89863   0.000008153982287   0.000008153982320   0.000008157473650
Si   11.54087   6.10987   0.67888  -0.000002884640480  -0.000000879957647   0.000002880199069
Si   14.25638   6.10987   3.39437  -0.000000000000093   0.000000000000019  -0.000007121901767
Si   11.54087   8.82538   3.39437  -0.000008999707080   0.000008999707008  -0.000008981271594
Si   14.25638   8.82538   0.67888   0.000000879957554   0.000002884640459   0.000002880199050
Si   15.61412   7.46762   2.03662  -0.000002866728910  -0.000002866728821  -0.000000874880655
Si   15.61412  10.18313   4.75213  -0.000002884640501   0.000000879957622   0.000002880199017
Si   12.89863   7.46762   4.75213   0.000008999706908  -0.000008999707009   0.000008981271745
Si   12.89863  10.18313   2.03662   0.000007115123013   0.000000000000022   0.000000000000058
Si   11.54087   6.10987   6.10987  -0.000007115123130   0.000000000000011   0.000000000000013
Si   14.25638   6.10987   8.82538  -0.000000000000083  -0.000000000000021   0.000007121901796
Si   11.54087   8.82538   8.82538  -0.000008153982410   0.000008153982325   0.000008157473638
Si   14.25638   8.82538   6.10987  -0.000000000000097   0.000007115123012  -0.000000000000001
Si   15.61412   7.46762   7.46762  -0.000008999707061  -0.000008999707055  -0.000008981271718
Si   15.61412  10.18313  10.18313  -0.000007115123167   0.000000000000008  -0.000000000000037
Si   12.89863   7.46762  10.18313   0.000002866728749  -0.000002866728874   0.000000874880646
Si   12.89863  10.18313   7.46762   0.000002884640330   0.000000879957600  -0.000002880199040
Si   11.54087   6.10987  11.54087  -0.000002884640466   0.000000879957631  -0.000002880199093
Si   14.25638   6.10987  14.25638  -0.000000000000072  -0.000000000000015  -0.000000000000018
Si   11.54087   8.82538  14.25638  -0.000002866728889   0.000002866728913  -0.000000874880760
Si   14.25638   8.82538  11.54087  -0.000000879957725   0.000002884640424  -0.000002880199048
Si   15.61412   7.46762  12.89863  -0.000008153982424  -0.000008153982341   0.000008157473672
Si   15.61412  10.18313  15.61412  -0.000002884640511  -0.000000879957583  -0.000002880198960
Si   12.89863   7.46762  15.61412   0.000008153982286  -0.000008153982316  -0.000008157473686
Si   12.89863  10.18313  12.89863   0.000002884640337  -0.000000879957581   0.000002880198991
Si   11.54087  11.54087   0.67888  -0.000008999707080  -0.000008999706948   0.000008981271680
Si   14.25638  11.54087   3.39437   0.000000879957554  -0.000002884640440  -0.000002880198974
Si   11.54087  14.25638   3.39437  -0.000002884640454   0.000000879957632  -0.000002880199021
Si   14.25638  14.25638   0.67888  -0.000000000000104  -0.000000000000016   0.000007121901857
Si   15.61412  12.89863   2.03662  -0.000002866728918   0.000002866728840   0.000000874880754
Si   15.61412  15.61412   4.75213  -0.000008153982439  -0.000008153982350   0.000008157473741
Si   12.89863  12.89863   4.75213   0.000008153982285   0.000008153982320   0.000008157473706
Si   12.89863  15.61412   2.03662   0.000002866728731  -0.000002866728869   0.000000874880743
Si   11.54087  11.54087   6.10987  -0.000002866728869  -0.000002866728898   0.000000874880751
Si   14.25638  11.54087   8.82538  -0.000000879957722  -0.000002884640411   0.000002880198953
Si   11.54087  14.25638   8.82538  -0.000002884640456  -0.000000879957662   0.000002880199020
Si   14.25638  14.25638   6.10987  -0.000000000000070  -0.000000000000015  -0.000000000000003
Si   15.61412  12.89863   7.46762  -0.000008153982441   0.000008153982334  -0.000008157473721
Si   15.61412  15.61412  10.18313  -0.000002866728904  -0.000002866728825  -0.000000874880731
Si   12.89863  12.89863  10.18313   0.000002866728743   0.000002866728868  -0.000000874880740
Si   12.89863  15.61412   7.46762   0.000008153982281  -0.000008153982328  -0.000008157473706
Si   11.54087  11.54087  11.54087  -0.000008153982400  -0.000008153982318  -0.000008157473720
Si   14.25638  11.54087  14.25638  -0.000000000000097  -0.000007115122989   0.000000000000012
Si   11.54087  14.25638  14.25638  -0.000007115123145   0.000000000000005   0.000000000000009
Si   14.25638  14.25638  11.54087  -0.000000000000081   0.000000000000023  -0.000007121901859
Si   15.61412  12.89863  12.89863  -0.000008999707081   0.000008999707051   0.000008981271680
Si   15.61412  15.61412  15.61412  -0.000008999707076  -0.000008999707029  -0.000008981271703
Si   12.89863  12.89863  15.61412   0.000008999706912   0.000008999707045  -0.000008981271686
Si   12.89863  15.61412  12.89863   0.000008999706918  -0.000008999707039   0.000008981271680
