216 

Si    0.67888   0.67888   0.67888   0.000008999706902   0.000008999706940   0.000008981271602
Si    3.39437   0.67888   3.39437  -0.000008999707019   0.000008999706997  -0.000008981271676
Si    0.67888   3.39437   3.39437   0.000008999706898  -0.000008999706955  -0.000008981271601
Si    3.39437   3.39437   0.67888  -0.000008999707017  -0.000008999707031   0.000008981271660
Si    4.75213   2.03662   2.03662   0.000007115123102  -0.000000000000015  -0.000000000000014
Si    4.75213   4.75213   4.75213   0.000008153982303   0.000008153982407   0.000008157473821
Si    2.03662   2.03662   4.75213  -0.000000000000078   0.000000000000079   0.000007121901962
Si    2.03662   4.75213   2.03662  -0.000000000000089   0.000007115123088   0.000000000000077
Si    0.67888   0.67888   6.10987   0.000002866728724   0.000002866728882   0.000000874880819
Si    3.39437   0.67888   8.82538  -0.000008153982384   0.000008153982398   0.000008157473791
Si    0.67888   3.39437   8.82538   0.000008153982243  -0.000008153982292   0.000008157473708
Si    3.39437   3.39437   6.10987  -0.000002866728877  -0.000002866728757   0.000000874880823
Si    4.75213   2.03662   7.46762   0.000002884640410   0.000000879957726  -0.000002880198912
Si    4.75213   4.75213  10.18313   0.000002866728804   0.000002866728811  -0.000000874880833
Si    2.03662   2.03662  10.18313  -0.000000000000047   0.000000000000008   0.000000000000014
Si    2.03662   4.75213   7.46762   0.000000879957585   0.000002884640471  -0.000002880198981
Si    0.67888   0.67888  11.54087   0.000008153982268   0.000008153982328  -0.000008157473712
Si    3.39437   0.67888  14.25638  -0.000002866728865   0.000002866728743  -0.000000874880834
Si    0.67888   3.39437  14.25638   0.000002866728727  -0.000002866728885  -0.000000874880838
Si    3.39437   3.39437  11.54087  -0.000008153982391  -0.000008153982411  -0.000008157473790
Si    4.75213   2.03662  12.89863   0.000002884640403  -0.000000879957725   0.000002880198931
Si    4.75213   4.75213  15.61412   0.000008999706960   0.000008999706946  -0.000008981271680
Si    2.03662   2.03662  15.61412  -0.000000000000071  -0.000000000000070  -0.000007121901957
Si    2.03662   4.75213  12.89863  -0.000000879957754   0.000002884640388   0.000002880198910
Si    0.67888   6.10987   0.67888   0.000002884640311   0.000000879957666   0.000002880199004
Si    3.39437   6.10987   3.39437  -0.000002884640460   0.000000879957678  -0.000002880198870
Si    0.67888   8.82538   3.39437   0.000008153982243   0.000008153982309  -0.000008157473632
Si    3.39437   8.82538   0.67888  -0.000008153982358   0.000008153982400   0.000008157473753
Si    4.75213   7.46762   2.03662   0.000002866728818  -0.000002866728804   0.000000874880830
Si    4.75213  10.18313   4.75213   0.000002884640421  -0.000000879957723   0.000002880199009
Si    2.03662   7.46762   4.75213   0.000000879957594  -0.000002884640447   0.000002880199079
Si    2.03662  10.18313   2.03662  -0.000000000000049   0.000000000000007   0.000000000000030
Si    0.67888   6.10987   6.10987   0.000007115122965   0.000000000000011   0.000000000000059
Si    3.39437   6.10987   8.82538  -0.000002884640477  -0.000000879957680   0.000002880198940
Si    0.67888   8.82538   8.82538   0.000008999706890   0.000008999706938   0.000008981271625
Si    3.39437   8.82538   6.10987  -0.000002866728866   0.000002866728760  -0.000000874880728
Si    4.75213   7.46762   7.46762   0.000008153982310  -0.000008153982375  -0.000008157473740
Si    4.75213  10.18313  10.18313   0.000007115123096   0.000000000000003  -0.000000000000021
Si    2.03662   7.46762  10.18313  -0.000000000000075  -0.000007115123104  -0.000000000000091
Si    2.03662  10.18313   7.46762  -0.000000000000086  -0.000000000000080  -0.000007121901894
Si    0.67888   6.10987  11.54087   0.000002884640299  -0.000000879957690  -0.000002880199056
Si    3.39437   6.10987  14.25638  -0.000007115123162  -0.000000000000005  -0.000000000000063
Si    0.67888   8.82538  14.25638   0.000002866728729   0.000002866728858   0.000000874880730
Si    3.39437   8.82538  11.54087  -0.000008999707032   0.000008999707008  -0.000008981271725
Si    4.75213   7.46762  12.89863   0.000008999706968  -0.000008999706970   0.000008981271603
Si    4.75213  10.18313  15.61412   0.000002884640426   0.000000879957733  -0.000002880198998
Si    2.03662   7.46762  15.61412  -0.000000879957739  -0.000002884640415  -0.000002880199002
Si    2.03662  10.18313  12.89863  -0.000000000000071   0.000000000000068   0.000007121901870
Si    0.67888  11.54087   0.67888   0.000008153982245  -0.000008153982304   0.000008157473678
Si    3.39437  11.54087   3.39437  -0.000008153982372  -0.000008153982384  -0.000008157473726
Si    0.67888  14.25638   3.39437   0.000002884640301  -0.000000879957678  -0.000002880198996
Si    3.39437  14.25638   0.67888  -0.000002884640455  -0.000000879957674   0.000002880198894
Si    4.75213  12.89863   2.03662   0.000002866728829   0.000002866728828  -0.000000874880827
Si    4.75213  15.61412   4.75213   0.000008999706962  -0.000008999706972   0.000008981271670
Si    2.03662  12.89863   4.75213  -0.000000879957744   0.000002884640382   0.000002880199002
Si    2.03662  15.61412   2.03662  -0.000000000000065  -0.000007115123107  -0.000000000000076
Si    0.67888  11.54087   6.10987   0.000002866728701  -0.000002866728889  -0.000000874880733
Si    3.39437  11.54087   8.82538  -0.000008999707028  -0.000008999707010   0.000008981271694
Si    0.67888  14.25638   8.82538   0.000002884640306   0.000000879957676   0.000002880199035
Si    3.39437  14.25638   6.10987  -0.000007115123165  -0.000000000000019   0.000000000000031
Si    4.75213  12.89863   7.46762   0.000008999706980   0.000008999706956  -0.000008981271607
Si    4.75213  15.61412  10.18313   0.000002866728817  -0.000002866728807   0.000000874880837
Si    2.03662  12.89863  10.18313  -0.000000000000074   0.000007115123099   0.000000000000061
Si    2.03662  15.61412   7.46762  -0.000000879957738  -0.000002884640406  -0.000002880198916
Si    0.67888  11.54087  11.54087   0.000008999706893  -0.000008999706942  -0.000008981271659
Si    3.39437  11.54087  14.25638  -0.000002866728857  -0.000002866728737   0.000000874880732
Si    0.67888  14.25638  14.25638   0.000007115122994   0.000000000000012  -0.000000000000047
Si    3.39437  14.25638  11.54087  -0.000002884640447   0.000000879957677  -0.000002880198925
Si    4.75213  12.89863  12.89863   0.000008153982327   0.000008153982413   0.000008157473735
Si    4.75213  15.61412  15.61412   0.000008153982336  -0.000008153982382  -0.000008157473800
Si    2.03662  12.89863  15.61412   0.000000879957621   0.000002884640478  -0.000002880199063
Si    2.03662  15.61412  12.89863   0.000000879957604  -0.000002884640447   0.000002880198987
Si    6.10987   0.67888   0.67888   0.000000879957705   0.000002884640372   0.000002880198944
Si    8.82538   0.67888   3.39437   0.000008153982334   0.000008153982376  -0.000008157473765
Si    6.10987   3.39437   3.39437   0.000000879957702  -0.000002884640423  -0.000002880198948
Si    8.82538   3.39437   0.67888   0.000008153982329  -0.000008153982414   0.000008157473748
Si   10.18313   2.03662   2.03662  -0.000000000000093  -0.000000000000013  -0.000000000000004
Si   10.18313   4.75213   4.75213  -0.000000879957661   0.000002884640458   0.000002880199047
Si    7.46762   2.03662   4.75213  -0.000002884640414   0.000000879957714   0.000002880198996
Si    7.46762   4.75213   2.03662  -0.000002866728815   0.000002866728811   0.000000874880822
Si    6.10987   0.67888   6.10987   0.000000000000009   0.000007115123146   0.000000000000042
Si    8.82538   0.67888   8.82538   0.000008999706971   0.000008999707032   0.000008981271756
Si    6.10987   3.39437   8.82538  -0.000000879957664  -0.000002884640406   0.000002880198997
Si    8.82538   3.39437   6.10987   0.000002866728829  -0.000002866728790  -0.000000874880707
Si   10.18313   2.03662   7.46762  -0.000000000000027   0.000000000000070  -0.000007121901825
Si   10.18313   4.75213  10.18313  -0.000000000000016   0.000007115123069  -0.000000000000070
Si    7.46762   2.03662  10.18313  -0.000007115123073  -0.000000000000004   0.000000000000012
Si    7.46762   4.75213   7.46762  -0.000008153982326   0.000008153982369  -0.000008157473684
Si    6.10987   0.67888  11.54087  -0.000000879957667   0.000002884640405  -0.000002880198985
Si    8.82538   0.67888  14.25638   0.000002866728796   0.000002866728787   0.000000874880717
Si    6.10987   3.39437  14.25638   0.000000000000011  -0.000007115123178  -0.000000000000061
Si    8.82538   3.39437  11.54087   0.000008999706970  -0.000008999707061  -0.000008981271741
Si   10.18313   2.03662  12.89863  -0.000000000000041  -0.000000000000068   0.000007121901832
Si   10.18313   4.75213  15.61412   0.000000879957658   0.000002884640394  -0.000002880198984
Si    7.46762   2.03662  15.61412  -0.000002884640427  -0.000000879957724  -0.000002880198996
Si    7.46762   4.75213  12.89863  -0.000008999707001   0.000008999706931   0.000008981271579
Si    6.10987   6.10987   0.67888   0.000000000000013   0.000000000000010   0.000007121901948
Si    8.82538   6.10987   3.39437   0.000002884640434  -0.000000879957641  -0.000002880198919
Si    6.10987   8.82538   3.39437  -0.000000879957651   0.000002884640420  -0.000002880198927
Si    8.82538   8.82538   0.67888   0.000008999706966   0.000008999707073   0.000008981271720
Si   10.18313   7.46762   2.03662  -0.000000000000019  -0.000007115123044   0.000000000000070
Si   10.18313  10.18313   4.75213  -0.000000000000040  -0.000000000000066   0.000007121901928
Si    7.46762   7.46762   4.75213  -0.000008153982327  -0.000008153982318   0.000008157473780
Si    7.46762  10.18313   2.03662  -0.000007115123068   0.000000000000016   0.000000000000012
Si    6.10987   6.10987   6.10987  -0.000000000000024   0.000000000000006   0.000000000000055
Si    8.82538   6.10987   8.82538   0.000002884640427   0.000000879957658   0.000002880198960
Si    6.10987   8.82538   8.82538   0.000000879957701   0.000002884640402   0.000002880198973
Si    8.82538   8.82538   6.10987   0.000002866728842   0.000002866728813   0.000000874880791
Si   10.18313   7.46762   7.46762  -0.000000879957642  -0.000002884640421  -0.000002880198971
Si   10.18313  10.18313  10.18313  -0.000000000000062   0.000000000000003  -0.000000000000028
Si    7.46762   7.46762  10.18313  -0.000002866728815  -0.000002866728803  -0.000000874880846
Si    7.46762  10.18313   7.46762  -0.000002884640398  -0.000000879957726  -0.000002880198939
Si    6.10987   6.10987  11.54087  -0.000000000000011  -0.000000000000011  -0.000007121901995
Si    8.82538   6.10987  14.25638   0.000007115123101   0.000000000000001  -0.000000000000043
Si    6.10987   8.82538  14.25638   0.000000000000004   0.000007115123165  -0.000000000000021
Si    8.82538   8.82538  11.54087   0.000008153982336   0.000008153982403  -0.000008157473812
Si   10.18313   7.46762  12.89863   0.000000879957671  -0.000002884640378   0.000002880198915
Si   10.18313  10.18313  15.61412  -0.000000000000053   0.000000000000069  -0.000007121901888
Si    7.46762   7.46762  15.61412  -0.000008999706986  -0.000008999706930  -0.000008981271633
Si    7.46762  10.18313  12.89863  -0.000002884640399   0.000000879957737   0.000002880198933
Si    6.10987  11.54087   0.67888  -0.000000879957639  -0.000002884640397   0.000002880198958
Si    8.82538  11.54087   3.39437   0.000008999706978  -0.000008999707062  -0.000008981271700
Si    6.10987  14.25638   3.39437   0.000000000000021  -0.000000000000014  -0.000007121901956
Si    8.82538  14.25638   0.67888   0.000002884640407   0.000000879957639   0.000002880198929
Si   10.18313  12.89863   2.03662  -0.000000000000026   0.000007115123067  -0.000000000000055
Si   10.18313  15.61412   4.75213   0.000000879957648  -0.000002884640398   0.000002880198973
Si    7.46762  12.89863   4.75213  -0.000008999706979   0.000008999706929   0.000008981271644
Si    7.46762  15.61412   2.03662  -0.000002866728806  -0.000002866728827  -0.000000874880827
Si    6.10987  11.54087   6.10987   0.000000000000009  -0.000007115123161   0.000000000000011
Si    8.82538  11.54087   8.82538   0.000008153982342  -0.000008153982409   0.000008157473775
Si    6.10987  14.25638   8.82538   0.000000000000005   0.000000000000003   0.000007121901996
Si    8.82538  14.25638   6.10987   0.000007115123104  -0.000000000000025   0.000000000000041
Si   10.18313  12.89863   7.46762   0.000000879957664   0.000002884640369  -0.000002880198936
Si   10.18313  15.61412  10.18313  -0.000000000000031  -0.000007115123050   0.000000000000056
Si    7.46762  12.89863  10.18313  -0.000002866728811   0.000002866728824   0.000000874880823
Si    7.46762  15.61412   7.46762  -0.000008999706998  -0.000008999706950  -0.000008981271579
Si    6.10987  11.54087  11.54087   0.000000879957711  -0.000002884640398  -0.000002880198989
Si    8.82538  11.54087  14.25638   0.000002866728809  -0.000002866728788  -0.000000874880790
Si    6.10987  14.25638  14.25638  -0.000000000000021   0.000000000000007  -0.000000000000029
Si    8.82538  14.25638  11.54087   0.000002884640412  -0.000000879957648  -0.000002880198963
Si   10.18313  12.89863  12.89863  -0.000000879957676   0.000002884640458   0.000002880198967
Si   10.18313  15.61412  15.61412  -0.000000879957687  -0.000002884640442  -0.000002880199028
Si    7.46762  12.89863  15.61412  -0.000008153982323   0.000008153982363  -0.000008157473747
Si    7.46762  15.61412  12.89863  -0.000008153982336  -0.000008153982352   0.000008157473689
Si   11.54087   0.67888   0.67888  -0.000008153982416   0.000008153982290   0.000008157473669
Si   14.25638   0.67888   3.39437  -0.000000879957756   0.000002884640418  -0.000002880198963
Si   11.54087   3.39437   3.39437  -0.000008153982385  -0.000008153982308  -0.000008157473647
Si   14.25638   3.39437   0.67888  -0.000000879957757  -0.000002884640426   0.000002880198961
Si   15.61412   2.03662   2.03662  -0.000007115123172   0.000000000000005   0.000000000000011
Si   15.61412   4.75213   4.75213  -0.000008999707110   0.000008999707071   0.000008981271788
Si   12.89863   2.03662   4.75213   0.000002884640318  -0.000000879957602   0.000002880199061
Si   12.89863   4.75213   2.03662   0.000002866728736   0.000002866728869  -0.000000874880691
Si   11.54087   0.67888   6.10987  -0.000002866728862   0.000002866728876  -0.000000874880719
Si   14.25638   0.67888   8.82538   0.000000879957562   0.000002884640438   0.000002880199030
Si   11.54087   3.39437   8.82538  -0.000008999707061  -0.000008999706954   0.000008981271666
Si   14.25638   3.39437   6.10987  -0.000000000000092  -0.000007115122981   0.000000000000066
Si   15.61412   2.03662   7.46762  -0.000002884640520  -0.000000879957588  -0.000002880198946
Si   15.61412   4.75213  10.18313  -0.000002866728934   0.000002866728841   0.000000874880695
Si   12.89863   2.03662  10.18313   0.000007115123017   0.000000000000022  -0.000000000000005
Si   12.89863   4.75213   7.46762   0.000008999706938   0.000008999707057  -0.000008981271672
Si   11.54087   0.67888  11.54087  -0.000008999707077   0.000008999706957  -0.000008981271671
Si   14.25638   0.67888  14.25638  -0.000000000000092   0.000007115123004  -0.000000000000064
Si   11.54087   3.39437  14.25638  -0.000002866728866  -0.000002866728900   0.000000874880723
Si   14.25638   3.39437  11.54087   0.000000879957575  -0.000002884640438  -0.000002880199032
Si   15.61412   2.03662  12.89863  -0.000002884640503   0.000000879957625   0.000002880198948
Si   15.61412   4.75213  15.61412  -0.000008153982443   0.000008153982347  -0.000008157473761
Si   12.89863   2.03662  15.61412   0.000002884640330   0.000000879957591  -0.000002880199049
Si   12.89863   4.75213  12.89863   0.000008153982286   0.000008153982339   0.000008157473634
Si   11.54087   6.10987   0.67888  -0.000002884640474  -0.000000879957648   0.000002880199023
Si   14.25638   6.10987   3.39437  -0.000000000000112   0.000000000000030  -0.000007121901771
Si   11.54087   8.82538   3.39437  -0.000008999707081   0.000008999706985  -0.000008981271591
Si   14.25638   8.82538   0.67888   0.000000879957552   0.000002884640426   0.000002880199004
Si   15.61412   7.46762   2.03662  -0.000002866728937  -0.000002866728832  -0.000000874880689
Si   15.61412  10.18313   4.75213  -0.000002884640525   0.000000879957609   0.000002880199044
Si   12.89863   7.46762   4.75213   0.000008999706932  -0.000008999707031   0.000008981271782
Si   12.89863  10.18313   2.03662   0.000007115123004   0.000000000000014   0.000000000000027
Si   11.54087   6.10987   6.10987  -0.000007115123105   0.000000000000025   0.000000000000045
Si   14.25638   6.10987   8.82538  -0.000000000000109  -0.000000000000012   0.000007121901826
Si   11.54087   8.82538   8.82538  -0.000008153982406   0.000008153982310   0.000008157473671
Si   14.25638   8.82538   6.10987  -0.000000000000119   0.000007115122999   0.000000000000028
Si   15.61412   7.46762   7.46762  -0.000008999707103  -0.000008999707049  -0.000008981271695
Si   15.61412  10.18313  10.18313  -0.000007115123183  -0.000000000000001  -0.000000000000016
Si   12.89863   7.46762  10.18313   0.000002866728730  -0.000002866728871   0.000000874880679
Si   12.89863  10.18313   7.46762   0.000002884640322   0.000000879957593  -0.000002880198993
Si   11.54087   6.10987  11.54087  -0.000002884640459   0.000000879957640  -0.000002880199091
Si   14.25638   6.10987  14.25638  -0.000000000000079  -0.000000000000008  -0.000000000000054
Si   11.54087   8.82538  14.25638  -0.000002866728886   0.000002866728889  -0.000000874880810
Si   14.25638   8.82538  11.54087  -0.000000879957762   0.000002884640412  -0.000002880199039
Si   15.61412   7.46762  12.89863  -0.000008153982440  -0.000008153982364   0.000008157473667
Si   15.61412  10.18313  15.61412  -0.000002884640522  -0.000000879957595  -0.000002880199014
Si   12.89863   7.46762  15.61412   0.000008153982281  -0.000008153982331  -0.000008157473723
Si   12.89863  10.18313  12.89863   0.000002884640322  -0.000000879957600   0.000002880198981
Si   11.54087  11.54087   0.67888  -0.000008999707089  -0.000008999706965   0.000008981271642
Si   14.25638  11.54087   3.39437   0.000000879957547  -0.000002884640445  -0.000002880198951
Si   11.54087  14.25638   3.39437  -0.000002884640469   0.000000879957631  -0.000002880199013
Si   14.25638  14.25638   0.67888  -0.000000000000111  -0.000000000000011   0.000007121901812
Si   15.61412  12.89863   2.03662  -0.000002866728926   0.000002866728847   0.000000874880733
Si   15.61412  15.61412   4.75213  -0.000008153982455  -0.000008153982362   0.000008157473747
Si   12.89863  12.89863   4.75213   0.000008153982287   0.000008153982317   0.000008157473744
Si   12.89863  15.61412   2.03662   0.000002866728716  -0.000002866728876   0.000000874880713
Si   11.54087  11.54087   6.10987  -0.000002866728867  -0.000002866728900   0.000000874880798
Si   14.25638  11.54087   8.82538  -0.000000879957749  -0.000002884640428   0.000002880198986
Si   11.54087  14.25638   8.82538  -0.000002884640460  -0.000000879957676   0.000002880199053
Si   14.25638  14.25638   6.10987  -0.000000000000086  -0.000000000000031   0.000000000000040
Si   15.61412  12.89863   7.46762  -0.000008153982477   0.000008153982331  -0.000008157473695
Si   15.61412  15.61412  10.18313  -0.000002866728921  -0.000002866728838  -0.000000874880706
Si   12.89863  12.89863  10.18313   0.000002866728722   0.000002866728866  -0.000000874880728
Si   12.89863  15.61412   7.46762   0.000008153982279  -0.000008153982337  -0.000008157473675
Si   11.54087  11.54087  11.54087  -0.000008153982403  -0.000008153982323  -0.000008157473723
Si   14.25638  11.54087  14.25638  -0.000000000000107  -0.000007115122999  -0.000000000000036
Si   11.54087  14.25638  14.25638  -0.000007115123132  -0.000000000000001  -0.000000000000039
Si   14.25638  14.25638  11.54087  -0.000000000000098   0.000000000000019  -0.000007121901843
Si   15.61412  12.89863  12.89863  -0.000008999707100   0.000008999707053   0.000008981271673
Si   15.61412  15.61412  15.61412  -0.000008999707089  -0.000008999707041  -0.000008981271752
Si   12.89863  12.89863  15.61412   0.000008999706909   0.000008999707048  -0.000008981271725
Si   12.89863  15.61412  12.89863   0.000008999706906  -0.000008999707032   0.000008981271672
