216 

Si    0.72888   0.67888   0.67888   0.013554452282969   0.000001990648783   0.000001990768065
Si    3.39437   0.67888   3.39437  -0.000199990070942   0.000120264754994  -0.000193514415528
Si    0.67888   3.39437   3.39437   0.000422774780999  -0.000114170465809  -0.000114504531944
Si    3.39437   3.39437   0.67888  -0.000200042611604  -0.000193659289676   0.000120664625158
Si    4.75213   2.03662   2.03662   0.000010573416686   0.000025269048934   0.000025400469414
Si    4.75213   4.75213   4.75213   0.000016293680941   0.000007131082908   0.000007121689392
Si    2.03662   2.03662   4.75213   0.000033542264265  -0.000036257058069   0.000033866721722
Si    2.03662   4.75213   2.03662   0.000033457050700   0.000033946111146  -0.000036346236601
Si    0.67888   0.67888   6.10987  -0.000019085110554   0.000002861020356   0.000000653026582
Si    3.39437   0.67888   8.82538  -0.000020012150010   0.000008154452127   0.000008156471122
Si    0.67888   3.39437   8.82538  -0.000003688256242  -0.000008033161494   0.000011483758897
Si    3.39437   3.39437   6.10987  -0.000019401072068   0.000022372306238  -0.000003060495901
Si    4.75213   2.03662   7.46762   0.000001034443681  -0.000009021104084  -0.000000596539329
Si    4.75213   4.75213  10.18313   0.000002565743881  -0.000017228310013  -0.000003758680344
Si    2.03662   2.03662  10.18313   0.000015281530757   0.000001235473842   0.000002273365775
Si    2.03662   4.75213   7.46762   0.000012656308101  -0.000007457300335   0.000008757446353
Si    0.67888   0.67888  11.54087  -0.000013795350500   0.000008181438297  -0.000007934167819
Si    3.39437   0.67888  14.25638  -0.000194039320174  -0.000108274609909   0.000183818811434
Si    0.67888   3.39437  14.25638   0.000422019471956   0.000108390725250  -0.000112502180964
Si    3.39437   3.39437  11.54087  -0.000024786483651   0.000017866102575   0.000003898445130
Si    4.75213   2.03662  12.89863  -0.000016027710154   0.000051354633773   0.000024940547424
Si    4.75213   4.75213  15.61412  -0.000009865941564  -0.000013068168164  -0.000061114633119
Si    2.03662   2.03662  15.61412  -0.003371499477237  -0.002473717097733   0.002466598706973
Si    2.03662   4.75213  12.89863  -0.000177685182989   0.000054526653952  -0.000048805080790
Si    0.67888   6.10987   0.67888  -0.000018924363455   0.000000662470352   0.000002868395875
Si    3.39437   6.10987   3.39437  -0.000019465274277  -0.000003059858097   0.000022347605293
Si    0.67888   8.82538   3.39437  -0.000003744045849   0.000011457017943  -0.000008032066253
Si    3.39437   8.82538   0.67888  -0.000019972899376   0.000008152960706   0.000008157702653
Si    4.75213   7.46762   2.03662   0.000001048572962  -0.000000599626868  -0.000009040476423
Si    4.75213  10.18313   4.75213   0.000002690058443  -0.000003774795952  -0.000017207937158
Si    2.03662   7.46762   4.75213   0.000012644286101   0.000008752728730  -0.000007407523588
Si    2.03662  10.18313   2.03662   0.000015290871531   0.000002252526609   0.000001448273427
Si    0.67888   6.10987   6.10987   0.000108631659881  -0.000020937803642  -0.000020956318174
Si    3.39437   6.10987   8.82538  -0.000007164049523   0.000014916620508   0.000006023776513
Si    0.67888   8.82538   8.82538   0.000118913912484   0.000008999702276   0.000008981288451
Si    3.39437   8.82538   6.10987  -0.000007156042757   0.000006014456133   0.000014921537421
Si    4.75213   7.46762   7.46762   0.000009618942529  -0.000012782483821  -0.000012791405644
Si    4.75213  10.18313  10.18313   0.000008580627263   0.000004629412027   0.000004634851324
Si    2.03662   7.46762  10.18313  -0.000063035323809  -0.000005493964294  -0.000001644697712
Si    2.03662  10.18313   7.46762  -0.000063035429979  -0.000001624169037  -0.000005480097046
Si    0.67888   6.10987  11.54087   0.000106103016734   0.000019950384516  -0.000023732753563
Si    3.39437   6.10987  14.25638  -0.000023729865029  -0.000012047543889  -0.000025910639809
Si    0.67888   8.82538  14.25638  -0.000009029081843  -0.000000436033202   0.000000750356291
Si    3.39437   8.82538  11.54087  -0.000013287578964   0.000005852089489  -0.000024778479605
Si    4.75213   7.46762  12.89863   0.000008801779552  -0.000006105447329   0.000029071003275
Si    4.75213  10.18313  15.61412   0.000001066962741  -0.000001387702917   0.000007033756368
Si    2.03662   7.46762  15.61412   0.000014411971624  -0.000005137380125  -0.000004327566993
Si    2.03662  10.18313  12.89863   0.000011764072999  -0.000011636370519   0.000017410564213
Si    0.67888  11.54087   0.67888  -0.000013664200380  -0.000007934913006   0.000008173149456
Si    3.39437  11.54087   3.39437  -0.000024777005441   0.000003897533474   0.000017747389414
Si    0.67888  14.25638   3.39437   0.000422041058846  -0.000112160511674   0.000108725137341
Si    3.39437  14.25638   0.67888  -0.000194100263528   0.000183941120590  -0.000108679214558
Si    4.75213  12.89863   2.03662  -0.000016001896483   0.000024932948527   0.000051242600456
Si    4.75213  15.61412   4.75213  -0.000009910693537  -0.000061250066386  -0.000013080623432
Si    2.03662  12.89863   4.75213  -0.000177685288968  -0.000048767289025   0.000054554166624
Si    2.03662  15.61412   2.03662  -0.003371497003219   0.002466482622513  -0.002473841166276
Si    0.67888  11.54087   6.10987   0.000106084641440  -0.000023696573534   0.000019978343851
Si    3.39437  11.54087   8.82538  -0.000013277767930  -0.000024797035002   0.000005837784285
Si    0.67888  14.25638   8.82538  -0.000008955671995   0.000000759717352  -0.000000445833206
Si    3.39437  14.25638   6.10987  -0.000023736119209  -0.000026028941146  -0.000012051825116
Si    4.75213  12.89863   7.46762   0.000008695752884   0.000029096009279  -0.000006098139457
Si    4.75213  15.61412  10.18313   0.000001017782088   0.000007032565364  -0.000001409257369
Si    2.03662  12.89863  10.18313   0.000011776137537   0.000017458026850  -0.000011636680939
Si    2.03662  15.61412   7.46762   0.000014402298120  -0.000004119873320  -0.000005153860757
Si    0.67888  11.54087  11.54087   0.000110515022949   0.000011941474209   0.000011978385075
Si    3.39437  11.54087  14.25638  -0.000019437261028   0.000001068642989  -0.000024352265583
Si    0.67888  14.25638  14.25638   0.000420831248938   0.000105077428162   0.000105428384002
Si    3.39437  14.25638  11.54087  -0.000019409661628  -0.000024356278437   0.000001050648517
Si    4.75213  12.89863  12.89863   0.000016294737105   0.000009175080151   0.000009191009878
Si    4.75213  15.61412  15.61412   0.000011539826663  -0.000033386600565  -0.000033521761117
Si    2.03662  12.89863  15.61412   0.000034355801596  -0.000023932330543   0.000033472289962
Si    2.03662  15.61412  12.89863   0.000034438924727   0.000033378779542  -0.000023849174755
Si    6.10987   0.67888   0.67888  -0.000005158910335   0.000002872321845   0.000002868708493
Si    8.82538   0.67888   3.39437   0.000005832449337   0.000004819360939  -0.000008021889876
Si    6.10987   3.39437   3.39437   0.000002262170600  -0.000015119012785  -0.000015112985628
Si    8.82538   3.39437   0.67888   0.000005857005717  -0.000008017941472   0.000004833596221
Si   10.18313   2.03662   2.03662   0.000000019649067   0.000002239740337   0.000002253422046
Si   10.18313   4.75213   4.75213  -0.000001024334927   0.000000059052271   0.000000045054699
Si    7.46762   2.03662   4.75213   0.000000523129075   0.000012655378496   0.000004996521228
Si    7.46762   4.75213   2.03662   0.000000534064708   0.000004986267186   0.000012657648945
Si    6.10987   0.67888   6.10987  -0.000000627714537   0.000028679784181  -0.000012289391477
Si    8.82538   0.67888   8.82538   0.000010652298148   0.000009002687482   0.000008981075305
Si    6.10987   3.39437   8.82538   0.000000207282641   0.000012736762613   0.000001214375043
Si    8.82538   3.39437   6.10987   0.000004795226423  -0.000006103994685   0.000000743370745
Si   10.18313   2.03662   7.46762  -0.000004936065972  -0.000001186385803  -0.000007873290248
Si   10.18313   4.75213  10.18313   0.000002552748085   0.000011796074486  -0.000005326755023
Si    7.46762   2.03662  10.18313  -0.000012411776541   0.000002251229567  -0.000000343552184
Si    7.46762   4.75213   7.46762  -0.000005574664561   0.000003643779177  -0.000013450906343
Si    6.10987   0.67888  11.54087  -0.000001506832923  -0.000018674776925   0.000009407686156
Si    8.82538   0.67888  14.25638   0.000000544979313   0.000006201722671   0.000000738998398
Si    6.10987   3.39437  14.25638   0.000001632278343  -0.000011263990749   0.000004141739858
Si    8.82538   3.39437  11.54087   0.000011108704708  -0.000005886188344  -0.000007353103637
Si   10.18313   2.03662  12.89863   0.000003291907915  -0.000011538443044   0.000009485394215
Si   10.18313   4.75213  15.61412   0.000004164493496   0.000000518037262   0.000008664705832
Si    7.46762   2.03662  15.61412  -0.000002636467335  -0.000003256160432  -0.000000492623585
Si    7.46762   4.75213  12.89863  -0.000009076930545   0.000011936150925   0.000006035539257
Si    6.10987   6.10987   0.67888  -0.000000744657420  -0.000012300331821   0.000028679584521
Si    8.82538   6.10987   3.39437   0.000004813868040   0.000000745566148  -0.000006109984526
Si    6.10987   8.82538   3.39437   0.000000198131104   0.000001217974975   0.000012732362138
Si    8.82538   8.82538   0.67888   0.000010607143070   0.000008999501206   0.000008984187087
Si   10.18313   7.46762   2.03662  -0.000004929796822  -0.000007884343147  -0.000001191243808
Si   10.18313  10.18313   4.75213   0.000002559544541  -0.000005328818084   0.000011808040590
Si    7.46762   7.46762   4.75213  -0.000005567308698  -0.000013448581048   0.000003642276280
Si    7.46762  10.18313   2.03662  -0.000012402152866  -0.000000360760083   0.000002257545288
Si    6.10987   6.10987   6.10987  -0.000002075832013   0.000003403405279   0.000003406632881
Si    8.82538   6.10987   8.82538   0.000001051436733   0.000000856616313   0.000002880533745
Si    6.10987   8.82538   8.82538  -0.000000936064262   0.000002884052897   0.000002879606528
Si    8.82538   8.82538   6.10987   0.000001031579506   0.000002857641131   0.000000851410075
Si   10.18313   7.46762   7.46762  -0.000000947553360  -0.000002693039320  -0.000002704397029
Si   10.18313  10.18313  10.18313  -0.000000067754932  -0.000000191028712  -0.000000175305547
Si    7.46762   7.46762  10.18313  -0.000002917296792  -0.000003045157409  -0.000000712026485
Si    7.46762  10.18313   7.46762  -0.000002935152297  -0.000000701093297  -0.000003042567247
Si    6.10987   6.10987  11.54087  -0.000001922748294   0.000003523288387  -0.000010631181802
Si    8.82538   6.10987  14.25638   0.000009221799751  -0.000001636343945  -0.000003106315441
Si    6.10987   8.82538  14.25638   0.000001078455197   0.000008783165670  -0.000015613722886
Si    8.82538   8.82538  11.54087   0.000006318698075   0.000008163110199  -0.000008134280389
Si   10.18313   7.46762  12.89863   0.000003438806905   0.000002444573631  -0.000001805990116
Si   10.18313  10.18313  15.61412  -0.000004929574495   0.000000768923644  -0.000005935619941
Si    7.46762   7.46762  15.61412  -0.000014290320254  -0.000008640420902  -0.000011242387283
Si    7.46762  10.18313  12.89863  -0.000000297713692   0.000006173308504   0.000007396493782
Si    6.10987  11.54087   0.67888  -0.000001623575375   0.000009414333766  -0.000018673076695
Si    8.82538  11.54087   3.39437   0.000011107963477  -0.000007364134645  -0.000005874775444
Si    6.10987  14.25638   3.39437   0.000001632461031   0.000004148869599  -0.000011263509086
Si    8.82538  14.25638   0.67888   0.000000587368507   0.000000743634083   0.000006204510254
Si   10.18313  12.89863   2.03662   0.000003285755777   0.000009483025332  -0.000011547262986
Si   10.18313  15.61412   4.75213   0.000004170839492   0.000008651430466   0.000000517963354
Si    7.46762  12.89863   4.75213  -0.000009077019378   0.000006062168838   0.000011925925935
Si    7.46762  15.61412   2.03662  -0.000002618427172  -0.000000492907889  -0.000003264741864
Si    6.10987  11.54087   6.10987  -0.000001922643729  -0.000010638708957   0.000003509119405
Si    8.82538  11.54087   8.82538   0.000006320631764  -0.000008130912365   0.000008157169347
Si    6.10987  14.25638   8.82538   0.000001087583000  -0.000015622451170   0.000008789108015
Si    8.82538  14.25638   6.10987   0.000009222519992  -0.000003113302369  -0.000001628942362
Si   10.18313  12.89863   7.46762   0.000003432010954  -0.000001796360815   0.000002446982869
Si   10.18313  15.61412  10.18313  -0.000004935704786  -0.000005933563037   0.000000751137801
Si    7.46762  12.89863  10.18313  -0.000000287073736   0.000007378019880   0.000006167033006
Si    7.46762  15.61412   7.46762  -0.000014299989482  -0.000011254367320  -0.000008639211716
Si    6.10987  11.54087  11.54087  -0.000001196342585  -0.000006287882890  -0.000006286660532
Si    8.82538  11.54087  14.25638   0.000004794327835  -0.000004491333487   0.000002352859009
Si    6.10987  14.25638  14.25638   0.000001391244588   0.000012228477881   0.000012226881216
Si    8.82538  14.25638  11.54087   0.000004811507413   0.000002355209933  -0.000004497522252
Si   10.18313  12.89863  12.89863  -0.000001021506747   0.000005714737238   0.000005719893486
Si   10.18313  15.61412  15.61412  -0.000000859143200  -0.000005123822099  -0.000005132934941
Si    7.46762  12.89863  15.61412  -0.000004752698939   0.000006034287208  -0.000019940651668
Si    7.46762  15.61412  12.89863  -0.000004745867236  -0.000019929859382   0.000006040970142
Si   11.54087   0.67888   0.67888  -0.000013899587132   0.000008144060861   0.000008147520900
Si   14.25638   0.67888   3.39437  -0.000183757489106   0.000108388828146   0.000174871159822
Si   11.54087   3.39437   3.39437  -0.000007172416951  -0.000003904783072  -0.000003914442646
Si   14.25638   3.39437   0.67888  -0.000183804103259   0.000174969724075   0.000108790106986
Si   15.61412   2.03662   2.03662  -0.003224256434790   0.002172625295532   0.002172765729230
Si   15.61412   4.75213   4.75213  -0.000181686134040  -0.000042204523661  -0.000042263609835
Si   12.89863   2.03662   4.75213  -0.000013466910562  -0.000051769071038   0.000022759900238
Si   12.89863   4.75213   2.03662  -0.000013429005016   0.000022746566672  -0.000051651255879
Si   11.54087   0.67888   6.10987  -0.000002778623160   0.000023141151250   0.000010923645875
Si   14.25638   0.67888   8.82538  -0.000011239972454   0.000002885477735   0.000002879380560
Si   11.54087   3.39437   8.82538  -0.000008044351023  -0.000024953624588   0.000007405291318
Si   14.25638   3.39437   6.10987  -0.000016564434216  -0.000032762749264   0.000012368052217
Si   15.61412   2.03662   7.46762   0.000012501751813  -0.000002320261690  -0.000000523269296
Si   15.61412   4.75213  10.18313   0.000008549609462   0.000013130473820   0.000012535108018
Si   12.89863   2.03662  10.18313   0.000005492631558   0.000010582021453   0.000002198501097
Si   12.89863   4.75213   7.46762   0.000008743359920   0.000029202034079  -0.000011881511716
Si   11.54087   0.67888  11.54087  -0.000008909465728  -0.000011269597953  -0.000020775716785
Si   14.25638   0.67888  14.25638  -0.000182933013130  -0.000098281713924  -0.000177788396816
Si   11.54087   3.39437  14.25638  -0.000001405132528   0.000009310834835  -0.000011301025541
Si   14.25638   3.39437  11.54087  -0.000015776671394  -0.000029183035493  -0.000007307928558
Si   15.61412   2.03662  12.89863   0.000028279192001   0.000039291148903   0.000027480890638
Si   15.61412   4.75213  15.61412   0.000022872473927  -0.000016587770647  -0.000046631016283
Si   12.89863   2.03662  15.61412   0.000007077443423  -0.000025095657007   0.000023270901354
Si   12.89863   4.75213  12.89863   0.000016292984209   0.000009337098031   0.000006967695717
Si   11.54087   6.10987   0.67888  -0.000002904430022   0.000010930413922   0.000023148073672
Si   14.25638   6.10987   3.39437  -0.000016554162486   0.000012362322908  -0.000032667241027
Si   11.54087   8.82538   3.39437  -0.000008054235062   0.000007423172912  -0.000024929176432
Si   14.25638   8.82538   0.67888  -0.000011204156566   0.000002883824086   0.000002881078410
Si   15.61412   7.46762   2.03662   0.000012544592156  -0.000000532258862  -0.000002546492830
Si   15.61412  10.18313   4.75213   0.000008518225970   0.000012539397500   0.000013096207999
Si   12.89863   7.46762   4.75213   0.000008846830825  -0.000011912108995   0.000029178753525
Si   12.89863  10.18313   2.03662   0.000005522830836   0.000002180927818   0.000010591400957
Si   11.54087   6.10987   6.10987  -0.000009112354476  -0.000003444983381  -0.000003430329350
Si   14.25638   6.10987   8.82538  -0.000004090619819  -0.000015753569243   0.000010297190661
Si   11.54087   8.82538   8.82538  -0.000009906085216   0.000008153520236   0.000008157020534
Si   14.25638   8.82538   6.10987  -0.000004098646864   0.000010294916350  -0.000015754782391
Si   15.61412   7.46762   7.46762  -0.000071653776715  -0.000010789330431  -0.000010792600231
Si   15.61412  10.18313  10.18313  -0.000069762759659   0.000001786385505   0.000001808026707
Si   12.89863   7.46762  10.18313   0.000004184930747   0.000001695941700  -0.000003694817623
Si   12.89863  10.18313   7.46762   0.000004202830805  -0.000003684181064   0.000001688002841
Si   11.54087   6.10987  11.54087  -0.000004807716125  -0.000002648296232   0.000000649964996
Si   14.25638   6.10987  14.25638  -0.000016700950192   0.000004431573299   0.000026304257484
Si   11.54087   8.82538  14.25638  -0.000001920867984   0.000004442976340   0.000015071943238
Si   14.25638   8.82538  11.54087  -0.000004978434223  -0.000000294060444   0.000012872802067
Si   15.61412   7.46762  12.89863   0.000003248547998  -0.000019813266990  -0.000002058477153
Si   15.61412  10.18313  15.61412   0.000012527911821  -0.000003216717567  -0.000001213308293
Si   12.89863   7.46762  15.61412   0.000006558661908  -0.000010332513501  -0.000018749894214
Si   12.89863  10.18313  12.89863   0.000002739188583   0.000002036317445  -0.000017315596294
Si   11.54087  11.54087   0.67888  -0.000009017180473  -0.000020806020858  -0.000011281460968
Si   14.25638  11.54087   3.39437  -0.000015819736952  -0.000007317146489  -0.000029177893479
Si   11.54087  14.25638   3.39437  -0.000001423096704  -0.000011295746565   0.000009297519311
Si   14.25638  14.25638   0.67888  -0.000182972040585  -0.000177892242372  -0.000098680704671
Si   15.61412  12.89863   2.03662   0.000028150665219   0.000027556137902   0.000039376847638
Si   15.61412  15.61412   4.75213   0.000023018209343  -0.000046542661789  -0.000016495898910
Si   12.89863  12.89863   4.75213   0.000016292581850   0.000006968859919   0.000009345571749
Si   12.89863  15.61412   2.03662   0.000007060260579   0.000023162729362  -0.000025222843691
Si   11.54087  11.54087   6.10987  -0.000004789793935   0.000000660604652  -0.000002656181631
Si   14.25638  11.54087   8.82538  -0.000004970305416   0.000012867158108  -0.000000293995983
Si   11.54087  14.25638   8.82538  -0.000001928910442   0.000015072975020   0.000004455884084
Si   14.25638  14.25638   6.10987  -0.000016659752689   0.000026304188311   0.000004427056325
Si   15.61412  12.89863   7.46762   0.000003262133427  -0.000002109483263  -0.000019817513843
Si   15.61412  15.61412  10.18313   0.000012522281113  -0.000001431028638  -0.000003234069473
Si   12.89863  12.89863  10.18313   0.000002618426408  -0.000017333306951   0.000002029380732
Si   12.89863  15.61412   7.46762   0.000006527984434  -0.000018737085473  -0.000010353697950
Si   11.54087  11.54087  11.54087  -0.000010149161141  -0.000004709648215  -0.000004727838452
Si   14.25638  11.54087  14.25638  -0.000016561720248  -0.000019475805791   0.000025546604457
Si   11.54087  14.25638  14.25638  -0.000006141276942  -0.000004256688295  -0.000004250376284
Si   14.25638  14.25638  11.54087  -0.000016569769062   0.000025650550851  -0.000019488564053
Si   15.61412  12.89863  12.89863  -0.000181690414633   0.000060224262709   0.000060247034268
Si   15.61412  15.61412  15.61412  -0.003226191360743  -0.002181521594193  -0.002181649265102
Si   12.89863  12.89863  15.61412  -0.000007268631520  -0.000010866035078   0.000041758415491
Si   12.89863  15.61412  12.89863  -0.000007324459315   0.000041852288730  -0.000010884053549
