216 

Si    0.67888   0.67888   0.67888   0.000009230650291   0.000009230650275   0.000009212822714
Si    3.39437   0.67888   3.39437  -0.000009230650370   0.000009230650403  -0.000009212822861
Si    0.67888   3.39437   3.39437   0.000009230650308  -0.000009230650291  -0.000009212822741
Si    3.39437   3.39437   0.67888  -0.000009230650368  -0.000009230650397   0.000009212822830
Si    4.75213   2.03662   2.03662   0.000007339841086   0.000000000000006   0.000000000000007
Si    4.75213   4.75213   4.75213   0.000008381558092   0.000008381558214   0.000008385471871
Si    2.03662   2.03662   4.75213  -0.000000000000047   0.000000000000145   0.000007347272495
Si    2.03662   4.75213   2.03662  -0.000000000000046   0.000007339841078   0.000000000000127
Si    0.67888   0.67888   6.10987   0.000003092513366   0.000003092513557   0.000000875645265
Si    3.39437   0.67888   8.82538  -0.000008381558259   0.000008381558257   0.000008385471878
Si    0.67888   3.39437   8.82538   0.000008381558130  -0.000008381558123   0.000008385471760
Si    3.39437   3.39437   6.10987  -0.000003092513509  -0.000003092513316   0.000000875645261
Si    4.75213   2.03662   7.46762   0.000003110689322   0.000000880662745  -0.000003106557903
Si    4.75213   4.75213  10.18313   0.000003092513381   0.000003092513455  -0.000000875645418
Si    2.03662   2.03662  10.18313  -0.000000000000046   0.000000000000020   0.000000000000014
Si    2.03662   4.75213   7.46762   0.000000880662584   0.000003110689462  -0.000003106557952
Si    0.67888   0.67888  11.54087   0.000008381558107   0.000008381558128  -0.000008385471729
Si    3.39437   0.67888  14.25638  -0.000003092513512   0.000003092513336  -0.000000875645274
Si    0.67888   3.39437  14.25638   0.000003092513370  -0.000003092513559  -0.000000875645294
Si    3.39437   3.39437  11.54087  -0.000008381558271  -0.000008381558240  -0.000008385471847
Si    4.75213   2.03662  12.89863   0.000003110689323  -0.000000880662728   0.000003106557916
Si    4.75213   4.75213  15.61412   0.000009230650236   0.000009230650215  -0.000009212822682
Si    2.03662   2.03662  15.61412  -0.000000000000067  -0.000000000000115  -0.000007347272512
Si    2.03662   4.75213  12.89863  -0.000000880662679   0.000003110689331   0.000003106557844
Si    0.67888   6.10987   0.67888   0.000003110689319   0.000000880662572   0.000003106557935
Si    3.39437   6.10987   3.39437  -0.000003110689422   0.000000880662552  -0.000003106557768
Si    0.67888   8.82538   3.39437   0.000008381558125   0.000008381558113  -0.000008385471753
Si    3.39437   8.82538   0.67888  -0.000008381558251   0.000008381558219   0.000008385471860
Si    4.75213   7.46762   2.03662   0.000003092513400  -0.000003092513498   0.000000875645419
Si    4.75213  10.18313   4.75213   0.000003110689319  -0.000000880662747   0.000003106557888
Si    2.03662   7.46762   4.75213   0.000000880662580  -0.000003110689485   0.000003106557958
Si    2.03662  10.18313   2.03662  -0.000000000000051  -0.000000000000005  -0.000000000000005
Si    0.67888   6.10987   6.10987   0.000007339841099  -0.000000000000014   0.000000000000009
Si    3.39437   6.10987   8.82538  -0.000003110689444  -0.000000880662600   0.000003106557748
Si    0.67888   8.82538   8.82538   0.000009230650269   0.000009230650256   0.000009212822739
Si    3.39437   8.82538   6.10987  -0.000003092513517   0.000003092513286  -0.000000875645274
Si    4.75213   7.46762   7.46762   0.000008381558074  -0.000008381558263  -0.000008385471861
Si    4.75213  10.18313  10.18313   0.000007339841060  -0.000000000000009   0.000000000000006
Si    2.03662   7.46762  10.18313  -0.000000000000074  -0.000007339841117  -0.000000000000107
Si    2.03662  10.18313   7.46762  -0.000000000000078  -0.000000000000150  -0.000007347272493
Si    0.67888   6.10987  11.54087   0.000003110689304  -0.000000880662606  -0.000003106557959
Si    3.39437   6.10987  14.25638  -0.000007339841243  -0.000000000000038  -0.000000000000013
Si    0.67888   8.82538  14.25638   0.000003092513356   0.000003092513534   0.000000875645270
Si    3.39437   8.82538  11.54087  -0.000009230650399   0.000009230650356  -0.000009212822837
Si    4.75213   7.46762  12.89863   0.000009230650239  -0.000009230650271   0.000009212822702
Si    4.75213  10.18313  15.61412   0.000003110689322   0.000000880662729  -0.000003106557876
Si    2.03662   7.46762  15.61412  -0.000000880662681  -0.000003110689371  -0.000003106557836
Si    2.03662  10.18313  12.89863  -0.000000000000096   0.000000000000112   0.000007347272502
Si    0.67888  11.54087   0.67888   0.000008381558099  -0.000008381558111   0.000008385471730
Si    3.39437  11.54087   3.39437  -0.000008381558254  -0.000008381558228  -0.000008385471885
Si    0.67888  14.25638   3.39437   0.000003110689294  -0.000000880662560  -0.000003106557992
Si    3.39437  14.25638   0.67888  -0.000003110689426  -0.000000880662561   0.000003106557737
Si    4.75213  12.89863   2.03662   0.000003092513420   0.000003092513492  -0.000000875645439
Si    4.75213  15.61412   4.75213   0.000009230650258  -0.000009230650189   0.000009212822672
Si    2.03662  12.89863   4.75213  -0.000000880662683   0.000003110689354   0.000003106557821
Si    2.03662  15.61412   2.03662  -0.000000000000053  -0.000007339841060  -0.000000000000137
Si    0.67888  11.54087   6.10987   0.000003092513354  -0.000003092513541  -0.000000875645281
Si    3.39437  11.54087   8.82538  -0.000009230650385  -0.000009230650385   0.000009212822836
Si    0.67888  14.25638   8.82538   0.000003110689291   0.000000880662594   0.000003106557990
Si    3.39437  14.25638   6.10987  -0.000007339841223   0.000000000000017  -0.000000000000016
Si    4.75213  12.89863   7.46762   0.000009230650247   0.000009230650252  -0.000009212822689
Si    4.75213  15.61412  10.18313   0.000003092513396  -0.000003092513442   0.000000875645442
Si    2.03662  12.89863  10.18313  -0.000000000000100   0.000007339841107   0.000000000000134
Si    2.03662  15.61412   7.46762  -0.000000880662699  -0.000003110689312  -0.000003106557840
Si    0.67888  11.54087  11.54087   0.000009230650255  -0.000009230650284  -0.000009212822721
Si    3.39437  11.54087  14.25638  -0.000003092513534  -0.000003092513309   0.000000875645287
Si    0.67888  14.25638  14.25638   0.000007339841057   0.000000000000018  -0.000000000000017
Si    3.39437  14.25638  11.54087  -0.000003110689439   0.000000880662611  -0.000003106557714
Si    4.75213  12.89863  12.89863   0.000008381558081   0.000008381558262   0.000008385471881
Si    4.75213  15.61412  15.61412   0.000008381558095  -0.000008381558211  -0.000008385471862
Si    2.03662  12.89863  15.61412   0.000000880662569   0.000003110689470  -0.000003106557967
Si    2.03662  15.61412  12.89863   0.000000880662558  -0.000003110689438   0.000003106557961
Si    6.10987   0.67888   0.67888   0.000000880662594   0.000003110689379   0.000003106557849
Si    8.82538   0.67888   3.39437   0.000008381558144   0.000008381558304  -0.000008385471948
Si    6.10987   3.39437   3.39437   0.000000880662591  -0.000003110689364  -0.000003106557872
Si    8.82538   3.39437   0.67888   0.000008381558129  -0.000008381558311   0.000008385471925
Si   10.18313   2.03662   2.03662  -0.000000000000128  -0.000000000000009  -0.000000000000011
Si   10.18313   4.75213   4.75213  -0.000000880662673   0.000003110689377   0.000003106557865
Si    7.46762   2.03662   4.75213  -0.000003110689458   0.000000880662747   0.000003106557778
Si    7.46762   4.75213   2.03662  -0.000003092513525   0.000003092513370   0.000000875645417
Si    6.10987   0.67888   6.10987  -0.000000000000075   0.000007339841267  -0.000000000000057
Si    8.82538   0.67888   8.82538   0.000009230650222   0.000009230650371   0.000009212822836
Si    6.10987   3.39437   8.82538  -0.000000880662700  -0.000003110689311   0.000003106557806
Si    8.82538   3.39437   6.10987   0.000003092513384  -0.000003092513353  -0.000000875645366
Si   10.18313   2.03662   7.46762  -0.000000000000033   0.000000000000120  -0.000007347272581
Si   10.18313   4.75213  10.18313  -0.000000000000033   0.000007339841160  -0.000000000000103
Si    7.46762   2.03662  10.18313  -0.000007339841193   0.000000000000007   0.000000000000027
Si    7.46762   4.75213   7.46762  -0.000008381558259   0.000008381558239  -0.000008385471895
Si    6.10987   0.67888  11.54087  -0.000000880662691   0.000003110689333  -0.000003106557799
Si    8.82538   0.67888  14.25638   0.000003092513407   0.000003092513354   0.000000875645368
Si    6.10987   3.39437  14.25638  -0.000000000000077  -0.000007339841267   0.000000000000050
Si    8.82538   3.39437  11.54087   0.000009230650229  -0.000009230650382  -0.000009212822811
Si   10.18313   2.03662  12.89863  -0.000000000000028  -0.000000000000114   0.000007347272584
Si   10.18313   4.75213  15.61412   0.000000880662589   0.000003110689279  -0.000003106557775
Si    7.46762   2.03662  15.61412  -0.000003110689436  -0.000000880662732  -0.000003106557791
Si    7.46762   4.75213  12.89863  -0.000009230650396   0.000009230650231   0.000009212822717
Si    6.10987   6.10987   0.67888  -0.000000000000061  -0.000000000000062   0.000007347272661
Si    8.82538   6.10987   3.39437   0.000003110689305  -0.000000880662694  -0.000003106557795
Si    6.10987   8.82538   3.39437  -0.000000880662696   0.000003110689289  -0.000003106557833
Si    8.82538   8.82538   0.67888   0.000009230650223   0.000009230650352   0.000009212822826
Si   10.18313   7.46762   2.03662  -0.000000000000035  -0.000007339841187   0.000000000000091
Si   10.18313  10.18313   4.75213  -0.000000000000029  -0.000000000000113   0.000007347272560
Si    7.46762   7.46762   4.75213  -0.000008381558255  -0.000008381558286   0.000008385471860
Si    7.46762  10.18313   2.03662  -0.000007339841198   0.000000000000001  -0.000000000000025
Si    6.10987   6.10987   6.10987  -0.000000000000100  -0.000000000000035  -0.000000000000010
Si    8.82538   6.10987   8.82538   0.000003110689329   0.000000880662635   0.000003106557791
Si    6.10987   8.82538   8.82538   0.000000880662594   0.000003110689332   0.000003106557849
Si    8.82538   8.82538   6.10987   0.000003092513404   0.000003092513332   0.000000875645361
Si   10.18313   7.46762   7.46762  -0.000000880662649  -0.000003110689408  -0.000003106557872
Si   10.18313  10.18313  10.18313  -0.000000000000074  -0.000000000000004   0.000000000000022
Si    7.46762   7.46762  10.18313  -0.000003092513504  -0.000003092513398  -0.000000875645434
Si    7.46762  10.18313   7.46762  -0.000003110689427  -0.000000880662750  -0.000003106557805
Si    6.10987   6.10987  11.54087  -0.000000000000083   0.000000000000005  -0.000007347272650
Si    8.82538   6.10987  14.25638   0.000007339841087  -0.000000000000026   0.000000000000010
Si    6.10987   8.82538  14.25638  -0.000000000000071   0.000007339841225  -0.000000000000025
Si    8.82538   8.82538  11.54087   0.000008381558159   0.000008381558287  -0.000008385471906
Si   10.18313   7.46762  12.89863   0.000000880662619  -0.000003110689289   0.000003106557788
Si   10.18313  10.18313  15.61412  -0.000000000000028   0.000000000000130  -0.000007347272583
Si    7.46762   7.46762  15.61412  -0.000009230650391  -0.000009230650273  -0.000009212822698
Si    7.46762  10.18313  12.89863  -0.000003110689414   0.000000880662729   0.000003106557813
Si    6.10987  11.54087   0.67888  -0.000000880662682  -0.000003110689292   0.000003106557809
Si    8.82538  11.54087   3.39437   0.000009230650245  -0.000009230650346  -0.000009212822860
Si    6.10987  14.25638   3.39437  -0.000000000000079   0.000000000000072  -0.000007347272688
Si    8.82538  14.25638   0.67888   0.000003110689338   0.000000880662680   0.000003106557759
Si   10.18313  12.89863   2.03662  -0.000000000000029   0.000007339841185  -0.000000000000131
Si   10.18313  15.61412   4.75213   0.000000880662600  -0.000003110689277   0.000003106557766
Si    7.46762  12.89863   4.75213  -0.000009230650378   0.000009230650272   0.000009212822683
Si    7.46762  15.61412   2.03662  -0.000003092513496  -0.000003092513355  -0.000000875645424
Si    6.10987  11.54087   6.10987  -0.000000000000076  -0.000007339841244   0.000000000000026
Si    8.82538  11.54087   8.82538   0.000008381558162  -0.000008381558286   0.000008385471930
Si    6.10987  14.25638   8.82538  -0.000000000000079  -0.000000000000002   0.000007347272665
Si    8.82538  14.25638   6.10987   0.000007339841098   0.000000000000026  -0.000000000000018
Si   10.18313  12.89863   7.46762   0.000000880662611   0.000003110689290  -0.000003106557774
Si   10.18313  15.61412  10.18313  -0.000000000000020  -0.000007339841152   0.000000000000137
Si    7.46762  12.89863  10.18313  -0.000003092513483   0.000003092513386   0.000000875645444
Si    7.46762  15.61412   7.46762  -0.000009230650392  -0.000009230650219  -0.000009212822714
Si    6.10987  11.54087  11.54087   0.000000880662612  -0.000003110689346  -0.000003106557835
Si    8.82538  11.54087  14.25638   0.000003092513428  -0.000003092513327  -0.000000875645341
Si    6.10987  14.25638  14.25638  -0.000000000000095   0.000000000000030   0.000000000000020
Si    8.82538  14.25638  11.54087   0.000003110689366  -0.000000880662642  -0.000003106557741
Si   10.18313  12.89863  12.89863  -0.000000880662643   0.000003110689409   0.000003106557895
Si   10.18313  15.61412  15.61412  -0.000000880662646  -0.000003110689377  -0.000003106557887
Si    7.46762  12.89863  15.61412  -0.000008381558226   0.000008381558270  -0.000008385471867
Si    7.46762  15.61412  12.89863  -0.000008381558242  -0.000008381558223   0.000008385471894
Si   11.54087   0.67888   0.67888  -0.000008381558231   0.000008381558139   0.000008385471767
Si   14.25638   0.67888   3.39437  -0.000000880662641   0.000003110689424  -0.000003106557939
Si   11.54087   3.39437   3.39437  -0.000008381558233  -0.000008381558173  -0.000008385471811
Si   14.25638   3.39437   0.67888  -0.000000880662641  -0.000003110689446   0.000003106557895
Si   15.61412   2.03662   2.03662  -0.000007339841171  -0.000000000000002  -0.000000000000016
Si   15.61412   4.75213   4.75213  -0.000009230650349   0.000009230650340   0.000009212822818
Si   12.89863   2.03662   4.75213   0.000003110689320  -0.000000880662523   0.000003106557831
Si   12.89863   4.75213   2.03662   0.000003092513392   0.000003092513401  -0.000000875645222
Si   11.54087   0.67888   6.10987  -0.000003092513464   0.000003092513561  -0.000000875645380
Si   14.25638   0.67888   8.82538   0.000000880662585   0.000003110689395   0.000003106557914
Si   11.54087   3.39437   8.82538  -0.000009230650375  -0.000009230650239   0.000009212822719
Si   14.25638   3.39437   6.10987  -0.000000000000009  -0.000007339841027  -0.000000000000028
Si   15.61412   2.03662   7.46762  -0.000003110689406  -0.000000880662514  -0.000003106557914
Si   15.61412   4.75213  10.18313  -0.000003092513471   0.000003092513478   0.000000875645237
Si   12.89863   2.03662  10.18313   0.000007339841132  -0.000000000000010   0.000000000000024
Si   12.89863   4.75213   7.46762   0.000009230650292   0.000009230650390  -0.000009212822840
Si   11.54087   0.67888  11.54087  -0.000009230650362   0.000009230650231  -0.000009212822662
Si   14.25638   0.67888  14.25638  -0.000000000000029   0.000007339841014   0.000000000000015
Si   11.54087   3.39437  14.25638  -0.000003092513465  -0.000003092513581   0.000000875645351
Si   14.25638   3.39437  11.54087   0.000000880662592  -0.000003110689408  -0.000003106557868
Si   15.61412   2.03662  12.89863  -0.000003110689420   0.000000880662520   0.000003106557928
Si   15.61412   4.75213  15.61412  -0.000008381558215   0.000008381558120  -0.000008385471777
Si   12.89863   2.03662  15.61412   0.000003110689321   0.000000880662510  -0.000003106557856
Si   12.89863   4.75213  12.89863   0.000008381558191   0.000008381558161   0.000008385471810
Si   11.54087   6.10987   0.67888  -0.000003110689393  -0.000000880662688   0.000003106557968
Si   14.25638   6.10987   3.39437  -0.000000000000026  -0.000000000000032  -0.000007347272439
Si   11.54087   8.82538   3.39437  -0.000009230650378   0.000009230650233  -0.000009212822700
Si   14.25638   8.82538   0.67888   0.000000880662577   0.000003110689400   0.000003106557862
Si   15.61412   7.46762   2.03662  -0.000003092513481  -0.000003092513497  -0.000000875645229
Si   15.61412  10.18313   4.75213  -0.000003110689419   0.000000880662522   0.000003106557916
Si   12.89863   7.46762   4.75213   0.000009230650294  -0.000009230650412   0.000009212822849
Si   12.89863  10.18313   2.03662   0.000007339841140   0.000000000000025  -0.000000000000029
Si   11.54087   6.10987   6.10987  -0.000007339841149  -0.000000000000010   0.000000000000007
Si   14.25638   6.10987   8.82538  -0.000000000000020   0.000000000000025   0.000007347272436
Si   11.54087   8.82538   8.82538  -0.000008381558216   0.000008381558156   0.000008385471810
Si   14.25638   8.82538   6.10987  -0.000000000000024   0.000007339841019   0.000000000000033
Si   15.61412   7.46762   7.46762  -0.000009230650353  -0.000009230650367  -0.000009212822791
Si   15.61412  10.18313  10.18313  -0.000007339841177   0.000000000000006   0.000000000000027
Si   12.89863   7.46762  10.18313   0.000003092513412  -0.000003092513421   0.000000875645224
Si   12.89863  10.18313   7.46762   0.000003110689337   0.000000880662512  -0.000003106557829
Si   11.54087   6.10987  11.54087  -0.000003110689391   0.000000880662661  -0.000003106557975
Si   14.25638   6.10987  14.25638  -0.000000000000046  -0.000000000000009  -0.000000000000019
Si   11.54087   8.82538  14.25638  -0.000003092513449   0.000003092513550  -0.000000875645364
Si   14.25638   8.82538  11.54087  -0.000000880662642   0.000003110689427  -0.000003106557909
Si   15.61412   7.46762  12.89863  -0.000008381558230  -0.000008381558146   0.000008385471775
Si   15.61412  10.18313  15.61412  -0.000003110689433  -0.000000880662513  -0.000003106557931
Si   12.89863   7.46762  15.61412   0.000008381558193  -0.000008381558168  -0.000008385471811
Si   12.89863  10.18313  12.89863   0.000003110689346  -0.000000880662510   0.000003106557859
Si   11.54087  11.54087   0.67888  -0.000009230650356  -0.000009230650213   0.000009212822668
Si   14.25638  11.54087   3.39437   0.000000880662575  -0.000003110689384  -0.000003106557913
Si   11.54087  14.25638   3.39437  -0.000003110689386   0.000000880662680  -0.000003106558009
Si   14.25638  14.25638   0.67888  -0.000000000000044   0.000000000000038   0.000007347272400
Si   15.61412  12.89863   2.03662  -0.000003092513495   0.000003092513497   0.000000875645193
Si   15.61412  15.61412   4.75213  -0.000008381558225  -0.000008381558123   0.000008385471761
Si   12.89863  12.89863   4.75213   0.000008381558192   0.000008381558180   0.000008385471787
Si   12.89863  15.61412   2.03662   0.000003092513400  -0.000003092513416   0.000000875645193
Si   11.54087  11.54087   6.10987  -0.000003092513456  -0.000003092513535   0.000000875645363
Si   14.25638  11.54087   8.82538  -0.000000880662626  -0.000003110689416   0.000003106557944
Si   11.54087  14.25638   8.82538  -0.000003110689364  -0.000000880662664   0.000003106558001
Si   14.25638  14.25638   6.10987  -0.000000000000045   0.000000000000008  -0.000000000000009
Si   15.61412  12.89863   7.46762  -0.000008381558240   0.000008381558149  -0.000008385471749
Si   15.61412  15.61412  10.18313  -0.000003092513490  -0.000003092513477  -0.000000875645187
Si   12.89863  12.89863  10.18313   0.000003092513405   0.000003092513422  -0.000000875645170
Si   12.89863  15.61412   7.46762   0.000008381558186  -0.000008381558166  -0.000008385471782
Si   11.54087  11.54087  11.54087  -0.000008381558196  -0.000008381558154  -0.000008385471775
Si   14.25638  11.54087  14.25638  -0.000000000000036  -0.000007339841015  -0.000000000000033
Si   11.54087  14.25638  14.25638  -0.000007339841150   0.000000000000005  -0.000000000000004
Si   14.25638  14.25638  11.54087  -0.000000000000038  -0.000000000000015  -0.000007347272401
Si   15.61412  12.89863  12.89863  -0.000009230650393   0.000009230650373   0.000009212822821
Si   15.61412  15.61412  15.61412  -0.000009230650366  -0.000009230650337  -0.000009212822827
Si   12.89863  12.89863  15.61412   0.000009230650298   0.000009230650406  -0.000009212822848
Si   12.89863  15.61412  12.89863   0.000009230650306  -0.000009230650387   0.000009212822855
