512 

Si    0.67887   0.67888   0.67887   0.000000287768799   0.000000287802979   0.000000281726812
Si    3.39437   0.67888   3.39437  -0.000000301193054   0.000008739295972  -0.000000300188002
Si    0.67887   3.39438   3.39437   0.000008739302992  -0.000000301265985  -0.000000300150070
Si    3.39437   3.39438   0.67887  -0.000000304025967  -0.000000304067243   0.000008743757158
Si    4.75212   2.03662   2.03662   0.000006174528459  -0.000004996011454  -0.000004988084287
Si    4.75212   4.75212   4.75212  -0.000001386583130  -0.000001386657324  -0.000001396151805
Si    2.03662   2.03662   4.75212  -0.000005003812676  -0.000005003810488   0.000006163748600
Si    2.03662   4.75212   2.03662  -0.000004995943798   0.000006174501926  -0.000004988080825
Si    0.67887   0.67888   6.10987  -0.000003885472646  -0.000003885426898   0.000006583484269
Si    3.39437   0.67888   8.82537  -0.000000014696297   0.000003014224164  -0.000002137373957
Si    0.67887   3.39438   8.82537   0.000003014253793  -0.000000014672014  -0.000002137346706
Si    3.39437   3.39438   6.10987   0.000000077418847   0.000000077404322   0.000004295517440
Si    4.75212   2.03662   7.46762   0.000001799750342   0.000008992311181  -0.000003068065379
Si    4.75212   4.75212  10.18313  -0.000002301457471  -0.000002301478687   0.000007467448883
Si    2.03662   2.03662  10.18313  -0.000001858990664  -0.000001858973775   0.000005185828419
Si    2.03662   4.75212   7.46762   0.000008992278967   0.000001799766413  -0.000003068005857
Si    0.67887   0.67888  11.54087   0.000001773539558   0.000001773548272   0.000004589223365
Si    3.39437   0.67888  14.25638   0.000001378960258   0.000004542299450   0.000000848707898
Si    0.67887   3.39438  14.25638   0.000004542280478   0.000001379022647   0.000000848711493
Si    3.39437   3.39438  11.54087   0.000004014451991   0.000004014497084  -0.000005766470958
Si    4.75212   2.03662  12.89862  -0.000003103336054  -0.000003493709744   0.000002217041763
Si    4.75212   4.75212  15.61412  -0.000000438523979  -0.000000438589988   0.000000624098126
Si    2.03662   2.03662  15.61412   0.000002688312516   0.000002688247893  -0.000006644927202
Si    2.03662   4.75212  12.89862  -0.000003493678913  -0.000003103343031   0.000002216998351
Si    0.67887   0.67888  16.97187  -0.000000480248808  -0.000000480262863   0.000001530378561
Si    3.39437   0.67888  19.68737  -0.000004818901183  -0.000001247308115  -0.000001210031203
Si    0.67887   3.39438  19.68737  -0.000001247300234  -0.000004818933394  -0.000001210019489
Si    3.39437   3.39438  16.97187   0.000000597312093   0.000000597283467  -0.000003536518621
Si    4.75212   2.03662  18.32963   0.000000696179816   0.000004149171941   0.000000658574753
Si    4.75212   4.75212  21.04512   0.000002607017826   0.000002606998320  -0.000003464404359
Si    2.03662   2.03662  21.04512  -0.000001560434499  -0.000001560454294  -0.000000008221222
Si    2.03662   4.75212  18.32963   0.000004149168021   0.000000696170141   0.000000658564598
Si    0.67887   6.10987   0.67887  -0.000003879267483   0.000006574836494  -0.000003883686204
Si    3.39437   6.10987   3.39437   0.000000069602258   0.000004299438463   0.000000070275812
Si    0.67887   8.82537   3.39437   0.000003010547526  -0.000002139986816  -0.000000005263205
Si    3.39437   8.82537   0.67887  -0.000000006599319  -0.000002134205347   0.000003014891875
Si    4.75212   7.46762   2.03662   0.000001801222956  -0.000003075062213   0.000008988020626
Si    4.75212  10.18313   4.75212  -0.000002299218353   0.000007474068934  -0.000002298751814
Si    2.03662   7.46762   4.75212   0.000008983341349  -0.000003080490020   0.000001799124298
Si    2.03662  10.18313   2.03662  -0.000001870108149   0.000005192099919  -0.000001868890471
Si    0.67887   6.10987   6.10987   0.000001069317690   0.000001180393807   0.000001176249275
Si    3.39437   6.10987   8.82537   0.000005750474445   0.000002243638193   0.000004212404926
Si    0.67887   8.82537   8.82537   0.000000526279099   0.000000590999371   0.000000596620649
Si    3.39437   8.82537   6.10987   0.000005744653144   0.000004214141535   0.000002246783098
Si    4.75212   7.46762   7.46762   0.000000162017283   0.000001757201608   0.000001753577679
Si    4.75212  10.18313  10.18313  -0.000002452215140  -0.000003028978925  -0.000003017730987
Si    2.03662   7.46762  10.18313   0.000002000255156   0.000004857485650  -0.000002432713608
Si    2.03662  10.18313   7.46762   0.000002006372410  -0.000002428477250   0.000004851906995
Si    0.67887   6.10987  11.54087   0.000004688453114  -0.000001695915374  -0.000002388500522
Si    3.39437   6.10987  14.25638  -0.000004054303723   0.000002169606944   0.000005257546544
Si    0.67887   8.82537  14.25638  -0.000001687821854  -0.000000894507429   0.000003040877645
Si    3.39437   8.82537  11.54087  -0.000001175263104  -0.000001146206436  -0.000007856377172
Si    4.75212   7.46762  12.89862   0.000001291428464   0.000006436159534   0.000003267940771
Si    4.75212  10.18313  15.61412  -0.000003341618469   0.000000876729584  -0.000003805650164
Si    2.03662   7.46762  15.61412  -0.000002804828273  -0.000000097497809  -0.000001228389719
Si    2.03662  10.18313  12.89862  -0.000002199317845  -0.000003101180248   0.000000562218433
Si    0.67887   6.10987  16.97187   0.000003741863828   0.000000294784115  -0.000000110563314
Si    3.39437   6.10987  19.68737   0.000000604068347  -0.000004495288966   0.000005005165539
Si    0.67887   8.82537  19.68737  -0.000002825893526   0.000003287441491   0.000000455073524
Si    3.39437   8.82537  16.97187   0.000000634349581  -0.000001562586216   0.000001075746227
Si    4.75212   7.46762  18.32963  -0.000000088554404  -0.000003257391562  -0.000001623795023
Si    4.75212  10.18313  21.04512   0.000005518919254   0.000005002136589  -0.000005117768386
Si    2.03662   7.46762  21.04512  -0.000006184429165  -0.000005164198511   0.000002242649358
Si    2.03662  10.18313  18.32963   0.000002237138747   0.000003226546481  -0.000000141083544
Si    0.67887  11.54087   0.67887   0.000001766768121   0.000004589120774   0.000001764253830
Si    3.39437  11.54087   3.39437   0.000004011732379  -0.000005765448877   0.000004015028190
Si    0.67887  14.25638   3.39437   0.000004540185826   0.000000848680573   0.000001378272977
Si    3.39437  14.25638   0.67887   0.000001379259812   0.000000847401077   0.000004539728061
Si    4.75212  12.89862   2.03662  -0.000003103495318   0.000002211683905  -0.000003492483250
Si    4.75212  15.61412   4.75212  -0.000000438148113   0.000000635162528  -0.000000429834291
Si    2.03662  12.89862   4.75212  -0.000003482984846   0.000002208020334  -0.000003097662503
Si    2.03662  15.61412   2.03662   0.000002693778184  -0.000006638770893   0.000002684215629
Si    0.67887  11.54087   6.10987   0.000004696316393  -0.000002386566357  -0.000001708049404
Si    3.39437  11.54087   8.82537  -0.000001177313296  -0.000007858418508  -0.000001145595754
Si    0.67887  14.25638   8.82537  -0.000001687196768   0.000003037773264  -0.000000897471513
Si    3.39437  14.25638   6.10987  -0.000004054205711   0.000005258245146   0.000002174660890
Si    4.75212  12.89862   7.46762   0.000001291075581   0.000003259538949   0.000006433773818
Si    4.75212  15.61412  10.18313  -0.000003331944481  -0.000003820382297   0.000000879580929
Si    2.03662  12.89862  10.18313  -0.000002212152759   0.000000577539749  -0.000003092294798
Si    2.03662  15.61412   7.46762  -0.000002803897930  -0.000001223551527  -0.000000101119305
Si    0.67887  11.54087  11.54087   0.000004552457618  -0.000003631299628  -0.000003632567707
Si    3.39437  11.54087  14.25638  -0.000004757251946   0.000006692384109  -0.000002435037311
Si    0.67887  14.25638  14.25638   0.000000519443214   0.000001641128025   0.000001644481068
Si    3.39437  14.25638  11.54087  -0.000004762688900  -0.000002431955600   0.000006693334998
Si    4.75212  12.89862  12.89862   0.000000018157296  -0.000001761113323  -0.000001764855832
Si    4.75212  15.61412  15.61412   0.000000292606645  -0.000001615086408  -0.000001616552128
Si    2.03662  12.89862  15.61412   0.000007187438743   0.000000515972795  -0.000000602575374
Si    2.03662  15.61412  12.89862   0.000007179755027  -0.000000609367532   0.000000516006347
Si    0.67887  11.54087  16.97187   0.000005125082426  -0.000004997694369  -0.000005524830000
Si    3.39437  11.54087  19.68737   0.000000133783473  -0.000003226438093  -0.000002242168236
Si    0.67887  14.25638  19.68737  -0.000002253146242   0.000005173680488   0.000006187636533
Si    3.39437  14.25638  16.97187   0.000001622611330   0.000003255883040   0.000000093031754
Si    4.75212  12.89862  18.32963  -0.000001073937392   0.000001568262514  -0.000000646338388
Si    4.75212  15.61412  21.04512   0.000000109996894  -0.000000300013233  -0.000003730995695
Si    2.03662  12.89862  21.04512  -0.000000453037382  -0.000003288500076   0.000002835728937
Si    2.03662  15.61412  18.32963  -0.000005010437110   0.000004495509402  -0.000000615385008
Si    0.67887  16.97187   0.67887  -0.000000465111574   0.000001535562592  -0.000000466703756
Si    3.39437  16.97187   3.39437   0.000000594165104  -0.000003535356869   0.000000599967163
Si    0.67887  19.68737   3.39437  -0.000001252992309  -0.000001213692295  -0.000004828717205
Si    3.39437  19.68737   0.67887  -0.000004824486435  -0.000001213697008  -0.000001249867346
Si    4.75212  18.32963   2.03662   0.000000710488625   0.000000649765987   0.000004144325726
Si    4.75212  21.04512   4.75212   0.000002615316443  -0.000003452247511   0.000002604987726
Si    2.03662  18.32963   4.75212   0.000004143374894   0.000000651534809   0.000000701788897
Si    2.03662  21.04512   2.03662  -0.000001574982287  -0.000000004035520  -0.000001562174132
Si    0.67887  16.97187   6.10987   0.000003735150281  -0.000000107942680   0.000000302267550
Si    3.39437  16.97187   8.82537   0.000000636198765   0.000001076931782  -0.000001558196335
Si    0.67887  19.68737   8.82537  -0.000002831994339   0.000000453328290   0.000003282274656
Si    3.39437  19.68737   6.10987   0.000000614855882   0.000005002587061  -0.000004499697054
Si    4.75212  18.32963   7.46762  -0.000000099188543  -0.000001630962683  -0.000003258297332
Si    4.75212  21.04512  10.18313   0.000005522419475  -0.000005124069076   0.000004994671540
Si    2.03662  18.32963  10.18313   0.000002236829958  -0.000000130255448   0.000003228391613
Si    2.03662  21.04512   7.46762  -0.000006180306934   0.000002239076312  -0.000005167242755
Si    0.67887  16.97187  11.54087   0.000005124113047  -0.000005522389394  -0.000004994614643
Si    3.39437  16.97187  14.25638   0.000001631033228   0.000000099276741   0.000003258276556
Si    0.67887  19.68737  14.25638  -0.000002239076497   0.000006180354070   0.000005167229500
Si    3.39437  19.68737  11.54087   0.000000130273633  -0.000002236821996  -0.000003228301740
Si    4.75212  18.32963  12.89862  -0.000001076949245  -0.000000636172439   0.000001558214316
Si    4.75212  21.04512  15.61412   0.000000107918427  -0.000003735158526  -0.000000302265551
Si    2.03662  18.32963  15.61412  -0.000005002532530  -0.000000614739209   0.000004499670361
Si    2.03662  21.04512  12.89862  -0.000000453292863   0.000002832005365  -0.000003282227940
Si    0.67887  16.97187  16.97187   0.000003452278150  -0.000002615308734  -0.000002605062035
Si    3.39437  16.97187  19.68737  -0.000000649717695  -0.000000710476898  -0.000004144273275
Si    0.67887  19.68737  19.68737   0.000000004059213   0.000001574999228   0.000001562218993
Si    3.39437  19.68737  16.97187  -0.000000651482425  -0.000004143304407  -0.000000701856750
Si    4.75212  18.32963  18.32963   0.000003535368090  -0.000000594185514  -0.000000600032646
Si    4.75212  21.04512  21.04512  -0.000001535569628   0.000000465054180   0.000000466742925
Si    2.03662  18.32963  21.04512   0.000001213736123   0.000004824561669   0.000001249834860
Si    2.03662  21.04512  18.32963   0.000001213778931   0.000001252981655   0.000004828687864
Si    6.10988   0.67888   0.67887   0.000006574820072  -0.000003879238262  -0.000003883661321
Si    8.82537   0.67888   3.39437  -0.000002140003886   0.000003010542794  -0.000000005228334
Si    6.10988   3.39438   3.39437   0.000004299438871   0.000000069575014   0.000000070275410
Si    8.82537   3.39438   0.67887  -0.000002134146628  -0.000000006609161   0.000003014859178
Si   10.18313   2.03662   2.03662   0.000005192064985  -0.000001870148130  -0.000001868941466
Si   10.18313   4.75212   4.75212   0.000007474075920  -0.000002299197542  -0.000002298789790
Si    7.46762   2.03662   4.75212  -0.000003080437614   0.000008983294417   0.000001799104554
Si    7.46762   4.75212   2.03662  -0.000003075021615   0.000001801211311   0.000008988057409
Si    6.10988   0.67888   6.10987   0.000001180405497   0.000001069269245   0.000001176214024
Si    8.82537   0.67888   8.82537   0.000000591083616   0.000000526224475   0.000000596636679
Si    6.10988   3.39438   8.82537   0.000002243629756   0.000005750548862   0.000004212405538
Si    8.82537   3.39438   6.10987   0.000004214132141   0.000005744673640   0.000002246770587
Si   10.18313   2.03662   7.46762  -0.000002428402326   0.000002006394834   0.000004851938733
Si   10.18313   4.75212  10.18313  -0.000003028909625  -0.000002452249975  -0.000003017676018
Si    7.46762   2.03662  10.18313   0.000004857525510   0.000002000226475  -0.000002432671505
Si    7.46762   4.75212   7.46762   0.000001757186827   0.000000162042391   0.000001753538748
Si    6.10988   0.67888  11.54087  -0.000001695881247   0.000004688423592  -0.000002388461588
Si    8.82537   0.67888  14.25638  -0.000000894447517  -0.000001687787575   0.000003040900319
Si    6.10988   3.39438  14.25638   0.000002169635262  -0.000004054273865   0.000005257554572
Si    8.82537   3.39438  11.54087  -0.000001146148350  -0.000001175249282  -0.000007856368514
Si   10.18313   2.03662  12.89862  -0.000003101123090  -0.000002199326844   0.000000562221105
Si   10.18313   4.75212  15.61412   0.000000876688127  -0.000003341599548  -0.000003805723472
Si    7.46762   2.03662  15.61412  -0.000000097410156  -0.000002804714381  -0.000001228418343
Si    7.46762   4.75212  12.89862   0.000006436192727   0.000001291424547   0.000003268032410
Si    6.10988   0.67888  16.97187   0.000000294794599   0.000003741862179  -0.000000110560439
Si    8.82537   0.67888  19.68737   0.000003287519023  -0.000002825850660   0.000000455105152
Si    6.10988   3.39438  19.68737  -0.000004495327527   0.000000604121420   0.000005005153185
Si    8.82537   3.39438  16.97187  -0.000001562558036   0.000000634288724   0.000001075709200
Si   10.18313   2.03662  18.32963   0.000003226582611   0.000002237165314  -0.000000141100383
Si   10.18313   4.75212  21.04512   0.000005002114499   0.000005518964708  -0.000005117734622
Si    7.46762   2.03662  21.04512  -0.000005164184800  -0.000006184443636   0.000002242754174
Si    7.46762   4.75212  18.32963  -0.000003257344147  -0.000000088568907  -0.000001623820316
Si    6.10988   6.10987   0.67887   0.000001169501969   0.000001169473333   0.000001074647892
Si    8.82537   6.10987   3.39437   0.000004220003716   0.000002241852456   0.000005740284833
Si    6.10988   8.82537   3.39437   0.000002241895699   0.000004219979013   0.000005740241385
Si    8.82537   8.82537   0.67887   0.000000602672536   0.000000602638615   0.000000532453859
Si   10.18313   7.46762   2.03662  -0.000002429828925   0.000004862019510   0.000001999083734
Si   10.18313  10.18313   4.75212  -0.000003026476571  -0.000003026524148  -0.000002459864749
Si    7.46762   7.46762   4.75212   0.000001746554313   0.000001746480056   0.000000164866923
Si    7.46762  10.18313   2.03662   0.000004862035307  -0.000002429887897   0.000001999056715
Si    6.10988   6.10987   6.10987   0.000002961700158   0.000002961686385   0.000002963069484
Si    8.82537   6.10987   8.82537  -0.000001790028808   0.000000807267599  -0.000001791709558
Si    6.10988   8.82537   8.82537   0.000000807183758  -0.000001790088633  -0.000001791694960
Si    8.82537   8.82537   6.10987  -0.000001788111739  -0.000001788116873   0.000000811719787
Si   10.18313   7.46762   7.46762  -0.000003344838957  -0.000000063494545  -0.000000061681730
Si   10.18313  10.18313  10.18313  -0.000003658674898  -0.000003658668071  -0.000003660469521
Si    7.46762   7.46762  10.18313  -0.000000058106819  -0.000000058124998  -0.000003348135296
Si    7.46762  10.18313   7.46762  -0.000000063424420  -0.000003344879868  -0.000000061638769
Si    6.10988   6.10987  11.54087   0.000004695769834   0.000004695782475   0.000000405162631
Si    8.82537   6.10987  14.25638   0.000000190268849   0.000000467361216   0.000003277460198
Si    6.10988   8.82537  14.25638   0.000000467404421   0.000000190212151   0.000003277415603
Si    8.82537   8.82537  11.54087   0.000003012098771   0.000003012094269   0.000000923326594
Si   10.18313   7.46762  12.89862  -0.000000336820334   0.000003662059053   0.000004568892536
Si   10.18313  10.18313  15.61412  -0.000000862967642  -0.000000862976094  -0.000000235366432
Si    7.46762   7.46762  15.61412   0.000000548493591   0.000000548478827   0.000003155395748
Si    7.46762  10.18313  12.89862   0.000003662147321  -0.000000336915849   0.000004568948480
Si    6.10988   6.10987  16.97187   0.000001635133221   0.000001635049227  -0.000000292038026
Si    8.82537   6.10987  19.68737  -0.000000532717373   0.000000615547961  -0.000007185289824
Si    6.10988   8.82537  19.68737   0.000000615542786  -0.000000532778733  -0.000007185299690
Si    8.82537   8.82537  16.97187   0.000001746491444   0.000001746519755  -0.000000010061820
Si   10.18313   7.46762  18.32963  -0.000006698062502   0.000002429928465   0.000004761008185
Si   10.18313  10.18313  21.04512   0.000003632638288   0.000003632635876  -0.000004560077751
Si    7.46762   7.46762  21.04512  -0.000001640639528  -0.000001640674114  -0.000000510803876
Si    7.46762  10.18313  18.32963   0.000002429927036  -0.000006698059167   0.000004761021644
Si    6.10988  11.54087   0.67887  -0.000001709889658  -0.000002390019090   0.000004698345498
Si    8.82537  11.54087   3.39437  -0.000001147622249  -0.000007860738237  -0.000001184259645
Si    6.10988  14.25638   3.39437   0.000002171943839   0.000005259486332  -0.000004056128101
Si    8.82537  14.25638   0.67887  -0.000000889701107   0.000003042388775  -0.000001688415157
Si   10.18313  12.89862   2.03662  -0.000003105523520   0.000000567504613  -0.000002198407503
Si   10.18313  15.61412   4.75212   0.000000863753293  -0.000003813729477  -0.000003340380618
Si    7.46762  12.89862   4.75212   0.000006448308844   0.000003272684089   0.000001295073506
Si    7.46762  15.61412   2.03662  -0.000000091250600  -0.000001233175173  -0.000002805186879
Si    6.10988  11.54087   6.10987   0.000004703829628   0.000000398641502   0.000004706233142
Si    8.82537  11.54087   8.82537   0.000003008927422   0.000000917691221   0.000003003356544
Si    6.10988  14.25638   8.82537   0.000000475920468   0.000003284363729   0.000000182780504
Si    8.82537  14.25638   6.10987   0.000000185753681   0.000003277861030   0.000000470805742
Si   10.18313  12.89862   7.46762  -0.000000332051115   0.000004567029574   0.000003665355501
Si   10.18313  15.61412  10.18313  -0.000000862009826  -0.000000231414193  -0.000000869838600
Si    7.46762  12.89862  10.18313   0.000003652725193   0.000004574924764  -0.000000335391387
Si    7.46762  15.61412   7.46762   0.000000547867523   0.000003162503139   0.000000548966825
Si    6.10988  11.54087  11.54087   0.000000231496585   0.000000861966857   0.000000869817241
Si    8.82537  11.54087  14.25638  -0.000004567044381   0.000000332032281  -0.000003665370329
Si    6.10988  14.25638  14.25638  -0.000003162481201  -0.000000547800195  -0.000000548926264
Si    8.82537  14.25638  11.54087  -0.000004574914116  -0.000003652716975   0.000000335377404
Si   10.18313  12.89862  12.89862  -0.000000917732713  -0.000003008946906  -0.000003003321702
Si   10.18313  15.61412  15.61412  -0.000000398691815  -0.000004703801845  -0.000004706233429
Si    7.46762  12.89862  15.61412  -0.000003277735594  -0.000000185688970  -0.000000470875318
Si    7.46762  15.61412  12.89862  -0.000003284360949  -0.000000475827988  -0.000000182767439
Si    6.10988  11.54087  16.97187   0.000003813746421  -0.000000863830637   0.000003340469672
Si    8.82537  11.54087  19.68737  -0.000000567547578   0.000003105560328   0.000002198459446
Si    6.10988  14.25638  19.68737   0.000001233226731   0.000000091242072   0.000002805234713
Si    8.82537  14.25638  16.97187  -0.000003272728913  -0.000006448265713  -0.000001295060606
Si   10.18313  12.89862  18.32963   0.000007860724129   0.000001147682625   0.000001184269258
Si   10.18313  15.61412  21.04512   0.000002389995567   0.000001709859461  -0.000004698347105
Si    7.46762  12.89862  21.04512  -0.000003042389468   0.000000889693460   0.000001688427359
Si    7.46762  15.61412  18.32963  -0.000005259454276  -0.000002171912492   0.000004056032508
Si    6.10988  16.97187   0.67887   0.000000300004771  -0.000000109987702   0.000003730942945
Si    8.82537  16.97187   3.39437  -0.000001568298171   0.000001073949183   0.000000646426386
Si    6.10988  19.68737   3.39437  -0.000004495489018   0.000005010452244   0.000000615379901
Si    8.82537  19.68737   0.67887   0.000003288491364   0.000000453091971  -0.000002835741971
Si   10.18313  18.32963   2.03662   0.000003226481762  -0.000000133769661   0.000002242180460
Si   10.18313  21.04512   4.75212   0.000004997646921  -0.000005125133181   0.000005524870616
Si    7.46762  18.32963   4.75212  -0.000003255808822  -0.000001622540154  -0.000000093014535
Si    7.46762  21.04512   2.03662  -0.000005173701164   0.000002253186765  -0.000006187570761
Si    6.10988  16.97187   6.10987   0.000001615082245  -0.000000292597959   0.000001616551705
Si    8.82537  16.97187   8.82537   0.000001761143767  -0.000000018127324   0.000001764819764
Si    6.10988  19.68737   8.82537   0.000000609442838  -0.000007179718679  -0.000000516058974
Si    8.82537  19.68737   6.10987  -0.000000515926124  -0.000007187418527   0.000000602562179
Si   10.18313  18.32963   7.46762  -0.000006692436526   0.000004757306921   0.000002435060041
Si   10.18313  21.04512  10.18313   0.000003631336187  -0.000004552497091   0.000003632479604
Si    7.46762  18.32963  10.18313   0.000002431994067   0.000004762663479  -0.000006693353040
Si    7.46762  21.04512   7.46762  -0.000001641137018  -0.000000519479411  -0.000001644496419
Si    6.10988  16.97187  11.54087   0.000003820446463   0.000003331997471  -0.000000879592869
Si    8.82537  16.97187  14.25638  -0.000003259521668  -0.000001291148496  -0.000006433743711
Si    6.10988  19.68737  14.25638   0.000001223542306   0.000002803859413   0.000000101167548
Si    8.82537  19.68737  11.54087  -0.000000577521022   0.000002212084438   0.000003092265713
Si   10.18313  18.32963  12.89862   0.000007858411418   0.000001177374151   0.000001145520626
Si   10.18313  21.04512  15.61412   0.000002386559079  -0.000004696338683   0.000001708061504
Si    7.46762  18.32963  15.61412  -0.000005258252085   0.000004054185715  -0.000002174623225
Si    7.46762  21.04512  12.89862  -0.000003037778122   0.000001687212799   0.000000897444835
Si    6.10988  16.97187  16.97187  -0.000000635112271   0.000000438165414   0.000000429825212
Si    8.82537  16.97187  19.68737  -0.000002211688252   0.000003103517649   0.000003492428701
Si    6.10988  19.68737  19.68737   0.000006638803369  -0.000002693810501  -0.000002684227889
Si    8.82537  19.68737  16.97187  -0.000002208041438   0.000003482999665   0.000003097679040
Si   10.18313  18.32963  18.32963   0.000005765464475  -0.000004011752381  -0.000004015056405
Si   10.18313  21.04512  21.04512  -0.000004589132680  -0.000001766706476  -0.000001764324808
Si    7.46762  18.32963  21.04512  -0.000000847422476  -0.000001379245386  -0.000004539716256
Si    7.46762  21.04512  18.32963  -0.000000848639998  -0.000004540159153  -0.000001378272042
Si   11.54087   0.67888   0.67887   0.000004589091298   0.000001766715044   0.000001764279760
Si   14.25638   0.67888   3.39437   0.000000848667921   0.000004540194353   0.000001378254838
Si   11.54087   3.39438   3.39437  -0.000005765363780   0.000004011809734   0.000004015033201
Si   14.25638   3.39438   0.67887   0.000000847437666   0.000001379312106   0.000004539737600
Si   15.61412   2.03662   2.03662  -0.000006638772406   0.000002693804882   0.000002684200052
Si   15.61412   4.75212   4.75212   0.000000635145056  -0.000000438132843  -0.000000429833734
Si   12.89862   2.03662   4.75212   0.000002207998221  -0.000003482957854  -0.000003097684559
Si   12.89862   4.75212   2.03662   0.000002211666840  -0.000003103508244  -0.000003492452623
Si   11.54087   0.67888   6.10987  -0.000002386568843   0.000004696314975  -0.000001707997976
Si   14.25638   0.67888   8.82537   0.000003037765234  -0.000001687185323  -0.000000897490718
Si   11.54087   3.39438   8.82537  -0.000007858389742  -0.000001177375816  -0.000001145559783
Si   14.25638   3.39438   6.10987   0.000005258222213  -0.000004054150340   0.000002174680435
Si   15.61412   2.03662   7.46762  -0.000001223501639  -0.000002803887263  -0.000000101052272
Si   15.61412   4.75212  10.18313  -0.000003820494064  -0.000003331957581   0.000000879558003
Si   12.89862   2.03662  10.18313   0.000000577576484  -0.000002212144573  -0.000003092292981
Si   12.89862   4.75212   7.46762   0.000003259527289   0.000001291064424   0.000006433748959
Si   11.54087   0.67888  11.54087  -0.000003631300865   0.000004552506994  -0.000003632551468
Si   14.25638   0.67888  14.25638   0.000001641136690   0.000000519452156   0.000001644432617
Si   11.54087   3.39438  14.25638   0.000006692413234  -0.000004757302653  -0.000002435060038
Si   14.25638   3.39438  11.54087  -0.000002432022347  -0.000004762710603   0.000006693319010
Si   15.61412   2.03662  12.89862  -0.000000609465228   0.000007179696830   0.000000515981783
Si   15.61412   4.75212  15.61412  -0.000001615103834   0.000000292623373  -0.000001616580827
Si   12.89862   2.03662  15.61412   0.000000515883167   0.000007187422880  -0.000000602561085
Si   12.89862   4.75212  12.89862  -0.000001761173329   0.000000018088637  -0.000001764787163
Si   11.54087   0.67888  16.97187  -0.000004997672135   0.000005125112560  -0.000005524890430
Si   14.25638   0.67888  19.68737   0.000005173675050  -0.000002253166269   0.000006187632417
Si   11.54087   3.39438  19.68737  -0.000003226451490   0.000000133737185  -0.000002242207775
Si   14.25638   3.39438  16.97187   0.000003255815329   0.000001622574044   0.000000093091152
Si   15.61412   2.03662  18.32963   0.000004495441750  -0.000005010392889  -0.000000615322108
Si   15.61412   4.75212  21.04512  -0.000000300039908   0.000000109979039  -0.000003730950178
Si   12.89862   2.03662  21.04512  -0.000003288485352  -0.000000453063496   0.000002835682772
Si   12.89862   4.75212  18.32963   0.000001568317830  -0.000001073988481  -0.000000646381391
Si   11.54087   6.10987   0.67887  -0.000002389954555  -0.000001709846667   0.000004698385573
Si   14.25638   6.10987   3.39437   0.000005259444915   0.000002171981234  -0.000004056069031
Si   11.54087   8.82537   3.39437  -0.000007860672404  -0.000001147721096  -0.000001184289706
Si   14.25638   8.82537   0.67887   0.000003042326008  -0.000000889720086  -0.000001688405057
Si   15.61412   7.46762   2.03662  -0.000001233270117  -0.000000091259974  -0.000002805191503
Si   15.61412  10.18313   4.75212  -0.000003813788495   0.000000863696676  -0.000003340429088
Si   12.89862   7.46762   4.75212   0.000003272703121   0.000006448288219   0.000001295010923
Si   12.89862  10.18313   2.03662   0.000000567507815  -0.000003105541648  -0.000002198381721
Si   11.54087   6.10987   6.10987   0.000000398687299   0.000004703834732   0.000004706275676
Si   14.25638   6.10987   8.82537   0.000003284372044   0.000000475815076   0.000000182772276
Si   11.54087   8.82537   8.82537   0.000000917761739   0.000003008886412   0.000003003321825
Si   14.25638   8.82537   6.10987   0.000003277754369   0.000000185706802   0.000000470850206
Si   15.61412   7.46762   7.46762   0.000003162477517   0.000000547844958   0.000000548855204
Si   15.61412  10.18313  10.18313  -0.000000231434741  -0.000000861971518  -0.000000869825230
Si   12.89862   7.46762  10.18313   0.000004574885416   0.000003652661572  -0.000000335362218
Si   12.89862  10.18313   7.46762   0.000004567066151  -0.000000332092827   0.000003665352129
Si   11.54087   6.10987  11.54087   0.000000861960780   0.000000231426968   0.000000869818509
Si   14.25638   6.10987  14.25638  -0.000000547826494  -0.000003162460141  -0.000000548891972
Si   11.54087   8.82537  14.25638   0.000000332019223  -0.000004567087217  -0.000003665352460
Si   14.25638   8.82537  11.54087  -0.000003652706314  -0.000004574913715   0.000000335374887
Si   15.61412   7.46762  12.89862  -0.000000475870644  -0.000003284358869  -0.000000182787715
Si   15.61412  10.18313  15.61412  -0.000004703777401  -0.000000398669352  -0.000004706238047
Si   12.89862   7.46762  15.61412  -0.000000185668140  -0.000003277753626  -0.000000470860977
Si   12.89862  10.18313  12.89862  -0.000003008929311  -0.000000917744663  -0.000003003310865
Si   11.54087   6.10987  16.97187  -0.000000863760359   0.000003813716657   0.000003340391706
Si   14.25638   6.10987  19.68737   0.000000091277431   0.000001233163282   0.000002805208195
Si   11.54087   8.82537  19.68737   0.000003105551262  -0.000000567582047   0.000002198452070
Si   14.25638   8.82537  16.97187  -0.000006448256842  -0.000003272735401  -0.000001295100650
Si   15.61412   7.46762  18.32963  -0.000002171932867  -0.000005259445898   0.000004056035205
Si   15.61412  10.18313  21.04512   0.000001709835667   0.000002389912602  -0.000004698366616
Si   12.89862   7.46762  21.04512   0.000000889707945  -0.000003042383600   0.000001688443918
Si   12.89862  10.18313  18.32963   0.000001147717313   0.000007860661748   0.000001184264534
Si   11.54087  11.54087   0.67887  -0.000003632649112  -0.000003632612205   0.000004560142029
Si   14.25638  11.54087   3.39437  -0.000002430045242   0.000006697996874  -0.000004761000439
Si   11.54087  14.25638   3.39437   0.000006698023634  -0.000002429950975  -0.000004760984446
Si   14.25638  14.25638   0.67887   0.000001640690734   0.000001640733236   0.000000510789618
Si   15.61412  12.89862   2.03662  -0.000000615545438   0.000000532768572   0.000007185317555
Si   15.61412  15.61412   4.75212  -0.000001635093372  -0.000001635105194   0.000000292043402
Si   12.89862  12.89862   4.75212  -0.000001746542150  -0.000001746561579   0.000000010008743
Si   12.89862  15.61412   2.03662   0.000000532733154  -0.000000615488581   0.000007185330436
Si   11.54087  11.54087   6.10987   0.000000862979966   0.000000862955694   0.000000235261734
Si   14.25638  11.54087   8.82537  -0.000003662119840   0.000000336794282  -0.000004568943951
Si   11.54087  14.25638   8.82537   0.000000336851348  -0.000003662083772  -0.000004568900458
Si   14.25638  14.25638   6.10987  -0.000000548459397  -0.000000548490744  -0.000003155483836
Si   15.61412  12.89862   7.46762  -0.000000467343059  -0.000000190270157  -0.000003277517688
Si   15.61412  15.61412  10.18313  -0.000004695752219  -0.000004695785351  -0.000000405177780
Si   12.89862  12.89862  10.18313  -0.000003012125887  -0.000003012090675  -0.000000923263677
Si   12.89862  15.61412   7.46762  -0.000000190298516  -0.000000467307274  -0.000003277456953
Si   11.54087  11.54087  11.54087   0.000003658626822   0.000003658664176   0.000003660501527
Si   14.25638  11.54087  14.25638   0.000000063510881   0.000003344836351   0.000000061730948
Si   11.54087  14.25638  14.25638   0.000003344822387   0.000000063466722   0.000000061686949
Si   14.25638  14.25638  11.54087   0.000000058109968   0.000000058088478   0.000003348158700
Si   15.61412  12.89862  12.89862  -0.000000807222488   0.000001789996214   0.000001791716174
Si   15.61412  15.61412  15.61412  -0.000002961715082  -0.000002961738192  -0.000002963097433
Si   12.89862  12.89862  15.61412   0.000001788152701   0.000001788114177  -0.000000811725207
Si   12.89862  15.61412  12.89862   0.000001790057769  -0.000000807216510   0.000001791732172
Si   11.54087  11.54087  16.97187   0.000003026504569   0.000003026534877   0.000002459840102
Si   14.25638  11.54087  19.68737  -0.000004862027765   0.000002429851477  -0.000001999037942
Si   11.54087  14.25638  19.68737   0.000002429862550  -0.000004862040692  -0.000001999087711
Si   14.25638  14.25638  16.97187  -0.000001746478051  -0.000001746515522  -0.000000164918099
Si   15.61412  12.89862  18.32963  -0.000002241870994  -0.000004219960441  -0.000005740332880
Si   15.61412  15.61412  21.04512  -0.000001169489788  -0.000001169428228  -0.000001074600707
Si   12.89862  12.89862  21.04512  -0.000000602668499  -0.000000602682773  -0.000000532416340
Si   12.89862  15.61412  18.32963  -0.000004219976122  -0.000002241835361  -0.000005740260458
Si   11.54087  16.97187   0.67887  -0.000005002126333  -0.000005518872388   0.000005117702163
Si   14.25638  16.97187   3.39437   0.000003257363411   0.000000088541560   0.000001623827652
Si   11.54087  19.68737   3.39437  -0.000003226597738  -0.000002237111050   0.000000141079648
Si   14.25638  19.68737   0.67887   0.000005164187959   0.000006184429415  -0.000002242751197
Si   15.61412  18.32963   2.03662   0.000004495392799  -0.000000604105445  -0.000005005170255
Si   15.61412  21.04512   4.75212  -0.000000294796029  -0.000003741888196   0.000000110593428
Si   12.89862  18.32963   4.75212   0.000001562609952  -0.000000634395607  -0.000001075690433
Si   12.89862  21.04512   2.03662  -0.000003287552164   0.000002825871613  -0.000000455137240
Si   11.54087  16.97187   6.10987  -0.000000876748632   0.000003341603965   0.000003805654594
Si   14.25638  16.97187   8.82537  -0.000006436212990  -0.000001291363217  -0.000003267990586
Si   11.54087  19.68737   8.82537   0.000003101126260   0.000002199349530  -0.000000562221541
Si   14.25638  19.68737   6.10987   0.000000097475982   0.000002804812060   0.000001228413838
Si   15.61412  18.32963   7.46762  -0.000002169630244   0.000004054342161  -0.000005257553337
Si   15.61412  21.04512  10.18313   0.000001695858590  -0.000004688425176   0.000002388476700
Si   12.89862  18.32963  10.18313   0.000001146130006   0.000001175263483   0.000007856355304
Si   12.89862  21.04512   7.46762   0.000000894459486   0.000001687837036  -0.000003040890637
Si   11.54087  16.97187  11.54087   0.000003028889492   0.000002452258949   0.000003017678838
Si   14.25638  16.97187  14.25638  -0.000001757213043  -0.000000162043825  -0.000001753512914
Si   11.54087  19.68737  14.25638   0.000002428415603  -0.000002006369077  -0.000004851898773
Si   14.25638  19.68737  11.54087  -0.000004857481959  -0.000002000159238   0.000002432677392
Si   15.61412  18.32963  12.89862  -0.000002243597462  -0.000005750437372  -0.000004212430954
Si   15.61412  21.04512  15.61412  -0.000001180394691  -0.000001069277391  -0.000001176237158
Si   12.89862  18.32963  15.61412  -0.000004214103179  -0.000005744625418  -0.000002246717465
Si   12.89862  21.04512  12.89862  -0.000000591019961  -0.000000526232181  -0.000000596676125
Si   11.54087  16.97187  16.97187  -0.000007474108721   0.000002299274198   0.000002298814187
Si   14.25638  16.97187  19.68737   0.000003075075336  -0.000001801131070  -0.000008988023626
Si   11.54087  19.68737  19.68737  -0.000005192076413   0.000001870218410   0.000001868872745
Si   14.25638  19.68737  16.97187   0.000003080423709  -0.000008983367023  -0.000001799128964
Si   15.61412  18.32963  18.32963  -0.000004299462617  -0.000000069595259  -0.000000070269826
Si   15.61412  21.04512  21.04512  -0.000006574813228   0.000003879243287   0.000003883728324
Si   12.89862  18.32963  21.04512   0.000002134234036   0.000000006618166  -0.000003014905852
Si   12.89862  21.04512  18.32963   0.000002139966363  -0.000003010549096   0.000000005277090
Si   16.97187   0.67888   0.67887   0.000001535539398  -0.000000465061312  -0.000000466742290
Si   19.68737   0.67888   3.39437  -0.000001213701660  -0.000001253009694  -0.000004828725305
Si   16.97187   3.39438   3.39437  -0.000003535307710   0.000000594245735   0.000000600006302
Si   19.68737   3.39438   0.67887  -0.000001213746643  -0.000004824491880  -0.000001249848155
Si   21.04512   2.03662   2.03662  -0.000000004054834  -0.000001575027262  -0.000001562215239
Si   21.04512   4.75212   4.75212  -0.000003452245887   0.000002615335016   0.000002605023649
Si   18.32963   2.03662   4.75212   0.000000651414832   0.000004143392638   0.000000701838419
Si   18.32963   4.75212   2.03662   0.000000649664616   0.000000710445739   0.000004144253455
Si   16.97187   0.67888   6.10987  -0.000000107929445   0.000003735168421   0.000000302308066
Si   19.68737   0.67888   8.82537   0.000000453299919  -0.000002831962279   0.000003282265182
Si   16.97187   3.39438   8.82537   0.000001076965245   0.000000636107482  -0.000001558161872
Si   19.68737   3.39438   6.10987   0.000005002533154   0.000000614726875  -0.000004499659588
Si   21.04512   2.03662   7.46762   0.000002239058265  -0.000006180259034  -0.000005167267523
Si   21.04512   4.75212  10.18313  -0.000005124077730   0.000005522429216   0.000004994644385
Si   18.32963   2.03662  10.18313  -0.000000130363924   0.000002236812611   0.000003228344397
Si   18.32963   4.75212   7.46762  -0.000001631014442  -0.000000099271064  -0.000003258268889
Si   16.97187   0.67888  11.54087  -0.000005522437772   0.000005124073988  -0.000004994688083
Si   19.68737   0.67888  14.25638   0.000006180361731  -0.000002239103725   0.000005167240876
Si   16.97187   3.39438  14.25638   0.000000099285706   0.000001630975690   0.000003258270673
Si   19.68737   3.39438  11.54087  -0.000002236852681   0.000000130317145  -0.000003228318055
Si   21.04512   2.03662  12.89862   0.000002832012321  -0.000000453326886  -0.000003282229938
Si   21.04512   4.75212  15.61412  -0.000003735187992   0.000000107899964  -0.000000302310909
Si   18.32963   2.03662  15.61412  -0.000000614770954  -0.000005002561888   0.000004499712750
Si   18.32963   4.75212  12.89862  -0.000000636142434  -0.000001076990413   0.000001558164076
Si   16.97187   0.67888  16.97187  -0.000002615375032   0.000003452273031  -0.000002605045698
Si   19.68737   0.67888  19.68737   0.000001574938788   0.000000004039736   0.000001562258737
Si   16.97187   3.39438  19.68737  -0.000000710514050  -0.000000649691864  -0.000004144230395
Si   19.68737   3.39438  16.97187  -0.000004143350162  -0.000000651433897  -0.000000701837964
Si   21.04512   2.03662  18.32963   0.000001252960599   0.000001213788250   0.000004828735406
Si   21.04512   4.75212  21.04512   0.000000465018797  -0.000001535571776   0.000000466700269
Si   18.32963   2.03662  21.04512   0.000004824530245   0.000001213751508   0.000001249876627
Si   18.32963   4.75212  18.32963  -0.000000594166636   0.000003535336518  -0.000000599988107
Si   16.97187   6.10987   0.67887  -0.000000109965158   0.000000299926817   0.000003730976439
Si   19.68737   6.10987   3.39437   0.000005010421662  -0.000004495519208   0.000000615347227
Si   16.97187   8.82537   3.39437   0.000001073908226  -0.000001568336898   0.000000646430181
Si   19.68737   8.82537   0.67887   0.000000453046983   0.000003288446146  -0.000002835757400
Si   21.04512   7.46762   2.03662   0.000002253216461  -0.000005173705237  -0.000006187644477
Si   21.04512  10.18313   4.75212  -0.000005125077036   0.000004997672115   0.000005524885642
Si   18.32963   7.46762   4.75212  -0.000001622624597  -0.000003255856892  -0.000000093008038
Si   18.32963  10.18313   2.03662  -0.000000133728600   0.000003226434738   0.000002242215113
Si   16.97187   6.10987   6.10987  -0.000000292695320   0.000001615083755   0.000001616500538
Si   19.68737   6.10987   8.82537  -0.000007179705073   0.000000609382933  -0.000000516047306
Si   16.97187   8.82537   8.82537  -0.000000018149095   0.000001761115588   0.000001764748310
Si   19.68737   8.82537   6.10987  -0.000007187458332  -0.000000515955440   0.000000602580735
Si   21.04512   7.46762   7.46762  -0.000000519422419  -0.000001641110689  -0.000001644451465
Si   21.04512  10.18313  10.18313  -0.000004552458559   0.000003631314024   0.000003632505022
Si   18.32963   7.46762  10.18313   0.000004762657404   0.000002431980290  -0.000006693319011
Si   18.32963  10.18313   7.46762   0.000004757277512  -0.000006692396323   0.000002435065804
Si   16.97187   6.10987  11.54087   0.000003331955309   0.000003820399439  -0.000000879612547
Si   19.68737   6.10987  14.25638   0.000002803908669   0.000001223553429   0.000000101136093
Si   16.97187   8.82537  14.25638  -0.000001291098382  -0.000003259509735  -0.000006433741052
Si   19.68737   8.82537  11.54087   0.000002212076034  -0.000000577546278   0.000003092312528
Si   21.04512   7.46762  12.89862   0.000001687147493  -0.000003037807147   0.000000897493625
Si   21.04512  10.18313  15.61412  -0.000004696375687   0.000002386524425   0.000001708083645
Si   18.32963   7.46762  15.61412   0.000004054174866  -0.000005258211149  -0.000002174585150
Si   18.32963  10.18313  12.89862   0.000001177286820   0.000007858397801   0.000001145589724
Si   16.97187   6.10987  16.97187   0.000000438199233  -0.000000635064588   0.000000429859663
Si   19.68737   6.10987  19.68737  -0.000002693779955   0.000006638766611  -0.000002684285227
Si   16.97187   8.82537  19.68737   0.000003103527678  -0.000002211695335   0.000003492382645
Si   19.68737   8.82537  16.97187   0.000003482948204  -0.000002208069269   0.000003097712953
Si   21.04512   7.46762  18.32963  -0.000004540176429  -0.000000848641080  -0.000001378264536
Si   21.04512  10.18313  21.04512  -0.000001766712448  -0.000004589123551  -0.000001764325617
Si   18.32963   7.46762  21.04512  -0.000001379298730  -0.000000847399990  -0.000004539721316
Si   18.32963  10.18313  18.32963  -0.000004011758610   0.000005765324037  -0.000004015090167
Si   16.97187  11.54087   0.67887  -0.000005518926254  -0.000005002123607   0.000005117712538
Si   19.68737  11.54087   3.39437  -0.000002237107137  -0.000003226580921   0.000000141087923
Si   16.97187  14.25638   3.39437   0.000000088543934   0.000003257428962   0.000001623799749
Si   19.68737  14.25638   0.67887   0.000006184406188   0.000005164196633  -0.000002242679355
Si   21.04512  12.89862   2.03662   0.000002825846008  -0.000003287488844  -0.000000455100943
Si   21.04512  15.61412   4.75212  -0.000003741843653  -0.000000294748505   0.000000110564724
Si   18.32963  12.89862   4.75212  -0.000000634352122   0.000001562581662  -0.000001075669295
Si   18.32963  15.61412   2.03662  -0.000000604116679   0.000004495406809  -0.000005005132004
Si   16.97187  11.54087   6.10987   0.000003341602426  -0.000000876709510   0.000003805693974
Si   19.68737  11.54087   8.82537   0.000002199340693   0.000003101102512  -0.000000562234574
Si   16.97187  14.25638   8.82537  -0.000001291421394  -0.000006436232936  -0.000003267937128
Si   19.68737  14.25638   6.10987   0.000002804765642   0.000000097462016   0.000001228442125
Si   21.04512  12.89862   7.46762   0.000001687806860   0.000000894482680  -0.000003040910557
Si   21.04512  15.61412  10.18313  -0.000004688438176   0.000001695833302   0.000002388446764
Si   18.32963  12.89862  10.18313   0.000001175215959   0.000001146138816   0.000007856377688
Si   18.32963  15.61412   7.46762   0.000004054301483  -0.000002169614918  -0.000005257578303
Si   16.97187  11.54087  11.54087   0.000002452143864   0.000003028966735   0.000003017748418
Si   19.68737  11.54087  14.25638  -0.000002006426720   0.000002428415221  -0.000004851901736
Si   16.97187  14.25638  14.25638  -0.000000162066688  -0.000001757211511  -0.000001753526758
Si   19.68737  14.25638  11.54087  -0.000002000169428  -0.000004857519930   0.000002432718042
Si   21.04512  12.89862  12.89862  -0.000000526292670  -0.000000591025791  -0.000000596666745
Si   21.04512  15.61412  15.61412  -0.000001069304120  -0.000001180361901  -0.000001176238279
Si   18.32963  12.89862  15.61412  -0.000005744659573  -0.000004214156271  -0.000002246751449
Si   18.32963  15.61412  12.89862  -0.000005750514868  -0.000002243604759  -0.000004212383863
Si   16.97187  11.54087  16.97187   0.000002299200032  -0.000007474158249   0.000002298719568
Si   19.68737  11.54087  19.68737   0.000001870157128  -0.000005192120948   0.000001868876625
Si   16.97187  14.25638  19.68737  -0.000001801245421   0.000003075057496  -0.000008988004736
Si   19.68737  14.25638  16.97187  -0.000008983385546   0.000003080400066  -0.000001799136141
Si   21.04512  12.89862  18.32963  -0.000003010570003   0.000002139962549   0.000000005273743
Si   21.04512  15.61412  21.04512   0.000003879263516  -0.000006574757412   0.000003883687024
Si   18.32963  12.89862  21.04512   0.000000006565891   0.000002134245532  -0.000003014912704
Si   18.32963  15.61412  18.32963  -0.000000069640988  -0.000004299449450  -0.000000070250055
Si   16.97187  16.97187   0.67887  -0.000002607040573  -0.000002606943096   0.000003464429276
Si   19.68737  16.97187   3.39437  -0.000004149275018  -0.000000696167536  -0.000000658639761
Si   16.97187  19.68737   3.39437  -0.000000696162236  -0.000004149258228  -0.000000658615321
Si   19.68737  19.68737   0.67887   0.000001560425492   0.000001560477971   0.000000008245098
Si   21.04512  18.32963   2.03662   0.000001247290952   0.000004818953618   0.000001210020976
Si   21.04512  21.04512   4.75212   0.000000480283789   0.000000480305908  -0.000001530412548
Si   18.32963  18.32963   4.75212  -0.000000597313191  -0.000000597293880   0.000003536443739
Si   18.32963  21.04512   2.03662   0.000004818936017   0.000001247303563   0.000001209991828
Si   16.97187  16.97187   6.10987   0.000000438524601   0.000000438571426  -0.000000624118352
Si   19.68737  16.97187   8.82537   0.000003493717738   0.000003103306355  -0.000002217067233
Si   16.97187  19.68737   8.82537   0.000003103285083   0.000003493787448  -0.000002217026411
Si   19.68737  19.68737   6.10987  -0.000002688289348  -0.000002688257387   0.000006644927581
Si   21.04512  18.32963   7.46762  -0.000004542323683  -0.000001378973114  -0.000000848723730
Si   21.04512  21.04512  10.18313  -0.000001773616479  -0.000001773552518  -0.000004589210461
Si   18.32963  18.32963  10.18313  -0.000004014480483  -0.000004014409475   0.000005766560702
Si   18.32963  21.04512   7.46762  -0.000001379012652  -0.000004542287027  -0.000000848769533
Si   16.97187  16.97187  11.54087   0.000002301464756   0.000002301529231  -0.000007467467482
Si   19.68737  16.97187  14.25638  -0.000008992317663  -0.000001799733197   0.000003068084310
Si   16.97187  19.68737  14.25638  -0.000001799792249  -0.000008992297756   0.000003068060688
Si   19.68737  19.68737  11.54087   0.000001858948438   0.000001858982174  -0.000005185815697
Si   21.04512  18.32963  12.89862  -0.000003014191997   0.000000014753814   0.000002137411591
Si   21.04512  21.04512  15.61412   0.000003885430224   0.000003885489031  -0.000006583575507
Si   18.32963  18.32963  15.61412  -0.000000077383772  -0.000000077422827  -0.000004295593343
Si   18.32963  21.04512  12.89862   0.000000014702702  -0.000003014252009   0.000002137377599
Si   16.97187  16.97187  16.97187   0.000001386613076   0.000001386612893   0.000001396108018
Si   19.68737  16.97187  19.68737   0.000004995945650  -0.000006174488200   0.000004988171737
Si   16.97187  19.68737  19.68737  -0.000006174544634   0.000004996009748   0.000004988167988
Si   19.68737  19.68737  16.97187   0.000005003835890   0.000005003848808  -0.000006163758442
Si   21.04512  18.32963  18.32963  -0.000008739281990   0.000000301241143   0.000000300145869
Si   21.04512  21.04512  21.04512  -0.000000287881097  -0.000000287794015  -0.000000281648522
Si   18.32963  18.32963  21.04512   0.000000303995808   0.000000304052873  -0.000008743752376
Si   18.32963  21.04512  18.32963   0.000000301242425  -0.000008739295980   0.000000300206420
