300 

Si    0.00000  -0.00000  -0.00000   0.000009455478617  -0.000008764366122  -0.000008763945482
Si    1.35775   1.35775   1.35775  -0.000000103123895   0.000010145482423   0.000010129491375
Si    2.71550   2.71550   0.00000   0.000009455479105  -0.000008764366012  -0.000008763945681
Si    4.07325   4.07325   1.35775  -0.000000103123693   0.000010145482395   0.000010129491035
Si    5.43100   5.43100   0.00000   0.000009455478982  -0.000008764366189  -0.000008763945811
Si    6.78875   6.78875   1.35775  -0.000000103123951   0.000010145482326   0.000010129491060
Si    8.14650   8.14650   0.00000   0.000009455478469  -0.000008764366337  -0.000008763945646
Si    9.50425   9.50425   1.35775  -0.000000103124348   0.000010145482240   0.000010129491386
Si   10.86200  10.86200   0.00000   0.000009455478194  -0.000008764366356  -0.000008763945460
Si   12.21975  12.21975   1.35775  -0.000000103124379   0.000010145482272   0.000010129491587
Si    2.71550   0.00000   2.71550   0.000009455478566  -0.000008764365831  -0.000008763944935
Si    4.07325   1.35775   4.07325  -0.000000103124106   0.000010145482464   0.000010129491738
Si    5.43100   2.71550   2.71550   0.000009455478729  -0.000008764365925  -0.000008763945444
Si    6.78875   4.07325   4.07325  -0.000000103124124   0.000010145482517   0.000010129491449
Si    8.14650   5.43100   2.71550   0.000009455478360  -0.000008764365901  -0.000008763945509
Si    9.50425   6.78875   4.07325  -0.000000103124389   0.000010145482763   0.000010129491701
Si   10.86200   8.14650   2.71550   0.000009455477949  -0.000008764365838  -0.000008763945030
Si   12.21975   9.50425   4.07325  -0.000000103124623   0.000010145482764   0.000010129492201
Si   13.57750  10.86200   2.71550   0.000009455478040  -0.000008764365830  -0.000008763944687
Si   14.93525  12.21975   4.07325  -0.000000103124414   0.000010145482595   0.000010129492223
Si    5.43100  -0.00000   5.43100   0.000009455478398  -0.000008764365961  -0.000008763944722
Si    6.78875   1.35775   6.78875  -0.000000103124156   0.000010145482240   0.000010129491741
Si    8.14650   2.71550   5.43100   0.000009455478353  -0.000008764365983  -0.000008763945009
Si    9.50425   4.07325   6.78875  -0.000000103124177   0.000010145482581   0.000010129491779
Si   10.86200   5.43100   5.43100   0.000009455478170  -0.000008764365649  -0.000008763944773
Si   12.21975   6.78875   6.78875  -0.000000103124350   0.000010145482895   0.000010129492104
Si   13.57750   8.14650   5.43100   0.000009455478015  -0.000008764365526  -0.000008763944303
Si   14.93525   9.50425   6.78875  -0.000000103124476   0.000010145482728   0.000010129492294
Si   16.29300  10.86200   5.43100   0.000009455478173  -0.000008764365670  -0.000008763944294
Si   17.65075  12.21975   6.78875  -0.000000103124295   0.000010145482409   0.000010129492066
Si    8.14650   0.00000   8.14650   0.000009455478438  -0.000008764366349  -0.000008763945012
Si    9.50425   1.35775   9.50425  -0.000000103123979   0.000010145482023   0.000010129491333
Si   10.86200   2.71550   8.14650   0.000009455478514  -0.000008764366072  -0.000008763945033
Si   12.21975   4.07325   9.50425  -0.000000103123851   0.000010145482452   0.000010129491435
Si   13.57750   5.43100   8.14650   0.000009455478538  -0.000008764365743  -0.000008763944750
Si   14.93525   6.78875   9.50425  -0.000000103123925   0.000010145482536   0.000010129491589
Si   16.29300   8.14650   8.14650   0.000009455478479  -0.000008764365851  -0.000008763944569
Si   17.65075   9.50425   9.50425  -0.000000103123968   0.000010145482208   0.000010129491586
Si   19.00850  10.86200   8.14650   0.000009455478503  -0.000008764366154  -0.000008763944729
Si   20.36625  12.21975   9.50425  -0.000000103124013   0.000010145481939   0.000010129491424
Si   10.86200   0.00000  10.86200   0.000009455478536  -0.000008764366444  -0.000008763945535
Si   12.21975   1.35775  12.21975  -0.000000103123866   0.000010145482127   0.000010129491064
Si   13.57750   2.71550  10.86200   0.000009455478908  -0.000008764366100  -0.000008763945539
Si   14.93525   4.07325  12.21975  -0.000000103123543   0.000010145482348   0.000010129490985
Si   16.29300   5.43100  10.86200   0.000009455479049  -0.000008764366109  -0.000008763945393
Si   17.65075   6.78875  12.21975  -0.000000103123597   0.000010145482145   0.000010129491022
Si   19.00850   8.14650  10.86200   0.000009455478869  -0.000008764366376  -0.000008763945346
Si   20.36625   9.50425  12.21975  -0.000000103123867   0.000010145481873   0.000010129491102
Si   21.72400  10.86200  10.86200   0.000009455478566  -0.000008764366586  -0.000008763945413
Si   23.08175  12.21975  12.21975  -0.000000103124089   0.000010145481838   0.000010129491127
Si    0.00000   2.71550   2.71550   0.000005214161439   0.000007339556773   0.000007327681666
Si    1.35775   4.07325   4.07325   0.000005728746958   0.000003543605195   0.000003553536435
Si    2.71550   5.43100   2.71550   0.000005214161598   0.000007339557064   0.000007327681415
Si    4.07325   6.78875   4.07325   0.000005728747054   0.000003543605531   0.000003553536312
Si    5.43100   8.14650   2.71550   0.000005214161471   0.000007339557114   0.000007327681519
Si    6.78875   9.50425   4.07325   0.000005728746886   0.000003543605481   0.000003553536612
Si    8.14650  10.86200   2.71550   0.000005214161182   0.000007339556861   0.000007327681889
Si    9.50425  12.21975   4.07325   0.000005728746582   0.000003543605050   0.000003553536904
Si   10.86200  13.57750   2.71550   0.000005214161135   0.000007339556594   0.000007327681985
Si   12.21975  14.93525   4.07325   0.000005728746641   0.000003543604886   0.000003553536823
Si    2.71550   2.71550   5.43100   0.000005214161016   0.000007339557056   0.000007327681884
Si    4.07325   4.07325   6.78875   0.000005728746536   0.000003543605549   0.000003553536126
Si    5.43100   5.43100   5.43100   0.000005214161119   0.000007339557490   0.000007327681681
Si    6.78875   6.78875   6.78875   0.000005728746629   0.000003543606115   0.000003553536181
Si    8.14650   8.14650   5.43100   0.000005214160978   0.000007339557753   0.000007327681941
Si    9.50425   9.50425   6.78875   0.000005728746391   0.000003543606036   0.000003553536493
Si   10.86200  10.86200   5.43100   0.000005214160703   0.000007339557379   0.000007327682321
Si   12.21975  12.21975   6.78875   0.000005728746105   0.000003543605458   0.000003553536667
Si   13.57750  13.57750   5.43100   0.000005214160732   0.000007339556988   0.000007327682264
Si   14.93525  14.93525   6.78875   0.000005728746268   0.000003543605208   0.000003553536432
Si    5.43100   2.71550   8.14650   0.000005214160908   0.000007339557109   0.000007327681218
Si    6.78875   4.07325   9.50425   0.000005728746697   0.000003543605557   0.000003553535277
Si    8.14650   5.43100   8.14650   0.000005214161079   0.000007339557680   0.000007327681241
Si    9.50425   6.78875   9.50425   0.000005728746687   0.000003543606069   0.000003553535337
Si   10.86200   8.14650   8.14650   0.000005214160878   0.000007339557900   0.000007327681470
Si   12.21975   9.50425   9.50425   0.000005728746334   0.000003543605863   0.000003553535440
Si   13.57750  10.86200   8.14650   0.000005214160577   0.000007339557433   0.000007327681558
Si   14.93525  12.21975   9.50425   0.000005728746184   0.000003543605277   0.000003553535463
Si   16.29300  13.57750   8.14650   0.000005214160680   0.000007339557002   0.000007327681402
Si   17.65075  14.93525   9.50425   0.000005728746435   0.000003543605114   0.000003553535327
Si    8.14650   2.71550  10.86200   0.000005214161333   0.000007339556850   0.000007327680615
Si    9.50425   4.07325  12.21975   0.000005728747123   0.000003543605151   0.000003553535024
Si   10.86200   5.43100  10.86200   0.000005214161395   0.000007339557407   0.000007327680562
Si   12.21975   6.78875  12.21975   0.000005728747062   0.000003543605499   0.000003553534913
Si   13.57750   8.14650  10.86200   0.000005214161224   0.000007339557357   0.000007327680602
Si   14.93525   9.50425  12.21975   0.000005728746881   0.000003543605188   0.000003553535008
Si   16.29300  10.86200  10.86200   0.000005214161058   0.000007339556870   0.000007327680668
Si   17.65075  12.21975  12.21975   0.000005728746915   0.000003543604732   0.000003553535168
Si   19.00850  13.57750  10.86200   0.000005214161203   0.000007339556558   0.000007327680678
Si   20.36625  14.93525  12.21975   0.000005728747000   0.000003543604670   0.000003553535154
Si   10.86200   2.71550  13.57750   0.000005214161558   0.000007339556621   0.000007327680873
Si   12.21975   4.07325  14.93525   0.000005728747273   0.000003543604939   0.000003553535744
Si   13.57750   5.43100  13.57750   0.000005214161747   0.000007339556970   0.000007327680709
Si   14.93525   6.78875  14.93525   0.000005728747376   0.000003543605170   0.000003553535602
Si   16.29300   8.14650  13.57750   0.000005214161673   0.000007339556852   0.000007327680787
Si   17.65075   9.50425  14.93525   0.000005728747317   0.000003543604937   0.000003553535849
Si   19.00850  10.86200  13.57750   0.000005214161543   0.000007339556497   0.000007327680988
Si   20.36625  12.21975  14.93525   0.000005728747124   0.000003543604589   0.000003553536067
Si   21.72400  13.57750  13.57750   0.000005214161439   0.000007339556323   0.000007327681063
Si   23.08175  14.93525  14.93525   0.000005728747030   0.000003543604523   0.000003553536017
Si    0.00000   5.43100   5.43100   0.000012729719004  -0.000004486790632  -0.000004474701901
Si    1.35775   6.78875   6.78875  -0.000003128588733   0.000006967390766   0.000006972811684
Si    2.71550   8.14650   5.43100   0.000012729719125  -0.000004486790158  -0.000004474702010
Si    4.07325   9.50425   6.78875  -0.000003128588617   0.000006967391084   0.000006972811646
Si    5.43100  10.86200   5.43100   0.000012729719018  -0.000004486790335  -0.000004474701744
Si    6.78875  12.21975   6.78875  -0.000003128588827   0.000006967390572   0.000006972811990
Si    8.14650  13.57750   5.43100   0.000012729718748  -0.000004486790999  -0.000004474701421
Si    9.50425  14.93525   6.78875  -0.000003128589144   0.000006967389923   0.000006972812272
Si   10.86200  16.29300   5.43100   0.000012729718736  -0.000004486791160  -0.000004474701543
Si   12.21975  17.65075   6.78875  -0.000003128589040   0.000006967390095   0.000006972812076
Si    2.71550   5.43100   8.14650   0.000012729718174  -0.000004486789827  -0.000004474702724
Si    4.07325   6.78875   9.50425  -0.000003128589410   0.000006967391520   0.000006972810092
Si    5.43100   8.14650   8.14650   0.000012729718486  -0.000004486789339  -0.000004474702849
Si    6.78875   9.50425   9.50425  -0.000003128589228   0.000006967391823   0.000006972810037
Si    8.14650  10.86200   8.14650   0.000012729718287  -0.000004486789541  -0.000004474702565
Si    9.50425  12.21975   9.50425  -0.000003128589654   0.000006967391317   0.000006972810371
Si   10.86200  13.57750   8.14650   0.000012729717820  -0.000004486790193  -0.000004474702282
Si   12.21975  14.93525   9.50425  -0.000003128590076   0.000006967390758   0.000006972810631
Si   13.57750  16.29300   8.14650   0.000012729717787  -0.000004486790330  -0.000004474702383
Si   14.93525  17.65075   9.50425  -0.000003128589889   0.000006967390896   0.000006972810445
Si    5.43100   5.43100  10.86200   0.000012729718248  -0.000004486789729  -0.000004474704164
Si    6.78875   6.78875  12.21975  -0.000003128589150   0.000006967391378   0.000006972808894
Si    8.14650   8.14650  10.86200   0.000012729718470  -0.000004486789225  -0.000004474704313
Si    9.50425   9.50425  12.21975  -0.000003128589212   0.000006967391651   0.000006972808839
Si   10.86200  10.86200  10.86200   0.000012729717978  -0.000004486789455  -0.000004474704090
Si   12.21975  12.21975  12.21975  -0.000003128589794   0.000006967391215   0.000006972809132
Si   13.57750  13.57750  10.86200   0.000012729717513  -0.000004486790024  -0.000004474703854
Si   14.93525  14.93525  12.21975  -0.000003128589999   0.000006967390726   0.000006972809406
Si   16.29300  16.29300  10.86200   0.000012729717730  -0.000004486790138  -0.000004474703903
Si   17.65075  17.65075  12.21975  -0.000003128589629   0.000006967390805   0.000006972809222
Si    8.14650   5.43100  13.57750   0.000012729719033  -0.000004486790415  -0.000004474704241
Si    9.50425   6.78875  14.93525  -0.000003128588406   0.000006967390572   0.000006972809701
Si   10.86200   8.14650  13.57750   0.000012729718968  -0.000004486789998  -0.000004474704372
Si   12.21975   9.50425  14.93525  -0.000003128588563   0.000006967390803   0.000006972809740
Si   13.57750  10.86200  13.57750   0.000012729718545  -0.000004486790233  -0.000004474704094
Si   14.93525  12.21975  14.93525  -0.000003128588886   0.000006967390353   0.000006972810140
Si   16.29300  13.57750  13.57750   0.000012729718414  -0.000004486790749  -0.000004474703755
Si   17.65075  14.93525  14.93525  -0.000003128588928   0.000006967389836   0.000006972810350
Si   19.00850  16.29300  13.57750   0.000012729718701  -0.000004486790882  -0.000004474703853
Si   20.36625  17.65075  14.93525  -0.000003128588687   0.000006967389925   0.000006972810097
Si   10.86200   5.43100  16.29300   0.000012729719466  -0.000004486791013  -0.000004474702860
Si   12.21975   6.78875  17.65075  -0.000003128588075   0.000006967390173   0.000006972811451
Si   13.57750   8.14650  16.29300   0.000012729719461  -0.000004486790595  -0.000004474702895
Si   14.93525   9.50425  17.65075  -0.000003128588088   0.000006967390435   0.000006972811509
Si   16.29300  10.86200  16.29300   0.000012729719288  -0.000004486790809  -0.000004474702557
Si   17.65075  12.21975  17.65075  -0.000003128588294   0.000006967389918   0.000006972811875
Si   19.00850  13.57750  16.29300   0.000012729719186  -0.000004486791343  -0.000004474702290
Si   20.36625  14.93525  17.65075  -0.000003128588484   0.000006967389321   0.000006972812007
Si   21.72400  16.29300  16.29300   0.000012729719260  -0.000004486791510  -0.000004474702457
Si   23.08175  17.65075  17.65075  -0.000003128588372   0.000006967389474   0.000006972811798
Si    0.00000   8.14650   8.14650   0.000009455478348  -0.000008764365538  -0.000008763943404
Si    1.35775   9.50425   9.50425  -0.000000103124424   0.000010145483100   0.000010129492396
Si    2.71550  10.86200   8.14650   0.000009455478642  -0.000008764365409  -0.000008763943737
Si    4.07325  12.21975   9.50425  -0.000000103124069   0.000010145483082   0.000010129492247
Si    5.43100  13.57750   8.14650   0.000009455478545  -0.000008764365932  -0.000008763943395
Si    6.78875  14.93525   9.50425  -0.000000103124268   0.000010145482533   0.000010129492798
Si    8.14650  16.29300   8.14650   0.000009455478169  -0.000008764366455  -0.000008763942853
Si    9.50425  17.65075   9.50425  -0.000000103124704   0.000010145482227   0.000010129493291
Si   10.86200  19.00850   8.14650   0.000009455478095  -0.000008764366151  -0.000008763942880
Si   12.21975  20.36625   9.50425  -0.000000103124737   0.000010145482641   0.000010129493062
Si    2.71550   8.14650  10.86200   0.000009455477441  -0.000008764364708  -0.000008763945602
Si    4.07325   9.50425  12.21975  -0.000000103125062   0.000010145483947   0.000010129490268
Si    5.43100  10.86200  10.86200   0.000009455477923  -0.000008764364444  -0.000008763945820
Si    6.78875  12.21975  12.21975  -0.000000103124776   0.000010145484105   0.000010129490302
Si    8.14650  13.57750  10.86200   0.000009455477580  -0.000008764364834  -0.000008763945363
Si    9.50425  14.93525  12.21975  -0.000000103125377   0.000010145483604   0.000010129490816
Si   10.86200  16.29300  10.86200   0.000009455476912  -0.000008764365300  -0.000008763944883
Si   12.21975  17.65075  12.21975  -0.000000103125980   0.000010145483222   0.000010129491115
Si   13.57750  19.00850  10.86200   0.000009455476872  -0.000008764365164  -0.000008763945043
Si   14.93525  20.36625  12.21975  -0.000000103125802   0.000010145483443   0.000010129490769
Si    5.43100   8.14650  13.57750   0.000009455477537  -0.000008764364525  -0.000008763946568
Si    6.78875   9.50425  14.93525  -0.000000103124775   0.000010145484000   0.000010129490321
Si    8.14650  10.86200  13.57750   0.000009455477730  -0.000008764364177  -0.000008763946662
Si    9.50425  12.21975  14.93525  -0.000000103124921   0.000010145484149   0.000010129490363
Si   10.86200  13.57750  13.57750   0.000009455477051  -0.000008764364563  -0.000008763946267
Si   12.21975  14.93525  14.93525  -0.000000103125662   0.000010145483580   0.000010129490750
Si   13.57750  16.29300  13.57750   0.000009455476544  -0.000008764365086  -0.000008763945945
Si   14.93525  17.65075  14.93525  -0.000000103125950   0.000010145483095   0.000010129490943
Si   16.29300  19.00850  13.57750   0.000009455476844  -0.000008764365093  -0.000008763946133
Si   17.65075  20.36625  14.93525  -0.000000103125464   0.000010145483328   0.000010129490685
Si    8.14650   8.14650  16.29300   0.000009455478380  -0.000008764365259  -0.000008763945125
Si    9.50425   9.50425  17.65075  -0.000000103123964   0.000010145483220   0.000010129492392
Si   10.86200  10.86200  16.29300   0.000009455478269  -0.000008764364976  -0.000008763945151
Si   12.21975  12.21975  17.65075  -0.000000103124216   0.000010145483129   0.000010129492393
Si   13.57750  13.57750  16.29300   0.000009455477804  -0.000008764365491  -0.000008763944794
Si   14.93525  14.93525  17.65075  -0.000000103124633   0.000010145482421   0.000010129492718
Si   16.29300  16.29300  16.29300   0.000009455477640  -0.000008764366091  -0.000008763944561
Si   17.65075  17.65075  17.65075  -0.000000103124729   0.000010145481984   0.000010129492893
Si   19.00850  19.00850  16.29300   0.000009455477935  -0.000008764365993  -0.000008763944753
Si   20.36625  20.36625  17.65075  -0.000000103124317   0.000010145482478   0.000010129492690
Si   10.86200   8.14650  19.00850   0.000009455478944  -0.000008764365891  -0.000008763943126
Si   12.21975   9.50425  20.36625  -0.000000103123652   0.000010145482630   0.000010129493778
Si   13.57750  10.86200  19.00850   0.000009455478918  -0.000008764365761  -0.000008763943278
Si   14.93525  12.21975  20.36625  -0.000000103123658   0.000010145482470   0.000010129493601
Si   16.29300  13.57750  19.00850   0.000009455478746  -0.000008764366355  -0.000008763943032
Si   17.65075  14.93525  20.36625  -0.000000103123845   0.000010145481788   0.000010129493928
Si   19.00850  16.29300  19.00850   0.000009455478566  -0.000008764366936  -0.000008763942701
Si   20.36625  17.65075  20.36625  -0.000000103123997   0.000010145481459   0.000010129494335
Si   21.72400  19.00850  19.00850   0.000009455478695  -0.000008764366685  -0.000008763942801
Si   23.08175  20.36625  20.36625  -0.000000103123824   0.000010145482004   0.000010129494251
Si    0.00000  10.86200  10.86200   0.000005214160996   0.000007339557311   0.000007327681626
Si    1.35775  12.21975  12.21975   0.000005728746706   0.000003543605540   0.000003553535154
Si    2.71550  13.57750  10.86200   0.000005214161478   0.000007339557310   0.000007327681392
Si    4.07325  14.93525  12.21975   0.000005728747326   0.000003543605559   0.000003553535218
Si    5.43100  16.29300  10.86200   0.000005214161554   0.000007339556951   0.000007327681943
Si    6.78875  17.65075  12.21975   0.000005728747072   0.000003543605213   0.000003553535774
Si    8.14650  19.00850  10.86200   0.000005214161104   0.000007339556758   0.000007327682497
Si    9.50425  20.36625  12.21975   0.000005728746412   0.000003543605047   0.000003553536043
Si   10.86200  21.72400  10.86200   0.000005214160785   0.000007339556997   0.000007327682307
Si   12.21975  23.08175  12.21975   0.000005728746167   0.000003543605213   0.000003553535654
Si    2.71550  10.86200  13.57750   0.000005214160338   0.000007339558234   0.000007327679943
Si    4.07325  12.21975  14.93525   0.000005728746314   0.000003543606606   0.000003553534517
Si    5.43100  13.57750  13.57750   0.000005214160921   0.000007339558468   0.000007327679909
Si    6.78875  14.93525  14.93525   0.000005728746532   0.000003543606584   0.000003553534521
Si    8.14650  16.29300  13.57750   0.000005214160524   0.000007339558028   0.000007327680299
Si    9.50425  17.65075  14.93525   0.000005728745792   0.000003543606043   0.000003553534719
Si   10.86200  19.00850  13.57750   0.000005214159758   0.000007339557651   0.000007327680552
Si   12.21975  20.36625  14.93525   0.000005728745151   0.000003543605762   0.000003553534840
Si   13.57750  21.72400  13.57750   0.000005214159612   0.000007339557725   0.000007327680365
Si   14.93525  23.08175  14.93525   0.000005728745415   0.000003543606074   0.000003553534734
Si    5.43100  10.86200  16.29300   0.000005214160379   0.000007339558762   0.000007327680620
Si    6.78875  12.21975  17.65075   0.000005728746327   0.000003543606841   0.000003553535818
Si    8.14650  13.57750  16.29300   0.000005214160490   0.000007339558843   0.000007327680497
Si    9.50425  14.93525  17.65075   0.000005728746040   0.000003543606518   0.000003553535585
Si   10.86200  16.29300  16.29300   0.000005214159825   0.000007339558208   0.000007327680597
Si   12.21975  17.65075  17.65075   0.000005728745424   0.000003543605898   0.000003553535716
Si   13.57750  19.00850  16.29300   0.000005214159326   0.000007339557755   0.000007327680804
Si   14.93525  20.36625  17.65075   0.000005728745251   0.000003543605792   0.000003553536011
Si   16.29300  21.72400  16.29300   0.000005214159617   0.000007339558058   0.000007327680819
Si   17.65075  23.08175  17.65075   0.000005728745789   0.000003543606350   0.000003553536097
Si    8.14650  10.86200  19.00850   0.000005214161011   0.000007339558147   0.000007327682673
Si    9.50425  12.21975  20.36625   0.000005728746863   0.000003543605883   0.000003553537370
Si   10.86200  13.57750  19.00850   0.000005214160880   0.000007339557909   0.000007327682375
Si   12.21975  14.93525  20.36625   0.000005728746676   0.000003543605414   0.000003553537086
Si   13.57750  16.29300  19.00850   0.000005214160500   0.000007339557235   0.000007327682481
Si   14.93525  17.65075  20.36625   0.000005728746454   0.000003543604955   0.000003553537370
Si   16.29300  19.00850  19.00850   0.000005214160355   0.000007339556975   0.000007327682829
Si   17.65075  20.36625  20.36625   0.000005728746474   0.000003543605077   0.000003553537843
Si   19.00850  21.72400  19.00850   0.000005214160654   0.000007339557532   0.000007327682963
Si   20.36625  23.08175  20.36625   0.000005728746757   0.000003543605705   0.000003553537838
Si   10.86200  10.86200  21.72400   0.000005214161521   0.000007339557238   0.000007327683437
Si   12.21975  12.21975  23.08175   0.000005728747100   0.000003543605042   0.000003553537035
Si   13.57750  13.57750  21.72400   0.000005214161564   0.000007339556966   0.000007327683001
Si   14.93525  14.93525  23.08175   0.000005728747384   0.000003543604817   0.000003553536845
Si   16.29300  16.29300  21.72400   0.000005214161544   0.000007339556435   0.000007327683299
Si   17.65075  17.65075  23.08175   0.000005728747430   0.000003543604542   0.000003553537424
Si   19.00850  19.00850  21.72400   0.000005214161412   0.000007339556324   0.000007327683891
Si   20.36625  20.36625  23.08175   0.000005728747222   0.000003543604630   0.000003553537956
Si   21.72400  21.72400  21.72400   0.000005214161455   0.000007339556835   0.000007327683962
Si   23.08175  23.08175  23.08175   0.000005728747071   0.000003543604994   0.000003553537707
Si    0.00000  13.57750  13.57750   0.000012729718877  -0.000004486790795  -0.000004474704090
Si    1.35775  14.93525  14.93525  -0.000003128588371   0.000006967390315   0.000006972809301
Si    2.71550  16.29300  13.57750   0.000012729719576  -0.000004486790622  -0.000004474704099
Si    4.07325  17.65075  14.93525  -0.000003128587861   0.000006967390304   0.000006972809250
Si    5.43100  19.00850  13.57750   0.000012729719630  -0.000004486790850  -0.000004474703830
Si    6.78875  20.36625  14.93525  -0.000003128588205   0.000006967389958   0.000006972809312
Si    8.14650  21.72400  13.57750   0.000012729719053  -0.000004486791075  -0.000004474703695
Si    9.50425  23.08175  14.93525  -0.000003128588869   0.000006967389822   0.000006972809374
Si   10.86200  24.43950  13.57750   0.000012729718583  -0.000004486791033  -0.000004474703840
Si   12.21975  25.79725  14.93525  -0.000003128589016   0.000006967389985   0.000006972809369
Si    2.71550  13.57750  16.29300   0.000012729718733  -0.000004486789900  -0.000004474704131
Si    4.07325  14.93525  17.65075  -0.000003128588592   0.000006967390966   0.000006972809830
Si    5.43100  16.29300  16.29300   0.000012729719180  -0.000004486789950  -0.000004474704344
Si    6.78875  17.65075  17.65075  -0.000003128588617   0.000006967390630   0.000006972809431
Si    8.14650  19.00850  16.29300   0.000012729718702  -0.000004486790399  -0.000004474704456
Si    9.50425  20.36625  17.65075  -0.000003128589180   0.000006967390356   0.000006972809378
Si   10.86200  21.72400  16.29300   0.000012729718000  -0.000004486790604  -0.000004474704310
Si   12.21975  23.08175  17.65075  -0.000003128589569   0.000006967390472   0.000006972809784
Si   13.57750  24.43950  16.29300   0.000012729717946  -0.000004486790347  -0.000004474704082
Si   14.93525  25.79725  17.65075  -0.000003128589226   0.000006967390791   0.000006972810059
Si    5.43100  13.57750  19.00850   0.000012729718647  -0.000004486789587  -0.000004474703015
Si    6.78875  14.93525  20.36625  -0.000003128588806   0.000006967390801   0.000006972810749
Si    8.14650  16.29300  19.00850   0.000012729718600  -0.000004486789947  -0.000004474703503
Si    9.50425  17.65075  20.36625  -0.000003128588993   0.000006967390416   0.000006972810377
Si   10.86200  19.00850  19.00850   0.000012729718135  -0.000004486790352  -0.000004474703548
Si   12.21975  20.36625  20.36625  -0.000003128589251   0.000006967390440   0.000006972810625
Si   13.57750  21.72400  19.00850   0.000012729717820  -0.000004486790283  -0.000004474703086
Si   14.93525  23.08175  20.36625  -0.000003128589336   0.000006967390761   0.000006972811154
Si   16.29300  24.43950  19.00850   0.000012729718119  -0.000004486789822  -0.000004474702782
Si   17.65075  25.79725  20.36625  -0.000003128589009   0.000006967391012   0.000006972811212
Si    8.14650  13.57750  21.72400   0.000012729718879  -0.000004486790286  -0.000004474702140
Si    9.50425  14.93525  23.08175  -0.000003128588574   0.000006967390024   0.000006972810930
Si   10.86200  16.29300  21.72400   0.000012729718781  -0.000004486790655  -0.000004474702554
Si   12.21975  17.65075  23.08175  -0.000003128588477   0.000006967389917   0.000006972810805
Si   13.57750  19.00850  21.72400   0.000012729718665  -0.000004486790772  -0.000004474702308
Si   14.93525  20.36625  23.08175  -0.000003128588478   0.000006967390073   0.000006972811248
Si   16.29300  21.72400  21.72400   0.000012729718647  -0.000004486790545  -0.000004474701760
Si   17.65075  23.08175  23.08175  -0.000003128588531   0.000006967390296   0.000006972811618
Si   19.00850  24.43950  21.72400   0.000012729718819  -0.000004486790216  -0.000004474701672
Si   20.36625  25.79725  23.08175  -0.000003128588506   0.000006967390292   0.000006972811403
Si   10.86200  13.57750  24.43950   0.000012729719094  -0.000004486791044  -0.000004474702808
Si   12.21975  14.93525  25.79725  -0.000003128588336   0.000006967389706   0.000006972809932
Si   13.57750  16.29300  24.43950   0.000012729719350  -0.000004486791066  -0.000004474702964
Si   14.93525  17.65075  25.79725  -0.000003128587865   0.000006967389848   0.000006972810019
Si   16.29300  19.00850  24.43950   0.000012729719578  -0.000004486791097  -0.000004474702551
Si   17.65075  20.36625  25.79725  -0.000003128587801   0.000006967389791   0.000006972810415
Si   19.00850  21.72400  24.43950   0.000012729719448  -0.000004486791088  -0.000004474702113
Si   20.36625  23.08175  25.79725  -0.000003128588136   0.000006967389703   0.000006972810566
Si   21.72400  24.43950  24.43950   0.000012729719206  -0.000004486791025  -0.000004474702253
Si   23.08175  25.79725  25.79725  -0.000003128588490   0.000006967389630   0.000006972810249
