288 

Si    0.67888   0.67888   0.67888   0.000004625098979   0.000002051342196   0.000002045185111
Si    3.39438   0.67888   3.39437   0.000004003787854   0.000002932677257  -0.000002928873775
Si    0.67888   3.39437   3.39437   0.000004625098915  -0.000002051342061  -0.000002045184981
Si    3.39438   3.39437   0.67888   0.000004003788082  -0.000002932677516   0.000002928873670
Si    4.75212   2.03662   2.03663   0.000019017751882   0.000000000000001  -0.000000000000080
Si    4.75212   4.75213   4.75213   0.000003744815685   0.000002243395181   0.000002235511289
Si    2.03662   2.03662   4.75213  -0.000003887131203   0.000000151407410   0.000000504943371
Si    2.03662   4.75213   2.03663  -0.000003898964468   0.000000493394717   0.000000154018402
Si    0.67888   0.67888   6.10987  -0.000000608321968  -0.000000172303182   0.000001308112339
Si    3.39438   0.67888   8.82538   0.000002549200826   0.000002508367050   0.000002506940749
Si    0.67888   3.39437   8.82538   0.000004443739167  -0.000001838319795   0.000001836132083
Si    3.39438   3.39437   6.10987  -0.000005705818721  -0.000005911830519  -0.000000430038041
Si    4.75212   2.03662   7.46762  -0.000000437903142   0.000000273469997  -0.000002095909955
Si    4.75212   4.75213  10.18313  -0.000000432574776   0.000002085433955  -0.000000282202778
Si    2.03662   2.03662  10.18313   0.000008908561378   0.000000000000028  -0.000000000000103
Si    2.03662   4.75213   7.46762   0.000000069415886   0.000001059521707  -0.000001045447660
Si    0.67888   0.67888  11.54087   0.000004443739031   0.000001838319902  -0.000001836132401
Si    3.39438   0.67888  14.25638  -0.000005705818492   0.000005911830847   0.000000430038195
Si    0.67888   3.39437  14.25638  -0.000000608322271   0.000000172303327  -0.000001308112240
Si    3.39438   3.39437  11.54087   0.000002549200930  -0.000002508366885  -0.000002506940832
Si    4.75212   2.03662  12.89863  -0.000000437903057  -0.000000273470103   0.000002095910294
Si    4.75212   4.75213  15.61412   0.000004757658933   0.000002787508849  -0.000002783160265
Si    2.03662   2.03662  15.61412  -0.000003887131374  -0.000000151407538  -0.000000504943409
Si    2.03662   4.75213  12.89863  -0.000001209104595   0.000000557712795   0.000000558548419
Si    0.67888   6.10987   0.67888  -0.000000601987052   0.000001311045343  -0.000000165488098
Si    3.39438   6.10987   3.39437  -0.000005706109458  -0.000000437037257  -0.000005915460719
Si    0.67888   8.82538   3.39437   0.000004443738987   0.000001838319934  -0.000001836132334
Si    3.39438   8.82538   0.67888   0.000002549200829   0.000002508366959   0.000002506940799
Si    4.75212   7.46762   2.03663  -0.000000432574862  -0.000002085434004   0.000000282202942
Si    4.75212  10.18313   4.75213  -0.000000437902982  -0.000000273470122   0.000002095910242
Si    2.03662   7.46762   4.75213   0.000000069415685  -0.000001059522001   0.000001045447822
Si    2.03662  10.18313   2.03663   0.000008908561408   0.000000000000046  -0.000000000000077
Si    0.67888   6.10987   6.10987   0.000005706083025  -0.000000000000096  -0.000000000000113
Si    3.39438   6.10987   8.82538  -0.000005706109453   0.000000437037502   0.000005915460693
Si    0.67888   8.82538   8.82538   0.000004625098936   0.000002051342232   0.000002045185169
Si    3.39438   8.82538   6.10987  -0.000005705818428   0.000005911830830   0.000000430038268
Si    4.75212   7.46762   7.46762   0.000003744815363  -0.000002243395125  -0.000002235511376
Si    4.75212  10.18313  10.18313   0.000019017752040  -0.000000000000042  -0.000000000000077
Si    2.03662   7.46762  10.18313  -0.000003898964283  -0.000000493394628  -0.000000154018429
Si    2.03662  10.18313   7.46762  -0.000003887131391  -0.000000151407494  -0.000000504943377
Si    0.67888   6.10987  11.54087  -0.000000601986801  -0.000001311045243   0.000000165487840
Si    3.39438   6.10987  14.25638  -0.000001263331566  -0.000000000000032  -0.000000000000084
Si    0.67888   8.82538  14.25638  -0.000000608322000  -0.000000172303154   0.000001308112394
Si    3.39438   8.82538  11.54087   0.000004003787780   0.000002932677271  -0.000002928873716
Si    4.75212   7.46762  12.89863   0.000004757659000  -0.000002787508904   0.000002783160167
Si    4.75212  10.18313  15.61412  -0.000000437903049   0.000000273470040  -0.000002095910003
Si    2.03662   7.46762  15.61412  -0.000001209104760  -0.000000557712878  -0.000000558548183
Si    2.03662  10.18313  12.89863  -0.000003887131131   0.000000151407335   0.000000504943306
Si    0.67888  11.54087   0.67888   0.000004443739167  -0.000001838319819   0.000001836132021
Si    3.39438  11.54087   3.39437   0.000002549200856  -0.000002508366881  -0.000002506940843
Si    0.67888  14.25638   3.39437  -0.000000601986866  -0.000001311045189   0.000000165487914
Si    3.39438  14.25638   0.67888  -0.000005706109471   0.000000437037508   0.000005915460743
Si    4.75212  12.89863   2.03663  -0.000000432574761   0.000002085433975  -0.000000282202777
Si    4.75212  15.61412   4.75213   0.000004757659000  -0.000002787508901   0.000002783160128
Si    2.03662  12.89863   4.75213  -0.000001209104625   0.000000557712793   0.000000558548371
Si    2.03662  15.61412   2.03663  -0.000003898964241  -0.000000493394624  -0.000000154018469
Si    0.67888  11.54087   6.10987  -0.000000608322208   0.000000172303310  -0.000001308112276
Si    3.39438  11.54087   8.82538   0.000004003788055  -0.000002932677419   0.000002928873537
Si    0.67888  14.25638   8.82538  -0.000000601987075   0.000001311045411  -0.000000165488094
Si    3.39438  14.25638   6.10987  -0.000001263331509  -0.000000000000066   0.000000000000005
Si    4.75212  12.89863   7.46762   0.000004757658767   0.000002787508862  -0.000002783160235
Si    4.75212  15.61412  10.18313  -0.000000432574692  -0.000002085434036   0.000000282202947
Si    2.03662  12.89863  10.18313  -0.000003898964429   0.000000493394674   0.000000154018432
Si    2.03662  15.61412   7.46762  -0.000001209104782  -0.000000557712912  -0.000000558548193
Si    0.67888  11.54087  11.54087   0.000004625098891  -0.000002051342074  -0.000002045185034
Si    3.39438  11.54087  14.25638  -0.000005705818648  -0.000005911830470  -0.000000430038066
Si    0.67888  14.25638  14.25638   0.000005706083003  -0.000000000000075  -0.000000000000038
Si    3.39438  14.25638  11.54087  -0.000005706109505  -0.000000437037288  -0.000005915460662
Si    4.75212  12.89863  12.89863   0.000003744815567   0.000002243395183   0.000002235511303
Si    4.75212  15.61412  15.61412   0.000003744815479  -0.000002243395157  -0.000002235511424
Si    2.03662  12.89863  15.61412   0.000000069415843   0.000001059521681  -0.000001045447645
Si    2.03662  15.61412  12.89863   0.000000069415702  -0.000001059521944   0.000001045447853
Si    6.10987   0.67888   0.67888   0.000003070205451   0.000002238120758   0.000002241169013
Si    8.82537   0.67888   3.39437  -0.000001763503819   0.000001321551632  -0.000001324645085
Si    6.10987   3.39437   3.39437   0.000003070205667  -0.000002238120519  -0.000002241169067
Si    8.82537   3.39437   0.67888  -0.000001763503652  -0.000001321551654   0.000001324645020
Si   10.18313   2.03662   2.03663   0.000015176865628   0.000000000000056   0.000000000000048
Si   10.18313   4.75213   4.75213  -0.000001501676294   0.000004502434532   0.000004498991495
Si    7.46762   2.03662   4.75213  -0.000003358284496  -0.000000821492314   0.000000793683176
Si    7.46762   4.75213   2.03663  -0.000003359406377   0.000000781243962  -0.000000824229929
Si    6.10987   0.67888   6.10987   0.000005676163605  -0.000001381318489  -0.000001133371242
Si    8.82537   0.67888   8.82538  -0.000002409655525   0.000002953465329   0.000002937782852
Si    6.10987   3.39437   8.82538   0.000003565891147  -0.000003555291257   0.000003541761954
Si    8.82537   3.39437   6.10987   0.000000106050996  -0.000000955010943  -0.000000570899709
Si   10.18313   2.03662   7.46762   0.000003163119850   0.000000334782062  -0.000000893941759
Si   10.18313   4.75213  10.18313   0.000003157933071   0.000000886581923  -0.000000324062084
Si    7.46762   2.03662  10.18313  -0.000002445030207   0.000000000000050   0.000000000000195
Si    7.46762   4.75213   7.46762  -0.000002089674703  -0.000000721117084   0.000000726355983
Si    6.10987   0.67888  11.54087   0.000003565891399   0.000003555291533  -0.000003541762074
Si    8.82537   0.67888  14.25638   0.000000106050976   0.000000955011229   0.000000570899533
Si    6.10987   3.39437  14.25638   0.000005676163567   0.000001381318372   0.000001133371081
Si    8.82537   3.39437  11.54087  -0.000002409655808  -0.000002953465478  -0.000002937782866
Si   10.18313   2.03662  12.89863   0.000003163120039  -0.000000334782264   0.000000893941945
Si   10.18313   4.75213  15.61412  -0.000001429535488   0.000004184717103  -0.000004179119906
Si    7.46762   2.03662  15.61412  -0.000003358284372   0.000000821492175  -0.000000793683089
Si    7.46762   4.75213  12.89863  -0.000002080152822  -0.000000338394326  -0.000000347234894
Si    6.10987   6.10987   0.67888   0.000005669345626  -0.000001142327203  -0.000001372529251
Si    8.82537   6.10987   3.39437   0.000000113060216  -0.000000582054526  -0.000000965807701
Si    6.10987   8.82538   3.39437   0.000003565891398   0.000003555291560  -0.000003541762028
Si    8.82537   8.82538   0.67888  -0.000002409655553   0.000002953465271   0.000002937782900
Si   10.18313   7.46762   2.03663   0.000003157933405  -0.000000886582333   0.000000324062135
Si   10.18313  10.18313   4.75213   0.000003163120132  -0.000000334782316   0.000000893941872
Si    7.46762   7.46762   4.75213  -0.000002089674961   0.000000721116930  -0.000000726355660
Si    7.46762  10.18313   2.03663  -0.000002445030193   0.000000000000044   0.000000000000203
Si    6.10987   6.10987   6.10987   0.000006518268291  -0.000000000000001  -0.000000000000110
Si    8.82537   6.10987   8.82538   0.000000113060219   0.000000582054636   0.000000965807423
Si    6.10987   8.82538   8.82538   0.000003070205416   0.000002238120820   0.000002241169057
Si    8.82537   8.82538   6.10987   0.000000106051051   0.000000955011208   0.000000570899592
Si   10.18313   7.46762   7.46762  -0.000001501676335  -0.000004502434613  -0.000004498991565
Si   10.18313  10.18313  10.18313   0.000015176865754   0.000000000000026   0.000000000000074
Si    7.46762   7.46762  10.18313  -0.000003359406269  -0.000000781244237   0.000000824230047
Si    7.46762  10.18313   7.46762  -0.000003358284385   0.000000821492225  -0.000000793683097
Si    6.10987   6.10987  11.54087   0.000005669345784   0.000001142327274   0.000001372529398
Si    8.82537   6.10987  14.25638  -0.000009172610307   0.000000000000010  -0.000000000000044
Si    6.10987   8.82538  14.25638   0.000005676163603  -0.000001381318462  -0.000001133371214
Si    8.82537   8.82538  11.54087  -0.000001763503866   0.000001321551644  -0.000001324645050
Si   10.18313   7.46762  12.89863  -0.000001429535862  -0.000004184717094   0.000004179120077
Si   10.18313  10.18313  15.61412   0.000003163119917   0.000000334782082  -0.000000893941813
Si    7.46762   7.46762  15.61412  -0.000002080152785   0.000000338394377   0.000000347234809
Si    7.46762  10.18313  12.89863  -0.000003358284465  -0.000000821492339   0.000000793683135
Si    6.10987  11.54087   0.67888   0.000003565891134  -0.000003555291265   0.000003541761910
Si    8.82537  11.54087   3.39437  -0.000002409655897  -0.000002953465435  -0.000002937782866
Si    6.10987  14.25638   3.39437   0.000005669345735   0.000001142327284   0.000001372529475
Si    8.82537  14.25638   0.67888   0.000000113060206   0.000000582054635   0.000000965807454
Si   10.18313  12.89863   2.03663   0.000003157933078   0.000000886581941  -0.000000324062078
Si   10.18313  15.61412   4.75213  -0.000001429535858  -0.000004184717097   0.000004179120070
Si    7.46762  12.89863   4.75213  -0.000002080152865  -0.000000338394351  -0.000000347234934
Si    7.46762  15.61412   2.03663  -0.000003359406204  -0.000000781244233   0.000000824229988
Si    6.10987  11.54087   6.10987   0.000005676163628   0.000001381318370   0.000001133371027
Si    8.82537  11.54087   8.82538  -0.000001763503687  -0.000001321551565   0.000001324644947
Si    6.10987  14.25638   8.82538   0.000005669345582  -0.000001142327098  -0.000001372529238
Si    8.82537  14.25638   6.10987  -0.000009172610227  -0.000000000000031   0.000000000000023
Si   10.18313  12.89863   7.46762  -0.000001429535618   0.000004184717113  -0.000004179119926
Si   10.18313  15.61412  10.18313   0.000003157933515  -0.000000886582358   0.000000324062122
Si    7.46762  12.89863  10.18313  -0.000003359406313   0.000000781243903  -0.000000824229894
Si    7.46762  15.61412   7.46762  -0.000002080152815   0.000000338394348   0.000000347234821
Si    6.10987  11.54087  11.54087   0.000003070205636  -0.000002238120524  -0.000002241169126
Si    8.82537  11.54087  14.25638   0.000000106051066  -0.000000955010904  -0.000000570899719
Si    6.10987  14.25638  14.25638   0.000006518268263   0.000000000000056  -0.000000000000036
Si    8.82537  14.25638  11.54087   0.000000113060169  -0.000000582054551  -0.000000965807677
Si   10.18313  12.89863  12.89863  -0.000001501676384   0.000004502434501   0.000004498991482
Si   10.18313  15.61412  15.61412  -0.000001501676205  -0.000004502434629  -0.000004498991630
Si    7.46762  12.89863  15.61412  -0.000002089674752  -0.000000721117096   0.000000726355992
Si    7.46762  15.61412  12.89863  -0.000002089674939   0.000000721116947  -0.000000726355640
Si   11.54087   0.67888   0.67888   0.000001501679848   0.000004502434239   0.000004498991302
Si   14.25638   0.67888   3.39437   0.000002089678615  -0.000000721117025   0.000000726355595
Si   11.54087   3.39437   3.39437   0.000001501679779  -0.000004502434112  -0.000004498991187
Si   14.25638   3.39437   0.67888   0.000002089678829   0.000000721116788  -0.000000726355707
Si   15.61412   2.03662   2.03663  -0.000006518264996   0.000000000000004  -0.000000000000086
Si   15.61412   4.75213   4.75213  -0.000003070202146   0.000002238120565   0.000002241169114
Si   12.89862   2.03662   4.75213  -0.000000113057071   0.000000582054482   0.000000965807519
Si   12.89862   4.75213   2.03663  -0.000000106048127   0.000000955010986   0.000000570899286
Si   11.54087   0.67888   6.10987  -0.000003157929112   0.000000886582202  -0.000000324062216
Si   14.25638   0.67888   8.82538   0.000002080156713  -0.000000338394299  -0.000000347234857
Si   11.54087   3.39437   8.82538   0.000001429539338  -0.000004184717033   0.000004179120212
Si   14.25638   3.39437   6.10987   0.000003359410050  -0.000000781243957   0.000000824230051
Si   15.61412   2.03662   7.46762  -0.000005669342180   0.000001142327173   0.000001372529546
Si   15.61412   4.75213  10.18313  -0.000005676160114  -0.000001381318579  -0.000001133370908
Si   12.89862   2.03662  10.18313   0.000009172613466   0.000000000000034  -0.000000000000116
Si   12.89862   4.75213   7.46762   0.000001763507118   0.000001321551473  -0.000001324645208
Si   11.54087   0.67888  11.54087   0.000001429539181   0.000004184717130  -0.000004179120507
Si   14.25638   0.67888  14.25638   0.000003359410267   0.000000781244294  -0.000000824229899
Si   11.54087   3.39437  14.25638  -0.000003157929407  -0.000000886582093   0.000000324062301
Si   14.25638   3.39437  11.54087   0.000002080156801   0.000000338394463   0.000000347234790
Si   15.61412   2.03662  12.89863  -0.000005669342112  -0.000001142327260  -0.000001372529189
Si   15.61412   4.75213  15.61412  -0.000003565888308   0.000003555291414  -0.000003541762035
Si   12.89862   2.03662  15.61412  -0.000000113057279  -0.000000582054628  -0.000000965807558
Si   12.89862   4.75213  12.89863   0.000002409658777   0.000002953465523   0.000002937782877
Si   11.54087   6.10987   0.67888  -0.000003163116202  -0.000000334782036   0.000000893941873
Si   14.25638   6.10987   3.39437   0.000003358288382   0.000000821492376  -0.000000793683114
Si   11.54087   8.82538   3.39437   0.000001429539160   0.000004184717171  -0.000004179120460
Si   14.25638   8.82538   0.67888   0.000002080156690  -0.000000338394406  -0.000000347234813
Si   15.61412   7.46762   2.03663  -0.000005676160183   0.000001381318550   0.000001133371061
Si   15.61412  10.18313   4.75213  -0.000005669342041  -0.000001142327297  -0.000001372529261
Si   12.89862   7.46762   4.75213   0.000001763506914  -0.000001321551745   0.000001324645388
Si   12.89862  10.18313   2.03663   0.000009172613469   0.000000000000037  -0.000000000000076
Si   11.54087   6.10987   6.10987  -0.000015176862072  -0.000000000000104  -0.000000000000132
Si   14.25638   6.10987   8.82538   0.000003358288367  -0.000000821492145   0.000000793683122
Si   11.54087   8.82538   8.82538   0.000001501679803   0.000004502434275   0.000004498991337
Si   14.25638   8.82538   6.10987   0.000003359410334   0.000000781244269  -0.000000824229837
Si   15.61412   7.46762   7.46762  -0.000003070202434  -0.000002238120504  -0.000002241169197
Si   15.61412  10.18313  10.18313  -0.000006518264851  -0.000000000000027  -0.000000000000076
Si   12.89862   7.46762  10.18313  -0.000000106047954  -0.000000955010891  -0.000000570899325
Si   12.89862  10.18313   7.46762  -0.000000113057291  -0.000000582054573  -0.000000965807551
Si   11.54087   6.10987  11.54087  -0.000003163115983   0.000000334782159  -0.000000893942123
Si   14.25638   6.10987  14.25638   0.000002445033861  -0.000000000000038  -0.000000000000104
Si   11.54087   8.82538  14.25638  -0.000003157929154   0.000000886582250  -0.000000324062157
Si   14.25638   8.82538  11.54087   0.000002089678531  -0.000000721117034   0.000000726355657
Si   15.61412   7.46762  12.89863  -0.000003565888223  -0.000003555291490   0.000003541761936
Si   15.61412  10.18313  15.61412  -0.000005669342112   0.000001142327214   0.000001372529490
Si   12.89862   7.46762  15.61412   0.000002409658564  -0.000002953465613  -0.000002937782640
Si   12.89862  10.18313  12.89863  -0.000000113057021   0.000000582054442   0.000000965807459
Si   11.54087  11.54087   0.67888   0.000001429539341  -0.000004184717036   0.000004179120159
Si   14.25638  11.54087   3.39437   0.000002080156739   0.000000338394500   0.000000347234759
Si   11.54087  14.25638   3.39437  -0.000003163116019   0.000000334782174  -0.000000893942066
Si   14.25638  14.25638   0.67888   0.000003358288365  -0.000000821492156   0.000000793683141
Si   15.61412  12.89863   2.03663  -0.000005676160093  -0.000001381318581  -0.000001133370909
Si   15.61412  15.61412   4.75213  -0.000003565888252  -0.000003555291465   0.000003541761916
Si   12.89862  12.89863   4.75213   0.000002409658724   0.000002953465523   0.000002937782850
Si   12.89862  15.61412   2.03663  -0.000000106047914  -0.000000955010891  -0.000000570899351
Si   11.54087  11.54087   6.10987  -0.000003157929339  -0.000000886582105   0.000000324062280
Si   14.25638  11.54087   8.82538   0.000002089678812   0.000000721116860  -0.000000726355800
Si   11.54087  14.25638   8.82538  -0.000003163116241  -0.000000334781965   0.000000893941890
Si   14.25638  14.25638   6.10987   0.000002445033920  -0.000000000000058  -0.000000000000002
Si   15.61412  12.89863   7.46762  -0.000003565888476   0.000003555291437  -0.000003541762016
Si   15.61412  15.61412  10.18313  -0.000005676160044   0.000001381318525   0.000001133371069
Si   12.89862  12.89863  10.18313  -0.000000106048070   0.000000955010946   0.000000570899307
Si   12.89862  15.61412   7.46762   0.000002409658572  -0.000002953465641  -0.000002937782670
Si   11.54087  11.54087  11.54087   0.000001501679731  -0.000004502434126  -0.000004498991205
Si   14.25638  11.54087  14.25638   0.000003359410121  -0.000000781243914   0.000000824230017
Si   11.54087  14.25638  14.25638  -0.000015176862081  -0.000000000000060  -0.000000000000024
Si   14.25638  14.25638  11.54087   0.000003358288320   0.000000821492328  -0.000000793683084
Si   15.61412  12.89863  12.89863  -0.000003070202245   0.000002238120546   0.000002241169124
Si   15.61412  15.61412  15.61412  -0.000003070202349  -0.000002238120519  -0.000002241169261
Si   12.89862  12.89863  15.61412   0.000001763507077   0.000001321551464  -0.000001324645179
Si   12.89862  15.61412  12.89863   0.000001763506923  -0.000001321551706   0.000001324645410
Si   16.97187   0.67888   0.67888  -0.000003744812440   0.000002243395320   0.000002235511109
Si   19.68737   0.67888   3.39437  -0.000000069412607   0.000001059521925  -0.000001045447617
Si   16.97187   3.39437   3.39437  -0.000003744812213  -0.000002243395079  -0.000002235511164
Si   19.68737   3.39437   0.67888  -0.000000069412441  -0.000001059521968   0.000001045447542
Si   21.04512   2.03662   2.03663  -0.000005706079632   0.000000000000055   0.000000000000036
Si   21.04512   4.75213   4.75213  -0.000004625095325   0.000002051342511   0.000002045185350
Si   18.32963   2.03662   4.75213   0.000005706113363   0.000000437037336   0.000005915460792
Si   18.32963   4.75213   2.03663   0.000005705822420   0.000005911830545   0.000000430038179
Si   16.97187   0.67888   6.10987   0.000000432578309   0.000002085433974  -0.000000282203132
Si   19.68737   0.67888   8.82538   0.000001209107795   0.000000557712686   0.000000558548454
Si   16.97187   3.39437   8.82538  -0.000004757656159  -0.000002787508607   0.000002783160097
Si   19.68737   3.39437   6.10987   0.000003898967337  -0.000000493394753  -0.000000154018825
Si   21.04512   2.03662   7.46762   0.000000601990660  -0.000001311045314   0.000000165488168
Si   21.04512   4.75213  10.18313   0.000000608325913  -0.000000172303430   0.000001308112463
Si   18.32963   2.03662  10.18313   0.000001263335438   0.000000000000032   0.000000000000188
Si   18.32963   4.75213   7.46762  -0.000004003784025   0.000002932677229  -0.000002928873402
Si   16.97187   0.67888  11.54087  -0.000004757655913   0.000002787508892  -0.000002783160247
Si   19.68737   0.67888  14.25638   0.000003898967330   0.000000493395050   0.000000154018638
Si   16.97187   3.39437  14.25638   0.000000432578238  -0.000002085434087   0.000000282202965
Si   19.68737   3.39437  11.54087   0.000001209107505  -0.000000557712806  -0.000000558548474
Si   21.04512   2.03662  12.89863   0.000000601990831   0.000001311045100  -0.000000165487978
Si   21.04512   4.75213  15.61412  -0.000004443735223   0.000001838319930  -0.000001836131816
Si   18.32963   2.03662  15.61412   0.000005706113517  -0.000000437037465  -0.000005915460684
Si   18.32963   4.75213  12.89863  -0.000002549197026   0.000002508367045   0.000002506940737
Si   16.97187   6.10987   0.67888   0.000000437906571  -0.000000273470050   0.000002095910159
Si   19.68737   6.10987   3.39437   0.000003887134339  -0.000000151407402  -0.000000504943645
Si   16.97187   8.82538   3.39437  -0.000004757655906   0.000002787508915  -0.000002783160187
Si   19.68737   8.82538   0.67888   0.000001209107768   0.000000557712614   0.000000558548524
Si   21.04512   7.46762   2.03663   0.000000608326214   0.000000172303025  -0.000001308112422
Si   21.04512  10.18313   4.75213   0.000000601990940   0.000001311045043  -0.000000165488036
Si   18.32963   7.46762   4.75213  -0.000004003784269  -0.000002932677400   0.000002928873721
Si   18.32963  10.18313   2.03663   0.000001263335465   0.000000000000048   0.000000000000201
Si   16.97187   6.10987   6.10987  -0.000019017748474   0.000000000000006  -0.000000000000112
Si   19.68737   6.10987   8.82538   0.000003887134322   0.000000151407543   0.000000504943366
Si   16.97187   8.82538   8.82538  -0.000003744812467   0.000002243395373   0.000002235511161
Si   19.68737   8.82538   6.10987   0.000003898967377   0.000000493395032   0.000000154018702
Si   21.04512   7.46762   7.46762  -0.000004625095359  -0.000002051342609  -0.000002045185429
Si   21.04512  10.18313  10.18313  -0.000005706079518   0.000000000000027   0.000000000000073
Si   18.32963   7.46762  10.18313   0.000005705822546  -0.000005911830815  -0.000000430038068
Si   18.32963  10.18313   7.46762   0.000005706113482  -0.000000437037419  -0.000005915460686
Si   16.97187   6.10987  11.54087   0.000000437906726   0.000000273470116  -0.000002095910019
Si   19.68737   6.10987  14.25638  -0.000008908558197   0.000000000000018  -0.000000000000055
Si   16.97187   8.82538  14.25638   0.000000432578270   0.000002085434030  -0.000000282203116
Si   19.68737   8.82538  11.54087  -0.000000069412642   0.000001059521943  -0.000001045447550
Si   21.04512   7.46762  12.89863  -0.000004443735617  -0.000001838319910   0.000001836131985
Si   21.04512  10.18313  15.61412   0.000000601990722  -0.000001311045277   0.000000165488116
Si   18.32963   7.46762  15.61412  -0.000002549196991  -0.000002508367012  -0.000002506940810
Si   18.32963  10.18313  12.89863   0.000005706113419   0.000000437037287   0.000005915460727
Si   16.97187  11.54087   0.67888  -0.000004757656167  -0.000002787508640   0.000002783160057
Si   19.68737  11.54087   3.39437   0.000001209107443  -0.000000557712787  -0.000000558548497
Si   16.97187  14.25638   3.39437   0.000000437906706   0.000000273470128  -0.000002095909946
Si   19.68737  14.25638   0.67888   0.000003887134294   0.000000151407548   0.000000504943379
Si   21.04512  12.89863   2.03663   0.000000608325933  -0.000000172303440   0.000001308112494
Si   21.04512  15.61412   4.75213  -0.000004443735604  -0.000001838319911   0.000001836131979
Si   18.32963  12.89863   4.75213  -0.000002549197081   0.000002508367023   0.000002506940681
Si   18.32963  15.61412   2.03663   0.000005705822624  -0.000005911830806  -0.000000430038097
Si   16.97187  11.54087   6.10987   0.000000432578327  -0.000002085434114   0.000000282202936
Si   19.68737  11.54087   8.82538  -0.000000069412462  -0.000001059521871   0.000001045447454
Si   16.97187  14.25638   8.82538   0.000000437906549  -0.000000273469960   0.000002095910178
Si   19.68737  14.25638   6.10987  -0.000008908558120  -0.000000000000014   0.000000000000040
Si   21.04512  12.89863   7.46762  -0.000004443735369   0.000001838319940  -0.000001836131826
Si   21.04512  15.61412  10.18313   0.000000608326349   0.000000172303014  -0.000001308112423
Si   18.32963  12.89863  10.18313   0.000005705822490   0.000005911830480   0.000000430038206
Si   18.32963  15.61412   7.46762  -0.000002549197033  -0.000002508367032  -0.000002506940791
Si   16.97187  11.54087  11.54087  -0.000003744812247  -0.000002243395092  -0.000002235511221
Si   19.68737  11.54087  14.25638   0.000003898967394  -0.000000493394710  -0.000000154018832
Si   16.97187  14.25638  14.25638  -0.000019017748479   0.000000000000038  -0.000000000000037
Si   19.68737  14.25638  11.54087   0.000003887134272  -0.000000151407453  -0.000000504943620
Si   21.04512  12.89863  12.89863  -0.000004625095425   0.000002051342496   0.000002045185363
Si   21.04512  15.61412  15.61412  -0.000004625095271  -0.000002051342624  -0.000002045185483
Si   18.32963  12.89863  15.61412  -0.000004003784078   0.000002932677219  -0.000002928873390
Si   18.32963  15.61412  12.89863  -0.000004003784261  -0.000002932677362   0.000002928873756
