384 

Si    0.67887   0.67887   0.67888   0.000003780028316   0.000003779968216  -0.000004943595297
Si    3.39438   0.67887   3.39437  -0.000002077391421  -0.000005614974756   0.000007891938944
Si    0.67887   3.39437   3.39437  -0.000005615208745  -0.000002077252847   0.000007891983802
Si    3.39438   3.39437   0.67888   0.000002231977884   0.000002232236661  -0.000005445926259
Si    4.75212   2.03662   2.03662  -0.000000011874944   0.000000377672314  -0.000000871343681
Si    4.75212   4.75212   4.75213  -0.000002021932482  -0.000002021626563  -0.000003168666761
Si    2.03662   2.03662   4.75213  -0.000002167937427  -0.000002167575771  -0.000003637236273
Si    2.03662   4.75212   2.03662   0.000000377516684  -0.000000011610650  -0.000000871269374
Si    0.67887   0.67887   6.10987  -0.000004899347693  -0.000004898976494   0.000000333544200
Si    3.39438   0.67887   8.82537  -0.000002759565493  -0.000005115039197  -0.000009135324547
Si    0.67887   3.39437   8.82537  -0.000005115161039  -0.000002759450138  -0.000009135283478
Si    3.39438   3.39437   6.10987  -0.000004153752548  -0.000004153489076   0.000000193889438
Si    4.75212   2.03662   7.46762   0.000001267286440  -0.000000900270065   0.000001364102130
Si    4.75212   4.75212  10.18313  -0.000000896079078  -0.000000895852461   0.000001254919464
Si    2.03662   2.03662  10.18313   0.000000066354982   0.000000066587349   0.000000225639576
Si    2.03662   4.75212   7.46762  -0.000000900491083   0.000001267401756   0.000001364040467
Si    0.67887   0.67887  11.54087   0.000003757471693   0.000003757661462   0.000005236549245
Si    3.39438   0.67887  14.25638  -0.000000393127000   0.000007078915714  -0.000000029753208
Si    0.67887   3.39437  14.25638   0.000007078961956  -0.000000392846665  -0.000000029718669
Si    3.39438   3.39437  11.54087   0.000002718112789   0.000002718272362   0.000005988358528
Si    4.75212   2.03662  12.89862   0.000000209202568  -0.000000118363114  -0.000000884258552
Si    4.75212   4.75212  15.61413  -0.000001376207698  -0.000001376005666   0.000004813635753
Si    2.03662   2.03662  15.61413   0.000000043290658   0.000000043518366   0.000002438755245
Si    2.03662   4.75212  12.89862  -0.000000118568695   0.000000209372332  -0.000000884133636
Si    0.67887   6.10987   0.67888   0.000003189221896   0.000001619896366   0.000002412836368
Si    3.39438   6.10987   3.39437   0.000005635727272  -0.000005763738663   0.000003492417158
Si    0.67887   8.82537   3.39437   0.000002211708751   0.000001327006442  -0.000002615709711
Si    3.39438   8.82537   0.67888  -0.000001990788653  -0.000003965378184  -0.000004818357630
Si    4.75212   7.46762   2.03662   0.000002006477542   0.000002568688414   0.000000595844320
Si    4.75212  10.18313   4.75213  -0.000002105276004  -0.000001000968794  -0.000003115649213
Si    2.03662   7.46762   4.75213   0.000003414967874  -0.000000697084839  -0.000006810275348
Si    2.03662  10.18313   2.03662   0.000002104409206   0.000001262517578  -0.000000436895601
Si    0.67887   6.10987   6.10987  -0.000001361417982  -0.000001036735121  -0.000000510893622
Si    3.39438   6.10987   8.82537   0.000007203697224  -0.000005288426609  -0.000002219528922
Si    0.67887   8.82537   8.82537  -0.000000023361031   0.000001437593854   0.000002426199764
Si    3.39438   8.82537   6.10987   0.000000596797060   0.000004613497144  -0.000000323097383
Si    4.75212   7.46762   7.46762   0.000001036845240   0.000001966359090  -0.000002559741454
Si    4.75212  10.18313  10.18313   0.000001848732804   0.000002671822601   0.000000920927359
Si    2.03662   7.46762  10.18313  -0.000002055428241   0.000006387161248  -0.000000250094788
Si    2.03662  10.18313   7.46762  -0.000001910706052   0.000002696162872   0.000001633552548
Si    0.67887   6.10987  11.54087   0.000000087290358   0.000003407584416  -0.000000425776680
Si    3.39438   6.10987  14.25638  -0.000002940914386   0.000002000964955   0.000001110972216
Si    0.67887   8.82537  14.25638   0.000000138442784   0.000001469333598   0.000001037463827
Si    3.39438   8.82537  11.54087   0.000000147783838  -0.000003444709277   0.000003858777338
Si    4.75212   7.46762  12.89862   0.000001130675634  -0.000000432102529   0.000001687332351
Si    4.75212  10.18313  15.61413  -0.000002349364065  -0.000000184692628   0.000002208934786
Si    2.03662   7.46762  15.61413   0.000001687794459  -0.000001468095308   0.000006324394871
Si    2.03662  10.18313  12.89862  -0.000000043241747   0.000003473686225   0.000000471303688
Si    0.67887  11.54087   0.67888  -0.000006918608200   0.000006111719881  -0.000003361543620
Si    3.39438  11.54087   3.39437   0.000005332683813  -0.000002288710540  -0.000003078771625
Si    0.67887  14.25638   3.39437  -0.000002155156333   0.000000711620689   0.000005543857930
Si    3.39438  14.25638   0.67888  -0.000000329426796   0.000000518358606  -0.000002631793592
Si    4.75212  12.89862   2.03662  -0.000000234414728   0.000001157607720   0.000000300838174
Si    4.75212  15.61413   4.75213  -0.000001424177589   0.000000812575537  -0.000003373813222
Si    2.03662  12.89862   4.75213  -0.000005668814486  -0.000000563722794   0.000000868939834
Si    2.03662  15.61413   2.03662   0.000001510529490  -0.000003982379569  -0.000000588992900
Si    0.67887  11.54087   6.10987   0.000001991137726  -0.000003518425965   0.000000137607156
Si    3.39438  11.54087   8.82537   0.000005882158374  -0.000001779480778   0.000002226101248
Si    0.67887  14.25638   8.82537  -0.000003222014453   0.000001260919185  -0.000005794540331
Si    3.39438  14.25638   6.10987   0.000007352488491   0.000005928915520  -0.000000202241446
Si    4.75212  12.89862   7.46762  -0.000006277383454  -0.000002011667071  -0.000002876094785
Si    4.75212  15.61413  10.18313   0.000007656640458  -0.000001764465062   0.000000133529649
Si    2.03662  12.89862  10.18313  -0.000004023578403   0.000005474443928   0.000000748476060
Si    2.03662  15.61413   7.46762  -0.000002784271731  -0.000002365263341  -0.000000309595463
Si    0.67887  11.54087  11.54087  -0.000006353145793   0.000002712807825   0.000004752470799
Si    3.39438  11.54087  14.25638   0.000003809145186  -0.000003175379927  -0.000001515840573
Si    0.67887  14.25638  14.25638   0.000003956358725  -0.000004248277153   0.000000324295246
Si    3.39438  14.25638  11.54087  -0.000000235412481   0.000000430419364   0.000003145014762
Si    4.75212  12.89862  12.89862  -0.000004182421917  -0.000000590661551   0.000000849614462
Si    4.75212  15.61413  15.61413   0.000000379593286  -0.000001195539264   0.000005218659656
Si    2.03662  12.89862  15.61413  -0.000007774527007   0.000000262309020  -0.000000071738788
Si    2.03662  15.61413  12.89862  -0.000002712762539  -0.000002727540091  -0.000000527287756
Si    0.67887  16.97188   0.67888  -0.000000757850455   0.000002486217513  -0.000004554489569
Si    3.39438  16.97188   3.39437   0.000002560000739   0.000002276649251   0.000002444185196
Si    0.67887  19.68738   3.39437   0.000003154932270   0.000002868663964   0.000001081524355
Si    3.39438  19.68738   0.67888  -0.000007102114928  -0.000005992199861  -0.000001180892030
Si    4.75212  18.32963   2.03662  -0.000000875130964  -0.000000749954299  -0.000000968219160
Si    4.75212  21.04512   4.75213  -0.000001915291300   0.000000426396840  -0.000003552730127
Si    2.03662  18.32963   4.75213   0.000004586795130   0.000007183877659  -0.000003018254916
Si    2.03662  21.04512   2.03662   0.000002171514427   0.000000878444216   0.000000233826877
Si    0.67887  16.97188   6.10987  -0.000003479721196  -0.000010276952282   0.000000544983495
Si    3.39438  16.97188   8.82537   0.000002905503930   0.000002560063759  -0.000002081376674
Si    0.67887  19.68738   8.82537   0.000004852099013   0.000001223220888  -0.000001542189696
Si    3.39438  19.68738   6.10987   0.000002046578482  -0.000001075986556  -0.000000627944450
Si    4.75212  18.32963   7.46762  -0.000002559851874  -0.000002905418532   0.000002081596491
Si    4.75212  21.04512  10.18313   0.000010277062363   0.000003479747280  -0.000000544661198
Si    2.03662  18.32963  10.18313   0.000001075980344  -0.000002046449576   0.000000627864497
Si    2.03662  21.04512   7.46762  -0.000001223277560  -0.000004852076811   0.000001542438298
Si    0.67887  16.97188  11.54087  -0.000000426552817   0.000001915375857   0.000003552678195
Si    3.39438  16.97188  14.25638   0.000000750176609   0.000000875014469   0.000000968130432
Si    0.67887  19.68738  14.25638  -0.000000878515330  -0.000002171450443  -0.000000233915700
Si    3.39438  19.68738  11.54087  -0.000007183717501  -0.000004586589299   0.000003018355464
Si    4.75212  18.32963  12.89862  -0.000002276458759  -0.000002559914096  -0.000002444351812
Si    4.75212  21.04512  15.61413  -0.000002486067025   0.000000757866683   0.000004554338058
Si    2.03662  18.32963  15.61413   0.000005992218612   0.000007102200351   0.000001180842180
Si    2.03662  21.04512  12.89862  -0.000002868537709  -0.000003154782385  -0.000001081687956
Si    6.10987   0.67887   0.67888   0.000001619842141   0.000003189198830   0.000002412830040
Si    8.82537   0.67887   3.39437   0.000001327295953   0.000002211481047  -0.000002615843745
Si    6.10987   3.39437   3.39437  -0.000005763886548   0.000005635935918   0.000003492404906
Si    8.82537   3.39437   0.67888  -0.000003965293302  -0.000001990667790  -0.000004818478793
Si   10.18313   2.03662   2.03662   0.000001262691161   0.000002104201392  -0.000000436853526
Si   10.18313   4.75212   4.75213  -0.000001000879505  -0.000002105396908  -0.000003115700223
Si    7.46762   2.03662   4.75213  -0.000000697119143   0.000003415044727  -0.000006810116084
Si    7.46762   4.75212   2.03662   0.000002568569751   0.000002006733792   0.000000595788398
Si    6.10987   0.67887   6.10987  -0.000001036701998  -0.000001361408570  -0.000000510894345
Si    8.82537   0.67887   8.82537   0.000001437871614  -0.000000023565388   0.000002426222896
Si    6.10987   3.39437   8.82537  -0.000005288758382   0.000007203867493  -0.000002219570362
Si    8.82537   3.39437   6.10987   0.000004613478004   0.000000596791438  -0.000000323203774
Si   10.18313   2.03662   7.46762   0.000002696432728  -0.000001910874806   0.000001633614020
Si   10.18313   4.75212  10.18313   0.000002671876440   0.000001848638806   0.000000921160251
Si    7.46762   2.03662  10.18313   0.000006387209195  -0.000002055546372  -0.000000249987943
Si    7.46762   4.75212   7.46762   0.000001966204362   0.000001037001727  -0.000002559835653
Si    6.10987   0.67887  11.54087   0.000003407637738   0.000000087247210  -0.000000425742938
Si    8.82537   0.67887  14.25638   0.000001469701394   0.000000138281579   0.000001037341427
Si    6.10987   3.39437  14.25638   0.000002000894159  -0.000002940774676   0.000001111071352
Si    8.82537   3.39437  11.54087  -0.000003444498241   0.000000147683960   0.000003859036060
Si   10.18313   2.03662  12.89862   0.000003473858866  -0.000000043416857   0.000000471379062
Si   10.18313   4.75212  15.61413  -0.000000184753659  -0.000002349497060   0.000002208811966
Si    7.46762   2.03662  15.61413  -0.000001468054979   0.000001687819590   0.000006324248145
Si    7.46762   4.75212  12.89862  -0.000000432105750   0.000001130763904   0.000001687439130
Si    6.10987   6.10987   0.67888   0.000003857254066   0.000003857433223  -0.000000005588197
Si    8.82537   6.10987   3.39437   0.000008578694551   0.000001191735997  -0.000000040219882
Si    6.10987   8.82537   3.39437   0.000001191633836   0.000008578792336  -0.000000040144408
Si    8.82537   8.82537   0.67888   0.000004665285389   0.000004665556623  -0.000003516754235
Si   10.18313   7.46762   2.03662  -0.000007110856154  -0.000002472727568  -0.000000440882162
Si   10.18313  10.18313   4.75213  -0.000001483873416  -0.000001483560626   0.000001029609614
Si    7.46762   7.46762   4.75213  -0.000003672525068  -0.000003672164426   0.000006752971274
Si    7.46762  10.18313   2.03662  -0.000002472885371  -0.000007110692745  -0.000000440878168
Si    6.10987   6.10987   6.10987  -0.000004832681438  -0.000004832397326   0.000001363501101
Si    8.82537   6.10987   8.82537   0.000007651313596  -0.000000065859709   0.000000790580996
Si    6.10987   8.82537   8.82537  -0.000000066145462   0.000007651397427   0.000000790755004
Si    8.82537   8.82537   6.10987   0.000001977230340   0.000001977598437   0.000000890446598
Si   10.18313   7.46762   7.46762   0.000001814065319   0.000006325924950   0.000005756499647
Si   10.18313  10.18313  10.18313  -0.000001979741369  -0.000001979380226  -0.000001682344344
Si    7.46762   7.46762  10.18313  -0.000005643874465  -0.000005643536858   0.000000362276743
Si    7.46762  10.18313   7.46762   0.000006325915362   0.000001814372032   0.000005756465029
Si    6.10987   6.10987  11.54087   0.000002339271735   0.000002339705050  -0.000002180193254
Si    8.82537   6.10987  14.25638  -0.000005182076518   0.000001549550883  -0.000000901688181
Si    6.10987   8.82537  14.25638   0.000001549653928  -0.000005181994636  -0.000000901653642
Si    8.82537   8.82537  11.54087   0.000004016890793   0.000004017106811   0.000003474650976
Si   10.18313   7.46762  12.89862   0.000000633562820   0.000007341211347  -0.000004960621521
Si   10.18313  10.18313  15.61413  -0.000000711050172  -0.000000710785178  -0.000001295493685
Si    7.46762   7.46762  15.61413  -0.000003715352110  -0.000003715126073  -0.000006872358208
Si    7.46762  10.18313  12.89862   0.000007341113028   0.000000633772938  -0.000004960529236
Si    6.10987  11.54087   0.67888  -0.000005767069684   0.000005757114198  -0.000003143743091
Si    8.82537  11.54087   3.39437   0.000001981246071   0.000001509893019   0.000000920727842
Si    6.10987  14.25638   3.39437  -0.000002675605112  -0.000001432425702   0.000005881345846
Si    8.82537  14.25638   0.67888  -0.000000871436622  -0.000001692654281  -0.000002179610297
Si   10.18313  12.89862   2.03662   0.000000763539850  -0.000002178882188  -0.000000870406384
Si   10.18313  15.61413   4.75213  -0.000008468421320   0.000003922789326  -0.000003034663882
Si    7.46762  12.89862   4.75213   0.000001605859886   0.000000756195842  -0.000001764995072
Si    7.46762  15.61413   2.03662  -0.000005439842525  -0.000001761557466  -0.000000042093020
Si    6.10987  11.54087   6.10987   0.000002271754470  -0.000003799739123  -0.000001303077084
Si    8.82537  11.54087   8.82537   0.000001406746927   0.000002892663103  -0.000001136557339
Si    6.10987  14.25638   8.82537  -0.000002345137889  -0.000002605650748  -0.000006273259115
Si    8.82537  14.25638   6.10987   0.000001041722061   0.000002757451947  -0.000000665104013
Si   10.18313  12.89862   7.46762  -0.000002892510201  -0.000001406600489   0.000001136699442
Si   10.18313  15.61413  10.18313   0.000003799784393  -0.000002271741682   0.000001303232684
Si    7.46762  12.89862  10.18313  -0.000002757413309  -0.000001041615322   0.000000665273644
Si    7.46762  15.61413   7.46762   0.000002605807083   0.000002345203882   0.000006273541622
Si    6.10987  11.54087  11.54087  -0.000003922908767   0.000008468559968   0.000003034652801
Si    8.82537  11.54087  14.25638   0.000002178912104  -0.000000763316946   0.000000870442249
Si    6.10987  14.25638  14.25638   0.000001761542110   0.000005439967807   0.000000041950151
Si    8.82537  14.25638  11.54087  -0.000000756161000  -0.000001605754666   0.000001765154980
Si   10.18313  12.89862  12.89862  -0.000001509946609  -0.000001981048155  -0.000000920693439
Si   10.18313  15.61413  15.61413  -0.000005757050856   0.000005767031552   0.000003143526910
Si    7.46762  12.89862  15.61413   0.000001692759059   0.000000871476873   0.000002179393645
Si    7.46762  15.61413  12.89862   0.000001432477697   0.000002675645455  -0.000005881399774
Si    6.10987  16.97188   0.67888   0.000001195560528  -0.000000379555159  -0.000005218936010
Si    8.82537  16.97188   3.39437   0.000000590786572   0.000004182591679  -0.000000849755937
Si    6.10987  19.68738   3.39437   0.000002727623274   0.000002712940480   0.000000527420201
Si    8.82537  19.68738   0.67888  -0.000000262233207   0.000007774608907   0.000000071729839
Si   10.18313  18.32963   2.03662   0.000003175485105  -0.000003809035721   0.000001515739485
Si   10.18313  21.04512   4.75213  -0.000002712860173   0.000006353043062  -0.000004752635906
Si    7.46762  18.32963   4.75213  -0.000000430274296   0.000000235754795  -0.000003144986276
Si    7.46762  21.04512   2.03662   0.000004248361947  -0.000003956309519  -0.000000324366321
Si    6.10987  16.97188   6.10987   0.000001764562484  -0.000007656428034  -0.000000133244354
Si    8.82537  16.97188   8.82537   0.000002011590517   0.000006277579183   0.000002876220344
Si    6.10987  19.68738   8.82537   0.000002365505869   0.000002784230485   0.000000309694042
Si    8.82537  19.68738   6.10987  -0.000005474591883   0.000004023543350  -0.000000748434145
Si   10.18313  18.32963   7.46762   0.000001779304952  -0.000005882115744  -0.000002225936018
Si   10.18313  21.04512  10.18313   0.000003518320183  -0.000001991326192  -0.000000137490526
Si    7.46762  18.32963  10.18313  -0.000005928902305  -0.000007352394919   0.000000202184390
Si    7.46762  21.04512   7.46762  -0.000001260967727   0.000003221883373   0.000005794601090
Si    6.10987  16.97188  11.54087  -0.000000812572030   0.000001424109384   0.000003373816866
Si    8.82537  16.97188  14.25638  -0.000001157627687   0.000000234326041  -0.000000301032163
Si    6.10987  19.68738  14.25638   0.000003982297139  -0.000001510413439   0.000000588956642
Si    8.82537  19.68738  11.54087   0.000000563712910   0.000005668701131  -0.000000869014784
Si   10.18313  18.32963  12.89862   0.000002288830670  -0.000005332810122   0.000003078668781
Si   10.18313  21.04512  15.61413  -0.000006111714069   0.000006918541580   0.000003361512680
Si    7.46762  18.32963  15.61413  -0.000000518332414   0.000000329504468   0.000002631677664
Si    7.46762  21.04512  12.89862  -0.000000711747131   0.000002155092888  -0.000005543987516
Si   11.54087   0.67887   0.67888   0.000006111990834  -0.000006918839993  -0.000003361681558
Si   14.25638   0.67887   3.39437   0.000000711862783  -0.000002155118754   0.000005543873184
Si   11.54087   3.39437   3.39437  -0.000002288513439   0.000005332518122  -0.000003078651489
Si   14.25638   3.39437   0.67888   0.000000518601625  -0.000000329808892  -0.000002631826594
Si   15.61413   2.03662   2.03662  -0.000003982382304   0.000001510275441  -0.000000589082309
Si   15.61413   4.75212   4.75213   0.000000812686483  -0.000001424355785  -0.000003374008754
Si   12.89862   2.03662   4.75213  -0.000000563415167  -0.000005668960662   0.000000868923812
Si   12.89862   4.75212   2.03662   0.000001157852286  -0.000000234572106   0.000000300995782
Si   11.54087   0.67887   6.10987  -0.000003518072709   0.000001991105581   0.000000137599652
Si   14.25638   0.67887   8.82537   0.000001260947795  -0.000003222218533  -0.000005794448596
Si   11.54087   3.39437   8.82537  -0.000001779295566   0.000005881816945   0.000002226125757
Si   14.25638   3.39437   6.10987   0.000005928941577   0.000007352173795  -0.000000202436468
Si   15.61413   2.03662   7.46762  -0.000002365351993  -0.000002784612983  -0.000000309543412
Si   15.61413   4.75212  10.18313  -0.000001764193723   0.000007656157665   0.000000133531833
Si   12.89862   2.03662  10.18313   0.000005474615476  -0.000004023994317   0.000000748634332
Si   12.89862   4.75212   7.46762  -0.000002011659163  -0.000006277477450  -0.000002876298652
Si   11.54087   0.67887  11.54087   0.000002713133207  -0.000006353346904   0.000004752504566
Si   14.25638   0.67887  14.25638  -0.000004248227527   0.000003956217915   0.000000324389595
Si   11.54087   3.39437  14.25638  -0.000003175294183   0.000003808828495  -0.000001515839200
Si   14.25638   3.39437  11.54087   0.000000430440464  -0.000000236038843   0.000003145156605
Si   15.61413   2.03662  12.89862  -0.000002727555533  -0.000002713037813  -0.000000527217211
Si   15.61413   4.75212  15.61413  -0.000001195426083   0.000000379125725   0.000005218664380
Si   12.89862   2.03662  15.61413   0.000000262544564  -0.000007774867084  -0.000000071872372
Si   12.89862   4.75212  12.89862  -0.000000590624250  -0.000004182857956   0.000000849735104
Si   11.54087   6.10987   0.67888   0.000005756987316  -0.000005767099271  -0.000003143681624
Si   14.25638   6.10987   3.39437  -0.000001432227672  -0.000002675918087   0.000005881316156
Si   11.54087   8.82537   3.39437   0.000001509720219   0.000001981534008   0.000000920537479
Si   14.25638   8.82537   0.67888  -0.000001692732374  -0.000000871325104  -0.000002179444397
Si   15.61413   7.46762   2.03662  -0.000001761352246  -0.000005439990555  -0.000000042122994
Si   15.61413  10.18313   4.75213   0.000003922978442  -0.000008468244268  -0.000003034530924
Si   12.89862   7.46762   4.75213   0.000000756238362   0.000001605699117  -0.000001764968444
Si   12.89862  10.18313   2.03662  -0.000002179020252   0.000000763594372  -0.000000870555794
Si   11.54087   6.10987   6.10987  -0.000003799669446   0.000002271589658  -0.000001303065992
Si   14.25638   6.10987   8.82537  -0.000002605721227  -0.000002345233716  -0.000006273505178
Si   11.54087   8.82537   8.82537   0.000002892483982   0.000001406932388  -0.000001136494974
Si   14.25638   8.82537   6.10987   0.000002757582996   0.000001041787405  -0.000000665120430
Si   15.61413   7.46762   7.46762   0.000002345463785   0.000002605764929   0.000006273362762
Si   15.61413  10.18313  10.18313  -0.000002271637294   0.000003799835577   0.000001303004995
Si   12.89862   7.46762  10.18313  -0.000001041702159  -0.000002757379824   0.000000665080037
Si   12.89862  10.18313   7.46762  -0.000001406675944  -0.000002892253550   0.000001136639249
Si   11.54087   6.10987  11.54087   0.000008468352656  -0.000003922953403   0.000003034680017
Si   14.25638   6.10987  14.25638   0.000005440084840   0.000001761274484   0.000000041981328
Si   11.54087   8.82537  14.25638  -0.000000763435864   0.000002179178502   0.000000870477706
Si   14.25638   8.82537  11.54087  -0.000001605811748  -0.000000756063864   0.000001765044642
Si   15.61413   7.46762  12.89862   0.000002675889477   0.000001432217839  -0.000005881390826
Si   15.61413  10.18313  15.61413   0.000005767043592  -0.000005757017809   0.000003143831682
Si   12.89862   7.46762  15.61413   0.000000871434319   0.000001692879411   0.000002179532311
Si   12.89862  10.18313  12.89862  -0.000001981371284  -0.000001509739725  -0.000000920552921
Si   11.54087  11.54087   0.67888   0.000000711053215   0.000000711080968   0.000001295446075
Si   14.25638  11.54087   3.39437  -0.000007341234256  -0.000000633495415   0.000004960548986
Si   11.54087  14.25638   3.39437  -0.000000633773420  -0.000007341176360   0.000004960587774
Si   14.25638  14.25638   0.67888   0.000003715137654   0.000003715305363   0.000006872398594
Si   15.61413  12.89862   2.03662  -0.000001549737528   0.000005181988887   0.000000901684953
Si   15.61413  15.61413   4.75213  -0.000002339684584  -0.000002339433218   0.000002180363327
Si   12.89862  12.89862   4.75213  -0.000004017050668  -0.000004016885596  -0.000003474656956
Si   12.89862  15.61413   2.03662   0.000005182004271  -0.000001549599682   0.000000901540957
Si   11.54087  11.54087   6.10987   0.000001979701097   0.000001979932611   0.000001682398862
Si   14.25638  11.54087   8.82537  -0.000006326082276  -0.000001814066608  -0.000005756505848
Si   11.54087  14.25638   8.82537  -0.000001814307306  -0.000006326068412  -0.000005756409257
Si   14.25638  14.25638   6.10987   0.000005643624842   0.000005643872168  -0.000000362100958
Si   15.61413  12.89862   7.46762   0.000000065811550  -0.000007651214876  -0.000000790601492
Si   15.61413  15.61413  10.18313   0.000004832326720   0.000004832533889  -0.000001363442905
Si   12.89862  12.89862  10.18313  -0.000001977567859  -0.000001977278951  -0.000000890487828
Si   12.89862  15.61413   7.46762  -0.000007651207898   0.000000066009114  -0.000000790678507
Si   11.54087  11.54087  11.54087   0.000001483614767   0.000001484042036  -0.000001029784161
Si   14.25638  11.54087  14.25638   0.000002472703512   0.000007110859564   0.000000440879937
Si   11.54087  14.25638  14.25638   0.000007110673513   0.000002472981754   0.000000440714976
Si   14.25638  14.25638  11.54087   0.000003672254145   0.000003672537664  -0.000006752970162
Si   15.61413  12.89862  12.89862  -0.000001191719026  -0.000008578509481   0.000000040068133
Si   15.61413  15.61413  15.61413  -0.000003857407686  -0.000003857053209   0.000000005536457
Si   12.89862  12.89862  15.61413  -0.000004665554450  -0.000004665380633   0.000003516773398
Si   12.89862  15.61413  12.89862  -0.000008578892939  -0.000001191587258   0.000000040069236
Si   11.54087  16.97188   0.67888   0.000000184803237   0.000002349480677  -0.000002208981456
Si   14.25638  16.97188   3.39437   0.000000432153083  -0.000001130740425  -0.000001687347701
Si   11.54087  19.68738   3.39437  -0.000003473874389   0.000000043226975  -0.000000471410612
Si   14.25638  19.68738   0.67888   0.000001468093370  -0.000001687871623  -0.000006324505649
Si   15.61413  18.32963   2.03662  -0.000002000937893   0.000002940771545  -0.000001111191120
Si   15.61413  21.04512   4.75213  -0.000003407750578  -0.000000087332983   0.000000425850587
Si   12.89862  18.32963   4.75213   0.000003444617728  -0.000000147878095  -0.000003858758946
Si   12.89862  21.04512   2.03662  -0.000001469574594  -0.000000138353131  -0.000001037495812
Si   11.54087  16.97188   6.10987  -0.000002671673339  -0.000001848686805  -0.000000920954953
Si   14.25638  16.97188   8.82537  -0.000001966401949  -0.000001037029861   0.000002559843226
Si   11.54087  19.68738   8.82537  -0.000002696239310   0.000001910568153  -0.000001633447689
Si   14.25638  19.68738   6.10987  -0.000006387245112   0.000002055384298   0.000000250129968
Si   15.61413  18.32963   7.46762   0.000005288290915  -0.000007203829049   0.000002219584411
Si   15.61413  21.04512  10.18313   0.000001036580637   0.000001361327632   0.000000510926536
Si   12.89862  18.32963  10.18313  -0.000004613514908  -0.000000596835288   0.000000323288039
Si   12.89862  21.04512   7.46762  -0.000001437679058   0.000000023445635  -0.000002426089093
Si   11.54087  16.97188  11.54087   0.000001000978664   0.000002105300826   0.000003115832597
Si   14.25638  16.97188  14.25638  -0.000002568758913  -0.000002006464244  -0.000000595916109
Si   11.54087  19.68738  14.25638  -0.000001262514295  -0.000002104502798   0.000000436886920
Si   14.25638  19.68738  11.54087   0.000000696885252  -0.000003415049184   0.000006810239313
Si   15.61413  18.32963  12.89862   0.000005763600467  -0.000005635854506  -0.000003492382321
Si   15.61413  21.04512  15.61413  -0.000001619812233  -0.000003189233320  -0.000002412846566
Si   12.89862  18.32963  15.61413   0.000003965309251   0.000001990688953   0.000004818285130
Si   12.89862  21.04512  12.89862  -0.000001327069700  -0.000002211686988   0.000002615643224
Si   16.97188   0.67887   0.67888   0.000002485978855  -0.000000758023233  -0.000004554535065
Si   19.68738   0.67887   3.39437   0.000002868540459   0.000003155151334   0.000001081735127
Si   16.97188   3.39437   3.39437   0.000002276672602   0.000002559916241   0.000002444199640
Si   19.68738   3.39437   0.67888  -0.000005992261066  -0.000007101966664  -0.000001180720482
Si   21.04512   2.03662   2.03662   0.000000878434981   0.000002171731388   0.000000234074582
Si   21.04512   4.75212   4.75213   0.000000426570145  -0.000001915357387  -0.000003552667478
Si   18.32963   2.03662   4.75213   0.000007184032408   0.000004586751751  -0.000003018305873
Si   18.32963   4.75212   2.03662  -0.000000749820777  -0.000000875213887  -0.000000968140598
Si   16.97188   0.67887   6.10987  -0.000010277030449  -0.000003479888925   0.000000544906544
Si   19.68738   0.67887   8.82537   0.000001223089583   0.000004852160987  -0.000001542119857
Si   16.97188   3.39437   8.82537   0.000002560071433   0.000002905214113  -0.000002081290685
Si   19.68738   3.39437   6.10987  -0.000001075821566   0.000002046443488  -0.000000628017683
Si   21.04512   2.03662   7.46762  -0.000004852081280  -0.000001223050212   0.000001542115824
Si   21.04512   4.75212  10.18313   0.000003479916487   0.000010277076961  -0.000000544713640
Si   18.32963   2.03662  10.18313  -0.000002046421826   0.000001075901972   0.000000628006188
Si   18.32963   4.75212   7.46762  -0.000002905105853  -0.000002559912838   0.000002081383108
Si   16.97188   0.67887  11.54087   0.000001915439473  -0.000000426473818   0.000003552772679
Si   19.68738   0.67887  14.25638  -0.000002171697892  -0.000000878481726  -0.000000234065394
Si   16.97188   3.39437  14.25638   0.000000875142270   0.000000749798671   0.000000968192776
Si   19.68738   3.39437  11.54087  -0.000004586582175  -0.000007183858214   0.000003018456175
Si   21.04512   2.03662  12.89862  -0.000003154991547  -0.000002868503222  -0.000001081759515
Si   21.04512   4.75212  15.61413   0.000000757994711  -0.000002485927159   0.000004554346013
Si   18.32963   2.03662  15.61413   0.000007101972030   0.000005992162216   0.000001180689074
Si   18.32963   4.75212  12.89862  -0.000002559709607  -0.000002276687824  -0.000002444310420
Si   16.97188   6.10987   0.67888  -0.000000379299820   0.000001195464173  -0.000005218617601
Si   19.68738   6.10987   3.39437   0.000002713108627   0.000002727494631   0.000000527274396
Si   16.97188   8.82537   3.39437   0.000004182733699   0.000000590731497  -0.000000849703957
Si   19.68738   8.82537   0.67888   0.000007774791897  -0.000000262603593   0.000000071729570
Si   21.04512   7.46762   2.03662  -0.000003956174830   0.000004248056774  -0.000000324380584
Si   21.04512  10.18313   4.75213   0.000006353264525  -0.000002713017400  -0.000004752472997
Si   18.32963   7.46762   4.75213   0.000000235857617  -0.000000430459101  -0.000003144901359
Si   18.32963  10.18313   2.03662  -0.000003809014852   0.000003175205121   0.000001515846380
Si   16.97188   6.10987   6.10987  -0.000007656131706   0.000001764528431  -0.000000133387493
Si   19.68738   6.10987   8.82537   0.000002784522816   0.000002365425605   0.000000309601402
Si   16.97188   8.82537   8.82537   0.000006277728345   0.000002011578595   0.000002876070876
Si   19.68738   8.82537   6.10987   0.000004023676027  -0.000005474674321  -0.000000748472522
Si   21.04512   7.46762   7.46762   0.000003222078932  -0.000001261154865   0.000005794539581
Si   21.04512  10.18313  10.18313  -0.000001991164342   0.000003518057337  -0.000000137635110
Si   18.32963   7.46762  10.18313  -0.000007352171115  -0.000005929008098   0.000000202114147
Si   18.32963  10.18313   7.46762  -0.000005881968568   0.000001779034258  -0.000002226019304
Si   16.97188   6.10987  11.54087   0.000001424492092  -0.000000812789960   0.000003373901891
Si   19.68738   6.10987  14.25638  -0.000001510087060   0.000003982293531   0.000000588963034
Si   16.97188   8.82537  14.25638   0.000000234569467  -0.000001157754995  -0.000000300898294
Si   19.68738   8.82537  11.54087   0.000005668985916   0.000000563438763  -0.000000869071000
Si   21.04512   7.46762  12.89862   0.000002155249944  -0.000000712095845  -0.000005543884482
Si   21.04512  10.18313  15.61413   0.000006918718379  -0.000006112060188   0.000003361621176
Si   18.32963   7.46762  15.61413   0.000000329818544  -0.000000518423455   0.000002631818526
Si   18.32963  10.18313  12.89862  -0.000005332522389   0.000002288641405   0.000003078722193
Si   16.97188  11.54087   0.67888   0.000002349364886   0.000000184739482  -0.000002208976038
Si   19.68738  11.54087   3.39437   0.000000043316038  -0.000003473926732  -0.000000471177417
Si   16.97188  14.25638   3.39437  -0.000001130909159   0.000000432097520  -0.000001687323556
Si   19.68738  14.25638   0.67888  -0.000001687917146   0.000001468052854  -0.000006324319366
Si   21.04512  12.89862   2.03662  -0.000000138297520  -0.000001469648533  -0.000001037294018
Si   21.04512  15.61413   4.75213  -0.000000087416507  -0.000003407788210   0.000000425857783
Si   18.32963  12.89862   4.75213  -0.000000147845885   0.000003444474755  -0.000003858988701
Si   18.32963  15.61413   2.03662   0.000002940678903  -0.000002000831242  -0.000001111025962
Si   16.97188  11.54087   6.10987  -0.000001848773107  -0.000002671885653  -0.000000921159749
Si   19.68738  11.54087   8.82537   0.000001910783696  -0.000002696473810  -0.000001633553505
Si   16.97188  14.25638   8.82537  -0.000001037301410  -0.000001966199552   0.000002559834648
Si   19.68738  14.25638   6.10987   0.000002055423615  -0.000006387276187   0.000000250007295
Si   21.04512  12.89862   7.46762   0.000000023548854  -0.000001437907027  -0.000002426193296
Si   21.04512  15.61413  10.18313   0.000001361267477   0.000001036756515   0.000000510956648
Si   18.32963  12.89862  10.18313  -0.000000597009659  -0.000004613468082   0.000000323251384
Si   18.32963  15.61413   7.46762  -0.000007204013716   0.000005288614036   0.000002219672006
Si   16.97188  11.54087  11.54087   0.000002105285622   0.000001001111431   0.000003115672155
Si   19.68738  11.54087  14.25638  -0.000002104509423  -0.000001262655775   0.000000436866007
Si   16.97188  14.25638  14.25638  -0.000002006640760  -0.000002568575812  -0.000000596021290
Si   19.68738  14.25638  11.54087  -0.000003415202927   0.000000697158753   0.000006810317732
Si   21.04512  12.89862  12.89862  -0.000002211656182  -0.000001327150051   0.000002615700351
Si   21.04512  15.61413  15.61413  -0.000003189292424  -0.000001619832416  -0.000002412942595
Si   18.32963  12.89862  15.61413   0.000001990546813   0.000003965248196   0.000004818270799
Si   18.32963  15.61413  12.89862  -0.000005636027472   0.000005763722763  -0.000003492492822
Si   16.97188  16.97188   0.67888   0.000001375858625   0.000001376250561  -0.000004813771952
Si   19.68738  16.97188   3.39437   0.000000118115893  -0.000000209282538   0.000000884159912
Si   16.97188  19.68738   3.39437  -0.000000209530817   0.000000118403583   0.000000884099597
Si   19.68738  19.68738   0.67888  -0.000000043465954  -0.000000043248178  -0.000002438978791
Si   21.04512  18.32963   2.03662  -0.000007078959604   0.000000393187753   0.000000029510404
Si   21.04512  21.04512   4.75213  -0.000003757615619  -0.000003757392162  -0.000005236461418
Si   18.32963  18.32963   4.75213  -0.000002718401778  -0.000002718276615  -0.000005988378893
Si   18.32963  21.04512   2.03662   0.000000392775750  -0.000007078942692   0.000000029376165
Si   16.97188  16.97188   6.10987   0.000000895634107   0.000000895921348  -0.000001254984084
Si   19.68738  16.97188   8.82537   0.000000900319205  -0.000001267325992  -0.000001363913903
Si   16.97188  19.68738   8.82537  -0.000001267447046   0.000000900531379  -0.000001363972543
Si   19.68738  19.68738   6.10987  -0.000000066559974  -0.000000066304507  -0.000000225597513
Si   21.04512  18.32963   7.46762   0.000005115247051   0.000002759603252   0.000009135448777
Si   21.04512  21.04512  10.18313   0.000004899077380   0.000004899326372  -0.000000333424360
Si   18.32963  18.32963  10.18313   0.000004153519115   0.000004153709769  -0.000000193809689
Si   18.32963  21.04512   7.46762   0.000002759402701   0.000005115280894   0.000009135352988
Si   16.97188  16.97188  11.54087   0.000002021539384   0.000002021725208   0.000003168767807
Si   19.68738  16.97188  14.25638  -0.000000377775548   0.000000011848417   0.000000871218370
Si   16.97188  19.68738  14.25638   0.000000011634768  -0.000000377642377   0.000000871471257
Si   19.68738  19.68738  11.54087   0.000002167731718   0.000002167989252   0.000003637341607
Si   21.04512  18.32963  12.89862   0.000005615038253   0.000002077372459  -0.000007891999339
Si   21.04512  21.04512  15.61413  -0.000003780073299  -0.000003779981491   0.000004943485605
Si   18.32963  18.32963  15.61413  -0.000002232448705  -0.000002231978770   0.000005445926146
Si   18.32963  21.04512  12.89862   0.000002077317311   0.000005615274545  -0.000007891967478
