CRYSTAL
PRIMVEC
  16.293000   0.000000   0.000000
   0.000000  16.293000   0.000000
   0.000000   0.000000  16.293000
PRIMCOORD
 216 1
Si     6.789E-01     6.789E-01     6.789E-01    -3.853E-11     6.048E-11    -9.384E-12
Si     3.394E+00     6.789E-01     3.394E+00     3.003E-11    -1.584E-10    -1.539E-10
Si     6.789E-01     3.394E+00     3.394E+00    -1.163E-10    -5.557E-12     5.585E-11
Si     3.394E+00     3.394E+00     6.789E-01    -6.255E-11    -1.644E-10     1.513E-10
Si     4.752E+00     2.037E+00     2.037E+00    -1.099E-10     3.209E-10     2.930E-11
Si     4.752E+00     4.752E+00     4.752E+00     1.170E-10     6.852E-11     5.879E-11
Si     2.037E+00     2.037E+00     4.752E+00    -1.411E-10     8.723E-11    -2.911E-11
Si     2.037E+00     4.752E+00     2.037E+00    -9.832E-11    -3.011E-11     1.334E-10
Si     6.789E-01     6.789E-01     6.110E+00    -1.304E-11     6.821E-11    -1.599E-10
Si     3.394E+00     6.789E-01     8.825E+00    -1.473E-11    -1.242E-10     2.039E-10
Si     6.789E-01     3.394E+00     8.825E+00     1.398E-10     1.288E-10     1.056E-10
Si     3.394E+00     3.394E+00     6.110E+00     8.653E-11    -2.384E-11     1.446E-10
Si     4.752E+00     2.037E+00     7.468E+00     2.055E-13     5.835E-11    -5.645E-11
Si     4.752E+00     4.752E+00     1.018E+01    -1.404E-10     4.101E-11    -7.741E-11
Si     2.037E+00     2.037E+00     1.018E+01    -1.199E-10    -7.745E-11     7.581E-11
Si     2.037E+00     4.752E+00     7.468E+00     5.587E-12    -4.175E-12     1.033E-10
Si     6.789E-01     6.789E-01     1.154E+01     5.706E-11     2.082E-10     3.303E-11
Si     3.394E+00     6.789E-01     1.426E+01     1.483E-11    -2.029E-10    -1.856E-10
Si     6.789E-01     3.394E+00     1.426E+01     2.019E-11     2.018E-10    -1.101E-10
Si     3.394E+00     3.394E+00     1.154E+01    -4.227E-11     1.119E-11     1.403E-10
Si     4.752E+00     2.037E+00     1.290E+01     2.714E-11     5.566E-11    -1.276E-10
Si     4.752E+00     4.752E+00     1.561E+01     1.991E-11     1.709E-10    -8.755E-11
Si     2.037E+00     2.037E+00     1.561E+01    -1.695E-10     2.358E-11     7.093E-11
Si     2.037E+00     4.752E+00     1.290E+01    -1.400E-10    -6.810E-11    -4.859E-11
Si     6.789E-01     6.110E+00     6.789E-01     1.292E-10     1.257E-10    -1.387E-10
Si     3.394E+00     6.110E+00     3.394E+00     1.932E-10     1.072E-10     1.156E-11
Si     6.789E-01     8.825E+00     3.394E+00    -1.717E-10    -3.206E-11     1.604E-10
Si     3.394E+00     8.825E+00     6.789E-01    -1.677E-10     2.259E-10     1.898E-11
Si     4.752E+00     7.468E+00     2.037E+00    -6.288E-11     7.470E-11    -1.159E-10
Si     4.752E+00     1.018E+01     4.752E+00    -6.921E-11    -1.853E-10     1.212E-10
Si     2.037E+00     7.468E+00     4.752E+00     1.784E-10    -1.489E-10     2.367E-10
Si     2.037E+00     1.018E+01     2.037E+00     9.630E-12    -4.600E-12     1.685E-10
Si     6.789E-01     6.110E+00     6.110E+00    -6.229E-11     7.504E-11     5.051E-11
Si     3.394E+00     6.110E+00     8.825E+00     6.024E-12    -7.243E-11    -1.686E-10
Si     6.789E-01     8.825E+00     8.825E+00    -5.752E-11    -8.579E-12     7.667E-11
Si     3.394E+00     8.825E+00     6.110E+00    -1.028E-10    -4.120E-11    -5.596E-11
Si     4.752E+00     7.468E+00     7.468E+00     1.380E-10     9.538E-11    -1.031E-10
Si     4.752E+00     1.018E+01     1.018E+01    -3.158E-11     1.493E-10     1.528E-10
Si     2.037E+00     7.468E+00     1.018E+01    -1.426E-10     4.708E-11     1.728E-11
Si     2.037E+00     1.018E+01     7.468E+00    -3.900E-12    -8.948E-11     1.655E-10
Si     6.789E-01     6.110E+00     1.154E+01     6.404E-11    -4.392E-11    -4.751E-11
Si     3.394E+00     6.110E+00     1.426E+01    -3.029E-11     1.765E-10     1.270E-10
Si     6.789E-01     8.825E+00     1.426E+01    -1.250E-10     2.225E-11    -1.869E-10
Si     3.394E+00     8.825E+00     1.154E+01    -8.252E-11     7.222E-11     1.529E-10
Si     4.752E+00     7.468E+00     1.290E+01     7.562E-11     7.390E-12     1.135E-10
Si     4.752E+00     1.018E+01     1.561E+01    -1.613E-11    -1.896E-11    -1.226E-11
Si     2.037E+00     7.468E+00     1.561E+01     4.016E-11     6.275E-11     1.265E-10
Si     2.037E+00     1.018E+01     1.290E+01    -8.136E-11    -1.912E-11    -8.781E-11
Si     6.789E-01     1.154E+01     6.789E-01     1.053E-10    -6.520E-11    -1.900E-11
Si     3.394E+00     1.154E+01     3.394E+00     4.131E-11    -4.811E-11    -1.080E-10
Si     6.789E-01     1.426E+01     3.394E+00    -9.395E-11     4.613E-11    -1.724E-10
Si     3.394E+00     1.426E+01     6.789E-01    -6.900E-11    -6.083E-12     1.563E-11
Si     4.752E+00     1.290E+01     2.037E+00     6.700E-11     1.917E-11     9.807E-11
Si     4.752E+00     1.561E+01     4.752E+00    -8.002E-11     1.022E-10    -7.387E-11
Si     2.037E+00     1.290E+01     4.752E+00     2.032E-11    -1.538E-10    -8.292E-12
Si     2.037E+00     1.561E+01     2.037E+00     2.436E-11     1.018E-11    -3.160E-11
Si     6.789E-01     1.154E+01     6.110E+00     1.214E-10     1.579E-10    -2.616E-11
Si     3.394E+00     1.154E+01     8.825E+00     1.543E-10    -1.161E-10    -6.095E-11
Si     6.789E-01     1.426E+01     8.825E+00    -9.067E-12     3.901E-12    -1.285E-10
Si     3.394E+00     1.426E+01     6.110E+00    -9.996E-11    -1.063E-10    -1.952E-10
Si     4.752E+00     1.290E+01     7.468E+00    -6.324E-11    -6.487E-12     9.519E-13
Si     4.752E+00     1.561E+01     1.018E+01     2.356E-10    -1.166E-10    -8.992E-11
Si     2.037E+00     1.290E+01     1.018E+01    -5.091E-11     5.900E-11    -2.449E-10
Si     2.037E+00     1.561E+01     7.468E+00    -1.081E-11     1.962E-10    -4.455E-11
Si     6.789E-01     1.154E+01     1.154E+01    -1.787E-11    -2.767E-11     3.069E-11
Si     3.394E+00     1.154E+01     1.426E+01    -1.438E-10    -5.627E-11    -5.710E-11
Si     6.789E-01     1.426E+01     1.426E+01     1.645E-11    -9.060E-11    -9.327E-11
Si     3.394E+00     1.426E+01     1.154E+01     1.009E-10     1.436E-10    -6.330E-11
Si     4.752E+00     1.290E+01     1.290E+01     5.071E-11     1.946E-10     1.302E-11
Si     4.752E+00     1.561E+01     1.561E+01    -6.258E-11     2.294E-10    -1.492E-10
Si     2.037E+00     1.290E+01     1.561E+01     2.282E-10    -1.313E-10     7.340E-11
Si     2.037E+00     1.561E+01     1.290E+01    -4.458E-11    -2.036E-11     4.140E-11
Si     6.110E+00     6.789E-01     6.789E-01    -5.914E-11     7.099E-11    -1.744E-11
Si     8.825E+00     6.789E-01     3.394E+00    -1.445E-11     1.423E-11    -3.719E-12
Si     6.110E+00     3.394E+00     3.394E+00    -1.620E-12     8.560E-11     9.891E-11
Si     8.825E+00     3.394E+00     6.789E-01     9.818E-11     2.267E-11     9.298E-11
Si     1.018E+01     2.037E+00     2.037E+00    -5.760E-11    -1.007E-10     7.909E-11
Si     1.018E+01     4.752E+00     4.752E+00     1.253E-10    -1.041E-10    -1.361E-10
Si     7.468E+00     2.037E+00     4.752E+00     1.153E-10    -4.599E-11    -4.089E-11
Si     7.468E+00     4.752E+00     2.037E+00    -1.266E-11    -9.144E-12    -6.681E-11
Si     6.110E+00     6.789E-01     6.110E+00     3.717E-11     7.552E-11    -7.676E-11
Si     8.825E+00     6.789E-01     8.825E+00     1.807E-11    -4.734E-11     1.056E-10
Si     6.110E+00     3.394E+00     8.825E+00    -1.944E-11     4.094E-11    -8.455E-11
Si     8.825E+00     3.394E+00     6.110E+00     2.073E-10     1.621E-11    -2.152E-10
Si     1.018E+01     2.037E+00     7.468E+00    -4.067E-11     8.119E-11    -1.505E-10
Si     1.018E+01     4.752E+00     1.018E+01    -1.048E-10     6.945E-11    -5.396E-11
Si     7.468E+00     2.037E+00     1.018E+01     1.482E-11     9.607E-11     1.148E-10
Si     7.468E+00     4.752E+00     7.468E+00     3.718E-11    -8.088E-11    -2.129E-10
Si     6.110E+00     6.789E-01     1.154E+01     1.447E-10    -7.607E-11     7.004E-12
Si     8.825E+00     6.789E-01     1.426E+01    -4.481E-11    -1.786E-10     2.040E-11
Si     6.110E+00     3.394E+00     1.426E+01     6.815E-11    -1.276E-10    -4.842E-11
Si     8.825E+00     3.394E+00     1.154E+01    -5.322E-11    -9.623E-11    -9.222E-11
Si     1.018E+01     2.037E+00     1.290E+01     5.131E-11    -9.842E-11     4.341E-11
Si     1.018E+01     4.752E+00     1.561E+01     1.148E-10     7.899E-11     2.068E-10
Si     7.468E+00     2.037E+00     1.561E+01    -2.226E-11    -1.095E-10    -2.669E-11
Si     7.468E+00     4.752E+00     1.290E+01     3.483E-11    -9.053E-11     4.305E-12
Si     6.110E+00     6.110E+00     6.789E-01     7.995E-11     8.590E-11     1.115E-10
Si     8.825E+00     6.110E+00     3.394E+00    -1.185E-11     1.059E-11     7.415E-12
Si     6.110E+00     8.825E+00     3.394E+00    -3.423E-11    -1.530E-10    -5.549E-11
Si     8.825E+00     8.825E+00     6.789E-01    -1.012E-10     1.576E-10     7.465E-11
Si     1.018E+01     7.468E+00     2.037E+00    -1.266E-11     2.023E-11     1.249E-10
Si     1.018E+01     1.018E+01     4.752E+00    -5.062E-11     2.295E-10    -7.480E-11
Si     7.468E+00     7.468E+00     4.752E+00    -1.153E-10    -1.313E-11     5.387E-11
Si     7.468E+00     1.018E+01     2.037E+00     1.392E-12    -4.903E-11    -1.237E-10
Si     6.110E+00     6.110E+00     6.110E+00     9.330E-12    -1.514E-11     6.290E-11
Si     8.825E+00     6.110E+00     8.825E+00     6.028E-11     1.378E-12     6.400E-11
Si     6.110E+00     8.825E+00     8.825E+00     9.263E-11    -7.594E-11     2.985E-10
Si     8.825E+00     8.825E+00     6.110E+00     1.673E-10    -4.165E-11     1.059E-10
Si     1.018E+01     7.468E+00     7.468E+00    -1.078E-10    -1.496E-10    -7.286E-11
Si     1.018E+01     1.018E+01     1.018E+01     1.049E-11    -8.127E-11     7.185E-11
Si     7.468E+00     7.468E+00     1.018E+01    -1.030E-10    -1.576E-10    -7.602E-11
Si     7.468E+00     1.018E+01     7.468E+00    -1.162E-10     1.218E-10    -3.757E-11
Si     6.110E+00     6.110E+00     1.154E+01     4.990E-11    -1.776E-10    -1.395E-10
Si     8.825E+00     6.110E+00     1.426E+01    -1.663E-10    -5.818E-12     9.567E-11
Si     6.110E+00     8.825E+00     1.426E+01    -7.457E-11    -5.906E-11     6.648E-11
Si     8.825E+00     8.825E+00     1.154E+01    -1.160E-10    -1.445E-11    -9.220E-12
Si     1.018E+01     7.468E+00     1.290E+01    -2.243E-10    -8.912E-11    -1.406E-11
Si     1.018E+01     1.018E+01     1.561E+01    -7.984E-11     3.530E-11     1.302E-11
Si     7.468E+00     7.468E+00     1.561E+01     1.665E-11    -1.453E-11     7.246E-11
Si     7.468E+00     1.018E+01     1.290E+01     4.078E-11     1.039E-10    -8.235E-11
Si     6.110E+00     1.154E+01     6.789E-01    -6.545E-11     2.335E-11     1.946E-11
Si     8.825E+00     1.154E+01     3.394E+00    -1.792E-10     1.246E-10     3.402E-11
Si     6.110E+00     1.426E+01     3.394E+00     4.088E-11     8.682E-11    -4.913E-11
Si     8.825E+00     1.426E+01     6.789E-01    -1.745E-10     1.526E-10     1.275E-11
Si     1.018E+01     1.290E+01     2.037E+00    -9.788E-11    -1.147E-10    -7.126E-11
Si     1.018E+01     1.561E+01     4.752E+00    -5.361E-11     2.603E-12    -5.979E-11
Si     7.468E+00     1.290E+01     4.752E+00     3.432E-11     1.113E-10     1.300E-10
Si     7.468E+00     1.561E+01     2.037E+00    -8.730E-11     1.364E-10    -3.613E-11
Si     6.110E+00     1.154E+01     6.110E+00    -4.697E-11     8.917E-11     1.916E-11
Si     8.825E+00     1.154E+01     8.825E+00    -5.067E-11    -6.328E-11    -1.110E-10
Si     6.110E+00     1.426E+01     8.825E+00     8.191E-11    -2.654E-11    -2.622E-10
Si     8.825E+00     1.426E+01     6.110E+00    -5.189E-11    -4.982E-11    -6.702E-11
Si     1.018E+01     1.290E+01     7.468E+00     3.983E-11     2.429E-10     7.506E-11
Si     1.018E+01     1.561E+01     1.018E+01    -4.401E-11     6.589E-11     9.202E-11
Si     7.468E+00     1.290E+01     1.018E+01    -5.778E-11     9.475E-11    -4.170E-11
Si     7.468E+00     1.561E+01     7.468E+00    -7.788E-11     1.347E-10     1.209E-10
Si     6.110E+00     1.154E+01     1.154E+01     5.496E-11    -8.799E-11     1.668E-11
Si     8.825E+00     1.154E+01     1.426E+01    -1.315E-10    -1.256E-11    -6.512E-11
Si     6.110E+00     1.426E+01     1.426E+01     1.571E-11    -6.933E-12    -1.863E-12
Si     8.825E+00     1.426E+01     1.154E+01     5.189E-11     2.559E-11    -1.985E-10
Si     1.018E+01     1.290E+01     1.290E+01     3.822E-11    -5.094E-11    -1.158E-12
Si     1.018E+01     1.561E+01     1.561E+01     1.312E-10    -8.170E-11     1.627E-10
Si     7.468E+00     1.290E+01     1.561E+01    -9.712E-11     8.299E-11    -5.469E-11
Si     7.468E+00     1.561E+01     1.290E+01    -6.516E-11     1.551E-10     2.933E-10
Si     1.154E+01     6.789E-01     6.789E-01    -2.362E-11     1.141E-10     3.840E-11
Si     1.426E+01     6.789E-01     3.394E+00    -1.637E-10    -1.546E-10    -5.815E-11
Si     1.154E+01     3.394E+00     3.394E+00     8.420E-11     1.208E-10     1.038E-10
Si     1.426E+01     3.394E+00     6.789E-01    -3.434E-11     5.960E-11    -3.178E-11
Si     1.561E+01     2.037E+00     2.037E+00     7.849E-11     5.490E-11    -2.231E-11
Si     1.561E+01     4.752E+00     4.752E+00     4.064E-11     1.917E-11     4.761E-11
Si     1.290E+01     2.037E+00     4.752E+00    -1.136E-10    -5.605E-11    -1.743E-10
Si     1.290E+01     4.752E+00     2.037E+00     1.384E-11     7.997E-11    -1.965E-10
Si     1.154E+01     6.789E-01     6.110E+00    -8.792E-11     2.330E-11    -7.418E-11
Si     1.426E+01     6.789E-01     8.825E+00    -1.511E-10    -3.092E-10    -4.945E-11
Si     1.154E+01     3.394E+00     8.825E+00     1.919E-10    -3.127E-11    -1.220E-10
Si     1.426E+01     3.394E+00     6.110E+00     1.379E-10     5.612E-11    -4.693E-11
Si     1.561E+01     2.037E+00     7.468E+00    -6.465E-12     1.396E-10    -5.191E-11
Si     1.561E+01     4.752E+00     1.018E+01    -1.282E-10     1.254E-10    -1.871E-11
Si     1.290E+01     2.037E+00     1.018E+01    -8.621E-11    -1.671E-10    -5.875E-11
Si     1.290E+01     4.752E+00     7.468E+00     1.607E-11    -2.062E-10    -8.151E-11
Si     1.154E+01     6.789E-01     1.154E+01    -7.300E-11     8.085E-11    -4.791E-11
Si     1.426E+01     6.789E-01     1.426E+01    -2.087E-10    -8.699E-12     1.406E-10
Si     1.154E+01     3.394E+00     1.426E+01     2.775E-11     5.376E-11    -1.032E-10
Si     1.426E+01     3.394E+00     1.154E+01     1.451E-10     1.149E-10    -1.433E-10
Si     1.561E+01     2.037E+00     1.290E+01    -5.179E-11     7.460E-11     1.079E-10
Si     1.561E+01     4.752E+00     1.561E+01     1.347E-10     8.283E-11     1.231E-10
Si     1.290E+01     2.037E+00     1.561E+01    -6.552E-11    -1.504E-10     1.079E-10
Si     1.290E+01     4.752E+00     1.290E+01    -1.519E-10    -7.964E-11     1.915E-10
Si     1.154E+01     6.110E+00     6.789E-01    -4.095E-11     5.343E-11     3.630E-11
Si     1.426E+01     6.110E+00     3.394E+00    -1.114E-10    -1.494E-11    -1.116E-11
Si     1.154E+01     8.825E+00     3.394E+00    -3.115E-11    -2.045E-10     1.423E-10
Si     1.426E+01     8.825E+00     6.789E-01    -1.454E-10     1.544E-11     8.927E-11
Si     1.561E+01     7.468E+00     2.037E+00    -7.486E-11    -3.683E-11     2.037E-10
Si     1.561E+01     1.018E+01     4.752E+00    -2.620E-10    -6.215E-11     2.556E-10
Si     1.290E+01     7.468E+00     4.752E+00    -3.870E-11     7.021E-11     6.372E-11
Si     1.290E+01     1.018E+01     2.037E+00    -2.088E-10    -1.016E-10    -4.019E-11
Si     1.154E+01     6.110E+00     6.110E+00    -1.688E-10    -1.884E-11     2.701E-12
Si     1.426E+01     6.110E+00     8.825E+00     7.337E-11     2.251E-12     1.166E-10
Si     1.154E+01     8.825E+00     8.825E+00    -1.036E-10     2.458E-11    -5.203E-11
Si     1.426E+01     8.825E+00     6.110E+00    -1.798E-10     1.012E-10     3.724E-11
Si     1.561E+01     7.468E+00     7.468E+00    -7.207E-11    -1.722E-10    -1.312E-10
Si     1.561E+01     1.018E+01     1.018E+01    -1.419E-10    -3.996E-11     6.101E-11
Si     1.290E+01     7.468E+00     1.018E+01    -1.305E-10    -4.509E-11     1.611E-10
Si     1.290E+01     1.018E+01     7.468E+00     3.463E-11    -3.981E-11    -1.031E-11
Si     1.154E+01     6.110E+00     1.154E+01    -1.681E-10    -3.791E-11     6.469E-11
Si     1.426E+01     6.110E+00     1.426E+01    -5.723E-11     4.211E-11     5.818E-11
Si     1.154E+01     8.825E+00     1.426E+01    -5.644E-11     1.623E-10    -2.304E-11
Si     1.426E+01     8.825E+00     1.154E+01    -1.953E-11     5.310E-11    -2.821E-11
Si     1.561E+01     7.468E+00     1.290E+01    -1.168E-10     1.475E-10    -9.657E-11
Si     1.561E+01     1.018E+01     1.561E+01     8.283E-11    -4.365E-11    -1.390E-11
Si     1.290E+01     7.468E+00     1.561E+01    -1.500E-11    -4.774E-11     1.455E-10
Si     1.290E+01     1.018E+01     1.290E+01    -5.966E-11    -9.169E-11     1.192E-10
Si     1.154E+01     1.154E+01     6.789E-01    -8.120E-11    -1.422E-10     6.762E-15
Si     1.426E+01     1.154E+01     3.394E+00    -2.507E-11    -3.856E-11     2.963E-12
Si     1.154E+01     1.426E+01     3.394E+00    -4.520E-11     2.538E-11    -6.764E-12
Si     1.426E+01     1.426E+01     6.789E-01     1.412E-10    -1.368E-10     2.621E-11
Si     1.561E+01     1.290E+01     2.037E+00     1.665E-10    -8.870E-11     2.560E-11
Si     1.561E+01     1.561E+01     4.752E+00     5.647E-11     4.443E-11     1.496E-10
Si     1.290E+01     1.290E+01     4.752E+00    -6.717E-11     1.274E-10    -1.921E-10
Si     1.290E+01     1.561E+01     2.037E+00    -4.514E-11    -1.861E-10    -1.023E-10
Si     1.154E+01     1.154E+01     6.110E+00     5.172E-11     6.489E-12     1.184E-11
Si     1.426E+01     1.154E+01     8.825E+00    -1.193E-11     9.661E-11     2.086E-10
Si     1.154E+01     1.426E+01     8.825E+00     4.623E-11     3.905E-11    -1.431E-10
Si     1.426E+01     1.426E+01     6.110E+00    -9.375E-11    -8.564E-11    -6.965E-11
Si     1.561E+01     1.290E+01     7.468E+00     2.333E-10    -4.405E-13     1.967E-10
Si     1.561E+01     1.561E+01     1.018E+01    -7.363E-11    -7.565E-12    -6.908E-11
Si     1.290E+01     1.290E+01     1.018E+01     4.389E-12    -9.537E-11     1.770E-11
Si     1.290E+01     1.561E+01     7.468E+00    -1.217E-10     1.351E-10     4.470E-11
Si     1.154E+01     1.154E+01     1.154E+01     1.485E-10     4.546E-12    -9.176E-11
Si     1.426E+01     1.154E+01     1.426E+01    -1.222E-11     9.098E-12     1.866E-11
Si     1.154E+01     1.426E+01     1.426E+01    -1.268E-10    -6.484E-11    -4.714E-11
Si     1.426E+01     1.426E+01     1.154E+01     6.521E-11    -6.030E-11     1.339E-10
Si     1.561E+01     1.290E+01     1.290E+01     1.652E-11     2.420E-11    -8.161E-11
Si     1.561E+01     1.561E+01     1.561E+01     2.457E-11     4.601E-11     1.106E-11
Si     1.290E+01     1.290E+01     1.561E+01    -2.161E-10    -1.532E-11     7.959E-11
Si     1.290E+01     1.561E+01     1.290E+01    -2.156E-11    -7.382E-12     1.346E-10
