216 

Si    0.67888   0.67888   0.67888   0.000009230650267   0.000009230650298   0.000009212822696
Si    3.39437   0.67888   3.39437  -0.000009230650353   0.000009230650383  -0.000009212822840
Si    0.67888   3.39437   3.39437   0.000009230650278  -0.000009230650237  -0.000009212822730
Si    3.39437   3.39437   0.67888  -0.000009230650338  -0.000009230650341   0.000009212822811
Si    4.75213   2.03662   2.03662   0.000007339841128   0.000000000000035  -0.000000000000026
Si    4.75213   4.75213   4.75213   0.000008381558134   0.000008381558304   0.000008385471895
Si    2.03662   2.03662   4.75213  -0.000000000000061   0.000000000000167   0.000007347272530
Si    2.03662   4.75213   2.03662  -0.000000000000055   0.000007339841137   0.000000000000124
Si    0.67888   0.67888   6.10987   0.000003092513369   0.000003092513555   0.000000875645295
Si    3.39437   0.67888   8.82538  -0.000008381558236   0.000008381558266   0.000008385471886
Si    0.67888   3.39437   8.82538   0.000008381558131  -0.000008381558044   0.000008385471772
Si    3.39437   3.39437   6.10987  -0.000003092513494  -0.000003092513264   0.000000875645304
Si    4.75213   2.03662   7.46762   0.000003110689341   0.000000880662777  -0.000003106557860
Si    4.75213   4.75213  10.18313   0.000003092513409   0.000003092513507  -0.000000875645413
Si    2.03662   2.03662  10.18313  -0.000000000000033   0.000000000000055   0.000000000000028
Si    2.03662   4.75213   7.46762   0.000000880662580   0.000003110689519  -0.000003106557924
Si    0.67888   0.67888  11.54087   0.000008381558137   0.000008381558161  -0.000008385471744
Si    3.39437   0.67888  14.25638  -0.000003092513483   0.000003092513346  -0.000000875645309
Si    0.67888   3.39437  14.25638   0.000003092513361  -0.000003092513504  -0.000000875645316
Si    3.39437   3.39437  11.54087  -0.000008381558234  -0.000008381558205  -0.000008385471870
Si    4.75213   2.03662  12.89863   0.000003110689349  -0.000000880662679   0.000003106557879
Si    4.75213   4.75213  15.61412   0.000009230650284   0.000009230650258  -0.000009212822721
Si    2.03662   2.03662  15.61412  -0.000000000000055  -0.000000000000082  -0.000007347272539
Si    2.03662   4.75213  12.89863  -0.000000880662666   0.000003110689380   0.000003106557811
Si    0.67888   6.10987   0.67888   0.000003110689306   0.000000880662609   0.000003106557935
Si    3.39437   6.10987   3.39437  -0.000003110689396   0.000000880662602  -0.000003106557737
Si    0.67888   8.82538   3.39437   0.000008381558108   0.000008381558104  -0.000008385471712
Si    3.39437   8.82538   0.67888  -0.000008381558207   0.000008381558212   0.000008385471872
Si    4.75213   7.46762   2.03662   0.000003092513445  -0.000003092513455   0.000000875645426
Si    4.75213  10.18313   4.75213   0.000003110689370  -0.000000880662765   0.000003106557919
Si    2.03662   7.46762   4.75213   0.000000880662583  -0.000003110689446   0.000003106557991
Si    2.03662  10.18313   2.03662  -0.000000000000034  -0.000000000000036   0.000000000000041
Si    0.67888   6.10987   6.10987   0.000007339841085   0.000000000000047   0.000000000000038
Si    3.39437   6.10987   8.82538  -0.000003110689419  -0.000000880662551   0.000003106557760
Si    0.67888   8.82538   8.82538   0.000009230650291   0.000009230650237   0.000009212822715
Si    3.39437   8.82538   6.10987  -0.000003092513480   0.000003092513297  -0.000000875645242
Si    4.75213   7.46762   7.46762   0.000008381558109  -0.000008381558211  -0.000008385471858
Si    4.75213  10.18313  10.18313   0.000007339841085  -0.000000000000045  -0.000000000000036
Si    2.03662   7.46762  10.18313  -0.000000000000047  -0.000007339841112  -0.000000000000144
Si    2.03662  10.18313   7.46762  -0.000000000000049  -0.000000000000171  -0.000007347272506
Si    0.67888   6.10987  11.54087   0.000003110689314  -0.000000880662584  -0.000003106557973
Si    3.39437   6.10987  14.25638  -0.000007339841197  -0.000000000000004  -0.000000000000042
Si    0.67888   8.82538  14.25638   0.000003092513367   0.000003092513486   0.000000875645259
Si    3.39437   8.82538  11.54087  -0.000009230650369   0.000009230650338  -0.000009212822873
Si    4.75213   7.46762  12.89863   0.000009230650279  -0.000009230650271   0.000009212822677
Si    4.75213  10.18313  15.61412   0.000003110689371   0.000000880662686  -0.000003106557883
Si    2.03662   7.46762  15.61412  -0.000000880662666  -0.000003110689372  -0.000003106557861
Si    2.03662  10.18313  12.89863  -0.000000000000056   0.000000000000065   0.000007347272472
Si    0.67888  11.54087   0.67888   0.000008381558106  -0.000008381558157   0.000008385471752
Si    3.39437  11.54087   3.39437  -0.000008381558208  -0.000008381558278  -0.000008385471849
Si    0.67888  14.25638   3.39437   0.000003110689291  -0.000000880662612  -0.000003106557950
Si    3.39437  14.25638   0.67888  -0.000003110689387  -0.000000880662605   0.000003106557737
Si    4.75213  12.89863   2.03662   0.000003092513464   0.000003092513427  -0.000000875645402
Si    4.75213  15.61412   4.75213   0.000009230650284  -0.000009230650255   0.000009212822707
Si    2.03662  12.89863   4.75213  -0.000000880662655   0.000003110689285   0.000003106557864
Si    2.03662  15.61412   2.03662  -0.000000000000033  -0.000007339841103  -0.000000000000119
Si    0.67888  11.54087   6.10987   0.000003092513366  -0.000003092513594  -0.000000875645262
Si    3.39437  11.54087   8.82538  -0.000009230650350  -0.000009230650430   0.000009212822818
Si    0.67888  14.25638   8.82538   0.000003110689318   0.000000880662564   0.000003106557960
Si    3.39437  14.25638   6.10987  -0.000007339841200  -0.000000000000047  -0.000000000000000
Si    4.75213  12.89863   7.46762   0.000009230650275   0.000009230650178  -0.000009212822688
Si    4.75213  15.61412  10.18313   0.000003092513393  -0.000003092513452   0.000000875645433
Si    2.03662  12.89863  10.18313  -0.000000000000050   0.000007339841051   0.000000000000103
Si    2.03662  15.61412   7.46762  -0.000000880662655  -0.000003110689360  -0.000003106557824
Si    0.67888  11.54087  11.54087   0.000009230650285  -0.000009230650324  -0.000009212822758
Si    3.39437  11.54087  14.25638  -0.000003092513483  -0.000003092513349   0.000000875645256
Si    0.67888  14.25638  14.25638   0.000007339841087   0.000000000000008  -0.000000000000019
Si    3.39437  14.25638  11.54087  -0.000003110689405   0.000000880662573  -0.000003106557754
Si    4.75213  12.89863  12.89863   0.000008381558127   0.000008381558221   0.000008385471855
Si    4.75213  15.61412  15.61412   0.000008381558150  -0.000008381558211  -0.000008385471880
Si    2.03662  12.89863  15.61412   0.000000880662592   0.000003110689431  -0.000003106557968
Si    2.03662  15.61412  12.89863   0.000000880662577  -0.000003110689428   0.000003106557939
Si    6.10987   0.67888   0.67888   0.000000880662651   0.000003110689362   0.000003106557836
Si    8.82538   0.67888   3.39437   0.000008381558177   0.000008381558294  -0.000008385471958
Si    6.10987   3.39437   3.39437   0.000000880662648  -0.000003110689310  -0.000003106557865
Si    8.82538   3.39437   0.67888   0.000008381558162  -0.000008381558258   0.000008385471907
Si   10.18313   2.03662   2.03662  -0.000000000000138   0.000000000000033  -0.000000000000022
Si   10.18313   4.75213   4.75213  -0.000000880662671   0.000003110689456   0.000003106557867
Si    7.46762   2.03662   4.75213  -0.000003110689410   0.000000880662774   0.000003106557786
Si    7.46762   4.75213   2.03662  -0.000003092513465   0.000003092513440   0.000000875645401
Si    6.10987   0.67888   6.10987  -0.000000000000042   0.000007339841259  -0.000000000000037
Si    8.82538   0.67888   8.82538   0.000009230650230   0.000009230650376   0.000009212822842
Si    6.10987   3.39437   8.82538  -0.000000880662672  -0.000003110689256   0.000003106557839
Si    8.82538   3.39437   6.10987   0.000003092513403  -0.000003092513294  -0.000000875645355
Si   10.18313   2.03662   7.46762  -0.000000000000040   0.000000000000171  -0.000007347272568
Si   10.18313   4.75213  10.18313  -0.000000000000044   0.000007339841216  -0.000000000000092
Si    7.46762   2.03662  10.18313  -0.000007339841194   0.000000000000048   0.000000000000031
Si    7.46762   4.75213   7.46762  -0.000008381558235   0.000008381558310  -0.000008385471863
Si    6.10987   0.67888  11.54087  -0.000000880662660   0.000003110689365  -0.000003106557794
Si    8.82538   0.67888  14.25638   0.000003092513405   0.000003092513388   0.000000875645354
Si    6.10987   3.39437  14.25638  -0.000000000000017  -0.000007339841209   0.000000000000014
Si    8.82538   3.39437  11.54087   0.000009230650238  -0.000009230650327  -0.000009212822792
Si   10.18313   2.03662  12.89863  -0.000000000000047  -0.000000000000065   0.000007347272592
Si   10.18313   4.75213  15.61412   0.000000880662585   0.000003110689327  -0.000003106557780
Si    7.46762   2.03662  15.61412  -0.000003110689402  -0.000000880662678  -0.000003106557812
Si    7.46762   4.75213  12.89863  -0.000009230650378   0.000009230650280   0.000009212822713
Si    6.10987   6.10987   0.67888   0.000000000000011  -0.000000000000025   0.000007347272650
Si    8.82538   6.10987   3.39437   0.000003110689354  -0.000000880662633  -0.000003106557797
Si    6.10987   8.82538   3.39437  -0.000000880662633   0.000003110689298  -0.000003106557798
Si    8.82538   8.82538   0.67888   0.000009230650241   0.000009230650341   0.000009212822845
Si   10.18313   7.46762   2.03662  -0.000000000000047  -0.000007339841163   0.000000000000101
Si   10.18313  10.18313   4.75213  -0.000000000000055  -0.000000000000155   0.000007347272564
Si    7.46762   7.46762   4.75213  -0.000008381558216  -0.000008381558219   0.000008385471878
Si    7.46762  10.18313   2.03662  -0.000007339841152  -0.000000000000027   0.000000000000014
Si    6.10987   6.10987   6.10987  -0.000000000000069   0.000000000000027   0.000000000000014
Si    8.82538   6.10987   8.82538   0.000003110689329   0.000000880662689   0.000003106557785
Si    6.10987   8.82538   8.82538   0.000000880662600   0.000003110689314   0.000003106557833
Si    8.82538   8.82538   6.10987   0.000003092513415   0.000003092513336   0.000000875645340
Si   10.18313   7.46762   7.46762  -0.000000880662655  -0.000003110689381  -0.000003106557892
Si   10.18313  10.18313  10.18313  -0.000000000000111  -0.000000000000044  -0.000000000000018
Si    7.46762   7.46762  10.18313  -0.000003092513496  -0.000003092513382  -0.000000875645437
Si    7.46762  10.18313   7.46762  -0.000003110689407  -0.000000880662775  -0.000003106557811
Si    6.10987   6.10987  11.54087  -0.000000000000062   0.000000000000039  -0.000007347272661
Si    8.82538   6.10987  14.25638   0.000007339841090   0.000000000000004   0.000000000000014
Si    6.10987   8.82538  14.25638  -0.000000000000029   0.000007339841217  -0.000000000000027
Si    8.82538   8.82538  11.54087   0.000008381558147   0.000008381558254  -0.000008385471941
Si   10.18313   7.46762  12.89863   0.000000880662597  -0.000003110689300   0.000003106557785
Si   10.18313  10.18313  15.61412  -0.000000000000057   0.000000000000075  -0.000007347272536
Si    7.46762   7.46762  15.61412  -0.000009230650346  -0.000009230650269  -0.000009212822689
Si    7.46762  10.18313  12.89863  -0.000003110689407   0.000000880662679   0.000003106557812
Si    6.10987  11.54087   0.67888  -0.000000880662623  -0.000003110689349   0.000003106557828
Si    8.82538  11.54087   3.39437   0.000009230650261  -0.000009230650417  -0.000009212822839
Si    6.10987  14.25638   3.39437  -0.000000000000010  -0.000000000000006  -0.000007347272665
Si    8.82538  14.25638   0.67888   0.000003110689332   0.000000880662629   0.000003106557789
Si   10.18313  12.89863   2.03662  -0.000000000000045   0.000007339841128  -0.000000000000104
Si   10.18313  15.61412   4.75213   0.000000880662591  -0.000003110689300   0.000003106557745
Si    7.46762  12.89863   4.75213  -0.000009230650366   0.000009230650201   0.000009212822702
Si    7.46762  15.61412   2.03662  -0.000003092513452  -0.000003092513384  -0.000000875645430
Si    6.10987  11.54087   6.10987  -0.000000000000037  -0.000007339841309   0.000000000000018
Si    8.82538  11.54087   8.82538   0.000008381558143  -0.000008381558342   0.000008385471895
Si    6.10987  14.25638   8.82538  -0.000000000000056  -0.000000000000063   0.000007347272665
Si    8.82538  14.25638   6.10987   0.000007339841095  -0.000000000000059  -0.000000000000021
Si   10.18313  12.89863   7.46762   0.000000880662588   0.000003110689222  -0.000003106557815
Si   10.18313  15.61412  10.18313  -0.000000000000048  -0.000007339841152   0.000000000000136
Si    7.46762  12.89863  10.18313  -0.000003092513491   0.000003092513336   0.000000875645423
Si    7.46762  15.61412   7.46762  -0.000009230650387  -0.000009230650273  -0.000009212822714
Si    6.10987  11.54087  11.54087   0.000000880662624  -0.000003110689397  -0.000003106557876
Si    8.82538  11.54087  14.25638   0.000003092513411  -0.000003092513391  -0.000000875645329
Si    6.10987  14.25638  14.25638  -0.000000000000066  -0.000000000000005   0.000000000000007
Si    8.82538  14.25638  11.54087   0.000003110689355  -0.000000880662663  -0.000003106557773
Si   10.18313  12.89863  12.89863  -0.000000880662673   0.000003110689376   0.000003106557907
Si   10.18313  15.61412  15.61412  -0.000000880662660  -0.000003110689385  -0.000003106557877
Si    7.46762  12.89863  15.61412  -0.000008381558196   0.000008381558224  -0.000008385471863
Si    7.46762  15.61412  12.89863  -0.000008381558230  -0.000008381558224   0.000008385471891
Si   11.54087   0.67888   0.67888  -0.000008381558256   0.000008381558173   0.000008385471779
Si   14.25638   0.67888   3.39437  -0.000000880662699   0.000003110689430  -0.000003106557931
Si   11.54087   3.39437   3.39437  -0.000008381558257  -0.000008381558109  -0.000008385471811
Si   14.25638   3.39437   0.67888  -0.000000880662701  -0.000003110689392   0.000003106557888
Si   15.61412   2.03662   2.03662  -0.000007339841217   0.000000000000048  -0.000000000000015
Si   15.61412   4.75213   4.75213  -0.000009230650395   0.000009230650417   0.000009212822845
Si   12.89863   2.03662   4.75213   0.000003110689281  -0.000000880662485   0.000003106557837
Si   12.89863   4.75213   2.03662   0.000003092513330   0.000003092513462  -0.000000875645217
Si   11.54087   0.67888   6.10987  -0.000003092513485   0.000003092513547  -0.000000875645378
Si   14.25638   0.67888   8.82538   0.000000880662569   0.000003110689415   0.000003106557912
Si   11.54087   3.39437   8.82538  -0.000009230650400  -0.000009230650175   0.000009212822712
Si   14.25638   3.39437   6.10987  -0.000000000000050  -0.000007339840960  -0.000000000000020
Si   15.61412   2.03662   7.46762  -0.000003110689431  -0.000000880662477  -0.000003106557893
Si   15.61412   4.75213  10.18313  -0.000003092513481   0.000003092513525   0.000000875645231
Si   12.89863   2.03662  10.18313   0.000007339841103   0.000000000000057   0.000000000000035
Si   12.89863   4.75213   7.46762   0.000009230650258   0.000009230650458  -0.000009212822843
Si   11.54087   0.67888  11.54087  -0.000009230650398   0.000009230650260  -0.000009212822659
Si   14.25638   0.67888  14.25638  -0.000000000000069   0.000007339841054   0.000000000000011
Si   11.54087   3.39437  14.25638  -0.000003092513496  -0.000003092513525   0.000000875645374
Si   14.25638   3.39437  11.54087   0.000000880662562  -0.000003110689358  -0.000003106557882
Si   15.61412   2.03662  12.89863  -0.000003110689439   0.000000880662581   0.000003106557915
Si   15.61412   4.75213  15.61412  -0.000008381558260   0.000008381558168  -0.000008385471804
Si   12.89863   2.03662  15.61412   0.000003110689273   0.000000880662558  -0.000003106557868
Si   12.89863   4.75213  12.89863   0.000008381558165   0.000008381558200   0.000008385471798
Si   11.54087   6.10987   0.67888  -0.000003110689439  -0.000000880662649   0.000003106557967
Si   14.25638   6.10987   3.39437  -0.000000000000079   0.000000000000019  -0.000007347272424
Si   11.54087   8.82538   3.39437  -0.000009230650412   0.000009230650233  -0.000009212822680
Si   14.25638   8.82538   0.67888   0.000000880662522   0.000003110689358   0.000003106557902
Si   15.61412   7.46762   2.03662  -0.000003092513529  -0.000003092513469  -0.000000875645202
Si   15.61412  10.18313   4.75213  -0.000003110689447   0.000000880662484   0.000003106557940
Si   12.89863   7.46762   4.75213   0.000009230650238  -0.000009230650375   0.000009212822869
Si   12.89863  10.18313   2.03662   0.000007339841063  -0.000000000000026   0.000000000000022
Si   11.54087   6.10987   6.10987  -0.000007339841170   0.000000000000043  -0.000000000000007
Si   14.25638   6.10987   8.82538  -0.000000000000045   0.000000000000057   0.000007347272433
Si   11.54087   8.82538   8.82538  -0.000008381558254   0.000008381558133   0.000008385471775
Si   14.25638   8.82538   6.10987  -0.000000000000061   0.000007339841007   0.000000000000025
Si   15.61412   7.46762   7.46762  -0.000009230650374  -0.000009230650343  -0.000009212822803
Si   15.61412  10.18313  10.18313  -0.000007339841178  -0.000000000000044  -0.000000000000017
Si   12.89863   7.46762  10.18313   0.000003092513368  -0.000003092513426   0.000000875645202
Si   12.89863  10.18313   7.46762   0.000003110689298   0.000000880662467  -0.000003106557861
Si   11.54087   6.10987  11.54087  -0.000003110689432   0.000000880662677  -0.000003106557985
Si   14.25638   6.10987  14.25638  -0.000000000000077  -0.000000000000012  -0.000000000000009
Si   11.54087   8.82538  14.25638  -0.000003092513508   0.000003092513514  -0.000000875645340
Si   14.25638   8.82538  11.54087  -0.000000880662663   0.000003110689382  -0.000003106557944
Si   15.61412   7.46762  12.89863  -0.000008381558236  -0.000008381558162   0.000008385471743
Si   15.61412  10.18313  15.61412  -0.000003110689463  -0.000000880662554  -0.000003106557906
Si   12.89863   7.46762  15.61412   0.000008381558129  -0.000008381558172  -0.000008385471797
Si   12.89863  10.18313  12.89863   0.000003110689298  -0.000000880662567   0.000003106557849
Si   11.54087  11.54087   0.67888  -0.000009230650411  -0.000009230650279   0.000009212822705
Si   14.25638  11.54087   3.39437   0.000000880662512  -0.000003110689446  -0.000003106557878
Si   11.54087  14.25638   3.39437  -0.000003110689436   0.000000880662619  -0.000003106557991
Si   14.25638  14.25638   0.67888  -0.000000000000108   0.000000000000009   0.000007347272429
Si   15.61412  12.89863   2.03662  -0.000003092513515   0.000003092513436   0.000000875645242
Si   15.61412  15.61412   4.75213  -0.000008381558258  -0.000008381558166   0.000008385471777
Si   12.89863  12.89863   4.75213   0.000008381558151   0.000008381558115   0.000008385471794
Si   12.89863  15.61412   2.03662   0.000003092513330  -0.000003092513423   0.000000875645207
Si   11.54087  11.54087   6.10987  -0.000003092513485  -0.000003092513593   0.000000875645343
Si   14.25638  11.54087   8.82538  -0.000000880662654  -0.000003110689482   0.000003106557893
Si   11.54087  14.25638   8.82538  -0.000003110689394  -0.000000880662706   0.000003106557962
Si   14.25638  14.25638   6.10987  -0.000000000000085  -0.000000000000055  -0.000000000000004
Si   15.61412  12.89863   7.46762  -0.000008381558248   0.000008381558085  -0.000008385471776
Si   15.61412  15.61412  10.18313  -0.000003092513492  -0.000003092513474  -0.000000875645196
Si   12.89863  12.89863  10.18313   0.000003092513367   0.000003092513383  -0.000000875645230
Si   12.89863  15.61412   7.46762   0.000008381558152  -0.000008381558186  -0.000008385471813
Si   11.54087  11.54087  11.54087  -0.000008381558242  -0.000008381558220  -0.000008385471791
Si   14.25638  11.54087  14.25638  -0.000000000000076  -0.000007339841074  -0.000000000000023
Si   11.54087  14.25638  14.25638  -0.000007339841184  -0.000000000000001   0.000000000000024
Si   14.25638  14.25638  11.54087  -0.000000000000054  -0.000000000000028  -0.000007347272419
Si   15.61412  12.89863  12.89863  -0.000009230650386   0.000009230650334   0.000009212822795
Si   15.61412  15.61412  15.61412  -0.000009230650400  -0.000009230650334  -0.000009212822833
Si   12.89863  12.89863  15.61412   0.000009230650231   0.000009230650373  -0.000009212822826
Si   12.89863  15.61412  12.89863   0.000009230650252  -0.000009230650369   0.000009212822860
