512 

Si    0.67887   0.67888   0.67887   0.000000470306177   0.000000470304610   0.000000465127789
Si    3.39437   0.67888   3.39437   0.000000513779669   0.000006819239765   0.000000514272558
Si    0.67887   3.39438   3.39437   0.000006819241152   0.000000513777981   0.000000514272333
Si    3.39437   3.39438   0.67887   0.000000510163237   0.000000510161453   0.000006822371463
Si    4.75212   2.03662   2.03662   0.000006177222019  -0.000007049814776  -0.000007043173261
Si    4.75212   4.75212   4.75212   0.000000597512693   0.000000597510865   0.000000589493771
Si    2.03662   2.03662   4.75212  -0.000007056747468  -0.000007056748882   0.000006167693470
Si    2.03662   4.75212   2.03662  -0.000007049813420   0.000006177220558  -0.000007043173163
Si    0.67887   0.67888   6.10987  -0.000004206987095  -0.000004206988130   0.000004118931781
Si    3.39437   0.67888   8.82537  -0.000000226914649   0.000000918447425  -0.000003186901388
Si    0.67887   3.39438   8.82537   0.000000918448522  -0.000000226916265  -0.000003186901482
Si    3.39437   3.39438   6.10987   0.000000959185397   0.000000959183777   0.000006380105785
Si    4.75212   2.03662   7.46762   0.000002155860445   0.000006655970664  -0.000002523144720
Si    4.75212   4.75212  10.18313  -0.000000935507496  -0.000000935509147   0.000006036360686
Si    2.03662   2.03662  10.18313  -0.000004299607855  -0.000004299609393   0.000003037784889
Si    2.03662   4.75212   7.46762   0.000006655971907   0.000002155859114  -0.000002523145242
Si    0.67887   0.67888  11.54087   0.000000460689881   0.000000460688344   0.000004026246473
Si    3.39437   0.67888  14.25638   0.000001006609835   0.000002668184790   0.000001926001897
Si    0.67887   3.39438  14.25638   0.000002668186189   0.000001006608480   0.000001926001922
Si    3.39437   3.39438  11.54087   0.000002422835131   0.000002422833526  -0.000004017674143
Si    4.75212   2.03662  12.89862  -0.000002284950467  -0.000004248683090   0.000003741166086
Si    4.75212   4.75212  15.61412   0.000000944793568   0.000000944792066  -0.000001267443006
Si    2.03662   2.03662  15.61412   0.000001753050128   0.000001753048753  -0.000007466105528
Si    2.03662   4.75212  12.89862  -0.000004248681656  -0.000002284951572   0.000003741166086
Si    0.67887   0.67888  16.97187  -0.000001160346825  -0.000001160347978   0.000001004207224
Si    3.39437   0.67888  19.68737  -0.000004078450242  -0.000002331460425   0.000001036128047
Si    0.67887   3.39438  19.68737  -0.000002331459051  -0.000004078452047   0.000001036128025
Si    3.39437   3.39438  16.97187  -0.000000281895587  -0.000000281896846  -0.000006709553044
Si    4.75212   2.03662  18.32963   0.000002027079591   0.000000850542202   0.000001257273949
Si    4.75212   4.75212  21.04512   0.000004055541380   0.000004055540089  -0.000002167966327
Si    2.03662   2.03662  21.04512  -0.000001683242369  -0.000001683243304   0.000000602912591
Si    2.03662   4.75212  18.32963   0.000000850543521   0.000002027078106   0.000001257273805
Si    0.67887   6.10987   0.67887  -0.000004201268566   0.000004112394267  -0.000004204438160
Si    3.39437   6.10987   3.39437   0.000000952411131   0.000006382144436   0.000000952555280
Si    0.67887   8.82537   3.39437   0.000000915880405  -0.000003186968519  -0.000000217804580
Si    3.39437   8.82537   0.67887  -0.000000219540667  -0.000003185609253   0.000000919208332
Si    4.75212   7.46762   2.03662   0.000002154072116  -0.000002529682265   0.000006653771217
Si    4.75212  10.18313   4.75212  -0.000000932470893   0.000006043847349  -0.000000931263438
Si    2.03662   7.46762   4.75212   0.000006651048720  -0.000002534961441   0.000002153151494
Si    2.03662  10.18313   2.03662  -0.000004312994614   0.000003044385413  -0.000004311609904
Si    0.67887   6.10987   6.10987  -0.000000444800381   0.000001668464048   0.000001664041129
Si    3.39437   6.10987   8.82537   0.000004150328629   0.000004067374910   0.000001277224983
Si    0.67887   8.82537   8.82537  -0.000000608495540  -0.000000197602741  -0.000000192302002
Si    3.39437   8.82537   6.10987   0.000004144025757   0.000001277369518   0.000004069923119
Si    4.75212   7.46762   7.46762   0.000000338534224   0.000001530034043   0.000001526434472
Si    4.75212  10.18313  10.18313   0.000000009437917  -0.000002893141554  -0.000002883114483
Si    2.03662   7.46762  10.18313   0.000000386927993   0.000004015905990  -0.000002567771866
Si    2.03662  10.18313   7.46762   0.000000388363270  -0.000002565693810   0.000004009924056
Si    0.67887   6.10987  11.54087   0.000003202105576  -0.000001113252207  -0.000001806685110
Si    3.39437   6.10987  14.25638  -0.000003357215005   0.000003428328868   0.000004832908374
Si    0.67887   8.82537  14.25638  -0.000001915660243  -0.000000720812089   0.000001770622593
Si    3.39437   8.82537  11.54087  -0.000000826973606  -0.000004667446800  -0.000005510150097
Si    4.75212   7.46762  12.89862   0.000001380297466   0.000005257073760   0.000003829942556
Si    4.75212  10.18313  15.61412  -0.000001489310264  -0.000000131143099  -0.000004145816649
Si    2.03662   7.46762  15.61412  -0.000003105713527  -0.000000200940468  -0.000002134539071
Si    2.03662  10.18313  12.89862  -0.000003251574048  -0.000004262597006   0.000001713387278
Si    0.67887   6.10987  16.97187   0.000002197974149   0.000001752551649  -0.000001055685608
Si    3.39437   6.10987  19.68737   0.000000492296089  -0.000001813381409   0.000005074865485
Si    0.67887   8.82537  19.68737  -0.000003087758787   0.000001493654362   0.000001485542766
Si    3.39437   8.82537  16.97187   0.000000483291654  -0.000005107454771  -0.000001157468308
Si    4.75212   7.46762  18.32963   0.000001016096582  -0.000003148034938  -0.000000708132217
Si    4.75212  10.18313  21.04512   0.000006277941665   0.000003462768498  -0.000003420199959
Si    2.03662   7.46762  21.04512  -0.000004884710617  -0.000004376126548   0.000002607623531
Si    2.03662  10.18313  18.32963   0.000000850412226   0.000002488874829   0.000000371314279
Si    0.67887  11.54087   0.67887   0.000000450581739   0.000004027854529   0.000000450304645
Si    3.39437  11.54087   3.39437   0.000002420258845  -0.000004018040001   0.000002423175516
Si    0.67887  14.25638   3.39437   0.000002668885095   0.000001925568090   0.000001006568023
Si    3.39437  14.25638   0.67887   0.000001007061878   0.000001925325498   0.000002667015798
Si    4.75212  12.89862   2.03662  -0.000002286489812   0.000003736062718  -0.000004245489628
Si    4.75212  15.61412   4.75212   0.000000941810644  -0.000001255667658   0.000000951525126
Si    2.03662  12.89862   4.75212  -0.000004234872220   0.000003731336691  -0.000002280574177
Si    2.03662  15.61412   2.03662   0.000001761490706  -0.000007459927372   0.000001751775256
Si    0.67887  11.54087   6.10987   0.000003209318883  -0.000001804245505  -0.000001123774991
Si    3.39437  11.54087   8.82537  -0.000000829911621  -0.000005511509008  -0.000004668619584
Si    0.67887  14.25638   8.82537  -0.000001913412259   0.000001767530556  -0.000000720344490
Si    3.39437  14.25638   6.10987  -0.000003356642401   0.000004833578239   0.000003431581681
Si    4.75212  12.89862   7.46762   0.000001382308363   0.000003824620804   0.000005255539380
Si    4.75212  15.61412  10.18313  -0.000001482036482  -0.000004158518597  -0.000000128046891
Si    2.03662  12.89862  10.18313  -0.000003262615818   0.000001726177240  -0.000004254213517
Si    2.03662  15.61412   7.46762  -0.000003106511303  -0.000002132766671  -0.000000203167904
Si    0.67887  11.54087  11.54087   0.000002086869580  -0.000002494690613  -0.000002494719134
Si    3.39437  11.54087  14.25638  -0.000004515957074   0.000005878171710  -0.000000461147846
Si    0.67887  14.25638  14.25638   0.000001249808903   0.000001298563041   0.000001301482103
Si    3.39437  14.25638  11.54087  -0.000004520530807  -0.000000458409303   0.000005877979561
Si    4.75212  12.89862  12.89862   0.000000824985577  -0.000000086730898  -0.000000089955799
Si    4.75212  15.61412  15.61412   0.000000568045673  -0.000002378683336  -0.000002380083404
Si    2.03662  12.89862  15.61412   0.000005387732238   0.000001884298055  -0.000001821628495
Si    2.03662  15.61412  12.89862   0.000005381116540  -0.000001827856309   0.000001884089509
Si    0.67887  11.54087  16.97187   0.000003428551533  -0.000003461125092  -0.000006281765753
Si    3.39437  11.54087  19.68737  -0.000000378605945  -0.000002487462408  -0.000000853254509
Si    0.67887  14.25638  19.68737  -0.000002617998056   0.000004386029827   0.000004885351406
Si    3.39437  14.25638  16.97187   0.000000707244986   0.000003146788526  -0.000001013909683
Si    4.75212  12.89862  18.32963   0.000001157009600   0.000005111929636  -0.000000494750383
Si    4.75212  15.61412  21.04512   0.000001058069189  -0.000001761486378  -0.000002187110904
Si    2.03662  12.89862  21.04512  -0.000001486708832  -0.000001490913587   0.000003097395375
Si    2.03662  15.61412  18.32963  -0.000005077838714   0.000001815549501  -0.000000502910554
Si    0.67887  16.97187   0.67887  -0.000001145724226   0.000001007638438  -0.000001147341447
Si    3.39437  16.97187   3.39437  -0.000000284390794  -0.000006706695608  -0.000000279635959
Si    0.67887  19.68737   3.39437  -0.000002335632181   0.000001030146266  -0.000004088075619
Si    3.39437  19.68737   0.67887  -0.000004084761931   0.000001034738190  -0.000002334178882
Si    4.75212  18.32963   2.03662   0.000002043421018   0.000001248592045   0.000000842959572
Si    4.75212  21.04512   4.75212   0.000004061480254  -0.000002156901598   0.000004052650112
Si    2.03662  18.32963   4.75212   0.000000843308440   0.000001249883031   0.000002035040848
Si    2.03662  21.04512   2.03662  -0.000001694778167   0.000000605990979  -0.000001683590811
Si    0.67887  16.97187   6.10987   0.000002189268802  -0.000001054602514   0.000001761038045
Si    3.39437  16.97187   8.82537   0.000000484171696  -0.000001156265905  -0.000005104758948
Si    0.67887  19.68737   8.82537  -0.000003095253901   0.000001484683091   0.000001487733855
Si    3.39437  19.68737   6.10987   0.000000502660558   0.000005073266974  -0.000001817126653
Si    4.75212  18.32963   7.46762   0.000001009562052  -0.000000714746194  -0.000003149571649
Si    4.75212  21.04512  10.18313   0.000006277565313  -0.000003427584421   0.000003457092027
Si    2.03662  18.32963  10.18313   0.000000849939202   0.000000381810782   0.000002489113209
Si    2.03662  21.04512   7.46762  -0.000004880996292   0.000002605109828  -0.000004379679007
Si    0.67887  16.97187  11.54087   0.000003427585911  -0.000006277563925  -0.000003457092160
Si    3.39437  16.97187  14.25638   0.000000714747734  -0.000001009560858   0.000003149571727
Si    0.67887  19.68737  14.25638  -0.000002605108546   0.000004880997879   0.000004379678875
Si    3.39437  19.68737  11.54087  -0.000000381809341  -0.000000849937721  -0.000002489113042
Si    4.75212  18.32963  12.89862   0.000001156267292  -0.000000484170395   0.000005104758692
Si    4.75212  21.04512  15.61412   0.000001054603865  -0.000002189267375  -0.000001761037758
Si    2.03662  18.32963  15.61412  -0.000005073265810  -0.000000502659315   0.000001817126735
Si    2.03662  21.04512  12.89862  -0.000001484681634   0.000003095255148  -0.000001487733768
Si    0.67887  16.97187  16.97187   0.000002156903037  -0.000004061479044  -0.000004052650163
Si    3.39437  16.97187  19.68737  -0.000001248590423  -0.000002043419712  -0.000000842959520
Si    0.67887  19.68737  19.68737  -0.000000605989786   0.000001694779430   0.000001683590883
Si    3.39437  19.68737  16.97187  -0.000001249881521  -0.000000843307141  -0.000002035040967
Si    4.75212  18.32963  18.32963   0.000006706697071   0.000000284392107   0.000000279635884
Si    4.75212  21.04512  21.04512  -0.000001007636932   0.000001145725751   0.000001147341383
Si    2.03662  18.32963  21.04512  -0.000001034736981   0.000004084763316   0.000002334178996
Si    2.03662  21.04512  18.32963  -0.000001030144855   0.000002335633576   0.000004088075694
Si    6.10988   0.67888   0.67887   0.000004112395445  -0.000004201269915  -0.000004204438185
Si    8.82537   0.67888   3.39437  -0.000003186966962   0.000000915878996  -0.000000217804525
Si    6.10988   3.39438   3.39437   0.000006382145094   0.000000952409821   0.000000952555519
Si    8.82537   3.39438   0.67887  -0.000003185607928  -0.000000219542171   0.000000919208451
Si   10.18313   2.03662   2.03662   0.000003044386951  -0.000004312996058  -0.000004311609916
Si   10.18313   4.75212   4.75212   0.000006043848832  -0.000000932472305  -0.000000931263253
Si    7.46762   2.03662   4.75212  -0.000002534959985   0.000006651047389   0.000002153151349
Si    7.46762   4.75212   2.03662  -0.000002529680644   0.000002154071064   0.000006653770936
Si    6.10988   0.67888   6.10987   0.000001668465604  -0.000000444801553   0.000001664041000
Si    8.82537   0.67888   8.82537  -0.000000197601514  -0.000000608496851  -0.000000192302095
Si    6.10988   3.39438   8.82537   0.000004067376292   0.000004150327313   0.000001277225123
Si    8.82537   3.39438   6.10987   0.000001277371028   0.000004144024526   0.000004069923499
Si   10.18313   2.03662   7.46762  -0.000002565692284   0.000000388361947   0.000004009923958
Si   10.18313   4.75212  10.18313  -0.000002893140337   0.000000009436777  -0.000002883114620
Si    7.46762   2.03662  10.18313   0.000004015907380   0.000000386926584  -0.000002567772078
Si    7.46762   4.75212   7.46762   0.000001530035328   0.000000338532867   0.000001526434394
Si    6.10988   0.67888  11.54087  -0.000001113250618   0.000003202104186  -0.000001806685150
Si    8.82537   0.67888  14.25638  -0.000000720810796  -0.000001915661544   0.000001770622610
Si    6.10988   3.39438  14.25638   0.000003428330060  -0.000003357216443   0.000004832908676
Si    8.82537   3.39438  11.54087  -0.000004667445358  -0.000000826975188  -0.000005510150066
Si   10.18313   2.03662  12.89862  -0.000004262595499  -0.000003251575272   0.000001713387351
Si   10.18313   4.75212  15.61412  -0.000000131141631  -0.000001489311540  -0.000004145816778
Si    7.46762   2.03662  15.61412  -0.000000200939214  -0.000003105715033  -0.000002134539249
Si    7.46762   4.75212  12.89862   0.000005257075200   0.000001380296203   0.000003829942300
Si    6.10988   0.67888  16.97187   0.000001752553239   0.000002197972782  -0.000001055685723
Si    8.82537   0.67888  19.68737   0.000001493655773  -0.000003087760205   0.000001485542800
Si    6.10988   3.39438  19.68737  -0.000001813379966   0.000000492294671   0.000005074865740
Si    8.82537   3.39438  16.97187  -0.000005107453260   0.000000483290266  -0.000001157468371
Si   10.18313   2.03662  18.32963   0.000002488876348   0.000000850410624   0.000000371314258
Si   10.18313   4.75212  21.04512   0.000003462769674   0.000006277940521  -0.000003420200077
Si    7.46762   2.03662  21.04512  -0.000004376125219  -0.000004884711963   0.000002607623142
Si    7.46762   4.75212  18.32963  -0.000003148033365   0.000001016095350  -0.000000708132052
Si    6.10988   6.10987   0.67887   0.000001658304398   0.000001658302768  -0.000000439766438
Si    8.82537   6.10987   3.39437   0.000001287652421   0.000004063041981   0.000004140602617
Si    6.10988   8.82537   3.39437   0.000004063043476   0.000001287651026   0.000004140602396
Si    8.82537   8.82537   0.67887  -0.000000187922895  -0.000000187923981  -0.000000603578545
Si   10.18313   7.46762   2.03662  -0.000002564164641   0.000004019716241   0.000000383643130
Si   10.18313  10.18313   4.75212  -0.000002891171317  -0.000002891172861   0.000000003614947
Si    7.46762   7.46762   4.75212   0.000001519658750   0.000001519657266   0.000000338329701
Si    7.46762  10.18313   2.03662   0.000004019717803  -0.000002564166343   0.000000383643282
Si    6.10988   6.10987   6.10987   0.000002715227600   0.000002715226092   0.000002714764867
Si    8.82537   6.10987   8.82537  -0.000002341694064   0.000000780989626  -0.000002342256739
Si    6.10988   8.82537   8.82537   0.000000780991265  -0.000002341695330  -0.000002342256727
Si    8.82537   8.82537   6.10987  -0.000002341226807  -0.000002341228037   0.000000784075655
Si   10.18313   7.46762   7.46762  -0.000002332334077   0.000000176247512   0.000000178701415
Si   10.18313  10.18313  10.18313  -0.000005049742295  -0.000005049743854  -0.000005052607121
Si    7.46762   7.46762  10.18313   0.000000182582369   0.000000182580992  -0.000002333940554
Si    7.46762  10.18313   7.46762   0.000000176248762  -0.000002332335628   0.000000178701274
Si    6.10988   6.10987  11.54087   0.000005409719677   0.000005409718134   0.000000479938286
Si    8.82537   6.10987  14.25638  -0.000000764755688   0.000001114305649   0.000002959290962
Si    6.10988   8.82537  14.25638   0.000001114306990  -0.000000764757263   0.000002959291079
Si    8.82537   8.82537  11.54087   0.000000693316469   0.000000693315304   0.000001915423222
Si   10.18313   7.46762  12.89862  -0.000000611726708   0.000003539635454   0.000004902899608
Si   10.18313  10.18313  15.61412  -0.000001298807800  -0.000001298809443  -0.000002176380443
Si    7.46762   7.46762  15.61412   0.000000237619346   0.000000237617825   0.000003462254875
Si    7.46762  10.18313  12.89862   0.000003539637120  -0.000000611728187   0.000004902899551
Si    6.10988   6.10987  16.97187   0.000002397389496   0.000002397388023  -0.000000567020374
Si    8.82537   6.10987  19.68737  -0.000001899530971   0.000001833168732  -0.000005385841828
Si    6.10988   8.82537  19.68737   0.000001833170249  -0.000001899531875  -0.000005385841875
Si    8.82537   8.82537  16.97187   0.000000073928654   0.000000073927451  -0.000000817234113
Si   10.18313   7.46762  18.32963  -0.000005881435030   0.000000456578456   0.000004519392901
Si   10.18313  10.18313  21.04512   0.000002494174769   0.000002494173161  -0.000002093455830
Si    7.46762   7.46762  21.04512  -0.000001298109840  -0.000001298111637  -0.000001242286175
Si    7.46762  10.18313  18.32963   0.000000456580053  -0.000005881436635   0.000004519393075
Si    6.10988  11.54087   0.67887  -0.000001124663236  -0.000001806934330   0.000003211125392
Si    8.82537  11.54087   3.39437  -0.000004668441775  -0.000005516051578  -0.000000836699497
Si    6.10988  14.25638   3.39437   0.000003427105260   0.000004834482991  -0.000003358297390
Si    8.82537  14.25638   0.67887  -0.000000714866310   0.000001772952637  -0.000001914350175
Si   10.18313  12.89862   2.03662  -0.000004266703279   0.000001717631962  -0.000003251186067
Si   10.18313  15.61412   4.75212  -0.000000142647449  -0.000004152632998  -0.000001488553586
Si    7.46762  12.89862   4.75212   0.000005270085750   0.000003833231188   0.000001383599008
Si    7.46762  15.61412   2.03662  -0.000000193740573  -0.000002138786890  -0.000003104445323
Si    6.10988  11.54087   6.10987   0.000005421442299   0.000000474680622   0.000005421856043
Si    8.82537  11.54087   8.82537   0.000000687200206   0.000001910766297   0.000000682675468
Si    6.10988  14.25638   8.82537   0.000001120686353   0.000002965569348  -0.000000769227801
Si    8.82537  14.25638   6.10987  -0.000000767343969   0.000002959261948   0.000001115875657
Si   10.18313  12.89862   7.46762  -0.000000608031245   0.000004903270668   0.000003542484185
Si   10.18313  15.61412  10.18313  -0.000001295293159  -0.000002170744723  -0.000001304392246
Si    7.46762  12.89862  10.18313   0.000003530238891   0.000004906977337  -0.000000609914860
Si    7.46762  15.61412   7.46762   0.000000236469287   0.000003466726020   0.000000238112336
Si    6.10988  11.54087  11.54087   0.000002170746005   0.000001295294791   0.000001304391934
Si    8.82537  11.54087  14.25638  -0.000004903269033   0.000000608032762  -0.000003542484072
Si    6.10988  14.25638  14.25638  -0.000003466724989  -0.000000236467595  -0.000000238112161
Si    8.82537  14.25638  11.54087  -0.000004906975925  -0.000003530237546   0.000000609914669
Si   10.18313  12.89862  12.89862  -0.000001910764795  -0.000000687198342  -0.000000682675419
Si   10.18313  15.61412  15.61412  -0.000000474678823  -0.000005421440685  -0.000005421855845
Si    7.46762  12.89862  15.61412  -0.000002959260600   0.000000767345395  -0.000001115875476
Si    7.46762  15.61412  12.89862  -0.000002965567727  -0.000001120684727   0.000000769227820
Si    6.10988  11.54087  16.97187   0.000004152634585   0.000000142648719   0.000001488553415
Si    8.82537  11.54087  19.68737  -0.000001717630899   0.000004266704759   0.000003251186010
Si    6.10988  14.25638  19.68737   0.000002138788364   0.000000193742114   0.000003104445425
Si    8.82537  14.25638  16.97187  -0.000003833230052  -0.000005270084405  -0.000001383598965
Si   10.18313  12.89862  18.32963   0.000005516053089   0.000004668443030   0.000000836699491
Si   10.18313  15.61412  21.04512   0.000001806935881   0.000001124664864  -0.000003211125599
Si    7.46762  12.89862  21.04512  -0.000001772950990   0.000000714867360   0.000001914350388
Si    7.46762  15.61412  18.32963  -0.000004834481267  -0.000003427103961   0.000003358297628
Si    6.10988  16.97187   0.67887   0.000001761487894  -0.000001058067911   0.000002187110640
Si    8.82537  16.97187   3.39437  -0.000005111928170  -0.000001157008361   0.000000494750656
Si    6.10988  19.68737   3.39437  -0.000001815548220   0.000005077840158   0.000000502910464
Si    8.82537  19.68737   0.67887   0.000001490914771   0.000001486710214  -0.000003097395214
Si   10.18313  18.32963   2.03662   0.000002487463610   0.000000378607628   0.000000853254565
Si   10.18313  21.04512   4.75212   0.000003461126513  -0.000003428550415   0.000006281765856
Si    7.46762  18.32963   4.75212  -0.000003146786899  -0.000000707243506   0.000001013909473
Si    7.46762  21.04512   2.03662  -0.000004386028517   0.000002617999234  -0.000004885351686
Si    6.10988  16.97187   6.10987   0.000002378684651  -0.000000568044056   0.000002380083463
Si    8.82537  16.97187   8.82537   0.000000086732294  -0.000000824984242   0.000000089955878
Si    6.10988  19.68737   8.82537   0.000001827858032  -0.000005381115055  -0.000001884089446
Si    8.82537  19.68737   6.10987  -0.000001884296541  -0.000005387730850   0.000001821628814
Si   10.18313  18.32963   7.46762  -0.000005878170568   0.000004515958739   0.000000461147646
Si   10.18313  21.04512  10.18313   0.000002494692179  -0.000002086868411   0.000002494719207
Si    7.46762  18.32963  10.18313   0.000000458411215   0.000004520532539  -0.000005877979621
Si    7.46762  21.04512   7.46762  -0.000001298561565  -0.000001249807797  -0.000001301482088
Si    6.10988  16.97187  11.54087   0.000004158520088   0.000001482037723   0.000000128046813
Si    8.82537  16.97187  14.25638  -0.000003824619387  -0.000001382306901  -0.000005255539169
Si    6.10988  19.68737  14.25638   0.000002132767860   0.000003106512901   0.000000203167702
Si    8.82537  19.68737  11.54087  -0.000001726176282   0.000003262617061   0.000004254213341
Si   10.18313  18.32963  12.89862   0.000005511510263   0.000000829913269   0.000004668619499
Si   10.18313  21.04512  15.61412   0.000001804247309  -0.000003209317764   0.000001123774946
Si    7.46762  18.32963  15.61412  -0.000004833576590   0.000003356643637  -0.000003431581580
Si    7.46762  21.04512  12.89862  -0.000001767528622   0.000001913413692   0.000000720344486
Si    6.10988  16.97187  16.97187   0.000001255668926  -0.000000941809142  -0.000000951525495
Si    8.82537  16.97187  19.68737  -0.000003736061481   0.000002286491235   0.000004245489485
Si    6.10988  19.68737  19.68737   0.000007459928994  -0.000001761489192  -0.000001751775059
Si    8.82537  19.68737  16.97187  -0.000003731335185   0.000004234873637   0.000002280574507
Si   10.18313  18.32963  18.32963   0.000004018041538  -0.000002420257515  -0.000002423175815
Si   10.18313  21.04512  21.04512  -0.000004027852973  -0.000000450580413  -0.000000450304693
Si    7.46762  18.32963  21.04512  -0.000001925324001  -0.000001007060336  -0.000002667015873
Si    7.46762  21.04512  18.32963  -0.000001925566941  -0.000002668883730  -0.000001006568115
Si   11.54087   0.67888   0.67887   0.000004027855842   0.000000450580284   0.000000450304751
Si   14.25638   0.67888   3.39437   0.000001925569851   0.000002668883517   0.000001006567834
Si   11.54087   3.39438   3.39437  -0.000004018038857   0.000002420257371   0.000002423175718
Si   14.25638   3.39438   0.67887   0.000001925327128   0.000001007060357   0.000002667015888
Si   15.61412   2.03662   2.03662  -0.000007459926100   0.000001761489231   0.000001751775150
Si   15.61412   4.75212   4.75212  -0.000001255665895   0.000000941809110   0.000000951525192
Si   12.89862   2.03662   4.75212   0.000003731337828  -0.000004234873294  -0.000002280574103
Si   12.89862   4.75212   2.03662   0.000003736064121  -0.000002286490873  -0.000004245489644
Si   11.54087   0.67888   6.10987  -0.000001804244374   0.000003209317773  -0.000001123774713
Si   14.25638   0.67888   8.82537   0.000001767532077  -0.000001913413665  -0.000000720344513
Si   11.54087   3.39438   8.82537  -0.000005511507540  -0.000000829913480  -0.000004668619849
Si   14.25638   3.39438   6.10987   0.000004833579506  -0.000003356643679   0.000003431581685
Si   15.61412   2.03662   7.46762  -0.000002132765114  -0.000003106512871  -0.000000203167666
Si   15.61412   4.75212  10.18313  -0.000004158517313  -0.000001482037804  -0.000000128046945
Si   12.89862   2.03662  10.18313   0.000001726178744  -0.000003262617211  -0.000004254213183
Si   12.89862   4.75212   7.46762   0.000003824622340   0.000001382306771   0.000005255539089
Si   11.54087   0.67888  11.54087  -0.000002494689184   0.000002086868287  -0.000002494719212
Si   14.25638   0.67888  14.25638   0.000001298564501   0.000001249807772   0.000001301481897
Si   11.54087   3.39438  14.25638   0.000005878173318  -0.000004515958846  -0.000000461147642
Si   14.25638   3.39438  11.54087  -0.000000458407800  -0.000004520532407   0.000005877979455
Si   15.61412   2.03662  12.89862  -0.000001827855224   0.000005381115147   0.000001884089537
Si   15.61412   4.75212  15.61412  -0.000002378681821   0.000000568043930  -0.000002380083467
Si   12.89862   2.03662  15.61412   0.000001884299081   0.000005387731088  -0.000001821628551
Si   12.89862   4.75212  12.89862  -0.000000086729416   0.000000824984286  -0.000000089955686
Si   11.54087   0.67888  16.97187  -0.000003461123944   0.000003428550408  -0.000006281766035
Si   14.25638   0.67888  19.68737   0.000004386031703  -0.000002617999525   0.000004885351627
Si   11.54087   3.39438  19.68737  -0.000002487460986  -0.000000378607418  -0.000000853254432
Si   14.25638   3.39438  16.97187   0.000003146789839   0.000000707243743  -0.000001013909706
Si   15.61412   2.03662  18.32963   0.000001815551084  -0.000005077840288  -0.000000502910273
Si   15.61412   4.75212  21.04512  -0.000001761485072   0.000001058067869  -0.000002187110853
Si   12.89862   2.03662  21.04512  -0.000001490912180  -0.000001486710357   0.000003097395053
Si   12.89862   4.75212  18.32963   0.000005111931178   0.000001157008072  -0.000000494750607
Si   11.54087   6.10987   0.67887  -0.000001806932900  -0.000001124664774   0.000003211125827
Si   14.25638   6.10987   3.39437   0.000004834484586   0.000003427103968  -0.000003358297608
Si   11.54087   8.82537   3.39437  -0.000005516050292  -0.000004668442926  -0.000000836699547
Si   14.25638   8.82537   0.67887   0.000001772954004  -0.000000714867209  -0.000001914350187
Si   15.61412   7.46762   2.03662  -0.000002138785642  -0.000000193742332  -0.000003104445264
Si   15.61412  10.18313   4.75212  -0.000004152631944  -0.000000142648669  -0.000001488553447
Si   12.89862   7.46762   4.75212   0.000003833232526   0.000005270084333   0.000001383598927
Si   12.89862  10.18313   2.03662   0.000001717633526  -0.000004266704816  -0.000003251186113
Si   11.54087   6.10987   6.10987   0.000000474681768   0.000005421440711   0.000005421856177
Si   14.25638   6.10987   8.82537   0.000002965571009   0.000001120684797  -0.000000769227752
Si   11.54087   8.82537   8.82537   0.000001910767628   0.000000687198521   0.000000682675473
Si   14.25638   8.82537   6.10987   0.000002959263389  -0.000000767345324   0.000001115875595
Si   15.61412   7.46762   7.46762   0.000003466727453   0.000000236467485   0.000000238112416
Si   15.61412  10.18313  10.18313  -0.000002170743392  -0.000001295294458  -0.000001304392341
Si   12.89862   7.46762  10.18313   0.000004906978533   0.000003530237555  -0.000000609914650
Si   12.89862  10.18313   7.46762   0.000004903271865  -0.000000608032696   0.000003542484161
Si   11.54087   6.10987  11.54087   0.000001295295974   0.000002170744900   0.000001304392246
Si   14.25638   6.10987  14.25638  -0.000000236466157  -0.000003466725982  -0.000000238112510
Si   11.54087   8.82537  14.25638   0.000000608034107  -0.000004903270475  -0.000003542484060
Si   14.25638   8.82537  11.54087  -0.000003530236174  -0.000004906977352   0.000000609914784
Si   15.61412   7.46762  12.89862  -0.000001120683498  -0.000002965569383   0.000000769227845
Si   15.61412  10.18313  15.61412  -0.000005421439474  -0.000000474680297  -0.000005421856192
Si   12.89862   7.46762  15.61412   0.000000767346611  -0.000002959261901  -0.000001115875677
Si   12.89862  10.18313  12.89862  -0.000000687197255  -0.000001910766446  -0.000000682675418
Si   11.54087   6.10987  16.97187   0.000000142650081   0.000004152633283   0.000001488553712
Si   14.25638   6.10987  19.68737   0.000000193743630   0.000002138787037   0.000003104444978
Si   11.54087   8.82537  19.68737   0.000004266706042  -0.000001717632053   0.000003251186192
Si   14.25638   8.82537  16.97187  -0.000005270083064  -0.000003833231372  -0.000001383598855
Si   15.61412   7.46762  18.32963  -0.000003427102741  -0.000004834483022   0.000003358297689
Si   15.61412  10.18313  21.04512   0.000001124666150   0.000001806934389  -0.000003211125936
Si   12.89862   7.46762  21.04512   0.000000714868686  -0.000001772952496   0.000001914350358
Si   12.89862  10.18313  18.32963   0.000004668444496   0.000005516051532   0.000000836699431
Si   11.54087  11.54087   0.67887  -0.000002494171691  -0.000002494173181   0.000002093455683
Si   14.25638  11.54087   3.39437  -0.000000456577075   0.000005881436572  -0.000004519393101
Si   11.54087  14.25638   3.39437   0.000005881437985  -0.000000456578431  -0.000004519393089
Si   14.25638  14.25638   0.67887   0.000001298113154   0.000001298111511   0.000001242286189
Si   15.61412  12.89862   2.03662  -0.000001833167622   0.000001899532142   0.000005385841823
Si   15.61412  15.61412   4.75212  -0.000002397386531  -0.000002397388027   0.000000567020318
Si   12.89862  12.89862   4.75212  -0.000000073925960  -0.000000073927346   0.000000817234408
Si   12.89862  15.61412   2.03662   0.000001899533593  -0.000001833168712   0.000005385841846
Si   11.54087  11.54087   6.10987   0.000001298810631   0.000001298809466   0.000002176380574
Si   14.25638  11.54087   8.82537  -0.000003539633805   0.000000611727966  -0.000004902899492
Si   11.54087  14.25638   8.82537   0.000000611729328  -0.000003539635619  -0.000004902899510
Si   14.25638  14.25638   6.10987  -0.000000237616582  -0.000000237617829  -0.000003462254919
Si   15.61412  12.89862   7.46762  -0.000001114304316   0.000000764757065  -0.000002959290957
Si   15.61412  15.61412  10.18313  -0.000005409716882  -0.000005409718177  -0.000000479938210
Si   12.89862  12.89862  10.18313  -0.000000693314154  -0.000000693315094  -0.000001915423298
Si   12.89862  15.61412   7.46762   0.000000764758334  -0.000001114305784  -0.000002959291091
Si   11.54087  11.54087  11.54087   0.000005049745331   0.000005049743780   0.000005052607059
Si   14.25638  11.54087  14.25638  -0.000000176245998   0.000002332335664  -0.000000178701274
Si   11.54087  14.25638  14.25638   0.000002332337011  -0.000000176247690  -0.000000178701451
Si   14.25638  14.25638  11.54087  -0.000000182579184  -0.000000182581007   0.000002333940732
Si   15.61412  12.89862  12.89862  -0.000000780988450   0.000002341695457   0.000002342256705
Si   15.61412  15.61412  15.61412  -0.000002715224453  -0.000002715226280  -0.000002714765011
Si   12.89862  12.89862  15.61412   0.000002341229382   0.000002341227957  -0.000000784075396
Si   12.89862  15.61412  12.89862   0.000002341696841  -0.000000780989814   0.000002342256800
Si   11.54087  11.54087  16.97187   0.000002891173982   0.000002891172937  -0.000000003614996
Si   14.25638  11.54087  19.68737  -0.000004019714524   0.000002564166299  -0.000000383643093
Si   11.54087  14.25638  19.68737   0.000002564167387  -0.000004019716166  -0.000000383643182
Si   14.25638  14.25638  16.97187  -0.000001519655594  -0.000001519657232  -0.000000338329592
Si   15.61412  12.89862  18.32963  -0.000004063040840  -0.000001287650976  -0.000004140602372
Si   15.61412  15.61412  21.04512  -0.000001658301343  -0.000001658302959   0.000000439766375
Si   12.89862  12.89862  21.04512   0.000000187925310   0.000000187923778   0.000000603578767
Si   12.89862  15.61412  18.32963  -0.000001287649731  -0.000004063042176  -0.000004140602874
Si   11.54087  16.97187   0.67887  -0.000003462766910  -0.000006277940626   0.000003420199830
Si   14.25638  16.97187   3.39437   0.000003148036419  -0.000001016095360   0.000000708131998
Si   11.54087  19.68737   3.39437  -0.000002488873692  -0.000000850410714  -0.000000371314380
Si   14.25638  19.68737   0.67887   0.000004376128216   0.000004884711693  -0.000002607623265
Si   15.61412  18.32963   2.03662   0.000001813382759  -0.000000492294601  -0.000005074865762
Si   15.61412  21.04512   4.75212  -0.000001752550421  -0.000002197972655   0.000001055685851
Si   12.89862  18.32963   4.75212   0.000005107456112  -0.000000483290051   0.000001157468682
Si   12.89862  21.04512   2.03662  -0.000001493653003   0.000003087760123  -0.000001485542876
Si   11.54087  16.97187   6.10987   0.000000131144596   0.000001489311515   0.000004145816892
Si   14.25638  16.97187   8.82537  -0.000005257072298  -0.000001380296146  -0.000003829942844
Si   11.54087  19.68737   8.82537   0.000004262598339   0.000003251575380  -0.000001713387411
Si   14.25638  19.68737   6.10987   0.000000200942101   0.000003105714887   0.000002134539435
Si   15.61412  18.32963   7.46762  -0.000003428327644   0.000003357216462  -0.000004832908608
Si   15.61412  21.04512  10.18313   0.000001113253228  -0.000003202104010   0.000001806685003
Si   12.89862  18.32963  10.18313   0.000004667447864   0.000000826975269   0.000005510150369
Si   12.89862  21.04512   7.46762   0.000000720813606   0.000001915661350  -0.000001770622700
Si   11.54087  16.97187  11.54087   0.000002893143052  -0.000000009436476   0.000002883114438
Si   14.25638  16.97187  14.25638  -0.000001530032547  -0.000000338532372  -0.000001526434534
Si   11.54087  19.68737  14.25638   0.000002565695217  -0.000000388361757  -0.000004009924021
Si   14.25638  19.68737  11.54087  -0.000004015904295  -0.000000386926675   0.000002567772192
Si   15.61412  18.32963  12.89862  -0.000004067373580  -0.000004150327230  -0.000001277225038
Si   15.61412  21.04512  15.61412  -0.000001668462695   0.000000444801494  -0.000001664041124
Si   12.89862  18.32963  15.61412  -0.000001277368408  -0.000004144024439  -0.000004069923157
Si   12.89862  21.04512  12.89862   0.000000197604075   0.000000608496649   0.000000192302022
Si   11.54087  16.97187  16.97187  -0.000006043846235   0.000000932472273   0.000000931263407
Si   14.25638  16.97187  19.68737   0.000002529683722  -0.000002154070823  -0.000006653771282
Si   11.54087  19.68737  19.68737  -0.000003044384314   0.000004312995966   0.000004311609930
Si   14.25638  19.68737  16.97187   0.000002534962762  -0.000006651047628  -0.000002153151499
Si   15.61412  18.32963  18.32963  -0.000006382142588  -0.000000952409684  -0.000000952555340
Si   15.61412  21.04512  21.04512  -0.000004112392823   0.000004201269994   0.000004204438122
Si   12.89862  18.32963  21.04512   0.000003185610526   0.000000219542366  -0.000000919207975
Si   12.89862  21.04512  18.32963   0.000003186969973  -0.000000915878998   0.000000217804610
Si   16.97187   0.67888   0.67887   0.000001007639515  -0.000001145725390  -0.000001147341761
Si   19.68737   0.67888   3.39437   0.000001030147694  -0.000002335633520  -0.000004088075623
Si   16.97187   3.39438   3.39437  -0.000006706694640  -0.000000284392187  -0.000000279635643
Si   19.68737   3.39438   0.67887   0.000001034739584  -0.000004084763308  -0.000002334179026
Si   21.04512   2.03662   2.03662   0.000000605992613  -0.000001694779259  -0.000001683590794
Si   21.04512   4.75212   4.75212  -0.000002156900147   0.000004061479047   0.000004052650438
Si   18.32963   2.03662   4.75212   0.000001249884356   0.000000843307221   0.000002035041079
Si   18.32963   4.75212   2.03662   0.000001248593700   0.000002043419765   0.000000842959603
Si   16.97187   0.67888   6.10987  -0.000001054601230   0.000002189267410   0.000001761037753
Si   19.68737   0.67888   8.82537   0.000001484684267  -0.000003095255144   0.000001487733650
Si   16.97187   3.39438   8.82537  -0.000001156264587   0.000000484170186  -0.000005104758497
Si   19.68737   3.39438   6.10987   0.000005073268276   0.000000502659246  -0.000001817126764
Si   21.04512   2.03662   7.46762   0.000002605111329  -0.000004880997770  -0.000004379678967
Si   21.04512   4.75212  10.18313  -0.000003427582919   0.000006277564020   0.000003457092397
Si   18.32963   2.03662  10.18313   0.000000381812327   0.000000849937855   0.000002489113250
Si   18.32963   4.75212   7.46762  -0.000000714744402   0.000001009560802  -0.000003149571704
Si   16.97187   0.67888  11.54087  -0.000006277562400   0.000003427584480  -0.000003457092626
Si   19.68737   0.67888  14.25638   0.000004880999020  -0.000002605109843   0.000004379678910
Si   16.97187   3.39438  14.25638  -0.000001009559547   0.000000714746143   0.000003149571930
Si   19.68737   3.39438  11.54087  -0.000000849936814  -0.000000381810668  -0.000002489113035
Si   21.04512   2.03662  12.89862   0.000003095256656  -0.000001484683205  -0.000001487733722
Si   21.04512   4.75212  15.61412  -0.000002189266179   0.000001054602833  -0.000001761037929
Si   18.32963   2.03662  15.61412  -0.000000502657874  -0.000005073267173   0.000001817126815
Si   18.32963   4.75212  12.89862  -0.000000484168672   0.000001156266025   0.000005104758620
Si   16.97187   0.67888  16.97187  -0.000004061477455   0.000002156901923  -0.000004052650259
Si   19.68737   0.67888  19.68737   0.000001694781161  -0.000000605991129   0.000001683590843
Si   16.97187   3.39438  19.68737  -0.000002043418151  -0.000001248592081  -0.000000842959562
Si   19.68737   3.39438  16.97187  -0.000000843305817  -0.000001249882973  -0.000002035040916
Si   21.04512   2.03662  18.32963   0.000002335635016  -0.000001030146087   0.000004088075761
Si   21.04512   4.75212  21.04512   0.000001145727006  -0.000001007638224   0.000001147341456
Si   18.32963   2.03662  21.04512   0.000004084764638  -0.000001034738184   0.000002334178858
Si   18.32963   4.75212  18.32963   0.000000284393907   0.000006706695620   0.000000279635788
Si   16.97187   6.10987   0.67887  -0.000001058066440   0.000001761486316   0.000002187110780
Si   19.68737   6.10987   3.39437   0.000005077841705  -0.000001815549621   0.000000502910489
Si   16.97187   8.82537   3.39437  -0.000001157006862  -0.000005111929579   0.000000494750437
Si   19.68737   8.82537   0.67887   0.000001486711282   0.000001490913423  -0.000003097395223
Si   21.04512   7.46762   2.03662   0.000002618000797  -0.000004386030076  -0.000004885351684
Si   21.04512  10.18313   4.75212  -0.000003428548605   0.000003461125051   0.000006281766004
Si   18.32963   7.46762   4.75212  -0.000000707242094  -0.000003146788584   0.000001013909780
Si   18.32963  10.18313   2.03662   0.000000378609364   0.000002487462417   0.000000853254463
Si   16.97187   6.10987   6.10987  -0.000000568042673   0.000002378683326   0.000002380083107
Si   19.68737   6.10987   8.82537  -0.000005381113885   0.000001827856680  -0.000001884089652
Si   16.97187   8.82537   8.82537  -0.000000824982667   0.000000086730889   0.000000089955884
Si   19.68737   8.82537   6.10987  -0.000005387729558  -0.000001884297642   0.000001821628876
Si   21.04512   7.46762   7.46762  -0.000001249806254  -0.000001298563169  -0.000001301482190
Si   21.04512  10.18313  10.18313  -0.000002086866736   0.000002494690509   0.000002494719202
Si   18.32963   7.46762  10.18313   0.000004520533927   0.000000458409338  -0.000005877979566
Si   18.32963  10.18313   7.46762   0.000004515960049  -0.000005878171943   0.000000461147559
Si   16.97187   6.10987  11.54087   0.000001482039310   0.000004158518600   0.000000128046683
Si   19.68737   6.10987  14.25638   0.000003106514331   0.000002132766353   0.000000203167973
Si   16.97187   8.82537  14.25638  -0.000001382305502  -0.000003824620898  -0.000005255539177
Si   19.68737   8.82537  11.54087   0.000003262618388  -0.000001726177382   0.000004254213394
Si   21.04512   7.46762  12.89862   0.000001913414866  -0.000001767530350   0.000000720344557
Si   21.04512  10.18313  15.61412  -0.000003209316341   0.000001804245497   0.000001123774804
Si   18.32963   7.46762  15.61412   0.000003356645350  -0.000004833578001  -0.000003431581897
Si   18.32963  10.18313  12.89862   0.000000829914816   0.000005511508701   0.000004668619520
Si   16.97187   6.10987  16.97187  -0.000000941807836   0.000001255667539  -0.000000951525168
Si   19.68737   6.10987  19.68737  -0.000001761487781   0.000007459927393  -0.000001751775068
Si   16.97187   8.82537  19.68737   0.000002286492638  -0.000003736062651   0.000004245489710
Si   19.68737   8.82537  16.97187   0.000004234874761  -0.000003731336449   0.000002280574401
Si   21.04512   7.46762  18.32963  -0.000002668882363  -0.000001925568237  -0.000001006568017
Si   21.04512  10.18313  21.04512  -0.000000450578763  -0.000004027854653  -0.000000450304681
Si   18.32963   7.46762  21.04512  -0.000001007058470  -0.000001925325390  -0.000002667015947
Si   18.32963  10.18313  18.32963  -0.000002420255920   0.000004018039948  -0.000002423175719
Si   16.97187  11.54087   0.67887  -0.000006277939034  -0.000003462768299   0.000003420199777
Si   19.68737  11.54087   3.39437  -0.000000850409432  -0.000002488874976  -0.000000371314333
Si   16.97187  14.25638   3.39437  -0.000001016094123   0.000003148034968   0.000000708132301
Si   19.68737  14.25638   0.67887   0.000004884713120   0.000004376126640  -0.000002607623206
Si   21.04512  12.89862   2.03662   0.000003087761610  -0.000001493654223  -0.000001485542822
Si   21.04512  15.61412   4.75212  -0.000002197971220  -0.000001752551694   0.000001055685716
Si   18.32963  12.89862   4.75212  -0.000000483288796   0.000005107454627   0.000001157468471
Si   18.32963  15.61412   2.03662  -0.000000492293174   0.000001813381465  -0.000005074866031
Si   16.97187  11.54087   6.10987   0.000001489313068   0.000000131143224   0.000004145816782
Si   19.68737  11.54087   8.82537   0.000003251576789   0.000004262596939  -0.000001713387379
Si   16.97187  14.25638   8.82537  -0.000001380294680  -0.000005257073718  -0.000003829942549
Si   19.68737  14.25638   6.10987   0.000003105716389   0.000000200940725   0.000002134539392
Si   21.04512  12.89862   7.46762   0.000001915662883   0.000000720811978  -0.000001770622707
Si   21.04512  15.61412  10.18313  -0.000003202102842   0.000001113252059   0.000001806684867
Si   18.32963  12.89862  10.18313   0.000000826976590   0.000004667446545   0.000005510149987
Si   18.32963  15.61412   7.46762   0.000003357218076  -0.000003428328882  -0.000004832908452
Si   16.97187  11.54087  11.54087  -0.000000009435304   0.000002893141668   0.000002883114399
Si   19.68737  11.54087  14.25638  -0.000000388360225   0.000002565693787  -0.000004009923968
Si   16.97187  14.25638  14.25638  -0.000000338531733  -0.000001530033899  -0.000001526434322
Si   19.68737  14.25638  11.54087  -0.000000386925360  -0.000004015905844   0.000002567772316
Si   21.04512  12.89862  12.89862   0.000000608498138   0.000000197602634   0.000000192302031
Si   21.04512  15.61412  15.61412   0.000000444802986  -0.000001668464058  -0.000001664040967
Si   18.32963  12.89862  15.61412  -0.000004144023008  -0.000001277369735  -0.000004069923275
Si   18.32963  15.61412  12.89862  -0.000004150325581  -0.000004067374643  -0.000001277225312
Si   16.97187  11.54087  16.97187   0.000000932473815  -0.000006043847386   0.000000931263342
Si   19.68737  11.54087  19.68737   0.000004312997185  -0.000003044385626   0.000004311609859
Si   16.97187  14.25638  19.68737  -0.000002154069424   0.000002529682357  -0.000006653771118
Si   19.68737  14.25638  16.97187  -0.000006651046092   0.000002534961525  -0.000002153151094
Si   21.04512  12.89862  18.32963  -0.000000915877486   0.000003186968695   0.000000217804508
Si   21.04512  15.61412  21.04512   0.000004201271250  -0.000004112393968   0.000004204437986
Si   18.32963  12.89862  21.04512   0.000000219543710   0.000003185609154  -0.000000919208216
Si   18.32963  15.61412  18.32963  -0.000000952408341  -0.000006382143952  -0.000000952555456
Si   16.97187  16.97187   0.67887  -0.000004055538615  -0.000004055540160   0.000002167966390
Si   19.68737  16.97187   3.39437  -0.000000850540886  -0.000002027078235  -0.000001257273935
Si   16.97187  19.68737   3.39437  -0.000002027076914  -0.000000850542423  -0.000001257273836
Si   19.68737  19.68737   0.67887   0.000001683244679   0.000001683243492  -0.000000602912675
Si   21.04512  18.32963   2.03662   0.000002331461718   0.000004078451886  -0.000001036127927
Si   21.04512  21.04512   4.75212   0.000001160349658   0.000001160348032  -0.000001004207094
Si   18.32963  18.32963   4.75212   0.000000281898354   0.000000281896841   0.000006709552948
Si   18.32963  21.04512   2.03662   0.000004078453534   0.000002331460206  -0.000001036127971
Si   16.97187  16.97187   6.10987  -0.000000944790630  -0.000000944792097   0.000001267442954
Si   19.68737  16.97187   8.82537   0.000004248684295   0.000002284951583  -0.000003741166066
Si   16.97187  19.68737   8.82537   0.000002284953119   0.000004248683359  -0.000003741166121
Si   19.68737  19.68737   6.10987  -0.000001753047437  -0.000001753048658   0.000007466105851
Si   21.04512  18.32963   7.46762  -0.000002668183279  -0.000001006608422  -0.000001926002158
Si   21.04512  21.04512  10.18313  -0.000000460686761  -0.000000460688341  -0.000004026246626
Si   18.32963  18.32963  10.18313  -0.000002422831824  -0.000002422833634   0.000004017674141
Si   18.32963  21.04512   7.46762  -0.000001006606869  -0.000002668184841  -0.000001926001980
Si   16.97187  16.97187  11.54087   0.000000935510520   0.000000935508947  -0.000006036360714
Si   19.68737  16.97187  14.25638  -0.000006655969206  -0.000002155859330   0.000002523145001
Si   16.97187  19.68737  14.25638  -0.000002155857833  -0.000006655970636   0.000002523144784
Si   19.68737  19.68737  11.54087   0.000004299610283   0.000004299609200  -0.000003037784652
Si   21.04512  18.32963  12.89862  -0.000000918445783   0.000000226916337   0.000003186901415
Si   21.04512  21.04512  15.61412   0.000004206989761   0.000004206988199  -0.000004118931788
Si   18.32963  18.32963  15.61412  -0.000000959182258  -0.000000959183771  -0.000006380105736
Si   18.32963  21.04512  12.89862   0.000000226917939  -0.000000918447441   0.000003186901559
Si   16.97187  16.97187  16.97187  -0.000000597509534  -0.000000597511066  -0.000000589493889
Si   19.68737  16.97187  19.68737   0.000007049816157  -0.000006177220796   0.000007043173250
Si   16.97187  19.68737  19.68737  -0.000006177219159   0.000007049814913   0.000007043173243
Si   19.68737  19.68737  16.97187   0.000007056750065   0.000007056748826  -0.000006167693197
Si   21.04512  18.32963  18.32963  -0.000006819238229  -0.000000513778172  -0.000000514272384
Si   21.04512  21.04512  21.04512  -0.000000470303136  -0.000000470304663  -0.000000465127865
Si   18.32963  18.32963  21.04512  -0.000000510160043  -0.000000510161440  -0.000006822371313
Si   18.32963  21.04512  18.32963  -0.000000513776905  -0.000006819239734  -0.000000514272560
