216 

Si    0.72888   0.67888   0.67888   0.013631496583874   0.000002001528581   0.000002001653636
Si    3.39437   0.67888   3.39437  -0.000195061748548   0.000124669165818  -0.000201389178754
Si    0.67888   3.39437   3.39437   0.000433612186537  -0.000118058779572  -0.000118388090925
Si    3.39437   3.39437   0.67888  -0.000195097782015  -0.000201501848103   0.000125079806871
Si    4.75213   2.03662   2.03662   0.000008523640821   0.000027577362757   0.000027698267659
Si    4.75213   4.75213   4.75213   0.000015186622996   0.000008178988613   0.000008176194899
Si    2.03662   2.03662   4.75213   0.000034200738710  -0.000037171945685   0.000036344802776
Si    2.03662   4.75213   2.03662   0.000034099870928   0.000036432987162  -0.000037251091472
Si    0.67888   0.67888   6.10987  -0.000020661559387   0.000002850195059   0.000000635192976
Si    3.39437   0.67888   8.82538  -0.000019862301260   0.000008157660072   0.000008160505884
Si    0.67888   3.39437   8.82538  -0.000005500558221  -0.000008086495566   0.000010822723446
Si    3.39437   3.39437   6.10987  -0.000016807704062   0.000020978948991  -0.000003356784662
Si    4.75213   2.03662   7.46762  -0.000000011635959  -0.000007644113036  -0.000000929630110
Si    4.75213   4.75213  10.18313   0.000003069024673  -0.000019402542997  -0.000004682738498
Si    2.03662   2.03662  10.18313   0.000016297225107   0.000000112370410   0.000002760287339
Si    2.03662   4.75213   7.46762   0.000010338793018  -0.000005955340875   0.000007312721093
Si    0.67888   0.67888  11.54087  -0.000015374147769   0.000008201924995  -0.000007925178479
Si    3.39437   0.67888  14.25638  -0.000189138054477  -0.000112695188165   0.000191720149043
Si    0.67888   3.39437  14.25638   0.000432167022795   0.000113040009247  -0.000117146948921
Si    3.39437   3.39437  11.54087  -0.000022190464796   0.000016430302101   0.000003317778118
Si    4.75213   2.03662  12.89863  -0.000016981533336   0.000054661036426   0.000024694323516
Si    4.75213   4.75213  15.61412  -0.000010850806822  -0.000012849003393  -0.000064389268281
Si    2.03662   2.03662  15.61412  -0.003409349407209  -0.002468382049569   0.002461240137791
Si    2.03662   4.75213  12.89863  -0.000177947574620   0.000057679753465  -0.000051969695359
Si    0.67888   6.10987   0.67888  -0.000020499704175   0.000000646007999   0.000002873366076
Si    3.39437   6.10987   3.39437  -0.000016839327319  -0.000003365072836   0.000020961439690
Si    0.67888   8.82538   3.39437  -0.000005649321233   0.000010767416770  -0.000008085315809
Si    3.39437   8.82538   0.67888  -0.000019774199671   0.000008156381750   0.000008161547195
Si    4.75213   7.46762   2.03662  -0.000000000190779  -0.000000915287237  -0.000007649099727
Si    4.75213  10.18313   4.75213   0.000003189946921  -0.000004690505841  -0.000019394801723
Si    2.03662   7.46762   4.75213   0.000010344379248   0.000007287166156  -0.000005920126228
Si    2.03662  10.18313   2.03662   0.000016273592983   0.000002743664073   0.000000287038271
Si    0.67888   6.10987   6.10987   0.000110647835604  -0.000020539253878  -0.000020570970455
Si    3.39437   6.10987   8.82538  -0.000005692631943   0.000014356962158   0.000004390013617
Si    0.67888   8.82538   8.82538   0.000105425900263   0.000008974852556   0.000008956362896
Si    3.39437   8.82538   6.10987  -0.000005686122490   0.000004377008183   0.000014361614031
Si    4.75213   7.46762   7.46762   0.000008932271877  -0.000012515398461  -0.000012515824196
Si    4.75213  10.18313  10.18313   0.000007892413962   0.000004358817192   0.000004355154388
Si    2.03662   7.46762  10.18313  -0.000061827911339  -0.000005674399047  -0.000001441722018
Si    2.03662  10.18313   7.46762  -0.000061828035138  -0.000001446412813  -0.000005685471954
Si    0.67888   6.10987  11.54087   0.000107982892147   0.000019456508148  -0.000023252875575
Si    3.39437   6.10987  14.25638  -0.000021125760811  -0.000011462246588  -0.000024502770452
Si    0.67888   8.82538  14.25638  -0.000010931474933   0.000000262798447   0.000000794405185
Si    3.39437   8.82538  11.54087  -0.000011787457748   0.000007469651591  -0.000024187940245
Si    4.75213   7.46762  12.89863   0.000009270946921  -0.000005160267087   0.000031237580306
Si    4.75213  10.18313  15.61412   0.000000018135342  -0.000001082319888   0.000005630712356
Si    2.03662   7.46762  15.61412   0.000015398874301  -0.000005635178903  -0.000003172465970
Si    2.03662  10.18313  12.89863   0.000009468242887  -0.000010176053047   0.000015932139377
Si    0.67888  11.54087   0.67888  -0.000015240874879  -0.000007926175623   0.000008177854888
Si    3.39437  11.54087   3.39437  -0.000022172892085   0.000003308811204   0.000016336572907
Si    0.67888  14.25638   3.39437   0.000432187831535  -0.000116811116277   0.000113369553112
Si    3.39437  14.25638   0.67888  -0.000189182138099   0.000191809772765  -0.000113111171094
Si    4.75213  12.89863   2.03662  -0.000016954883939   0.000024693385477   0.000054545133348
Si    4.75213  15.61412   4.75213  -0.000010895923505  -0.000064529265745  -0.000012855397364
Si    2.03662  12.89863   4.75213  -0.000177947607811  -0.000051908916022   0.000057730654218
Si    2.03662  15.61412   2.03662  -0.003409347008143   0.002461151841410  -0.002468478012881
Si    0.67888  11.54087   6.10987   0.000107965216457  -0.000023203107250   0.000019499041491
Si    3.39437  11.54087   8.82538  -0.000011776917525  -0.000024207385326   0.000007451077602
Si    0.67888  14.25638   8.82538  -0.000010765621780   0.000000804993373   0.000000224538409
Si    3.39437  14.25638   6.10987  -0.000021140128854  -0.000024595475565  -0.000011475188632
Si    4.75213  12.89863   7.46762   0.000009167728594   0.000031250396562  -0.000005144055400
Si    4.75213  15.61412  10.18313  -0.000000026961854   0.000005643915269  -0.000001086424134
Si    2.03662  12.89863  10.18313   0.000009462792294   0.000015965172722  -0.000010197366971
Si    2.03662  15.61412   7.46762   0.000015421966792  -0.000003002519136  -0.000005647589103
Si    0.67888  11.54087  11.54087   0.000112503748917   0.000011568066947   0.000011618284956
Si    3.39437  11.54087  14.25638  -0.000016813011645   0.000001363481159  -0.000022977137985
Si    0.67888  14.25638  14.25638   0.000431698282814   0.000108991324867   0.000109337672131
Si    3.39437  14.25638  11.54087  -0.000016816614942  -0.000022974062424   0.000001336512720
Si    4.75213  12.89863  12.89863   0.000015187542589   0.000008134114164   0.000008144543522
Si    4.75213  15.61412  15.61412   0.000009488389572  -0.000035695580112  -0.000035820940308
Si    2.03662  12.89863  15.61412   0.000034991252067  -0.000026407072164   0.000034369593475
Si    2.03662  15.61412  12.89863   0.000035090496214   0.000034286073540  -0.000026315326626
Si    6.10987   0.67888   0.67888  -0.000004694981933   0.000002878074514   0.000002874582614
Si    8.82538   0.67888   3.39437   0.000006440506921   0.000005524209479  -0.000008023213146
Si    6.10987   3.39437   3.39437   0.000002863811782  -0.000014376200438  -0.000014377722359
Si    8.82538   3.39437   0.67888   0.000006456127812  -0.000008018335971   0.000005508612139
Si   10.18313   2.03662   2.03662  -0.000001362636148   0.000002677017662   0.000002703729694
Si   10.18313   4.75213   4.75213   0.000000771237183  -0.000000876757139  -0.000000915799936
Si    7.46762   2.03662   4.75213   0.000000589768924   0.000011289430617   0.000004667956328
Si    7.46762   4.75213   2.03662   0.000000623463921   0.000004669827761   0.000011291342717
Si    6.10987   0.67888   6.10987  -0.000004377890936   0.000028316374835  -0.000014481450364
Si    8.82538   0.67888   8.82538   0.000006835880639   0.000008978112284   0.000008956312802
Si    6.10987   3.39437   8.82538  -0.000000579845391   0.000012231903906   0.000001087988452
Si    8.82538   3.39437   6.10987   0.000005868325082  -0.000004469908032   0.000000851705567
Si   10.18313   2.03662   7.46762  -0.000003953486764  -0.000000891044325  -0.000006381300466
Si   10.18313   4.75213  10.18313   0.000005001716420   0.000011501648403  -0.000007282901059
Si    7.46762   2.03662  10.18313  -0.000011378377575   0.000001939664220   0.000001106266544
Si    7.46762   4.75213   7.46762  -0.000003126791589   0.000004002444037  -0.000015437210595
Si    6.10987   0.67888  11.54087  -0.000005252193337  -0.000018303232881   0.000011595008498
Si    8.82538   0.67888  14.25638   0.000001156016643   0.000005506137018   0.000000732022276
Si    6.10987   3.39437  14.25638   0.000002095401060  -0.000011610826394   0.000004471844525
Si    8.82538   3.39437  11.54087   0.000012129900364  -0.000007492439369  -0.000007129357969
Si   10.18313   2.03662  12.89863   0.000003411411100  -0.000010151632230   0.000009089181137
Si   10.18313   4.75213  15.61412   0.000004302294458   0.000000909813807   0.000007273581450
Si    7.46762   2.03662  15.61412  -0.000003987807089  -0.000003805562455   0.000000066964260
Si    7.46762   4.75213  12.89863  -0.000007363696106   0.000012882470291   0.000005013944153
Si    6.10987   6.10987   0.67888  -0.000004493211804  -0.000014494732623   0.000028280667308
Si    8.82538   6.10987   3.39437   0.000005886243788   0.000000845179839  -0.000004477067526
Si    6.10987   8.82538   3.39437  -0.000000588656073   0.000001093407559   0.000012220955694
Si    8.82538   8.82538   0.67888   0.000006789777821   0.000008974800939   0.000008959558615
Si   10.18313   7.46762   2.03662  -0.000003943040294  -0.000006385433033  -0.000000908727123
Si   10.18313  10.18313   4.75213   0.000004996056697  -0.000007271189335   0.000011526009914
Si    7.46762   7.46762   4.75213  -0.000003131456691  -0.000015420516406   0.000003988553379
Si    7.46762  10.18313   2.03662  -0.000011365223686   0.000001096556170   0.000001957062835
Si    6.10987   6.10987   6.10987  -0.000003938247021   0.000003375856688   0.000003375408435
Si    8.82538   6.10987   8.82538   0.000001957529638   0.000000836523463   0.000002886034043
Si    6.10987   8.82538   8.82538  -0.000000922232836   0.000002889300993   0.000002885027846
Si    8.82538   8.82538   6.10987   0.000001947287699   0.000002859980045   0.000000831153449
Si   10.18313   7.46762   7.46762  -0.000001925945348  -0.000002007949345  -0.000002026019111
Si   10.18313  10.18313  10.18313  -0.000001050854195  -0.000000881478604  -0.000000859225520
Si    7.46762   7.46762  10.18313  -0.000003882001531  -0.000003824721926   0.000000060256170
Si    7.46762  10.18313   7.46762  -0.000003899163859   0.000000076956628  -0.000003815335644
Si    6.10987   6.10987  11.54087  -0.000003806945696   0.000003471967540  -0.000010586373261
Si    8.82538   6.10987  14.25638   0.000010271127048  -0.000001826323069  -0.000001476475489
Si    6.10987   8.82538  14.25638   0.000000287657853   0.000008916580761  -0.000015107483023
Si    8.82538   8.82538  11.54087   0.000007231897883   0.000008170095176  -0.000008122829556
Si   10.18313   7.46762  12.89863   0.000005870548363   0.000004381996688  -0.000001514767337
Si   10.18313  10.18313  15.61412  -0.000003942940876  -0.000000733738602  -0.000006221322954
Si    7.46762   7.46762  15.61412  -0.000013224794534  -0.000010072452451  -0.000010915284169
Si    7.46762  10.18313  12.89863   0.000002136194357   0.000008137236012   0.000007059910715
Si    6.10987  11.54087   0.67888  -0.000005367031773   0.000011604128278  -0.000018266113101
Si    8.82538  11.54087   3.39437   0.000012128715241  -0.000007149026039  -0.000007478958261
Si    6.10987  14.25638   3.39437   0.000002095567925   0.000004492699805  -0.000011596281463
Si    8.82538  14.25638   0.67888   0.000001188756793   0.000000736876690   0.000005538841055
Si   10.18313  12.89863   2.03662   0.000003427675836   0.000009099657779  -0.000010160657545
Si   10.18313  15.61412   4.75213   0.000004286344385   0.000007260283278   0.000000922422042
Si    7.46762  12.89863   4.75213  -0.000007363797192   0.000005065277178   0.000012896788144
Si    7.46762  15.61412   2.03662  -0.000003970370366   0.000000054893488  -0.000003824868248
Si    6.10987  11.54087   6.10987  -0.000003806867491  -0.000010592832646   0.000003459133009
Si    8.82538  11.54087   8.82538   0.000007224903009  -0.000008118494870   0.000008161084807
Si    6.10987  14.25638   8.82538   0.000000296410231  -0.000015122498242   0.000008924201966
Si    8.82538  14.25638   6.10987   0.000010272289965  -0.000001481447472  -0.000001827478262
Si   10.18313  12.89863   7.46762   0.000005876265666  -0.000001492579119   0.000004398005006
Si   10.18313  15.61412  10.18313  -0.000003953298377  -0.000006232448437  -0.000000744279079
Si    7.46762  12.89863  10.18313   0.000002158096689   0.000007029026173   0.000008144224260
Si    7.46762  15.61412   7.46762  -0.000013238070554  -0.000010916199674  -0.000010063699816
Si    6.10987  11.54087  11.54087  -0.000003064417490  -0.000006265069552  -0.000006260340278
Si    8.82538  11.54087  14.25638   0.000005867302913  -0.000004592771990   0.000000719789760
Si    6.10987  14.25638  14.25638   0.000001997174603   0.000011479682881   0.000011485525407
Si    8.82538  14.25638  11.54087   0.000005883859567   0.000000719907025  -0.000004606660584
Si   10.18313  12.89863  12.89863   0.000000773530395   0.000006660487815   0.000006691081187
Si   10.18313  15.61412  15.61412  -0.000002235945269  -0.000005565499431  -0.000005587850598
Si    7.46762  12.89863  15.61412  -0.000004661126535   0.000006359828654  -0.000018584111488
Si    7.46762  15.61412  12.89863  -0.000004677838910  -0.000018572566765   0.000006378834382
Si   11.54087   0.67888   0.67888  -0.000013432566478   0.000008148485089   0.000008152497317
Si   14.25638   0.67888   3.39437  -0.000179293287017   0.000112577161985   0.000182474411112
Si   11.54087   3.39437   3.39437  -0.000006634249249  -0.000003531358493  -0.000003555155616
Si   14.25638   3.39437   0.67888  -0.000179326402624   0.000182545346226   0.000112983743248
Si   15.61412   2.03662   2.03662  -0.003262979736059   0.002166831238255   0.002166943608985
Si   15.61412   4.75213   4.75213  -0.000180889530876  -0.000045691139610  -0.000045774805345
Si   12.89863   2.03662   4.75213  -0.000014354136809  -0.000055149625223   0.000022769841875
Si   12.89863   4.75213   2.03662  -0.000014313752778   0.000022761563076  -0.000055026484159
Si   11.54087   0.67888   6.10987  -0.000006654279381   0.000022727609618   0.000013094778636
Si   14.25638   0.67888   8.82538  -0.000011123768062   0.000002890956051   0.000002884723437
Si   11.54087   3.39437   8.82538  -0.000008754169208  -0.000024322189783   0.000007223172849
Si   14.25638   3.39437   6.10987  -0.000014138596729  -0.000031369918523   0.000011734267618
Si   15.61412   2.03662   7.46762   0.000013583541805  -0.000001250063365  -0.000000004866915
Si   15.61412   4.75213  10.18313   0.000006427089154   0.000011801945372   0.000011225271454
Si   12.89863   2.03662  10.18313   0.000004478712854   0.000009193119859   0.000001800655958
Si   12.89863   4.75213   7.46762   0.000009179951174   0.000031443531229  -0.000012888647676
Si   11.54087   0.67888  11.54087  -0.000012753792187  -0.000010875623546  -0.000022916235033
Si   14.25638   0.67888  14.25638  -0.000178476276978  -0.000102458640104  -0.000185401868935
Si   11.54087   3.39437  14.25638  -0.000000999982562   0.000008811101607  -0.000010820328211
Si   14.25638   3.39437  11.54087  -0.000013369564346  -0.000027768608007  -0.000007712331120
Si   15.61412   2.03662  12.89863   0.000029304095308   0.000040271972264   0.000029994490951
Si   15.61412   4.75213  15.61412   0.000023879711240  -0.000019099877271  -0.000047610640975
Si   12.89863   2.03662  15.61412   0.000005123516940  -0.000027794031455   0.000025945366732
Si   12.89863   4.75213  12.89863   0.000015178126368   0.000008313563345   0.000008007003080
Si   11.54087   6.10987   0.67888  -0.000006776103111   0.000013101464188   0.000022699299197
Si   14.25638   6.10987   3.39437  -0.000014122668013   0.000011720210037  -0.000031296790425
Si   11.54087   8.82538   3.39437  -0.000008763515478   0.000007242098669  -0.000024291324213
Si   14.25638   8.82538   0.67888  -0.000011040053057   0.000002889002359   0.000002886613187
Si   15.61412   7.46762   2.03662   0.000013590345668  -0.000000009300525  -0.000001438081709
Si   15.61412  10.18313   4.75213   0.000006409618438   0.000011208008379   0.000011783582671
Si   12.89863   7.46762   4.75213   0.000009279515464  -0.000012910192969   0.000031432709197
Si   12.89863  10.18313   2.03662   0.000004503841074   0.000001802458220   0.000009188003832
Si   11.54087   6.10987   6.10987  -0.000010932383571  -0.000003430337940  -0.000003419066318
Si   14.25638   6.10987   8.82538  -0.000002608749132  -0.000015200753065   0.000008670209936
Si   11.54087   8.82538   8.82538  -0.000009845913615   0.000008157078571   0.000008161187781
Si   14.25638   8.82538   6.10987  -0.000002619371667   0.000008664016909  -0.000015200069415
Si   15.61412   7.46762   7.46762  -0.000070101052341  -0.000010403636932  -0.000010379693072
Si   15.61412  10.18313  10.18313  -0.000068237432738   0.000001425737698   0.000001420254603
Si   12.89863   7.46762  10.18313   0.000003466954083   0.000001351519420  -0.000003351773765
Si   12.89863  10.18313   7.46762   0.000003484141052  -0.000003350802258   0.000001333887068
Si   11.54087   6.10987  11.54087  -0.000006663242363  -0.000002632501274   0.000000620831047
Si   14.25638   6.10987  14.25638  -0.000014260195181   0.000004840976120   0.000024889273499
Si   11.54087   8.82538  14.25638  -0.000002661888903   0.000004605138036   0.000014464958304
Si   14.25638   8.82538  11.54087  -0.000003494508889   0.000001345236122   0.000012312047193
Si   15.61412   7.46762  12.89863   0.000001142611605  -0.000018491495600  -0.000000735474073
Si   15.61412  10.18313  15.61412   0.000013573148813  -0.000003739396285  -0.000002322202543
Si   12.89863   7.46762  15.61412   0.000005539838273  -0.000009957993690  -0.000017350332535
Si   12.89863  10.18313  12.89863   0.000003203066767   0.000003064493690  -0.000019590620089
Si   11.54087  11.54087   0.67888  -0.000012857991337  -0.000022947004922  -0.000010852775576
Si   14.25638  11.54087   3.39437  -0.000013383438584  -0.000007731562614  -0.000027768747868
Si   11.54087  14.25638   3.39437  -0.000001017261397  -0.000010807340114   0.000008805476084
Si   14.25638  14.25638   0.67888  -0.000178502033100  -0.000185477992413  -0.000102862956105
Si   15.61412  12.89863   2.03662   0.000029154699762   0.000030078382646   0.000040347521697
Si   15.61412  15.61412   4.75213   0.000024045594834  -0.000047531455622  -0.000018999299521
Si   12.89863  12.89863   4.75213   0.000015177768931   0.000007999615091   0.000008314662433
Si   12.89863  15.61412   2.03662   0.000005106967836   0.000025846407580  -0.000027912047765
Si   11.54087  11.54087   6.10987  -0.000006645982447   0.000000634773477  -0.000002637086234
Si   14.25638  11.54087   8.82538  -0.000003483847629   0.000012308417549   0.000001341249946
Si   11.54087  14.25638   8.82538  -0.000002669854108   0.000014471736133   0.000004618511588
Si   14.25638  14.25638   6.10987  -0.000014247957833   0.000024884281886   0.000004826235059
Si   15.61412  12.89863   7.46762   0.000001142928169  -0.000000770681754  -0.000018518430474
Si   15.61412  15.61412  10.18313   0.000013602193941  -0.000002502731542  -0.000003751176743
Si   12.89863  12.89863  10.18313   0.000003086957719  -0.000019595271890   0.000003067266935
Si   12.89863  15.61412   7.46762   0.000005514154724  -0.000017351441105  -0.000009960462423
Si   11.54087  11.54087  11.54087  -0.000011969323522  -0.000004725893765  -0.000004741276848
Si   14.25638  11.54087  14.25638  -0.000014129923678  -0.000018837078530   0.000024172014296
Si   11.54087  14.25638  14.25638  -0.000005603516498  -0.000004634181527  -0.000004614415015
Si   14.25638  14.25638  11.54087  -0.000014143703761   0.000024253160562  -0.000018857869078
Si   15.61412  12.89863  12.89863  -0.000180894713709   0.000063663815317   0.000063711059563
Si   15.61412  15.61412  15.61412  -0.003264895469359  -0.002175708188223  -0.002175807867270
Si   12.89863  12.89863  15.61412  -0.000008187556553  -0.000010903688587   0.000045157196210
Si   12.89863  15.61412  12.89863  -0.000008244914245   0.000045255804139  -0.000010917169309
