216 

Si    0.67888   0.67888   0.67888   0.000009230643202   0.000009230668004   0.000009212814486
Si    3.39437   0.67888   3.39437  -0.000009230654757   0.000009230664678  -0.000009212840219
Si    0.67888   3.39437   3.39437   0.000009230663148  -0.000009230645665  -0.000009212839175
Si    3.39437   3.39437   0.67888  -0.000009230646764  -0.000009230672734   0.000009212811677
Si    4.75213   2.03662   2.03662   0.000007339840631   0.000000000023657   0.000000000010064
Si    4.75213   4.75213   4.75213   0.000008381568387   0.000008381544297   0.000008385461794
Si    2.03662   2.03662   4.75213  -0.000000000014164  -0.000000000014642   0.000007347273577
Si    2.03662   4.75213   2.03662   0.000000000000424   0.000007339833835  -0.000000000001081
Si    0.67888   0.67888   6.10987   0.000003092534075   0.000003092528923   0.000000875652583
Si    3.39437   0.67888   8.82538  -0.000008381574252   0.000008381549752   0.000008385484018
Si    0.67888   3.39437   8.82538   0.000008381547301  -0.000008381549045   0.000008385468923
Si    3.39437   3.39437   6.10987  -0.000003092506008  -0.000003092519252   0.000000875642334
Si    4.75213   2.03662   7.46762   0.000003110701814   0.000000880683762  -0.000003106575754
Si    4.75213   4.75213  10.18313   0.000003092486465   0.000003092515232  -0.000000875655270
Si    2.03662   2.03662  10.18313  -0.000000000017203  -0.000000000026812  -0.000000000000042
Si    2.03662   4.75213   7.46762   0.000000880651080   0.000003110693296  -0.000003106547508
Si    0.67888   0.67888  11.54087   0.000008381578854   0.000008381575181  -0.000008385469477
Si    3.39437   0.67888  14.25638  -0.000003092514782   0.000003092503268  -0.000000875658836
Si    0.67888   3.39437  14.25638   0.000003092509234  -0.000003092473146  -0.000000875651319
Si    3.39437   3.39437  11.54087  -0.000008381541147  -0.000008381563464  -0.000008385462567
Si    4.75213   2.03662  12.89863   0.000003110686482  -0.000000880659154   0.000003106548707
Si    4.75213   4.75213  15.61412   0.000009230665635   0.000009230637162  -0.000009212838526
Si    2.03662   2.03662  15.61412   0.000000000004477  -0.000000000001387  -0.000007347262616
Si    2.03662   4.75213  12.89863  -0.000000880684079   0.000003110680241   0.000003106568852
Si    0.67888   6.10987   0.67888   0.000003110671695   0.000000880680131   0.000003106566346
Si    3.39437   6.10987   3.39437  -0.000003110696901   0.000000880676832  -0.000003106549811
Si    0.67888   8.82538   3.39437   0.000008381559953   0.000008381538874  -0.000008385475487
Si    3.39437   8.82538   0.67888  -0.000008381565934   0.000008381564886   0.000008385473931
Si    4.75213   7.46762   2.03662   0.000003092504028  -0.000003092523367   0.000000875673125
Si    4.75213  10.18313   4.75213   0.000003110691123  -0.000000880673630   0.000003106548708
Si    2.03662   7.46762   4.75213   0.000000880654328  -0.000003110678884   0.000003106547834
Si    2.03662  10.18313   2.03662   0.000000000015426  -0.000000000010544   0.000000000008009
Si    0.67888   6.10987   6.10987   0.000007339851078   0.000000000007216   0.000000000002697
Si    3.39437   6.10987   8.82538  -0.000003110675321  -0.000000880648227   0.000003106556917
Si    0.67888   8.82538   8.82538   0.000009230672531   0.000009230667954   0.000009212832964
Si    3.39437   8.82538   6.10987  -0.000003092499896   0.000003092477912  -0.000000875645730
Si    4.75213   7.46762   7.46762   0.000008381551287  -0.000008381560824  -0.000008385473637
Si    4.75213  10.18313  10.18313   0.000007339831491  -0.000000000002788   0.000000000003833
Si    2.03662   7.46762  10.18313   0.000000000007430  -0.000007339839558   0.000000000014508
Si    2.03662  10.18313   7.46762  -0.000000000024569  -0.000000000003616  -0.000007347246176
Si    0.67888   6.10987  11.54087   0.000003110690701  -0.000000880671945  -0.000003106564613
Si    3.39437   6.10987  14.25638  -0.000007339822173   0.000000000002315  -0.000000000005870
Si    0.67888   8.82538  14.25638   0.000003092518375   0.000003092511630   0.000000875656889
Si    3.39437   8.82538  11.54087  -0.000009230662367   0.000009230608689  -0.000009212826787
Si    4.75213   7.46762  12.89863   0.000009230626326  -0.000009230624054   0.000009212831856
Si    4.75213  10.18313  15.61412   0.000003110660321   0.000000880666433  -0.000003106542782
Si    2.03662   7.46762  15.61412  -0.000000880669244  -0.000003110696353  -0.000003106560499
Si    2.03662  10.18313  12.89863  -0.000000000012731  -0.000000000004214   0.000007347264307
Si    0.67888  11.54087   0.67888   0.000008381557530  -0.000008381563496   0.000008385463940
Si    3.39437  11.54087   3.39437  -0.000008381571467  -0.000008381548333  -0.000008385472616
Si    0.67888  14.25638   3.39437   0.000003110710536  -0.000000880646978  -0.000003106578949
Si    3.39437  14.25638   0.67888  -0.000003110691722  -0.000000880661993   0.000003106564741
Si    4.75213  12.89863   2.03662   0.000003092543713   0.000003092512676  -0.000000875664662
Si    4.75213  15.61412   4.75213   0.000009230674025  -0.000009230680616   0.000009212827956
Si    2.03662  12.89863   4.75213  -0.000000880666045   0.000003110685482   0.000003106546366
Si    2.03662  15.61412   2.03662  -0.000000000021431  -0.000007339853565   0.000000000011812
Si    0.67888  11.54087   6.10987   0.000003092512050  -0.000003092508264  -0.000000875638029
Si    3.39437  11.54087   8.82538  -0.000009230642281  -0.000009230647878   0.000009212796047
Si    0.67888  14.25638   8.82538   0.000003110684791   0.000000880654838   0.000003106563622
Si    3.39437  14.25638   6.10987  -0.000007339841780   0.000000000032997   0.000000000004386
Si    4.75213  12.89863   7.46762   0.000009230647108   0.000009230647291  -0.000009212802688
Si    4.75213  15.61412  10.18313   0.000003092502905  -0.000003092513811   0.000000875641934
Si    2.03662  12.89863  10.18313   0.000000000001845   0.000007339841152   0.000000000017987
Si    2.03662  15.61412   7.46762  -0.000000880650661  -0.000003110686488  -0.000003106541659
Si    0.67888  11.54087  11.54087   0.000009230638248  -0.000009230648730  -0.000009212824760
Si    3.39437  11.54087  14.25638  -0.000003092500038  -0.000003092508078   0.000000875645953
Si    0.67888  14.25638  14.25638   0.000007339839062  -0.000000000007672  -0.000000000000523
Si    3.39437  14.25638  11.54087  -0.000003110688388   0.000000880670886  -0.000003106560422
Si    4.75213  12.89863  12.89863   0.000008381551930   0.000008381553803   0.000008385467955
Si    4.75213  15.61412  15.61412   0.000008381577115  -0.000008381566994  -0.000008385485644
Si    2.03662  12.89863  15.61412   0.000000880659834   0.000003110697735  -0.000003106538872
Si    2.03662  15.61412  12.89863   0.000000880629604  -0.000003110675866   0.000003106563154
Si    6.10987   0.67888   0.67888   0.000000880665691   0.000003110711298   0.000003106549390
Si    8.82538   0.67888   3.39437   0.000008381567499   0.000008381590176  -0.000008385485310
Si    6.10987   3.39437   3.39437   0.000000880666410  -0.000003110709894  -0.000003106561618
Si    8.82538   3.39437   0.67888   0.000008381585208  -0.000008381565482   0.000008385468995
Si   10.18313   2.03662   2.03662   0.000000000014425  -0.000000000005125   0.000000000017192
Si   10.18313   4.75213   4.75213  -0.000000880651886   0.000003110702753   0.000003106558111
Si    7.46762   2.03662   4.75213  -0.000003110706381   0.000000880660767   0.000003106580151
Si    7.46762   4.75213   2.03662  -0.000003092507829   0.000003092517965   0.000000875656629
Si    6.10987   0.67888   6.10987   0.000000000017627   0.000007339842929  -0.000000000015516
Si    8.82538   0.67888   8.82538   0.000009230648361   0.000009230657373   0.000009212830118
Si    6.10987   3.39437   8.82538  -0.000000880643638  -0.000003110698791   0.000003106554159
Si    8.82538   3.39437   6.10987   0.000003092531071  -0.000003092519809  -0.000000875655238
Si   10.18313   2.03662   7.46762   0.000000000001041  -0.000000000006670  -0.000007347269702
Si   10.18313   4.75213  10.18313   0.000000000014760   0.000007339837777   0.000000000015867
Si    7.46762   2.03662  10.18313  -0.000007339835579   0.000000000002548  -0.000000000017654
Si    7.46762   4.75213   7.46762  -0.000008381574435   0.000008381555148  -0.000008385469890
Si    6.10987   0.67888  11.54087  -0.000000880652607   0.000003110658812  -0.000003106530336
Si    8.82538   0.67888  14.25638   0.000003092519861   0.000003092526433   0.000000875641833
Si    6.10987   3.39437  14.25638  -0.000000000016932  -0.000007339809064   0.000000000016697
Si    8.82538   3.39437  11.54087   0.000009230665207  -0.000009230642400  -0.000009212831193
Si   10.18313   2.03662  12.89863   0.000000000002647  -0.000000000018506   0.000007347284118
Si   10.18313   4.75213  15.61412   0.000000880656133   0.000003110706138  -0.000003106539128
Si    7.46762   2.03662  15.61412  -0.000003110701221  -0.000000880694636  -0.000003106558750
Si    7.46762   4.75213  12.89863  -0.000009230648331   0.000009230684314   0.000009212841148
Si    6.10987   6.10987   0.67888   0.000000000010086  -0.000000000013025   0.000007347250608
Si    8.82538   6.10987   3.39437   0.000003110683494  -0.000000880680810  -0.000003106546593
Si    6.10987   8.82538   3.39437  -0.000000880669802   0.000003110712544  -0.000003106552764
Si    8.82538   8.82538   0.67888   0.000009230661130   0.000009230652059   0.000009212826591
Si   10.18313   7.46762   2.03662  -0.000000000005560  -0.000007339843804   0.000000000004352
Si   10.18313  10.18313   4.75213   0.000000000025518   0.000000000000624   0.000007347260768
Si    7.46762   7.46762   4.75213  -0.000008381564611  -0.000008381575982   0.000008385475717
Si    7.46762  10.18313   2.03662  -0.000007339826393  -0.000000000015970   0.000000000005954
Si    6.10987   6.10987   6.10987  -0.000000000000860   0.000000000038087  -0.000000000002998
Si    8.82538   6.10987   8.82538   0.000003110668476   0.000000880653819   0.000003106557286
Si    6.10987   8.82538   8.82538   0.000000880657721   0.000003110703062   0.000003106546736
Si    8.82538   8.82538   6.10987   0.000003092518377   0.000003092476158   0.000000875651392
Si   10.18313   7.46762   7.46762  -0.000000880679261  -0.000003110660125  -0.000003106554077
Si   10.18313  10.18313  10.18313   0.000000000011720  -0.000000000004857   0.000000000014324
Si    7.46762   7.46762  10.18313  -0.000003092516143  -0.000003092552651  -0.000000875645873
Si    7.46762  10.18313   7.46762  -0.000003110681422  -0.000000880649035  -0.000003106541618
Si    6.10987   6.10987  11.54087   0.000000000010845  -0.000000000020081  -0.000007347289358
Si    8.82538   6.10987  14.25638   0.000007339814026  -0.000000000018631   0.000000000016828
Si    6.10987   8.82538  14.25638   0.000000000009246   0.000007339842711  -0.000000000024401
Si    8.82538   8.82538  11.54087   0.000008381567043   0.000008381573516  -0.000008385454680
Si   10.18313   7.46762  12.89863   0.000000880657185  -0.000003110667769   0.000003106537892
Si   10.18313  10.18313  15.61412  -0.000000000009810   0.000000000012491  -0.000007347251294
Si    7.46762   7.46762  15.61412  -0.000009230632273  -0.000009230690907  -0.000009212809953
Si    7.46762  10.18313  12.89863  -0.000003110687718   0.000000880667510   0.000003106543817
Si    6.10987  11.54087   0.67888  -0.000000880659273  -0.000003110682083   0.000003106566270
Si    8.82538  11.54087   3.39437   0.000009230678039  -0.000009230645111  -0.000009212836566
Si    6.10987  14.25638   3.39437  -0.000000000018973   0.000000000000682  -0.000007347236164
Si    8.82538  14.25638   0.67888   0.000003110696089   0.000000880662231   0.000003106579478
Si   10.18313  12.89863   2.03662  -0.000000000026777   0.000007339837409   0.000000000029597
Si   10.18313  15.61412   4.75213   0.000000880660597  -0.000003110691360   0.000003106555821
Si    7.46762  12.89863   4.75213  -0.000009230650082   0.000009230672938   0.000009212797320
Si    7.46762  15.61412   2.03662  -0.000003092527170  -0.000003092514607  -0.000000875641753
Si    6.10987  11.54087   6.10987  -0.000000000009663  -0.000007339847190  -0.000000000011327
Si    8.82538  11.54087   8.82538   0.000008381527915  -0.000008381555758   0.000008385465645
Si    6.10987  14.25638   8.82538   0.000000000010478  -0.000000000009041   0.000007347251910
Si    8.82538  14.25638   6.10987   0.000007339847374  -0.000000000001193   0.000000000006238
Si   10.18313  12.89863   7.46762   0.000000880681510   0.000003110682513  -0.000003106561773
Si   10.18313  15.61412  10.18313   0.000000000007066  -0.000007339853007  -0.000000000013583
Si    7.46762  12.89863  10.18313  -0.000003092486651   0.000003092504483   0.000000875667630
Si    7.46762  15.61412   7.46762  -0.000009230676760  -0.000009230664017  -0.000009212823666
Si    6.10987  11.54087  11.54087   0.000000880647006  -0.000003110696860  -0.000003106575131
Si    8.82538  11.54087  14.25638   0.000003092509539  -0.000003092484263  -0.000000875654372
Si    6.10987  14.25638  14.25638  -0.000000000014874   0.000000000019898   0.000000000019803
Si    8.82538  14.25638  11.54087   0.000003110672899  -0.000000880670041  -0.000003106548372
Si   10.18313  12.89863  12.89863  -0.000000880680720   0.000003110669140   0.000003106580250
Si   10.18313  15.61412  15.61412  -0.000000880664516  -0.000003110702996  -0.000003106569705
Si    7.46762  12.89863  15.61412  -0.000008381559575   0.000008381534741  -0.000008385485401
Si    7.46762  15.61412  12.89863  -0.000008381578919  -0.000008381555448   0.000008385459703
Si   11.54087   0.67888   0.67888  -0.000008381575271   0.000008381564468   0.000008385479645
Si   14.25638   0.67888   3.39437  -0.000000880648441   0.000003110688789  -0.000003106549052
Si   11.54087   3.39437   3.39437  -0.000008381541638  -0.000008381560978  -0.000008385467054
Si   14.25638   3.39437   0.67888  -0.000000880662776  -0.000003110719779   0.000003106568262
Si   15.61412   2.03662   2.03662  -0.000007339837437   0.000000000001937   0.000000000005390
Si   15.61412   4.75213   4.75213  -0.000009230654771   0.000009230663994   0.000009212835610
Si   12.89863   2.03662   4.75213   0.000003110672246  -0.000000880654312   0.000003106552437
Si   12.89863   4.75213   2.03662   0.000003092530343   0.000003092518381  -0.000000875658352
Si   11.54087   0.67888   6.10987  -0.000003092529533   0.000003092506017  -0.000000875659367
Si   14.25638   0.67888   8.82538   0.000000880668648   0.000003110682591   0.000003106572598
Si   11.54087   3.39437   8.82538  -0.000009230652682  -0.000009230640385   0.000009212789579
Si   14.25638   3.39437   6.10987   0.000000000015433  -0.000007339818504  -0.000000000018325
Si   15.61412   2.03662   7.46762  -0.000003110689556  -0.000000880666260  -0.000003106546808
Si   15.61412   4.75213  10.18313  -0.000003092510768   0.000003092504194   0.000000875648625
Si   12.89863   2.03662  10.18313   0.000007339839335   0.000000000013739  -0.000000000000038
Si   12.89863   4.75213   7.46762   0.000009230660651   0.000009230651096  -0.000009212804578
Si   11.54087   0.67888  11.54087  -0.000009230652446   0.000009230675710  -0.000009212795473
Si   14.25638   0.67888  14.25638  -0.000000000028623   0.000007339827111  -0.000000000005944
Si   11.54087   3.39437  14.25638  -0.000003092508132  -0.000003092508553   0.000000875638616
Si   14.25638   3.39437  11.54087   0.000000880672284  -0.000003110686859  -0.000003106559476
Si   15.61412   2.03662  12.89863  -0.000003110693201   0.000000880667414   0.000003106541361
Si   15.61412   4.75213  15.61412  -0.000008381546844   0.000008381556988  -0.000008385474025
Si   12.89863   2.03662  15.61412   0.000003110690745   0.000000880655145  -0.000003106564882
Si   12.89863   4.75213  12.89863   0.000008381561196   0.000008381558541   0.000008385456594
Si   11.54087   6.10987   0.67888  -0.000003110705064  -0.000000880665880   0.000003106539889
Si   14.25638   6.10987   3.39437  -0.000000000012261  -0.000000000004918  -0.000007347285606
Si   11.54087   8.82538   3.39437  -0.000009230647442   0.000009230653924  -0.000009212831232
Si   14.25638   8.82538   0.67888   0.000000880686643   0.000003110690821   0.000003106554788
Si   15.61412   7.46762   2.03662  -0.000003092519247  -0.000003092513667  -0.000000875660494
Si   15.61412  10.18313   4.75213  -0.000003110671483   0.000000880682622   0.000003106552788
Si   12.89863   7.46762   4.75213   0.000009230657486  -0.000009230646331   0.000009212819330
Si   12.89863  10.18313   2.03662   0.000007339821173   0.000000000000063  -0.000000000006080
Si   11.54087   6.10987   6.10987  -0.000007339847114  -0.000000000007456  -0.000000000016250
Si   14.25638   6.10987   8.82538   0.000000000012363   0.000000000009693   0.000007347280536
Si   11.54087   8.82538   8.82538  -0.000008381563185   0.000008381570065   0.000008385470598
Si   14.25638   8.82538   6.10987  -0.000000000014926   0.000007339825659  -0.000000000017247
Si   15.61412   7.46762   7.46762  -0.000009230650271  -0.000009230646562  -0.000009212823590
Si   15.61412  10.18313  10.18313  -0.000007339833791   0.000000000017684  -0.000000000004337
Si   12.89863   7.46762  10.18313   0.000003092512080  -0.000003092497315   0.000000875643410
Si   12.89863  10.18313   7.46762   0.000003110683930   0.000000880665841  -0.000003106558391
Si   11.54087   6.10987  11.54087  -0.000003110691370   0.000000880657486  -0.000003106542821
Si   14.25638   6.10987  14.25638  -0.000000000027548   0.000000000013148   0.000000000002530
Si   11.54087   8.82538  14.25638  -0.000003092516960   0.000003092509154  -0.000000875656961
Si   14.25638   8.82538  11.54087  -0.000000880678757   0.000003110682223  -0.000003106553787
Si   15.61412   7.46762  12.89863  -0.000008381532060  -0.000008381546767   0.000008385464859
Si   15.61412  10.18313  15.61412  -0.000003110695884  -0.000000880673690  -0.000003106554395
Si   12.89863   7.46762  15.61412   0.000008381575363  -0.000008381577411  -0.000008385476372
Si   12.89863  10.18313  12.89863   0.000003110700733  -0.000000880682830   0.000003106570149
Si   11.54087  11.54087   0.67888  -0.000009230632294  -0.000009230674702   0.000009212808280
Si   14.25638  11.54087   3.39437   0.000000880640860  -0.000003110684834  -0.000003106547699
Si   11.54087  14.25638   3.39437  -0.000003110701450   0.000000880672155  -0.000003106572070
Si   14.25638  14.25638   0.67888  -0.000000000006347  -0.000000000016589   0.000007347278929
Si   15.61412  12.89863   2.03662  -0.000003092498506   0.000003092547704   0.000000875662392
Si   15.61412  15.61412   4.75213  -0.000008381580900  -0.000008381595631   0.000008385458662
Si   12.89863  12.89863   4.75213   0.000008381567275   0.000008381551469   0.000008385478760
Si   12.89863  15.61412   2.03662   0.000003092521483  -0.000003092491890   0.000000875632197
Si   11.54087  11.54087   6.10987  -0.000003092515760  -0.000003092514934   0.000000875655656
Si   14.25638  11.54087   8.82538  -0.000000880669866  -0.000003110678653   0.000003106568113
Si   11.54087  14.25638   8.82538  -0.000003110708057  -0.000000880690972   0.000003106546365
Si   14.25638  14.25638   6.10987  -0.000000000002366   0.000000000017030   0.000000000012546
Si   15.61412  12.89863   7.46762  -0.000008381544366   0.000008381568766  -0.000008385487577
Si   15.61412  15.61412  10.18313  -0.000003092498143  -0.000003092507158  -0.000000875673448
Si   12.89863  12.89863  10.18313   0.000003092525033   0.000003092490939  -0.000000875649864
Si   12.89863  15.61412   7.46762   0.000008381568764  -0.000008381564404  -0.000008385488323
Si   11.54087  11.54087  11.54087  -0.000008381563421  -0.000008381546880  -0.000008385471753
Si   14.25638  11.54087  14.25638   0.000000000006131  -0.000007339853306  -0.000000000015303
Si   11.54087  14.25638  14.25638  -0.000007339812955   0.000000000000382  -0.000000000000728
Si   14.25638  14.25638  11.54087   0.000000000013798  -0.000000000028405  -0.000007347268650
Si   15.61412  12.89863  12.89863  -0.000009230658768   0.000009230651415   0.000009212827269
Si   15.61412  15.61412  15.61412  -0.000009230639014  -0.000009230645569  -0.000009212818321
Si   12.89863  12.89863  15.61412   0.000009230623635   0.000009230689736  -0.000009212826806
Si   12.89863  15.61412  12.89863   0.000009230650783  -0.000009230648299   0.000009212846181
