216 

Si    0.67888   0.67888   0.67888   0.000008999706943   0.000008999706931   0.000008981271616
Si    3.39437   0.67888   3.39437  -0.000008999707042   0.000008999707014  -0.000008981271698
Si    0.67888   3.39437   3.39437   0.000008999706936  -0.000008999706954  -0.000008981271607
Si    3.39437   3.39437   0.67888  -0.000008999707027  -0.000008999707019   0.000008981271665
Si    4.75213   2.03662   2.03662   0.000007115123060   0.000000000000002  -0.000000000000000
Si    4.75213   4.75213   4.75213   0.000008153982269   0.000008153982411   0.000008157473802
Si    2.03662   2.03662   4.75213  -0.000000000000065   0.000000000000101   0.000007121901939
Si    2.03662   4.75213   2.03662  -0.000000000000055   0.000007115123111   0.000000000000088
Si    0.67888   0.67888   6.10987   0.000002866728734   0.000002866728899   0.000000874880799
Si    3.39437   0.67888   8.82538  -0.000008153982428   0.000008153982405   0.000008157473798
Si    0.67888   3.39437   8.82538   0.000008153982276  -0.000008153982301   0.000008157473714
Si    3.39437   3.39437   6.10987  -0.000002866728899  -0.000002866728735   0.000000874880801
Si    4.75213   2.03662   7.46762   0.000002884640352   0.000000879957750  -0.000002880198944
Si    4.75213   4.75213  10.18313   0.000002866728753   0.000002866728844  -0.000000874880824
Si    2.03662   2.03662  10.18313  -0.000000000000043   0.000000000000024   0.000000000000002
Si    2.03662   4.75213   7.46762   0.000000879957609   0.000002884640489  -0.000002880198986
Si    0.67888   0.67888  11.54087   0.000008153982278   0.000008153982326  -0.000008157473719
Si    3.39437   0.67888  14.25638  -0.000002866728881   0.000002866728752  -0.000000874880807
Si    0.67888   3.39437  14.25638   0.000002866728774  -0.000002866728890  -0.000000874880827
Si    3.39437   3.39437  11.54087  -0.000008153982423  -0.000008153982374  -0.000008157473772
Si    4.75213   2.03662  12.89863   0.000002884640366  -0.000000879957726   0.000002880198967
Si    4.75213   4.75213  15.61412   0.000008999706920   0.000008999706975  -0.000008981271655
Si    2.03662   2.03662  15.61412  -0.000000000000055  -0.000000000000066  -0.000007121901940
Si    2.03662   4.75213  12.89863  -0.000000879957723   0.000002884640406   0.000002880198916
Si    0.67888   6.10987   0.67888   0.000002884640358   0.000000879957691   0.000002880199012
Si    3.39437   6.10987   3.39437  -0.000002884640468   0.000000879957686  -0.000002880198904
Si    0.67888   8.82538   3.39437   0.000008153982277   0.000008153982333  -0.000008157473660
Si    3.39437   8.82538   0.67888  -0.000008153982383   0.000008153982399   0.000008157473743
Si    4.75213   7.46762   2.03662   0.000002866728776  -0.000002866728807   0.000000874880825
Si    4.75213  10.18313   4.75213   0.000002884640362  -0.000000879957750   0.000002880198989
Si    2.03662   7.46762   4.75213   0.000000879957617  -0.000002884640447   0.000002880199055
Si    2.03662  10.18313   2.03662  -0.000000000000032  -0.000000000000005   0.000000000000005
Si    0.67888   6.10987   6.10987   0.000007115123016   0.000000000000021   0.000000000000046
Si    3.39437   6.10987   8.82538  -0.000002884640500  -0.000000879957654   0.000002880198933
Si    0.67888   8.82538   8.82538   0.000008999706905   0.000008999706952   0.000008981271646
Si    3.39437   8.82538   6.10987  -0.000002866728899   0.000002866728747  -0.000000874880746
Si    4.75213   7.46762   7.46762   0.000008153982257  -0.000008153982386  -0.000008157473733
Si    4.75213  10.18313  10.18313   0.000007115123044  -0.000000000000016   0.000000000000019
Si    2.03662   7.46762  10.18313  -0.000000000000072  -0.000007115123090  -0.000000000000067
Si    2.03662  10.18313   7.46762  -0.000000000000087  -0.000000000000107  -0.000007121901879
Si    0.67888   6.10987  11.54087   0.000002884640345  -0.000000879957657  -0.000002880199074
Si    3.39437   6.10987  14.25638  -0.000007115123167   0.000000000000009  -0.000000000000051
Si    0.67888   8.82538  14.25638   0.000002866728767   0.000002866728905   0.000000874880731
Si    3.39437   8.82538  11.54087  -0.000008999707049   0.000008999707014  -0.000008981271703
Si    4.75213   7.46762  12.89863   0.000008999706918  -0.000008999706949   0.000008981271617
Si    4.75213  10.18313  15.61412   0.000002884640385   0.000000879957729  -0.000002880198987
Si    2.03662   7.46762  15.61412  -0.000000879957710  -0.000002884640375  -0.000002880198973
Si    2.03662  10.18313  12.89863  -0.000000000000068   0.000000000000059   0.000007121901879
Si    0.67888  11.54087   0.67888   0.000008153982272  -0.000008153982338   0.000008157473678
Si    3.39437  11.54087   3.39437  -0.000008153982408  -0.000008153982416  -0.000008157473766
Si    0.67888  14.25638   3.39437   0.000002884640328  -0.000000879957688  -0.000002880199037
Si    3.39437  14.25638   0.67888  -0.000002884640466  -0.000000879957695   0.000002880198880
Si    4.75213  12.89863   2.03662   0.000002866728795   0.000002866728810  -0.000000874880860
Si    4.75213  15.61412   4.75213   0.000008999706919  -0.000008999706942   0.000008981271636
Si    2.03662  12.89863   4.75213  -0.000000879957744   0.000002884640362   0.000002880198964
Si    2.03662  15.61412   2.03662  -0.000000000000059  -0.000007115123094  -0.000000000000086
Si    0.67888  11.54087   6.10987   0.000002866728727  -0.000002866728921  -0.000000874880747
Si    3.39437  11.54087   8.82538  -0.000008999707054  -0.000008999707046   0.000008981271709
Si    0.67888  14.25638   8.82538   0.000002884640320   0.000000879957647   0.000002880199069
Si    3.39437  14.25638   6.10987  -0.000007115123182  -0.000000000000026   0.000000000000015
Si    4.75213  12.89863   7.46762   0.000008999706923   0.000008999706939  -0.000008981271600
Si    4.75213  15.61412  10.18313   0.000002866728775  -0.000002866728826   0.000000874880856
Si    2.03662  12.89863  10.18313  -0.000000000000092   0.000007115123068   0.000000000000080
Si    2.03662  15.61412   7.46762  -0.000000879957761  -0.000002884640383  -0.000002880198920
Si    0.67888  11.54087  11.54087   0.000008999706916  -0.000008999706987  -0.000008981271657
Si    3.39437  11.54087  14.25638  -0.000002866728876  -0.000002866728775   0.000000874880756
Si    0.67888  14.25638  14.25638   0.000007115123016  -0.000000000000021  -0.000000000000045
Si    3.39437  14.25638  11.54087  -0.000002884640476   0.000000879957664  -0.000002880198894
Si    4.75213  12.89863  12.89863   0.000008153982279   0.000008153982378   0.000008157473767
Si    4.75213  15.61412  15.61412   0.000008153982284  -0.000008153982404  -0.000008157473788
Si    2.03662  12.89863  15.61412   0.000000879957643   0.000002884640440  -0.000002880199050
Si    2.03662  15.61412  12.89863   0.000000879957624  -0.000002884640468   0.000002880198997
Si    6.10987   0.67888   0.67888   0.000000879957636   0.000002884640398   0.000002880198936
Si    8.82538   0.67888   3.39437   0.000008153982306   0.000008153982397  -0.000008157473772
Si    6.10987   3.39437   3.39437   0.000000879957630  -0.000002884640391  -0.000002880198966
Si    8.82538   3.39437   0.67888   0.000008153982288  -0.000008153982401   0.000008157473758
Si   10.18313   2.03662   2.03662  -0.000000000000098  -0.000000000000011   0.000000000000000
Si   10.18313   4.75213   4.75213  -0.000000879957680   0.000002884640467   0.000002880199028
Si    7.46762   2.03662   4.75213  -0.000002884640474   0.000000879957744   0.000002880198973
Si    7.46762   4.75213   2.03662  -0.000002866728886   0.000002866728847   0.000000874880822
Si    6.10987   0.67888   6.10987  -0.000000000000059   0.000007115123160   0.000000000000019
Si    8.82538   0.67888   8.82538   0.000008999706940   0.000008999707038   0.000008981271745
Si    6.10987   3.39437   8.82538  -0.000000879957730  -0.000002884640372   0.000002880198982
Si    8.82538   3.39437   6.10987   0.000002866728791  -0.000002866728766  -0.000000874880729
Si   10.18313   2.03662   7.46762  -0.000000000000018   0.000000000000083  -0.000007121901870
Si   10.18313   4.75213  10.18313  -0.000000000000019   0.000007115123099  -0.000000000000072
Si    7.46762   2.03662  10.18313  -0.000007115123126   0.000000000000015   0.000000000000025
Si    7.46762   4.75213   7.46762  -0.000008153982379   0.000008153982394  -0.000008157473722
Si    6.10987   0.67888  11.54087  -0.000000879957724   0.000002884640400  -0.000002880198965
Si    8.82538   0.67888  14.25638   0.000002866728766   0.000002866728773   0.000000874880743
Si    6.10987   3.39437  14.25638  -0.000000000000067  -0.000007115123153  -0.000000000000027
Si    8.82538   3.39437  11.54087   0.000008999706926  -0.000008999707038  -0.000008981271733
Si   10.18313   2.03662  12.89863  -0.000000000000039  -0.000000000000054   0.000007121901858
Si   10.18313   4.75213  15.61412   0.000000879957623   0.000002884640415  -0.000002880198968
Si    7.46762   2.03662  15.61412  -0.000002884640485  -0.000000879957733  -0.000002880198983
Si    7.46762   4.75213  12.89863  -0.000008999707051   0.000008999706957   0.000008981271592
Si    6.10987   6.10987   0.67888  -0.000000000000053   0.000000000000027   0.000007121901954
Si    8.82538   6.10987   3.39437   0.000002884640370  -0.000000879957634  -0.000002880198918
Si    6.10987   8.82538   3.39437  -0.000000879957717   0.000002884640404  -0.000002880198963
Si    8.82538   8.82538   0.67888   0.000008999706923   0.000008999707065   0.000008981271709
Si   10.18313   7.46762   2.03662  -0.000000000000029  -0.000007115123050   0.000000000000063
Si   10.18313  10.18313   4.75213  -0.000000000000020  -0.000000000000077   0.000007121901911
Si    7.46762   7.46762   4.75213  -0.000008153982378  -0.000008153982355   0.000008157473753
Si    7.46762  10.18313   2.03662  -0.000007115123135  -0.000000000000003  -0.000000000000024
Si    6.10987   6.10987   6.10987  -0.000000000000070   0.000000000000013   0.000000000000026
Si    8.82538   6.10987   8.82538   0.000002884640397   0.000000879957667   0.000002880198959
Si    6.10987   8.82538   8.82538   0.000000879957645   0.000002884640395   0.000002880198986
Si    8.82538   8.82538   6.10987   0.000002866728807   0.000002866728791   0.000000874880790
Si   10.18313   7.46762   7.46762  -0.000000879957651  -0.000002884640420  -0.000002880198973
Si   10.18313  10.18313  10.18313  -0.000000000000043  -0.000000000000009   0.000000000000007
Si    7.46762   7.46762  10.18313  -0.000002866728868  -0.000002866728802  -0.000000874880837
Si    7.46762  10.18313   7.46762  -0.000002884640450  -0.000000879957754  -0.000002880198948
Si    6.10987   6.10987  11.54087  -0.000000000000066   0.000000000000012  -0.000007121901980
Si    8.82538   6.10987  14.25638   0.000007115123064   0.000000000000023  -0.000000000000029
Si    6.10987   8.82538  14.25638  -0.000000000000050   0.000007115123161  -0.000000000000023
Si    8.82538   8.82538  11.54087   0.000008153982311   0.000008153982412  -0.000008157473773
Si   10.18313   7.46762  12.89863   0.000000879957645  -0.000002884640352   0.000002880198924
Si   10.18313  10.18313  15.61412  -0.000000000000050   0.000000000000075  -0.000007121901914
Si    7.46762   7.46762  15.61412  -0.000008999707049  -0.000008999706911  -0.000008981271634
Si    7.46762  10.18313  12.89863  -0.000002884640454   0.000000879957726   0.000002880198957
Si    6.10987  11.54087   0.67888  -0.000000879957705  -0.000002884640402   0.000002880198935
Si    8.82538  11.54087   3.39437   0.000008999706946  -0.000008999707059  -0.000008981271730
Si    6.10987  14.25638   3.39437  -0.000000000000058  -0.000000000000014  -0.000007121901995
Si    8.82538  14.25638   0.67888   0.000002884640385   0.000000879957630   0.000002880198902
Si   10.18313  12.89863   2.03662  -0.000000000000030   0.000007115123041  -0.000000000000070
Si   10.18313  15.61412   4.75213   0.000000879957651  -0.000002884640406   0.000002880198971
Si    7.46762  12.89863   4.75213  -0.000008999707020   0.000008999706910   0.000008981271612
Si    7.46762  15.61412   2.03662  -0.000002866728861  -0.000002866728835  -0.000000874880841
Si    6.10987  11.54087   6.10987  -0.000000000000052  -0.000007115123185   0.000000000000012
Si    8.82538  11.54087   8.82538   0.000008153982333  -0.000008153982430   0.000008157473790
Si    6.10987  14.25638   8.82538  -0.000000000000058  -0.000000000000005   0.000007121902006
Si    8.82538  14.25638   6.10987   0.000007115123096  -0.000000000000020   0.000000000000013
Si   10.18313  12.89863   7.46762   0.000000879957674   0.000002884640352  -0.000002880198924
Si   10.18313  15.61412  10.18313  -0.000000000000016  -0.000007115123076   0.000000000000069
Si    7.46762  12.89863  10.18313  -0.000002866728848   0.000002866728790   0.000000874880856
Si    7.46762  15.61412   7.46762  -0.000008999707035  -0.000008999706927  -0.000008981271589
Si    6.10987  11.54087  11.54087   0.000000879957658  -0.000002884640423  -0.000002880198950
Si    8.82538  11.54087  14.25638   0.000002866728788  -0.000002866728794  -0.000000874880773
Si    6.10987  14.25638  14.25638  -0.000000000000074  -0.000000000000019  -0.000000000000008
Si    8.82538  14.25638  11.54087   0.000002884640395  -0.000000879957683  -0.000002880198916
Si   10.18313  12.89863  12.89863  -0.000000879957684   0.000002884640419   0.000002880198986
Si   10.18313  15.61412  15.61412  -0.000000879957690  -0.000002884640459  -0.000002880199021
Si    7.46762  12.89863  15.61412  -0.000008153982375   0.000008153982344  -0.000008157473755
Si    7.46762  15.61412  12.89863  -0.000008153982390  -0.000008153982373   0.000008157473736
Si   11.54087   0.67888   0.67888  -0.000008153982397   0.000008153982279   0.000008157473670
Si   14.25638   0.67888   3.39437  -0.000000879957698   0.000002884640416  -0.000002880198978
Si   11.54087   3.39437   3.39437  -0.000008153982374  -0.000008153982302  -0.000008157473662
Si   14.25638   3.39437   0.67888  -0.000000879957698  -0.000002884640434   0.000002880198986
Si   15.61412   2.03662   2.03662  -0.000007115123130   0.000000000000003   0.000000000000009
Si   15.61412   4.75213   4.75213  -0.000008999707053   0.000008999707057   0.000008981271764
Si   12.89863   2.03662   4.75213   0.000002884640372  -0.000000879957588   0.000002880199039
Si   12.89863   4.75213   2.03662   0.000002866728767   0.000002866728874  -0.000000874880676
Si   11.54087   0.67888   6.10987  -0.000002866728834   0.000002866728901  -0.000000874880742
Si   14.25638   0.67888   8.82538   0.000000879957619   0.000002884640445   0.000002880199030
Si   11.54087   3.39437   8.82538  -0.000008999707032  -0.000008999706943   0.000008981271664
Si   14.25638   3.39437   6.10987  -0.000000000000037  -0.000007115122986   0.000000000000054
Si   15.61412   2.03662   7.46762  -0.000002884640467  -0.000000879957582  -0.000002880198957
Si   15.61412   4.75213  10.18313  -0.000002866728879   0.000002866728855   0.000000874880696
Si   12.89863   2.03662  10.18313   0.000007115123078   0.000000000000008  -0.000000000000015
Si   12.89863   4.75213   7.46762   0.000008999706977   0.000008999707061  -0.000008981271676
Si   11.54087   0.67888  11.54087  -0.000008999707038   0.000008999706951  -0.000008981271656
Si   14.25638   0.67888  14.25638  -0.000000000000041   0.000007115122992  -0.000000000000052
Si   11.54087   3.39437  14.25638  -0.000002866728863  -0.000002866728899   0.000000874880715
Si   14.25638   3.39437  11.54087   0.000000879957634  -0.000002884640430  -0.000002880199048
Si   15.61412   2.03662  12.89863  -0.000002884640458   0.000000879957612   0.000002880198950
Si   15.61412   4.75213  15.61412  -0.000008153982383   0.000008153982351  -0.000008157473729
Si   12.89863   2.03662  15.61412   0.000002884640372   0.000000879957590  -0.000002880199021
Si   12.89863   4.75213  12.89863   0.000008153982315   0.000008153982358   0.000008157473656
Si   11.54087   6.10987   0.67888  -0.000002884640457  -0.000000879957633   0.000002880199041
Si   14.25638   6.10987   3.39437  -0.000000000000055   0.000000000000044  -0.000007121901790
Si   11.54087   8.82538   3.39437  -0.000008999707043   0.000008999706982  -0.000008981271604
Si   14.25638   8.82538   0.67888   0.000000879957603   0.000002884640467   0.000002880198995
Si   15.61412   7.46762   2.03662  -0.000002866728879  -0.000002866728816  -0.000000874880691
Si   15.61412  10.18313   4.75213  -0.000002884640478   0.000000879957600   0.000002880199028
Si   12.89863   7.46762   4.75213   0.000008999706965  -0.000008999707021   0.000008981271752
Si   12.89863  10.18313   2.03662   0.000007115123066   0.000000000000013   0.000000000000004
Si   11.54087   6.10987   6.10987  -0.000007115123099   0.000000000000030   0.000000000000039
Si   14.25638   6.10987   8.82538  -0.000000000000051   0.000000000000015   0.000007121901830
Si   11.54087   8.82538   8.82538  -0.000008153982371   0.000008153982320   0.000008157473698
Si   14.25638   8.82538   6.10987  -0.000000000000056   0.000007115123015   0.000000000000026
Si   15.61412   7.46762   7.46762  -0.000008999707043  -0.000008999707027  -0.000008981271672
Si   15.61412  10.18313  10.18313  -0.000007115123144  -0.000000000000005   0.000000000000001
Si   12.89863   7.46762  10.18313   0.000002866728794  -0.000002866728836   0.000000874880680
Si   12.89863  10.18313   7.46762   0.000002884640377   0.000000879957579  -0.000002880198978
Si   11.54087   6.10987  11.54087  -0.000002884640443   0.000000879957681  -0.000002880199086
Si   14.25638   6.10987  14.25638  -0.000000000000043   0.000000000000030  -0.000000000000059
Si   11.54087   8.82538  14.25638  -0.000002866728859   0.000002866728913  -0.000000874880798
Si   14.25638   8.82538  11.54087  -0.000000879957700   0.000002884640444  -0.000002880199035
Si   15.61412   7.46762  12.89863  -0.000008153982397  -0.000008153982318   0.000008157473668
Si   15.61412  10.18313  15.61412  -0.000002884640474  -0.000000879957597  -0.000002880199014
Si   12.89863   7.46762  15.61412   0.000008153982318  -0.000008153982294  -0.000008157473719
Si   12.89863  10.18313  12.89863   0.000002884640370  -0.000000879957594   0.000002880198978
Si   11.54087  11.54087   0.67888  -0.000008999707048  -0.000008999706970   0.000008981271621
Si   14.25638  11.54087   3.39437   0.000000879957609  -0.000002884640463  -0.000002880198986
Si   11.54087  14.25638   3.39437  -0.000002884640437   0.000000879957631  -0.000002880199039
Si   14.25638  14.25638   0.67888  -0.000000000000061  -0.000000000000036   0.000007121901814
Si   15.61412  12.89863   2.03662  -0.000002866728891   0.000002866728818   0.000000874880709
Si   15.61412  15.61412   4.75213  -0.000008153982405  -0.000008153982349   0.000008157473741
Si   12.89863  12.89863   4.75213   0.000008153982324   0.000008153982298   0.000008157473725
Si   12.89863  15.61412   2.03662   0.000002866728785  -0.000002866728881   0.000000874880706
Si   11.54087  11.54087   6.10987  -0.000002866728828  -0.000002866728917   0.000000874880792
Si   14.25638  11.54087   8.82538  -0.000000879957687  -0.000002884640451   0.000002880199016
Si   11.54087  14.25638   8.82538  -0.000002884640420  -0.000000879957695   0.000002880199067
Si   14.25638  14.25638   6.10987  -0.000000000000042  -0.000000000000031   0.000000000000024
Si   15.61412  12.89863   7.46762  -0.000008153982426   0.000008153982313  -0.000008157473674
Si   15.61412  15.61412  10.18313  -0.000002866728880  -0.000002866728848  -0.000000874880708
Si   12.89863  12.89863  10.18313   0.000002866728780   0.000002866728826  -0.000000874880688
Si   12.89863  15.61412   7.46762   0.000008153982325  -0.000008153982342  -0.000008157473664
Si   11.54087  11.54087  11.54087  -0.000008153982366  -0.000008153982342  -0.000008157473707
Si   14.25638  11.54087  14.25638  -0.000000000000055  -0.000007115123028  -0.000000000000025
Si   11.54087  14.25638  14.25638  -0.000007115123138  -0.000000000000038  -0.000000000000031
Si   14.25638  14.25638  11.54087  -0.000000000000059  -0.000000000000012  -0.000007121901848
Si   15.61412  12.89863  12.89863  -0.000008999707066   0.000008999707020   0.000008981271679
Si   15.61412  15.61412  15.61412  -0.000008999707031  -0.000008999707043  -0.000008981271728
Si   12.89863  12.89863  15.61412   0.000008999706956   0.000008999707011  -0.000008981271714
Si   12.89863  15.61412  12.89863   0.000008999706965  -0.000008999707051   0.000008981271670
