64 

C   -0.00000  -0.00000  -0.00000   0.000000000024347   0.000000000000151   0.000000000000153
C   -0.00000   1.78350   1.78350   0.000000000022582   0.000000000000106   0.000000000000328
C    1.78350  -0.00000   1.78350   0.000000000023804  -0.000000000000109   0.000000000000089
C    1.78350   1.78350  -0.00000   0.000000000023387   0.000000000000670  -0.000000000000195
C    0.89175   0.89175   0.89175   0.000000000023198  -0.000000000000723  -0.000000000001541
C    0.89175   2.67525   2.67525   0.000000000023205   0.000000000000536  -0.000000000000725
C    2.67525   0.89175   2.67525   0.000000000022362  -0.000000000000159  -0.000000000000170
C    2.67525   2.67525   0.89175   0.000000000023467  -0.000000000000770   0.000000000000131
C   -0.00000  -0.00000   3.56700   0.000000000023274  -0.000000000000593   0.000000000000317
C   -0.00000   1.78350   5.35050   0.000000000023939  -0.000000000000835   0.000000000002211
C    1.78350  -0.00000   5.35050   0.000000000023322   0.000000000000795   0.000000000000388
C    1.78350   1.78350   3.56700   0.000000000024745  -0.000000000000421   0.000000000000265
C    0.89175   0.89175   4.45875   0.000000000024835  -0.000000000001248   0.000000000000698
C    0.89175   2.67525   6.24225   0.000000000022821  -0.000000000000816   0.000000000000711
C    2.67525   0.89175   6.24225   0.000000000023528  -0.000000000000305  -0.000000000000121
C    2.67525   2.67525   4.45875   0.000000000023368  -0.000000000000548  -0.000000000000362
C   -0.00000   3.56700  -0.00000   0.000000000023798  -0.000000000000211  -0.000000000000567
C   -0.00000   5.35050   1.78350   0.000000000022617   0.000000000000827   0.000000000000383
C    1.78350   3.56700   1.78350   0.000000000023101   0.000000000000308   0.000000000000278
C    1.78350   5.35050  -0.00000   0.000000000023479   0.000000000000227  -0.000000000000282
C    0.89175   4.45875   0.89175   0.000000000023725  -0.000000000001059  -0.000000000001342
C    0.89175   6.24225   2.67525   0.000000000023494  -0.000000000000330   0.000000000000524
C    2.67525   4.45875   2.67525   0.000000000022900  -0.000000000000665  -0.000000000000510
C    2.67525   6.24225   0.89175   0.000000000022938  -0.000000000000365  -0.000000000000756
C   -0.00000   3.56700   3.56700   0.000000000022761  -0.000000000000290  -0.000000000000347
C   -0.00000   5.35050   5.35050   0.000000000023494   0.000000000000087   0.000000000000075
C    1.78350   3.56700   5.35050   0.000000000023905   0.000000000000011  -0.000000000000231
C    1.78350   5.35050   3.56700   0.000000000023293   0.000000000000049  -0.000000000000649
C    0.89175   4.45875   4.45875   0.000000000023453  -0.000000000000085  -0.000000000000522
C    0.89175   6.24225   6.24225   0.000000000022568   0.000000000000630   0.000000000000251
C    2.67525   4.45875   6.24225   0.000000000024259   0.000000000000035  -0.000000000000224
C    2.67525   6.24225   4.45875   0.000000000024970   0.000000000000495  -0.000000000000142
C    3.56700  -0.00000  -0.00000   0.000000000023403  -0.000000000000081  -0.000000000000426
C    3.56700   1.78350   1.78350   0.000000000022179   0.000000000001164  -0.000000000001333
C    5.35050  -0.00000   1.78350   0.000000000023715  -0.000000000000618  -0.000000000000425
C    5.35050   1.78350  -0.00000   0.000000000023759  -0.000000000000831   0.000000000000403
C    4.45875   0.89175   0.89175   0.000000000023076   0.000000000000531  -0.000000000001206
C    4.45875   2.67525   2.67525   0.000000000022706   0.000000000001518   0.000000000000256
C    6.24225   0.89175   2.67525   0.000000000023642   0.000000000000329   0.000000000000295
C    6.24225   2.67525   0.89175   0.000000000024402   0.000000000000204   0.000000000000023
C    3.56700  -0.00000   3.56700   0.000000000022204   0.000000000000066   0.000000000001097
C    3.56700   1.78350   5.35050   0.000000000022635  -0.000000000000245   0.000000000000156
C    5.35050  -0.00000   5.35050   0.000000000023893  -0.000000000000197  -0.000000000000045
C    5.35050   1.78350   3.56700   0.000000000023821   0.000000000000735   0.000000000000024
C    4.45875   0.89175   4.45875   0.000000000022657  -0.000000000000324  -0.000000000000358
C    4.45875   2.67525   6.24225   0.000000000022634   0.000000000000572   0.000000000000448
C    6.24225   0.89175   6.24225   0.000000000023957  -0.000000000000545   0.000000000000381
C    6.24225   2.67525   4.45875   0.000000000022938   0.000000000000364   0.000000000000137
C    3.56700   3.56700  -0.00000   0.000000000023419   0.000000000000100   0.000000000000454
C    3.56700   5.35050   1.78350   0.000000000023426  -0.000000000000731  -0.000000000000379
C    5.35050   3.56700   1.78350   0.000000000022848  -0.000000000000072   0.000000000000388
C    5.35050   5.35050  -0.00000   0.000000000022796  -0.000000000000982  -0.000000000000295
C    4.45875   4.45875   0.89175   0.000000000022174   0.000000000000028  -0.000000000000046
C    4.45875   6.24225   2.67525   0.000000000023685  -0.000000000000279  -0.000000000000716
C    6.24225   4.45875   2.67525   0.000000000023416   0.000000000000536   0.000000000000007
C    6.24225   6.24225   0.89175   0.000000000024079  -0.000000000000046   0.000000000000437
C    3.56700   3.56700   3.56700   0.000000000024176  -0.000000000000190  -0.000000000000762
C    3.56700   5.35050   5.35050   0.000000000023931   0.000000000000601  -0.000000000000002
C    5.35050   3.56700   5.35050   0.000000000023679  -0.000000000000212  -0.000000000000386
C    5.35050   5.35050   3.56700   0.000000000023708  -0.000000000000669  -0.000000000000486
C    4.45875   4.45875   4.45875   0.000000000023343   0.000000000000012  -0.000000000000139
C    4.45875   6.24225   6.24225   0.000000000022607  -0.000000000000778  -0.000000000000655
C    6.24225   4.45875   6.24225   0.000000000023365  -0.000000000000066   0.000000000000294
C    6.24225   6.24225   4.45875   0.000000000024240   0.000000000000117  -0.000000000000141
