384 

Si    0.67887   0.67887   0.67888   0.000003780064483   0.000003780064928  -0.000004943501708
Si    3.39438   0.67887   3.39437  -0.000002077210826  -0.000005614851795   0.000007892038124
Si    0.67887   3.39437   3.39437  -0.000005614851709  -0.000002077210362   0.000007892038087
Si    3.39438   3.39437   0.67888   0.000002232243376   0.000002232243250  -0.000005445776012
Si    4.75212   2.03662   2.03662  -0.000000011717424   0.000000377834298  -0.000000871235162
Si    4.75212   4.75212   4.75213  -0.000002021728802  -0.000002021729067  -0.000003168547080
Si    2.03662   2.03662   4.75213  -0.000002167633109  -0.000002167633159  -0.000003637243726
Si    2.03662   4.75212   2.03662   0.000000377834317  -0.000000011717663  -0.000000871235004
Si    0.67887   0.67887   6.10987  -0.000004899091230  -0.000004899091218   0.000000333512566
Si    3.39438   0.67887   8.82537  -0.000002759450794  -0.000005114971435  -0.000009135325628
Si    0.67887   3.39437   8.82537  -0.000005114971501  -0.000002759450857  -0.000009135325828
Si    3.39438   3.39437   6.10987  -0.000004153420662  -0.000004153420253   0.000000193837393
Si    4.75212   2.03662   7.46762   0.000001267466154  -0.000000900118883   0.000001363966374
Si    4.75212   4.75212  10.18313  -0.000000895793418  -0.000000895793591   0.000001254904716
Si    2.03662   2.03662  10.18313   0.000000066588917   0.000000066588777   0.000000225523173
Si    2.03662   4.75212   7.46762  -0.000000900118736   0.000001267465519   0.000001363966271
Si    0.67887   0.67887  11.54087   0.000003757566015   0.000003757565951   0.000005236437222
Si    3.39438   0.67887  14.25638  -0.000000392859160   0.000007079114349  -0.000000029575417
Si    0.67887   3.39437  14.25638   0.000007079114366  -0.000000392859350  -0.000000029575406
Si    3.39438   3.39437  11.54087   0.000002718407367   0.000002718407282   0.000005988256038
Si    4.75212   2.03662  12.89862   0.000000209475263  -0.000000118203044  -0.000000884198606
Si    4.75212   4.75212  15.61413  -0.000001375911922  -0.000001375912314   0.000004813688714
Si    2.03662   2.03662  15.61413   0.000000043499654   0.000000043499592   0.000002438949783
Si    2.03662   4.75212  12.89862  -0.000000118202849   0.000000209475197  -0.000000884198469
Si    0.67887   6.10987   0.67888   0.000003189403529   0.000001619898792   0.000002412908242
Si    3.39438   6.10987   3.39437   0.000005635915076  -0.000005763793880   0.000003492545166
Si    0.67887   8.82537   3.39437   0.000002211770106   0.000001327122458  -0.000002615805286
Si    3.39438   8.82537   0.67888  -0.000001990647235  -0.000003965352120  -0.000004818325497
Si    4.75212   7.46762   2.03662   0.000002006652562   0.000002568633155   0.000000595870587
Si    4.75212  10.18313   4.75213  -0.000002105336309  -0.000001001261365  -0.000003115685993
Si    2.03662   7.46762   4.75213   0.000003415233095  -0.000000697099852  -0.000006810162018
Si    2.03662  10.18313   2.03662   0.000002104390019   0.000001262485135  -0.000000436827621
Si    0.67887   6.10987   6.10987  -0.000001361122858  -0.000001036634570  -0.000000510910346
Si    3.39438   6.10987   8.82537   0.000007203949559  -0.000005288577489  -0.000002219660910
Si    0.67887   8.82537   8.82537  -0.000000023395035   0.000001437699734   0.000002426070165
Si    3.39438   8.82537   6.10987   0.000000596918885   0.000004613283134  -0.000000323211483
Si    4.75212   7.46762   7.46762   0.000001037058729   0.000001966204132  -0.000002559829467
Si    4.75212  10.18313  10.18313   0.000001848746392   0.000002671575106   0.000000921001149
Si    2.03662   7.46762  10.18313  -0.000002055320927   0.000006387152726  -0.000000250076807
Si    2.03662  10.18313   7.46762  -0.000001910754904   0.000002696168739   0.000001633540403
Si    0.67887   6.10987  11.54087   0.000000087489035   0.000003407792977  -0.000000425858445
Si    3.39438   6.10987  14.25638  -0.000002940644232   0.000002000984032   0.000001111014592
Si    0.67887   8.82537  14.25638   0.000000138405347   0.000001469601604   0.000001037334224
Si    3.39438   8.82537  11.54087   0.000000147880249  -0.000003444691784   0.000003858875058
Si    4.75212   7.46762  12.89862   0.000001130830787  -0.000000432241102   0.000001687386645
Si    4.75212  10.18313  15.61413  -0.000002349535439  -0.000000184928555   0.000002208961484
Si    2.03662   7.46762  15.61413   0.000001687989956  -0.000001468088309   0.000006324340589
Si    2.03662  10.18313  12.89862  -0.000000043267981   0.000003473785561   0.000000471390571
Si    0.67887  11.54087   0.67888  -0.000006918701124   0.000006111799233  -0.000003361591834
Si    3.39438  11.54087   3.39437   0.000005332522278  -0.000002288868382  -0.000003078771448
Si    0.67887  14.25638   3.39437  -0.000002155314379   0.000000711773022   0.000005543872863
Si    3.39438  14.25638   0.67888  -0.000000329801684   0.000000518248080  -0.000002631810660
Si    4.75212  12.89862   2.03662  -0.000000234479654   0.000001157503716   0.000000300932870
Si    4.75212  15.61413   4.75213  -0.000001424312883   0.000000812552771  -0.000003373875261
Si    2.03662  12.89862   4.75213  -0.000005668989865  -0.000000563673344   0.000000868954192
Si    2.03662  15.61413   2.03662   0.000001510085750  -0.000003982459909  -0.000000588947837
Si    0.67887  11.54087   6.10987   0.000001991155978  -0.000003518314223   0.000000137620210
Si    3.39438  11.54087   8.82537   0.000005881970806  -0.000001779452293   0.000002226053466
Si    0.67887  14.25638   8.82537  -0.000003222279397   0.000001260908779  -0.000005794523458
Si    3.39438  14.25638   6.10987   0.000007352165291   0.000005928815304  -0.000000202210235
Si    4.75212  12.89862   7.46762  -0.000006277586702  -0.000002011778639  -0.000002876134820
Si    4.75212  15.61413  10.18313   0.000007656274248  -0.000001764562836   0.000000133429242
Si    2.03662  12.89862  10.18313  -0.000004023871588   0.000005474468938   0.000000748496098
Si    2.03662  15.61413   7.46762  -0.000002784641768  -0.000002365496310  -0.000000309606993
Si    0.67887  11.54087  11.54087  -0.000006353217828   0.000002712950625   0.000004752537141
Si    3.39438  11.54087  14.25638   0.000003808875352  -0.000003175547258  -0.000001515812381
Si    0.67887  14.25638  14.25638   0.000003956098212  -0.000004248385867   0.000000324351490
Si    3.39438  14.25638  11.54087  -0.000000235893482   0.000000430274800   0.000003145011266
Si    4.75212  12.89862  12.89862  -0.000004182747873  -0.000000590867410   0.000000849710552
Si    4.75212  15.61413  15.61413   0.000000379329847  -0.000001195546030   0.000005218662337
Si    2.03662  12.89862  15.61413  -0.000007774831873   0.000000262248493  -0.000000071782970
Si    2.03662  15.61413  12.89862  -0.000002713098570  -0.000002727682637  -0.000000527295495
Si    0.67887  16.97188   0.67888  -0.000000758138758   0.000002485918522  -0.000004554408781
Si    3.39438  16.97188   3.39437   0.000002559780348   0.000002276645121   0.000002444271390
Si    0.67887  19.68738   3.39437   0.000003154910343   0.000002868585995   0.000001081745719
Si    3.39438  19.68738   0.67888  -0.000007102081575  -0.000005992155007  -0.000001180780333
Si    4.75212  18.32963   2.03662  -0.000000875075299  -0.000000749866405  -0.000000968187462
Si    4.75212  21.04512   4.75213  -0.000001915299719   0.000000426759232  -0.000003552679165
Si    2.03662  18.32963   4.75213   0.000004586539496   0.000007183877959  -0.000003018337331
Si    2.03662  21.04512   2.03662   0.000002171590998   0.000000878620760   0.000000233972869
Si    0.67887  16.97188   6.10987  -0.000003480033697  -0.000010277136116   0.000000544851775
Si    3.39438  16.97188   8.82537   0.000002905131843   0.000002559981227  -0.000002081416963
Si    0.67887  19.68738   8.82537   0.000004851959851   0.000001223161983  -0.000001542190326
Si    3.39438  19.68738   6.10987   0.000002046453884  -0.000001075762575  -0.000000627916462
Si    4.75212  18.32963   7.46762  -0.000002559980982  -0.000002905131431   0.000002081417369
Si    4.75212  21.04512  10.18313   0.000010277136391   0.000003480033792  -0.000000544851829
Si    2.03662  18.32963  10.18313   0.000001075762770  -0.000002046453956   0.000000627916287
Si    2.03662  21.04512   7.46762  -0.000001223161904  -0.000004851959945   0.000001542190562
Si    0.67887  16.97188  11.54087  -0.000000426759341   0.000001915299862   0.000003552679038
Si    3.39438  16.97188  14.25638   0.000000749866690   0.000000875075195   0.000000968187449
Si    0.67887  19.68738  14.25638  -0.000000878620824  -0.000002171591387  -0.000000233972459
Si    3.39438  19.68738  11.54087  -0.000007183877931  -0.000004586539352   0.000003018337208
Si    4.75212  18.32963  12.89862  -0.000002276644821  -0.000002559780136  -0.000002444271538
Si    4.75212  21.04512  15.61413  -0.000002485918357   0.000000758138773   0.000004554408770
Si    2.03662  18.32963  15.61413   0.000005992154975   0.000007102082012   0.000001180780265
Si    2.03662  21.04512  12.89862  -0.000002868585920  -0.000003154910365  -0.000001081745745
Si    6.10987   0.67887   0.67888   0.000001619898515   0.000003189403807   0.000002412908017
Si    8.82537   0.67887   3.39437   0.000001327122107   0.000002211769996  -0.000002615805571
Si    6.10987   3.39437   3.39437  -0.000005763793903   0.000005635914974   0.000003492545315
Si    8.82537   3.39437   0.67888  -0.000003965351812  -0.000001990647627  -0.000004818325599
Si   10.18313   2.03662   2.03662   0.000001262485229   0.000002104390085  -0.000000436827777
Si   10.18313   4.75212   4.75213  -0.000001001261206  -0.000002105336585  -0.000003115685974
Si    7.46762   2.03662   4.75213  -0.000000697099916   0.000003415232884  -0.000006810161648
Si    7.46762   4.75212   2.03662   0.000002568633117   0.000002006652727   0.000000595870740
Si    6.10987   0.67887   6.10987  -0.000001036634826  -0.000001361122751  -0.000000510910678
Si    8.82537   0.67887   8.82537   0.000001437699834  -0.000000023394990   0.000002426070186
Si    6.10987   3.39437   8.82537  -0.000005288577523   0.000007203949536  -0.000002219660844
Si    8.82537   3.39437   6.10987   0.000004613283033   0.000000596918999  -0.000000323211422
Si   10.18313   2.03662   7.46762   0.000002696168830  -0.000001910754928   0.000001633540321
Si   10.18313   4.75212  10.18313   0.000002671575355   0.000001848746597   0.000000921001326
Si    7.46762   2.03662  10.18313   0.000006387152525  -0.000002055321215  -0.000000250076761
Si    7.46762   4.75212   7.46762   0.000001966204247   0.000001037058550  -0.000002559829696
Si    6.10987   0.67887  11.54087   0.000003407792949   0.000000087489520  -0.000000425858553
Si    8.82537   0.67887  14.25638   0.000001469601581   0.000000138405360   0.000001037333935
Si    6.10987   3.39437  14.25638   0.000002000984041  -0.000002940644454   0.000001111014699
Si    8.82537   3.39437  11.54087  -0.000003444691750   0.000000147880087   0.000003858875110
Si   10.18313   2.03662  12.89862   0.000003473785550  -0.000000043268165   0.000000471390569
Si   10.18313   4.75212  15.61413  -0.000000184928501  -0.000002349535487   0.000002208961656
Si    7.46762   2.03662  15.61413  -0.000001468088512   0.000001687989946   0.000006324340623
Si    7.46762   4.75212  12.89862  -0.000000432241081   0.000001130830997   0.000001687386706
Si    6.10987   6.10987   0.67888   0.000003857331760   0.000003857331964  -0.000000005646047
Si    8.82537   6.10987   3.39437   0.000008578549865   0.000001191601662  -0.000000040098533
Si    6.10987   8.82537   3.39437   0.000001191601536   0.000008578549658  -0.000000040098269
Si    8.82537   8.82537   0.67888   0.000004665228591   0.000004665228383  -0.000003516746658
Si   10.18313   7.46762   2.03662  -0.000007110935329  -0.000002472992714  -0.000000440850009
Si   10.18313  10.18313   4.75213  -0.000001483777141  -0.000001483776923   0.000001029740505
Si    7.46762   7.46762   4.75213  -0.000003672485649  -0.000003672485508   0.000006753045347
Si    7.46762  10.18313   2.03662  -0.000002472992511  -0.000007110935236  -0.000000440849843
Si    6.10987   6.10987   6.10987  -0.000004832555620  -0.000004832555763   0.000001363473191
Si    8.82537   6.10987   8.82537   0.000007651120729  -0.000000066022807   0.000000790629785
Si    6.10987   8.82537   8.82537  -0.000000066022807   0.000007651120648   0.000000790629843
Si    8.82537   8.82537   6.10987   0.000001977220314   0.000001977220419   0.000000890528038
Si   10.18313   7.46762   7.46762   0.000001813945345   0.000006325868976   0.000005756495564
Si   10.18313  10.18313  10.18313  -0.000001979725821  -0.000001979725451  -0.000001682454825
Si    7.46762   7.46762  10.18313  -0.000005643856490  -0.000005643856425   0.000000362123298
Si    7.46762  10.18313   7.46762   0.000006325869076   0.000001813945161   0.000005756495588
Si    6.10987   6.10987  11.54087   0.000002339459904   0.000002339459822  -0.000002180281384
Si    8.82537   6.10987  14.25638  -0.000005182260018   0.000001549549352  -0.000000901650343
Si    6.10987   8.82537  14.25638   0.000001549549250  -0.000005182260132  -0.000000901650295
Si    8.82537   8.82537  11.54087   0.000004016865367   0.000004016865170   0.000003474616781
Si   10.18313   7.46762  12.89862   0.000000633466229   0.000007341141761  -0.000004960604775
Si   10.18313  10.18313  15.61413  -0.000000711042663  -0.000000711042401  -0.000001295512022
Si    7.46762   7.46762  15.61413  -0.000003715434449  -0.000003715434475  -0.000006872354937
Si    7.46762  10.18313  12.89862   0.000007341141917   0.000000633466218  -0.000004960604544
Si    6.10987  11.54087   0.67888  -0.000005767123379   0.000005756890167  -0.000003143641288
Si    8.82537  11.54087   3.39437   0.000001981284981   0.000001509807001   0.000000920687874
Si    6.10987  14.25638   3.39437  -0.000002675703138  -0.000001432471207   0.000005881377795
Si    8.82537  14.25638   0.67888  -0.000000871349185  -0.000001692803313  -0.000002179482642
Si   10.18313  12.89862   2.03662   0.000000763519594  -0.000002178945346  -0.000000870462918
Si   10.18313  15.61413   4.75213  -0.000008468155590   0.000003922955467  -0.000003034595989
Si    7.46762  12.89862   4.75213   0.000001605812066   0.000000756049868  -0.000001765097121
Si    7.46762  15.61413   2.03662  -0.000005439871706  -0.000001761497583  -0.000000042051571
Si    6.10987  11.54087   6.10987   0.000002271655942  -0.000003800001126  -0.000001303076701
Si    8.82537  11.54087   8.82537   0.000001406855973   0.000002892288588  -0.000001136568464
Si    6.10987  14.25638   8.82537  -0.000002345296699  -0.000002605859114  -0.000006273411086
Si    8.82537  14.25638   6.10987   0.000001041841001   0.000002757448869  -0.000000665194183
Si   10.18313  12.89862   7.46762  -0.000002892288531  -0.000001406855516   0.000001136568857
Si   10.18313  15.61413  10.18313   0.000003800001256  -0.000002271655570   0.000001303076518
Si    7.46762  12.89862  10.18313  -0.000002757449020  -0.000001041841032   0.000000665194082
Si    7.46762  15.61413   7.46762   0.000002605859364   0.000002345296779   0.000006273410935
Si    6.10987  11.54087  11.54087  -0.000003922955565   0.000008468155926   0.000003034595671
Si    8.82537  11.54087  14.25638   0.000002178945382  -0.000000763519435   0.000000870463243
Si    6.10987  14.25638  14.25638   0.000001761497696   0.000005439871543   0.000000042051741
Si    8.82537  14.25638  11.54087  -0.000000756049749  -0.000001605812257   0.000001765097145
Si   10.18313  12.89862  12.89862  -0.000001509807092  -0.000001981285103  -0.000000920687907
Si   10.18313  15.61413  15.61413  -0.000005756890069   0.000005767123538   0.000003143641237
Si    7.46762  12.89862  15.61413   0.000001692803034   0.000000871349421   0.000002179482636
Si    7.46762  15.61413  12.89862   0.000001432470993   0.000002675703598  -0.000005881378205
Si    6.10987  16.97188   0.67888   0.000001195545966  -0.000000379329343  -0.000005218662270
Si    8.82537  16.97188   3.39437   0.000000590867292   0.000004182747711  -0.000000849710256
Si    6.10987  19.68738   3.39437   0.000002727682565   0.000002713098448   0.000000527295618
Si    8.82537  19.68738   0.67888  -0.000000262248208   0.000007774831838   0.000000071783291
Si   10.18313  18.32963   2.03662   0.000003175547361  -0.000003808874831   0.000001515811859
Si   10.18313  21.04512   4.75213  -0.000002712950418   0.000006353217894  -0.000004752536992
Si    7.46762  18.32963   4.75213  -0.000000430274742   0.000000235893621  -0.000003145011249
Si    7.46762  21.04512   2.03662   0.000004248386529  -0.000003956097963  -0.000000324351655
Si    6.10987  16.97188   6.10987   0.000001764562796  -0.000007656274427  -0.000000133429449
Si    8.82537  16.97188   8.82537   0.000002011778553   0.000006277586870   0.000002876135250
Si    6.10987  19.68738   8.82537   0.000002365496031   0.000002784641675   0.000000309607045
Si    8.82537  19.68738   6.10987  -0.000005474468867   0.000004023871750  -0.000000748496197
Si   10.18313  18.32963   7.46762   0.000001779452040  -0.000005881970622  -0.000002226053578
Si   10.18313  21.04512  10.18313   0.000003518314202  -0.000001991156132  -0.000000137620023
Si    7.46762  18.32963  10.18313  -0.000005928814807  -0.000007352165209   0.000000202210353
Si    7.46762  21.04512   7.46762  -0.000001260908521   0.000003222279076   0.000005794523385
Si    6.10987  16.97188  11.54087  -0.000000812552740   0.000001424312917   0.000003373875387
Si    8.82537  16.97188  14.25638  -0.000001157503654   0.000000234479731  -0.000000300932455
Si    6.10987  19.68738  14.25638   0.000003982459725  -0.000001510085745   0.000000588948161
Si    8.82537  19.68738  11.54087   0.000000563673466   0.000005668990074  -0.000000868954467
Si   10.18313  18.32963  12.89862   0.000002288868315  -0.000005332522145   0.000003078771073
Si   10.18313  21.04512  15.61413  -0.000006111799185   0.000006918700912   0.000003361591855
Si    7.46762  18.32963  15.61413  -0.000000518248048   0.000000329801681   0.000002631810446
Si    7.46762  21.04512  12.89862  -0.000000711772690   0.000002155314116  -0.000005543872916
Si   11.54087   0.67887   0.67888   0.000006111798986  -0.000006918700800  -0.000003361591789
Si   14.25638   0.67887   3.39437   0.000000711772922  -0.000002155314484   0.000005543873054
Si   11.54087   3.39437   3.39437  -0.000002288868132   0.000005332522281  -0.000003078771580
Si   14.25638   3.39437   0.67888   0.000000518248041  -0.000000329801604  -0.000002631810636
Si   15.61413   2.03662   2.03662  -0.000003982459642   0.000001510085890  -0.000000588947890
Si   15.61413   4.75212   4.75213   0.000000812552749  -0.000001424312868  -0.000003373875258
Si   12.89862   2.03662   4.75213  -0.000000563673333  -0.000005668989837   0.000000868954169
Si   12.89862   4.75212   2.03662   0.000001157503568  -0.000000234479911   0.000000300932885
Si   11.54087   0.67887   6.10987  -0.000003518314217   0.000001991155988   0.000000137620198
Si   14.25638   0.67887   8.82537   0.000001260908771  -0.000003222279515  -0.000005794523334
Si   11.54087   3.39437   8.82537  -0.000001779452185   0.000005881970783   0.000002226053374
Si   14.25638   3.39437   6.10987   0.000005928814846   0.000007352165695  -0.000000202210200
Si   15.61413   2.03662   7.46762  -0.000002365495787  -0.000002784641745  -0.000000309606845
Si   15.61413   4.75212  10.18313  -0.000001764563179   0.000007656274581   0.000000133429245
Si   12.89862   2.03662  10.18313   0.000005474468993  -0.000004023871621   0.000000748496137
Si   12.89862   4.75212   7.46762  -0.000002011778681  -0.000006277587177  -0.000002876135006
Si   11.54087   0.67887  11.54087   0.000002712950614  -0.000006353217944   0.000004752537074
Si   14.25638   0.67887  14.25638  -0.000004248385820   0.000003956098004   0.000000324351562
Si   11.54087   3.39437  14.25638  -0.000003175547052   0.000003808875243  -0.000001515812458
Si   14.25638   3.39437  11.54087   0.000000430274717  -0.000000235893432   0.000003145011252
Si   15.61413   2.03662  12.89862  -0.000002727682609  -0.000002713098611  -0.000000527295598
Si   15.61413   4.75212  15.61413  -0.000001195546071   0.000000379329820   0.000005218662390
Si   12.89862   2.03662  15.61413   0.000000262248384  -0.000007774831826  -0.000000071782984
Si   12.89862   4.75212  12.89862  -0.000000590867356  -0.000004182747894   0.000000849710632
Si   11.54087   6.10987   0.67888   0.000005756890210  -0.000005767123396  -0.000003143641440
Si   14.25638   6.10987   3.39437  -0.000001432470892  -0.000002675703250   0.000005881377783
Si   11.54087   8.82537   3.39437   0.000001509807082   0.000001981285024   0.000000920687820
Si   14.25638   8.82537   0.67888  -0.000001692802781  -0.000000871349533  -0.000002179482958
Si   15.61413   7.46762   2.03662  -0.000001761497537  -0.000005439871684  -0.000000042051729
Si   15.61413  10.18313   4.75213   0.000003922955774  -0.000008468155769  -0.000003034595590
Si   12.89862   7.46762   4.75213   0.000000756049951   0.000001605812055  -0.000001765096872
Si   12.89862  10.18313   2.03662  -0.000002178945446   0.000000763519367  -0.000000870462796
Si   11.54087   6.10987   6.10987  -0.000003800000921   0.000002271655948  -0.000001303076579
Si   14.25638   6.10987   8.82537  -0.000002605858817  -0.000002345296793  -0.000006273410892
Si   11.54087   8.82537   8.82537   0.000002892288613   0.000001406855659  -0.000001136568578
Si   14.25638   8.82537   6.10987   0.000002757448945   0.000001041841050  -0.000000665194616
Si   15.61413   7.46762   7.46762   0.000002345297064   0.000002605859239   0.000006273411263
Si   15.61413  10.18313  10.18313  -0.000002271655662   0.000003800001027   0.000001303076526
Si   12.89862   7.46762  10.18313  -0.000001041840850  -0.000002757449018   0.000000665194394
Si   12.89862  10.18313   7.46762  -0.000001406855598  -0.000002892288679   0.000001136568841
Si   11.54087   6.10987  11.54087   0.000008468155689  -0.000003922955613   0.000003034595515
Si   14.25638   6.10987  14.25638   0.000005439871898   0.000001761497592   0.000000042051719
Si   11.54087   8.82537  14.25638  -0.000000763519462   0.000002178945027   0.000000870463204
Si   14.25638   8.82537  11.54087  -0.000001605812057  -0.000000756049796   0.000001765096781
Si   15.61413   7.46762  12.89862   0.000002675703514   0.000001432470999  -0.000005881377956
Si   15.61413  10.18313  15.61413   0.000005767123613  -0.000005756890174   0.000003143641285
Si   12.89862   7.46762  15.61413   0.000000871349349   0.000001692803179   0.000002179482930
Si   12.89862  10.18313  12.89862  -0.000001981284984  -0.000001509807084  -0.000000920687869
Si   11.54087  11.54087   0.67888   0.000000711042507   0.000000711042643   0.000001295511901
Si   14.25638  11.54087   3.39437  -0.000007341141692  -0.000000633466251   0.000004960604685
Si   11.54087  14.25638   3.39437  -0.000000633466304  -0.000007341141516   0.000004960604555
Si   14.25638  14.25638   0.67888   0.000003715434712   0.000003715434658   0.000006872354890
Si   15.61413  12.89862   2.03662  -0.000001549549028   0.000005182260271   0.000000901650348
Si   15.61413  15.61413   4.75213  -0.000002339459785  -0.000002339460037   0.000002180282006
Si   12.89862  12.89862   4.75213  -0.000004016865160  -0.000004016865134  -0.000003474617110
Si   12.89862  15.61413   2.03662   0.000005182260306  -0.000001549549270   0.000000901650567
Si   11.54087  11.54087   6.10987   0.000001979725434   0.000001979725419   0.000001682454735
Si   14.25638  11.54087   8.82537  -0.000006325868886  -0.000001813945269  -0.000005756495346
Si   11.54087  14.25638   8.82537  -0.000001813945301  -0.000006325868886  -0.000005756495527
Si   14.25638  14.25638   6.10987   0.000005643856543   0.000005643856922  -0.000000362123263
Si   15.61413  12.89862   7.46762   0.000000066023189  -0.000007651120713  -0.000000790629643
Si   15.61413  15.61413  10.18313   0.000004832555819   0.000004832555639  -0.000001363473182
Si   12.89862  12.89862  10.18313  -0.000001977220209  -0.000001977220337  -0.000000890528388
Si   12.89862  15.61413   7.46762  -0.000007651120577   0.000000066022545  -0.000000790629747
Si   11.54087  11.54087  11.54087   0.000001483777237   0.000001483777195  -0.000001029740697
Si   14.25638  11.54087  14.25638   0.000002472992979   0.000007110935657   0.000000440849908
Si   11.54087  14.25638  14.25638   0.000007110935685   0.000002472992749   0.000000440849932
Si   14.25638  14.25638  11.54087   0.000003672485794   0.000003672485713  -0.000006753045302
Si   15.61413  12.89862  12.89862  -0.000001191601488  -0.000008578549907   0.000000040098699
Si   15.61413  15.61413  15.61413  -0.000003857331655  -0.000003857332058   0.000000005646505
Si   12.89862  12.89862  15.61413  -0.000004665228471  -0.000004665228495   0.000003516746690
Si   12.89862  15.61413  12.89862  -0.000008578549711  -0.000001191601566   0.000000040098799
Si   11.54087  16.97188   0.67888   0.000000184928518   0.000002349535797  -0.000002208961447
Si   14.25638  16.97188   3.39437   0.000000432241052  -0.000001130830508  -0.000001687387239
Si   11.54087  19.68738   3.39437  -0.000003473785382   0.000000043268278  -0.000000471390586
Si   14.25638  19.68738   0.67888   0.000001468088585  -0.000001687990133  -0.000006324340465
Si   15.61413  18.32963   2.03662  -0.000002000984023   0.000002940644160  -0.000001111015033
Si   15.61413  21.04512   4.75213  -0.000003407792854  -0.000000087489449   0.000000425858297
Si   12.89862  18.32963   4.75213   0.000003444691941  -0.000000147880127  -0.000003858875072
Si   12.89862  21.04512   2.03662  -0.000001469601621  -0.000000138405336  -0.000001037333867
Si   11.54087  16.97188   6.10987  -0.000002671575116  -0.000001848746249  -0.000000921001286
Si   14.25638  16.97188   8.82537  -0.000001966204190  -0.000001037058472   0.000002559829502
Si   11.54087  19.68738   8.82537  -0.000002696168912   0.000001910755431  -0.000001633539668
Si   14.25638  19.68738   6.10987  -0.000006387152625   0.000002055321243   0.000000250076787
Si   15.61413  18.32963   7.46762   0.000005288577669  -0.000007203949582   0.000002219660761
Si   15.61413  21.04512  10.18313   0.000001036634751   0.000001361122805   0.000000510910279
Si   12.89862  18.32963  10.18313  -0.000004613283277  -0.000000596918821   0.000000323210810
Si   12.89862  21.04512   7.46762  -0.000001437699489   0.000000023394944  -0.000002426070074
Si   11.54087  16.97188  11.54087   0.000001001260972   0.000002105336447   0.000003115685966
Si   14.25638  16.97188  14.25638  -0.000002568633204  -0.000002006652580  -0.000000595871058
Si   11.54087  19.68738  14.25638  -0.000001262485131  -0.000002104390038   0.000000436828001
Si   14.25638  19.68738  11.54087   0.000000697099836  -0.000003415232919   0.000006810161606
Si   15.61413  18.32963  12.89862   0.000005763794092  -0.000005635915085  -0.000003492545725
Si   15.61413  21.04512  15.61413  -0.000001619898394  -0.000003189403586  -0.000002412908237
Si   12.89862  18.32963  15.61413   0.000003965351947   0.000001990647547   0.000004818325629
Si   12.89862  21.04512  12.89862  -0.000001327122193  -0.000002211769983   0.000002615805333
Si   16.97188   0.67887   0.67888   0.000002485918575  -0.000000758138766  -0.000004554408653
Si   19.68738   0.67887   3.39437   0.000002868585961   0.000003154909980   0.000001081745888
Si   16.97188   3.39437   3.39437   0.000002276645204   0.000002559780039   0.000002444271418
Si   19.68738   3.39437   0.67888  -0.000005992154527  -0.000007102083454  -0.000001180779545
Si   21.04512   2.03662   2.03662   0.000000878620199   0.000002171591019   0.000000233972665
Si   21.04512   4.75212   4.75213   0.000000426759405  -0.000001915300007  -0.000003552679553
Si   18.32963   2.03662   4.75213   0.000007183877956   0.000004586539480  -0.000003018337598
Si   18.32963   4.75212   2.03662  -0.000000749866443  -0.000000875075341  -0.000000968187360
Si   16.97188   0.67887   6.10987  -0.000010277136143  -0.000003480033918   0.000000544851659
Si   19.68738   0.67887   8.82537   0.000001223162273   0.000004851959871  -0.000001542190235
Si   16.97188   3.39437   8.82537   0.000002559981366   0.000002905131444  -0.000002081417150
Si   19.68738   3.39437   6.10987  -0.000001075762626   0.000002046453824  -0.000000627916044
Si   21.04512   2.03662   7.46762  -0.000004851959833  -0.000001223161807   0.000001542190611
Si   21.04512   4.75212  10.18313   0.000003480034032   0.000010277136509  -0.000000544851855
Si   18.32963   2.03662  10.18313  -0.000002046453986   0.000001075762627   0.000000627915989
Si   18.32963   4.75212   7.46762  -0.000002905131267  -0.000002559981241   0.000002081417019
Si   16.97188   0.67887  11.54087   0.000001915299863  -0.000000426759096   0.000003552679199
Si   19.68738   0.67887  14.25638  -0.000002171591065  -0.000000878620816  -0.000000233972438
Si   16.97188   3.39437  14.25638   0.000000875075353   0.000000749866241   0.000000968187464
Si   19.68738   3.39437  11.54087  -0.000004586539300  -0.000007183878153   0.000003018337599
Si   21.04512   2.03662  12.89862  -0.000003154910341  -0.000002868586031  -0.000001081745834
Si   21.04512   4.75212  15.61413   0.000000758138899  -0.000002485918469   0.000004554408676
Si   18.32963   2.03662  15.61413   0.000007102081852   0.000005992155161   0.000001180779912
Si   18.32963   4.75212  12.89862  -0.000002559780188  -0.000002276644745  -0.000002444271761
Si   16.97188   6.10987   0.67888  -0.000000379329772   0.000001195546409  -0.000005218662243
Si   19.68738   6.10987   3.39437   0.000002713098528   0.000002727682519   0.000000527295823
Si   16.97188   8.82537   3.39437   0.000004182747807   0.000000590867189  -0.000000849710394
Si   19.68738   8.82537   0.67888   0.000007774832085  -0.000000262248411   0.000000071783295
Si   21.04512   7.46762   2.03662  -0.000003956097890   0.000004248386196  -0.000000324351973
Si   21.04512  10.18313   4.75213   0.000006353217981  -0.000002712950475  -0.000004752536968
Si   18.32963   7.46762   4.75213   0.000000235893546  -0.000000430274661  -0.000003145011254
Si   18.32963  10.18313   2.03662  -0.000003808874605   0.000003175547203   0.000001515812172
Si   16.97188   6.10987   6.10987  -0.000007656274629   0.000001764563006  -0.000000133429442
Si   19.68738   6.10987   8.82537   0.000002784641707   0.000002365495950   0.000000309607217
Si   16.97188   8.82537   8.82537   0.000006277586929   0.000002011778557   0.000002876135167
Si   19.68738   8.82537   6.10987   0.000004023871747  -0.000005474468831  -0.000000748496213
Si   21.04512   7.46762   7.46762   0.000003222279290  -0.000001260908566   0.000005794523264
Si   21.04512  10.18313  10.18313  -0.000001991157221   0.000003518314336  -0.000000137620128
Si   18.32963   7.46762  10.18313  -0.000007352165273  -0.000005928814735   0.000000202210340
Si   18.32963  10.18313   7.46762  -0.000005881970563   0.000001779451789  -0.000002226053474
Si   16.97188   6.10987  11.54087   0.000001424312868  -0.000000812552731   0.000003373875341
Si   19.68738   6.10987  14.25638  -0.000001510085790   0.000003982459745   0.000000588948343
Si   16.97188   8.82537  14.25638   0.000000234479725  -0.000001157503595  -0.000000300932674
Si   19.68738   8.82537  11.54087   0.000005668989932   0.000000563673548  -0.000000868954526
Si   21.04512   7.46762  12.89862   0.000002155314368  -0.000000711772844  -0.000005543873406
Si   21.04512  10.18313  15.61413   0.000006918700938  -0.000006111799262   0.000003361591868
Si   18.32963   7.46762  15.61413   0.000000329801694  -0.000000518248020   0.000002631810460
Si   18.32963  10.18313  12.89862  -0.000005332522005   0.000002288867990   0.000003078771536
Si   16.97188  11.54087   0.67888   0.000002349535555   0.000000184928794  -0.000002208961686
Si   19.68738  11.54087   3.39437   0.000000043268105  -0.000003473785334  -0.000000471389905
Si   16.97188  14.25638   3.39437  -0.000001130830522   0.000000432240975  -0.000001687387109
Si   19.68738  14.25638   0.67888  -0.000001687989742   0.000001468088250  -0.000006324340515
Si   21.04512  12.89862   2.03662  -0.000000138405106  -0.000001469601561  -0.000001037334061
Si   21.04512  15.61413   4.75213  -0.000000087489240  -0.000003407793073   0.000000425858307
Si   18.32963  12.89862   4.75213  -0.000000147880180   0.000003444691634  -0.000003858874717
Si   18.32963  15.61413   2.03662   0.000002940644133  -0.000002000983876  -0.000001111014893
Si   16.97188  11.54087   6.10987  -0.000001848746489  -0.000002671575063  -0.000000921001565
Si   19.68738  11.54087   8.82537   0.000001910755426  -0.000002696169005  -0.000001633539729
Si   16.97188  14.25638   8.82537  -0.000001037058477  -0.000001966204174   0.000002559829554
Si   19.68738  14.25638   6.10987   0.000002055321126  -0.000006387152496   0.000000250076821
Si   21.04512  12.89862   7.46762   0.000000023395058  -0.000001437699493  -0.000002426070092
Si   21.04512  15.61413  10.18313   0.000001361123057   0.000001036634937   0.000000510910508
Si   18.32963  12.89862  10.18313  -0.000000596919026  -0.000004613283572   0.000000323210840
Si   18.32963  15.61413   7.46762  -0.000007203949471   0.000005288577508   0.000002219660537
Si   16.97188  11.54087  11.54087   0.000002105336367   0.000001001261454   0.000003115685844
Si   19.68738  11.54087  14.25638  -0.000002104390089  -0.000001262485113   0.000000436827707
Si   16.97188  14.25638  14.25638  -0.000002006652576  -0.000002568633435  -0.000000595870933
Si   19.68738  14.25638  11.54087  -0.000003415232896   0.000000697099670   0.000006810161690
Si   21.04512  12.89862  12.89862  -0.000002211769987  -0.000001327122367   0.000002615805316
Si   21.04512  15.61413  15.61413  -0.000003189403635  -0.000001619898466  -0.000002412908082
Si   18.32963  12.89862  15.61413   0.000001990647368   0.000003965351950   0.000004818325688
Si   18.32963  15.61413  12.89862  -0.000005635915070   0.000005763794318  -0.000003492545707
Si   16.97188  16.97188   0.67888   0.000001375912094   0.000001375912258  -0.000004813688173
Si   19.68738  16.97188   3.39437   0.000000118202990  -0.000000209475094   0.000000884198796
Si   16.97188  19.68738   3.39437  -0.000000209475194   0.000000118202790   0.000000884198955
Si   19.68738  19.68738   0.67888  -0.000000043499504  -0.000000043499725  -0.000002438949854
Si   21.04512  18.32963   2.03662  -0.000007079114045   0.000000392859430   0.000000029575343
Si   21.04512  21.04512   4.75213  -0.000003757566011  -0.000003757565815  -0.000005236437377
Si   18.32963  18.32963   4.75213  -0.000002718407221  -0.000002718407065  -0.000005988255948
Si   18.32963  21.04512   2.03662   0.000000392859588  -0.000007079113922   0.000000029575454
Si   16.97188  16.97188   6.10987   0.000000895793605   0.000000895793482  -0.000001254904674
Si   19.68738  16.97188   8.82537   0.000000900118865  -0.000001267465787  -0.000001363966288
Si   16.97188  19.68738   8.82537  -0.000001267465766   0.000000900118798  -0.000001363966213
Si   19.68738  19.68738   6.10987  -0.000000066588792  -0.000000066588710  -0.000000225523531
Si   21.04512  18.32963   7.46762   0.000005114971489   0.000002759450890   0.000009135325862
Si   21.04512  21.04512  10.18313   0.000004899090871   0.000004899091155  -0.000000333512663
Si   18.32963  18.32963  10.18313   0.000004153420709   0.000004153420783  -0.000000193837383
Si   18.32963  21.04512   7.46762   0.000002759451014   0.000005114971336   0.000009135325888
Si   16.97188  16.97188  11.54087   0.000002021728977   0.000002021728872   0.000003168547643
Si   19.68738  16.97188  14.25638  -0.000000377834006   0.000000011717704   0.000000871235172
Si   16.97188  19.68738  14.25638   0.000000011717637  -0.000000377834126   0.000000871235269
Si   19.68738  19.68738  11.54087   0.000002167633339   0.000002167633114   0.000003637243328
Si   21.04512  18.32963  12.89862   0.000005614851716   0.000002077210989  -0.000007892038187
Si   21.04512  21.04512  15.61413  -0.000003780064738  -0.000003780064458   0.000004943501681
Si   18.32963  18.32963  15.61413  -0.000002232243091  -0.000002232243125   0.000005445776007
Si   18.32963  21.04512  12.89862   0.000002077211100   0.000005614851691  -0.000007892037917
